Name: ISOBUTYL2-FURYLACRYLATE
MW: 194
Formula: C11H14O3
Synonym: MassBank: JP007750
Synonym: ISOBUTYL2-FURYLACRYLATE
Structure: 49534F425554594C322D465552594C414352594C4154452E6D6F6C0A20204368656D447261773038313131303231313332440A2031342031342020302020302020302020302020302020302020302020303939392056323030300A20202020302E3132323720202020302E3731343520202020302E303030302043202020302020302020302020302020302020302020302020302020302020302020302020300A20202020302E3934373720202020302E3731343520202020302E303030302043202020302020302020302020302020302020302020302020302020302020302020302020300A20202020312E3336303220202020312E3432383920202020302E303030302043202020302020302020302020302020302020302020302020302020302020302020302020300A2020202D302E3238393820202020312E3432383920202020302E30303030204F202020302020302020302020302020302020302020302020302020302020302020302020300A2020202D302E323839382020202D302E3030303020202020302E30303030204F202020302020302020302020302020302020302020302020302020302020302020302020300A20202020312E303234372020202D302E3735333720202020302E30303030204F202020302020302020302020302020302020302020302020302020302020302020302020300A20202020312E333630322020202D302E3030303020202020302E303030302043202020302020302020302020302020302020302020302020302020302020302020302020300A20202020322E313830372020202D302E3038363220202020302E303030302043202020302020302020302020302020302020302020302020302020302020302020302020300A20202020322E333532332020202D302E3839333220202020302E303030302043202020302020302020302020302020302020302020302020302020302020302020302020300A20202020312E363337382020202D312E3330353720202020302E303030302043202020302020302020302020302020302020302020302020302020302020302020302020300A2020202D312E313134382020202D302E3030303020202020302E303030302043202020302020302020302020302020302020302020302020302020302020302020302020300A2020202D312E353237332020202D302E3731343520202020302E303030302043202020302020302020302020302020302020302020302020302020302020302020302020300A2020202D312E313134382020202D312E3432383920202020302E303030302043202020302020302020302020302020302020302020302020302020302020302020302020300A2020202D322E333532332020202D302E3731343520202020302E303030302043202020302020302020302020302020302020302020302020302020302020302020302020300A2020312020322020312020302020202020200A2020322020332020322020302020202020200A2020312020342020322020302020202020200A2020312020352020312020302020202020200A2020362020372020312020302020202020200A2020372020382020322020302020202020200A2020382020392020312020302020202020200A2020392031302020322020302020202020200A2020362031302020312020302020202020200A2020322020372020312020302020202020200A2031312031322020312020302020202020200A2031322031332020312020302020202020200A2031322031342020312020302020202020200A2020352031312020312020302020202020200A4D2020454E44
Contributor: HASHIMOTO K, KYOTO COLLEGE OF PHARMACY
InstType: EI
InstName: HITACHI M-80
IoniMethod: _ENERGY 20 eV
IonPolarity: pos
Date: 2010-10-09 19:48:36+02:00
Num Peaks: 29
29 73 39 20 41 123 55 69 56 60 57 285 64 19 65 342 66 188 68 20 
81 69 82 121 92 66 93 129 94 640 95 44 96 20 98 20 109 20 110 341 
111 20 121 999 122 189 123 29 138 951 139 239 140 18 194 463 195 80 
