Name: MassBank: JP006723
MW: 261
Formula: C15H19NO3
Synonym: MassBank: JP006723
Synonym: N-(2,2,3,3-TETRADEUTERO-3-(4-METHOXYPHENYL)PROPIONYL)PIPERIDIN-2-ONE
Structure: 313139325F4E2D28322C322C332C332D54455452414445555445524F2D332D28342D4D4554484F58595048454E594C2950524F50494F4E594C2950495045524944494E2D322D4F4E452E6D6F6C0A20204368656D447261773039303731303131333832440A2032332032342020302020302020302020302020302020302020302020303939392056323030300A20202020302E393235332020202D312E3636393520202020302E30303030204E202020302020302020302020302020302020302020302020302020302020302020302020300A20202020312E363339332020202D322E3038313720202020302E303030302043202020302020302020302020302020302020302020302020302020302020302020302020300A20202020312E363339332020202D322E3930363720202020302E303030302043202020302020302020302020302020302020302020302020302020302020302020302020300A20202020302E393234382020202D332E3331393220202020302E303030302043202020302020302020302020302020302020302020302020302020302020302020302020300A20202020302E323130342020202D322E3930363720202020302E303030302043202020302020302020302020302020302020302020302020302020302020302020302020300A20202020302E323130342020202D322E3038313720202020302E303030302043202020302020302020302020302020302020302020302020302020302020302020302020300A20202020322E333534352020202D312E3637303420202020302E30303030204F202020302020302020302020302020302020302020302020302020302020302020302020300A20202020302E393234382020202D302E3834343320202020302E303030302043202020302020302020302020302020302020302020302020302020302020302020302020300A20202020312E363339332020202D302E3433323920202020302E30303030204F202020302020302020302020302020302020302020302020302020302020302020302020300A20202020302E323130342020202D302E3433313820202020302E303030302043202020302020302020302020302020302020302020302020302020302020302020302020300A20202020302E3231303420202020302E3339333220202020302E303030302043202020302020302020302020302020302020302020302020302020302020302020302020300A2020202D302E3239323020202020312E3137353820202020302E303030302043202020302020302020302020302020302020302020302020302020302020302020302020300A20202020302E3132303520202020312E3839303320202020302E303030302043202020302020302020302020302020302020302020302020302020302020302020302020300A2020202D302E3239323020202020322E3630343720202020302E303030302043202020302020302020302020302020302020302020302020302020302020302020302020300A2020202D312E3131373020202020322E3630343720202020302E303030302043202020302020302020302020302020302020302020302020302020302020302020302020300A2020202D312E3532393520202020312E3839303320202020302E303030302043202020302020302020302020302020302020302020302020302020302020302020302020300A2020202D312E3131373020202020312E3137353820202020302E303030302043202020302020302020302020302020302020302020302020302020302020302020302020300A2020202D312E3532393520202020332E3331393220202020302E30303030204F202020302020302020302020302020302020302020302020302020302020302020302020300A2020202D322E3335343520202020332E3331393220202020302E303030302043202020302020302020302020302020302020302020302020302020302020302020302020300A2020202D302E353034312020202D302E3834343320202020302E303030302048202020312020302020302020302020302020302020302020302020302020302020302020300A20202020302E393234392020202D302E3031393320202020302E303030302048202020312020302020302020302020302020302020302020302020302020302020302020300A20202020312E3030323020202020302E3632353420202020302E303030302048202020312020302020302020302020302020302020302020302020302020302020302020300A2020202D302E3538313220202020302E3136313020202020302E303030302048202020312020302020302020302020302020302020302020302020302020302020302020300A2020312020322020312020302020202020200A2020322020332020312020302020202020200A2020332020342020312020302020202020200A2020342020352020312020302020202020200A2020352020362020312020302020202020200A2020312020362020312020302020202020200A2020322020372020322020302020202020200A2020382020392020322020302020202020200A2020382031302020312020302020202020200A2031302031312020312020302020202020200A2031312031322020312020302020202020200A2020312020382020312020302020202020200A2031322031332020322020302020202020200A2031332031342020312020302020202020200A2031342031352020322020302020202020200A2031352031362020312020302020202020200A2031362031372020322020302020202020200A2031322031372020312020302020202020200A2031352031382020312020302020202020200A2031382031392020312020302020202020200A2031302032302020312020312020202020200A2031302032312020312020312020202020200A2031312032322020312020312020202020200A2031312032332020312020312020202020200A4D202049534F20203420203230202020322020323120202032202032322020203220203233202020320A4D2020454E44
Contributor: MASS SPECTROSCOPY SOC. OF JAPAN (MSSJ)
InstType: EI
InstName: HITACHI RMU-6G
IoniMethod: _ENERGY 20 eV
IonPolarity: pos
Date: 2010-10-09 19:48:36+02:00
Num Peaks: 63
43 15 55 16 56 13 57 23 60 11 69 22 70 13 71 20 73 14 81 16 
82 13 83 17 84 11 85 11 86 12 97 12 98 12 99 23 100 24 101 55 
102 155 103 12 105 4 106 4 107 8 108 9 109 25 110 9 111 8 112 5 
113 5 114 6 115 4 121 10 122 45 123 190 124 25 125 7 129 7 133 2 
134 30 135 15 136 50 137 999 138 155 139 28 140 7 142 10 149 21 150 7 
163 8 164 14 165 100 166 21 167 7 247 5 251 8 261 2 263 2 264 17 
265 260 266 48 267 7 
