Name: M-CHLOROANILINE
MW: 127
Formula: C6H6ClN
Synonym: MassBank: JP005269
Synonym: M-CHLOROANILINE
Synonym: 3-CHLOROANILINE
Structure: 310A32310A4D2D43484C4F524F414E494C494E452E6D6F6C0A20204368656D447261773032323231303136323132440A2020382020382020302020302020302020302020302020302020302020303939392056323030300A20202020312E3432383920202020302E3832353020202020302E30303030204E202020302020302020302020302020302020302020302020302020302020302020302020300A20202020302E3731343520202020302E3431323520202020302E303030302043202020302020302020302020302020302020302020302020302020302020302020302020300A2020202D302E3030303020202020302E3832353020202020302E303030302043202020302020302020302020302020302020302020302020302020302020302020302020300A2020202D302E3731343520202020302E3431323520202020302E303030302043202020302020302020302020302020302020302020302020302020302020302020302020300A2020202D302E373134352020202D302E3431323520202020302E303030302043202020302020302020302020302020302020302020302020302020302020302020302020300A20202020302E303030302020202D302E3832353020202020302E303030302043202020302020302020302020302020302020302020302020302020302020302020302020300A20202020302E373134352020202D302E3431323520202020302E303030302043202020302020302020302020302020302020302020302020302020302020302020302020300A2020202D312E3432383920202020302E3832353020202020302E3030303020436C2020302020302020302020302020302020302020302020302020302020302020302020300A2020312020322020312020302020202020200A2020322020332020312020302020202020200A2020332020342020322020302020202020200A2020342020352020312020302020202020200A2020352020362020322020302020202020200A2020362020372020312020302020202020200A2020322020372020322020302020202020200A2020342020382020312020302020202020200A4D2020454E44
Contributor: YAMAMOTO M, DEP. CHEMISTRY, FAC. SCIENCE, NARA WOMEN'S UNIV.
InstType: EI
InstName: HITACHI RMU-6M
IoniMethod: _ENERGY 70 eV
IonPolarity: pos
Date: 2010-10-09 19:48:36+02:00
Num Peaks: 35
37 28 38 44 39 86 40 11 41 35 42 12 445 18 455 84 50 22 51 16 
52 41 61 23 62 35 63 75 635 62 64 62 645 20 65 235 66 29 73 28 
74 12 75 14 90 22 91 58 92 185 93 14 99 52 100 73 101 22 102 25 
126 18 127 999 128 77 129 316 130 22 
