Name: 2-HEPTYLFURAN
CAS: 3777-71-7
MW: 166
Formula: C11H18O
Synonym: MassBank: JP007733
Synonym: 2-HEPTYLFURAN
Structure: 322D48455054594C465552414E2E6D6F6C0A20204368656D447261773031303331303134303832440A2031322031322020302020302020302020302020302020302020302020303939392056323030300A2020202D322E3338373020202020302E3237313020202020302E30303030204F202020302020302020302020302020302020302020302020302020302020302020302020300A2020202D312E3536363520202020302E3335373220202020302E303030302043202020302020302020302020302020302020302020302020302020302020302020302020300A2020202D312E323330392020202D302E3339363420202020302E303030302043202020302020302020302020302020302020302020302020302020302020302020302020300A2020202D312E383434302020202D302E3934383520202020302E303030302043202020302020302020302020302020302020302020302020302020302020302020302020300A2020202D322E353538352020202D302E3533363020202020302E303030302043202020302020302020302020302020302020302020302020302020302020302020302020300A2020202D312E3135343020202020312E3037313720202020302E303030302043202020302020302020302020302020302020302020302020302020302020302020302020300A2020202D302E3332393020202020312E3037313720202020302E303030302043202020302020302020302020302020302020302020302020302020302020302020302020300A20202020302E3038333520202020302E3335373220202020302E303030302043202020302020302020302020302020302020302020302020302020302020302020302020300A20202020302E3930383520202020302E3335373220202020302E303030302043202020302020302020302020302020302020302020302020302020302020302020302020300A20202020312E333231302020202D302E3335373220202020302E303030302043202020302020302020302020302020302020302020302020302020302020302020302020300A20202020322E313436302020202D302E3335373220202020302E303030302043202020302020302020302020302020302020302020302020302020302020302020302020300A20202020322E353538352020202D312E3037313720202020302E303030302043202020302020302020302020302020302020302020302020302020302020302020302020300A2020312020322020312020302020202020200A2020322020332020322020302020202020200A2020332020342020312020302020202020200A2020342020352020322020302020202020200A2020312020352020312020302020202020200A2020362020372020312020302020202020200A2020372020382020312020302020202020200A2020382020392020312020302020202020200A2020392031302020312020302020202020200A2031302031312020312020302020202020200A2031312031322020312020302020202020200A2020322020362020312020302020202020200A4D2020454E44
Contributor: HASHIMOTO K, KYOTO COLLEGE OF PHARMACY
InstType: EI
InstName: HITACHI M-80
IoniMethod: _ENERGY 20 eV
IonPolarity: pos
Date: 2010-10-09 19:48:36+02:00
Num Peaks: 47
29 21 39 28 41 78 43 411 53 140 54 99 55 123 56 27 57 87 66 87 
67 379 68 360 69 140 80 180 81 999 82 805 83 227 84 58 85 10 90 10 
91 40 92 10 93 107 94 119 95 665 96 268 97 68 98 28 105 39 106 29 
107 86 108 46 109 419 110 261 111 30 119 100 120 21 122 218 123 401 124 186 
125 21 137 187 138 27 151 21 165 21 166 519 167 11 
