Name: 2-SEC-BUTYLCYCLOHEXANOL
MW: 156
Formula: C10H20O
Synonym: MassBank: JP003595
Synonym: 2-SEC-BUTYLCYCLOHEXANOL
Structure: 322D5345432D425554594C4359434C4F484558414E4F4C2E6D6F6C0A20204368656D447261773032323131303136303332440A2031312031312020302020302020302020302020302020302020302020303939392056323030300A20202020302E3230363320202020302E3335373220202020302E303030302043202020302020302020302020302020302020302020302020302020302020302020302020300A2020202D302E323036332020202D302E3335373220202020302E303030302043202020302020302020302020302020302020302020302020302020302020302020302020300A20202020302E323036322020202D312E3037313720202020302E303030302043202020302020302020302020302020302020302020302020302020302020302020302020300A20202020312E303331322020202D312E3037313720202020302E303030302043202020302020302020302020302020302020302020302020302020302020302020302020300A20202020312E343433382020202D302E3335373220202020302E303030302043202020302020302020302020302020302020302020302020302020302020302020302020300A20202020312E3033313320202020302E3335373220202020302E303030302043202020302020302020302020302020302020302020302020302020302020302020302020300A2020202D312E303331332020202D302E3335373220202020302E303030302043202020302020302020302020302020302020302020302020302020302020302020302020300A2020202D312E3434333820202020302E3335373220202020302E303030302043202020302020302020302020302020302020302020302020302020302020302020302020300A2020202D312E3033313320202020312E3037313720202020302E303030302043202020302020302020302020302020302020302020302020302020302020302020302020300A2020202D312E343433382020202D312E3037313720202020302E303030302043202020302020302020302020302020302020302020302020302020302020302020302020300A2020202D302E3230363320202020312E3037313720202020302E30303030204F202020302020302020302020302020302020302020302020302020302020302020302020300A2020312020322020312020302020202020200A2020322020332020312020302020202020200A2020332020342020312020302020202020200A2020342020352020312020302020202020200A2020352020362020312020302020202020200A2020312020362020312020302020202020200A2020372020382020312020302020202020200A2020382020392020312020302020202020200A2020372031302020312020302020202020200A2020322020372020312020302020202020200A2020312031312020312020302020202020200A4D2020454E44
Contributor: MASS SPECTROSCOPY SOC. OF JAPAN (MSSJ)
InstType: EI
InstName: Unknown
IoniMethod: EI
IonPolarity: pos
Date: 2010-10-09 19:48:36+02:00
Num Peaks: 52
27 90 28 45 29 206 31 3 39 100 40 15 41 320 42 6 43 200 44 72 
45 30 51 3 53 70 54 60 55 432 56 13 57 470 58 44 59 45 65 3 
66 30 67 435 68 140 69 19 70 333 71 188 72 32 73 3 77 20 79 60 
80 40 81 51 82 486 83 270 84 60 85 8 93 30 95 120 96 190 97 7 
98 80 99 43 108 35 109 999 110 165 111 30 123 175 124 4 125 30 127 100 
138 244 139 40 
