Name: 1-(META-NITROPHENYL)HEPTAMETHYLTRISILANE
MW: 311
Formula: C13H25NO2Si3
Synonym: MassBank: JP001976
Synonym: 1-(META-NITROPHENYL)HEPTAMETHYLTRISILANE
Structure: 312D284D4554412D4E4954524F5048454E594C2948455054414D455448594C54524953494C414E452E6D6F6C0A20204368656D447261773131313730393139353832440A2031392031392020302020302020302020302020302020302020302020303939392056323030300A20202020302E383831382020202D302E3738323120202020302E303030302053692020302020302020302020302020302020302020302020302020302020302020302020300A20202020312E3431383120202020302E3134363720202020302E303030302053692020302020302020302020302020302020302020302020302020302020302020302020300A20202020322E3035383520202020312E3030373020202020302E303030302053692020302020302020302020302020302020302020302020302020302020302020302020300A20202020302E313637342020202D302E3336393620202020302E303030302043202020302020302020302020302020302020302020302020302020302020302020302020300A2020202D302E353437312020202D302E3738323120202020302E303030302043202020302020302020302020302020302020302020302020302020302020302020302020300A2020202D312E323631362020202D302E3336393620202020302E303030302043202020302020302020302020302020302020302020302020302020302020302020302020300A2020202D312E3236313620202020302E3435353420202020302E303030302043202020302020302020302020302020302020302020302020302020302020302020302020300A2020202D302E3534373120202020302E3836373920202020302E303030302043202020302020302020302020302020302020302020302020302020302020302020302020300A20202020302E3136373420202020302E3435353420202020302E303030302043202020302020302020302020302020302020302020302020302020302020302020302020300A2020202D312E393736312020202D302E3738323120202020302E30303030204E202020302020332020302020302020302020302020302020302020302020302020302020300A2020202D312E393736312020202D312E3630373120202020302E30303030204F202020302020302020302020302020302020302020302020302020302020302020302020300A2020202D322E363930352020202D302E3336393620202020302E30303030204F202020302020352020302020302020302020302020302020302020302020302020302020300A20202020312E353936332020202D312E3139343620202020302E303030302043202020302020302020302020302020302020302020302020302020302020302020302020300A20202020302E343639332020202D312E3439363620202020302E303030302043202020302020302020302020302020302020302020302020302020302020302020302020300A20202020322E313037342020202D302E3330363620202020302E303030302043202020302020302020302020302020302020302020302020302020302020302020302020300A20202020302E3638303820202020302E3531373020202020302E303030302043202020302020302020302020302020302020302020302020302020302020302020302020300A20202020312E3439323420202020312E3630373120202020302E303030302043202020302020302020302020302020302020302020302020302020302020302020302020300A20202020322E3632343720202020312E3630373120202020302E303030302043202020302020302020302020302020302020302020302020302020302020302020302020300A20202020322E3639303520202020302E3437363720202020302E303030302043202020302020302020302020302020302020302020302020302020302020302020302020300A2020312020322020312020302020202020200A2020322020332020312020302020202020200A2020342020352020312020302020202020200A2020352020362020322020302020202020200A2020362020372020312020302020202020200A2020372020382020322020302020202020200A2020382020392020312020302020202020200A2020342020392020322020302020202020200A2031302031312020322020302020202020200A2031302031322020312020302020202020200A2020362031302020312020302020202020200A2020312020342020312020302020202020200A2020312031332020312020302020202020200A2020312031342020312020302020202020200A2020322031352020312020302020202020200A2020322031362020312020302020202020200A2020332031372020312020302020202020200A2020332031382020312020302020202020200A2020332031392020312020302020202020200A4D202043484720203220203130202020312020313220202D310A4D2020454E44
Contributor: MASS SPECTROSCOPY SOC. OF JAPAN (MSSJ)
InstType: EI
InstName: JEOL JMS-D-3000
IoniMethod: _ENERGY 70 eV
IonPolarity: pos
Date: 2010-10-09 19:48:36+02:00
Num Peaks: 22
40 73 56 49 73 999 74 88 75 60 117 90 119 124 131 228 132 45 133 122 
134 118 135 37 147 111 148 34 149 34 164 75 177 33 180 38 193 93 296 35 
311 116 312 36 
