Name: 5-AMINOISOXAZOLE
MW: 84
Formula: C3H4N2O
Synonym: MassBank: JP008263
Synonym: 5-AMINOISOXAZOLE
Structure: 310A31370A352D414D494E4F49534F58415A4F4C452E6D6F6C0A20204368656D447261773034323331303034323032440A2020362020362020302020302020302020302020302020302020302020303939392056323030300A2020202D302E3236323720202020302E3636373420202020302E30303030204F202020302020302020302020302020302020302020302020302020302020302020302020300A2020202D312E3034373320202020302E3431323520202020302E30303030204E202020302020302020302020302020302020302020302020302020302020302020302020300A2020202D312E303437332020202D302E3431323520202020302E303030302043202020302020302020302020302020302020302020302020302020302020302020302020300A2020202D302E323632372020202D302E3636373420202020302E303030302043202020302020302020302020302020302020302020302020302020302020302020302020300A20202020302E3232323320202020302E3030303020202020302E303030302043202020302020302020302020302020302020302020302020302020302020302020302020300A20202020312E3034373320202020302E3030303020202020302E30303030204E202020302020302020302020302020302020302020302020302020302020302020302020300A2020312020322020312020302020202020200A2020322020332020322020302020202020200A2020332020342020312020302020202020200A2020342020352020322020302020202020200A2020312020352020312020302020202020200A2020352020362020312020302020202020200A4D2020454E44
Contributor: UBE SCIENTIFIC ANALYSIS LABORATORY
InstType: EI
InstName: HITACHI M-60
IoniMethod: _ENERGY 70 eV
IonPolarity: pos
Date: 2010-10-09 19:48:36+02:00
Num Peaks: 30
16 100 17 33 25 31 26 100 27 143 28 599 29 658 30 80 38 121 39 211 
40 656 41 974 42 90 43 63 44 762 51 29 52 154 53 123 54 23 55 13 
56 62 57 111 66 22 67 107 68 482 69 14 70 28 84 999 85 154 86 35 
