Name: METHANE
CAS: 74-82-8
MW: 16
Formula: CH4
Synonym: MassBank: JP001582
Synonym: METHANE
Structure: 310A360A4D455448414E452E6D6F6C0A20204368656D447261773038313131303233303232440A2020312020302020302020302020302020302020302020302020302020303939392056323030300A20202020302E3030303020202020302E3030303020202020302E303030302043202020302020302020302020302020302020302020302020302020302020302020302020300A4D2020454E44
Contributor: MASS SPECTROSCOPY SOC. OF JAPAN (MSSJ)
InstType: EI
InstName: HITACHI RMU-5B
IoniMethod: _ENERGY 80 eV
IonPolarity: pos
Date: 2010-10-09 19:48:36+02:00
Num Peaks: 6
12 27 13 76 14 154 15 831 16 999 17 11 
