Name: MassBank: JP004619
MW: 292
Formula: C19H32O2
Synonym: MassBank: JP004619
Synonym: (7E,11E)-1-(2-HYDROXYETHYL)-2,3-EPOXY-1,7,11-TRIMETHYLCYCLOTETRADECADIENE
Structure: 2837452C313145292D312D28322D485944524F5859455448594C292D322C332D45504F58592D312C372C31312D5452494D455448594C4359434C4F5445545241444543414449454E452E6D6F6C0A20204368656D447261773130323230393034353332440A2032332032342020302020302020302020302020302020302020302020303939392056323030300A2020202D322E303938372020202D302E3637323820202020302E303030302043202020302020302020302020302020302020302020302020302020302020302020302020300A2020202D322E303938372020202D312E3439373820202020302E303030302043202020302020302020302020302020302020302020302020302020302020302020302020300A2020202D312E353135332020202D322E3038313120202020302E303030302043202020302020302020302020302020302020302020302020302020302020302020302020300A2020202D302E363930332020202D322E3038313120202020302E303030302043202020302020302020302020302020302020302020302020302020302020302020302020300A2020202D302E313037302020202D312E3439373820202020302E303030302043202020302020302020302020302020302020302020302020302020302020302020302020300A2020202D302E313037302020202D302E3637323820202020302E303030302043202020302020302020302020302020302020302020302020302020302020302020302020300A2020202D302E363930332020202D302E3038393420202020302E303030302043202020302020302020302020302020302020302020302020302020302020302020302020300A2020202D312E353135332020202D302E3038393420202020302E303030302043202020302020302020302020302020302020302020302020302020302020302020302020300A20202020302E373138302020202D302E3637323820202020302E303030302043202020302020302020302020302020302020302020302020302020302020302020302020300A20202020312E333031342020202D302E3038393420202020302E303030302043202020302020302020302020302020302020302020302020302020302020302020302020300A20202020312E3330313420202020302E3733353620202020302E303030302043202020302020302020302020302020302020302020302020302020302020302020302020300A20202020302E3731383020202020312E3331383920202020302E303030302043202020302020302020302020302020302020302020302020302020302020302020302020300A2020202D302E3130373020202020312E3331383920202020302E303030302043202020302020302020302020302020302020302020302020302020302020302020302020300A2020202D302E3639303320202020302E3733353620202020302E303030302043202020302020302020302020302020302020302020302020302020302020302020302020300A20202020302E363037352020202D312E3038353320202020302E30303030204F202020302020302020302020302020302020302020302020302020302020302020302020300A20202020312E343332352020202D312E3038353320202020302E303030302043202020302020302020302020302020302020302020302020302020302020302020302020300A20202020322E313437302020202D302E3637323820202020302E303030302043202020302020302020302020302020302020302020302020302020302020302020302020300A20202020322E383631352020202D312E3038353320202020302E30303030204F202020302020302020302020302020302020302020302020302020302020302020302020300A20202020312E3033333820202020322E3038313120202020302E303030302048202020302020302020302020302020302020302020302020302020302020302020302020300A2020202D312E313032382020202D302E3830333920202020302E303030302048202020302020302020302020302020302020302020302020302020302020302020302020300A20202020302E3130353820202020302E3532323120202020302E303030302043202020302020302020302020302020302020302020302020302020302020302020302020300A2020202D322E383631352020202D302E3335363520202020302E303030302043202020302020302020302020302020302020302020302020302020302020302020302020300A20202020302E3731373720202020302E3135323220202020302E303030302043202020302020302020302020302020302020302020302020302020302020302020302020300A2020312020322020312020302020202020200A2020322020332020312020302020202020200A2020332020342020312020302020202020200A2020342020352020312020302020202020200A2020352020362020312020302020202020200A2020372020382020312020302020202020200A2020382020312020322020302020202020200A2020362020392020312020302020202020200A2020392031302020312020302020202020200A2031302031312020312020302020202020200A2031312031322020312020302020202020200A2031322031332020322020302020202020200A2031332031342020312020302020202020200A2031342020372020312020302020202020200A2020362031352020312020302020202020200A2020352031352020312020302020202020200A2020392031362020312020302020202020200A2031362031372020312020302020202020200A2031372031382020312020302020202020200A2031322031392020312020302020202020200A2020382032302020312020302020202020200A2031332032312020312020302020202020200A2020312032322020312020302020202020200A2020392032332020312020302020202020200A4D202053545920203120202031205355500A4D2020534C4220203120202031202020310A4D202053414C20202031202031202032310A4D202053424C20202031202031202032320A4D2020534D5420202031204D650A4D2020534256202020312032322020202D362E3434373820202020372E303739390A4D202053545920203120202032205355500A4D2020534C4220203120202032202020320A4D202053414C20202032202031202032320A4D202053424C20202032202031202032330A4D2020534D5420202032204D650A4D2020534256202020322032332020202D372E3432333420202020382E313933300A4D202053545920203120202033205355500A4D2020534C4220203120202033202020330A4D202053414C20202033202031202032330A4D202053424C20202033202031202032340A4D2020534D5420202033204D650A4D2020534256202020332032342020202D362E3636303920202020382E373031370A4D2020454E44
Contributor: KATO T, DEPT. OF CHEM., FAC. OF SCI., TOHOKU UNIV.
InstType: EI
InstName: Unknown
IoniMethod: _ENERGY 25 eV
IonPolarity: pos
Date: 2010-10-09 19:48:36+02:00
Num Peaks: 164
15 25 17 122 18 999 27 6 28 93 29 262 31 149 32 2 40 15 41 53 
42 55 43 25 44 186 45 166 46 29 51 3 53 29 54 11 55 124 56 4 
57 77 58 40 59 81 60 3 61 75 63 18 66 20 67 7 68 136 69 174 
70 38 71 8 73 81 74 13 77 49 78 9 79 241 80 71 81 265 82 17 
83 139 84 33 85 61 86 1 88 15 91 101 92 56 93 12 94 262 95 375 
96 51 97 15 98 95 99 32 100 33 101 1 105 94 106 36 107 475 108 20 
109 145 110 89 111 215 112 3 113 33 114 17 117 15 118 2 119 57 120 63 
121 334 122 17 123 133 124 159 125 111 126 2 127 21 128 16 129 18 131 3 
132 34 133 128 134 33 135 15 136 103 137 86 138 29 139 8 140 27 141 14 
143 23 144 1 145 30 146 26 147 209 148 7 149 94 150 39 151 143 152 6 
155 24 159 69 160 22 161 5 162 26 163 94 164 47 165 3 166 25 167 65 
168 20 169 1 171 22 172 12 173 28 174 1 175 75 176 21 177 32 178 2 
179 40 180 39 181 21 185 1 187 20 188 30 189 41 190 2 191 34 192 37 
193 70 194 1 197 12 201 26 203 21 204 1 205 24 206 19 207 21 209 2 
210 13 215 17 218 13 219 2 220 11 221 16 228 10 229 10 230 46 231 33 
243 20 245 1 247 19 248 17 259 33 263 1 272 20 273 15 274 59 275 2 
277 20 290 18 292 197 293 39 
