Name: ACETALDEHYDE DIMETHYL ACETAL
CAS: 534-15-6
MW: 90
Formula: C4H10O2
Synonym: MassBank: JP006287
Synonym: ACETALDEHYDE DIMETHYL ACETAL
Synonym: 1,1-DIMETHOXYETHANE
Structure: 310A31360A41434554414C4445485944452044494D455448594C2041434554414C2E6D6F6C0A20204368656D447261773130323330393130333132440A2020362020352020302020302020302020302020302020302020302020303939392056323030300A2020202D302E3030303020202020302E3030303020202020302E303030302043202020302020302020302020302020302020302020302020302020302020302020302020300A20202020302E3431323520202020302E3731343520202020302E303030302043202020302020302020302020302020302020302020302020302020302020302020302020300A20202020302E343132352020202D302E3731343520202020302E30303030204F202020302020302020302020302020302020302020302020302020302020302020302020300A2020202D302E3832353020202020302E3030303020202020302E30303030204F202020302020302020302020302020302020302020302020302020302020302020302020300A20202020312E323337352020202D302E3731343520202020302E303030302043202020302020302020302020302020302020302020302020302020302020302020302020300A2020202D312E323337352020202D302E3731343520202020302E303030302043202020302020302020302020302020302020302020302020302020302020302020302020300A2020312020322020312020302020202020200A2020332020352020312020302020202020200A2020342020362020312020302020202020200A2020312020332020312020302020202020200A2020312020342020312020302020202020200A4D2020454E44
Contributor: MASS SPECTROSCOPY SOC. OF JAPAN (MSSJ)
InstType: EI
InstName: HITACHI M-80
IoniMethod: _ENERGY 70 eV
IonPolarity: pos
Date: 2010-10-09 19:48:36+02:00
Num Peaks: 25
14 365 15 890 16 73 17 7 18 9 25 8 26 201 28 118 29 999 30 577 
31 570 32 10 33 14 39 14 41 31 42 113 43 387 44 16 45 26 47 68 
58 13 59 302 60 22 75 80 89 3 
