Name: TRIMETHYLHYDRAZINE
MW: 74
Formula: C3H10N2
Synonym: MassBank: JP000502
Synonym: TRIMETHYLHYDRAZINE
Structure: 310A31340A5452494D455448594C48594452415A494E452E6D6F6C0A20204368656D447261773038313231303038343532440A2020352020342020302020302020302020302020302020302020302020303939392056323030300A20202020302E333537322020202D302E3230363220202020302E30303030204E202020302020302020302020302020302020302020302020302020302020302020302020300A2020202D302E333537322020202D302E3631383820202020302E30303030204E202020302020302020302020302020302020302020302020302020302020302020302020300A20202020312E303731372020202D302E3631383720202020302E303030302043202020302020302020302020302020302020302020302020302020302020302020302020300A20202020302E3335373220202020302E3631383820202020302E303030302043202020302020302020302020302020302020302020302020302020302020302020302020300A2020202D312E303731372020202D302E3230363220202020302E303030302043202020302020302020302020302020302020302020302020302020302020302020302020300A2020312020322020312020302020202020200A2020312020332020312020302020202020200A2020312020342020312020302020202020200A2020322020352020312020302020202020200A4D2020454E44
Contributor: SASAKI S, TOYOHASHI UNIV. OF TECH.
InstType: EI
InstName: SHIMADZU LKB-2091
IoniMethod: _ENERGY 70 eV
IonPolarity: pos
Date: 2010-10-09 19:48:36+02:00
Num Peaks: 22
27 28 28 36 29 34 30 33 31 58 32 76 36 17 40 1 41 21 42 265 
43 120 44 17 45 23 46 26 57 31 58 2 59 999 60 32 71 7 73 3 
74 615 75 41 
