Name: PARA-NITROACETOPHENONE
MW: 165
Formula: C8H7NO3
Synonym: MassBank: JP001658
Synonym: PARA-NITROACETOPHENONE
Structure: 303939315F504152412D4E4954524F414345544F5048454E4F4E452E6D6F6C0A20204368656D447261773038323031303132313032440A2031322031322020302020302020302020302020302020302020302020303939392056323030300A2020202D302E3731343920202020302E3431333220202020302E303030302043202020302020302020302020302020302020302020302020302020302020302020302020300A2020202D302E373134392020202D302E3431313820202020302E303030302043202020302020302020302020302020302020302020302020302020302020302020302020300A2020202D302E303030342020202D302E3832343320202020302E303030302043202020302020302020302020302020302020302020302020302020302020302020302020300A20202020302E373134302020202D302E3431313820202020302E303030302043202020302020302020302020302020302020302020302020302020302020302020302020300A20202020302E3731343020202020302E3431333220202020302E303030302043202020302020302020302020302020302020302020302020302020302020302020302020300A2020202D302E3030303420202020302E3832353720202020302E303030302043202020302020302020302020302020302020302020302020302020302020302020302020300A20202020302E373134392020202D322E3036333220202020302E30303030204F202020302020302020302020302020302020302020302020302020302020302020302020300A2020202D302E303030342020202D312E3634393320202020302E303030302043202020302020302020302020302020302020302020302020302020302020302020302020300A2020202D302E373134392020202D322E3036313820202020302E303030302043202020302020302020302020302020302020302020302020302020302020302020302020300A2020202D302E3030303420202020312E3635303720202020302E30303030204E202020302020332020302020302020302020302020302020302020302020302020302020300A2020202D302E3731343920202020322E3036333220202020302E30303030204F202020302020302020302020302020302020302020302020302020302020302020302020300A20202020302E3731343020202020322E3036333220202020302E30303030204F202020302020352020302020302020302020302020302020302020302020302020302020300A2020312020322020322020302020202020200A2020322020332020312020302020202020200A2020332020342020322020302020202020200A2020342020352020312020302020202020200A2020352020362020322020302020202020200A2020362020312020312020302020202020200A2020332020382020312020302020202020200A2020372020382020322020302020202020200A2020382020392020312020302020202020200A2020362031302020312020302020202020200A2031302031312020322020302020202020200A2031302031322020312020302020202020200A4D202043484720203220203130202020312020313220202D310A4D2020454E44
Contributor: TAJIMA S, GUNMA COLLEGE OF TECHNOLOGY
InstType: EI
InstName: HITACHI RMU-7M
IoniMethod: _ENERGY 70 eV
IonPolarity: pos
Date: 2010-10-09 19:48:36+02:00
Num Peaks: 25
43 184 44 26 50 63 51 24 55 11 57 14 63 19 64 20 65 24 74 28 
75 47 76 122 77 38 91 27 92 84 104 277 105 23 119 10 120 192 121 24 
149 20 150 999 151 79 165 114 166 10 
