Name: OCIMENOL
MW: 154
Formula: C10H18O
Synonym: MassBank: JP008386
Synonym: OCIMENOL
Synonym: 2,6-DIMETHYL-5,7-OCTADIEN-2-OL
Structure: 4F43494D454E4F4C2E6D6F6C0A20204368656D447261773132323130393034333132440A2031322031312020302020302020302020302020302020302020302020303939392056323030300A20202020302E3230363220202020302E3731343520202020302E303030302043202020302020302020302020302020302020302020302020302020302020302020302020300A20202020312E3033313320202020302E3731343520202020302E303030302043202020302020302020302020302020302020302020302020302020302020302020302020300A20202020312E3434333820202020312E3432383920202020302E303030302043202020302020302020302020302020302020302020302020302020302020302020302020300A20202020312E343433382020202D302E3030303020202020302E303030302043202020302020302020302020302020302020302020302020302020302020302020302020300A20202020322E3236383720202020312E3432383920202020302E303030302043202020302020302020302020302020302020302020302020302020302020302020302020300A2020202D302E3230363220202020312E3432383920202020302E303030302043202020302020302020302020302020302020302020302020302020302020302020302020300A2020202D302E323036322020202D302E3030303020202020302E303030302043202020302020302020302020302020302020302020302020302020302020302020302020300A2020202D312E303331332020202D302E3030303020202020302E303030302043202020302020302020302020302020302020302020302020302020302020302020302020300A2020202D312E3434333820202020302E3731343520202020302E30303030204F202020302020302020302020302020302020302020302020302020302020302020302020300A2020202D312E343433382020202D302E3731343520202020302E303030302043202020302020302020302020302020302020302020302020302020302020302020302020300A2020202D322E323638372020202D302E3731343520202020302E303030302043202020302020302020302020302020302020302020302020302020302020302020302020300A2020202D312E303331332020202D312E3432383920202020302E303030302043202020302020302020302020302020302020302020302020302020302020302020302020300A2020312020322020322020302020202020200A2020322020332020312020302020202020200A2020322020342020312020302020202020200A2020332020352020322020302020202020200A2020312020362020312020302020202020200A2020312020372020312020302020202020200A2020372020382020312020302020202020200A2020382020392020312020302020202020200A2020382031302020312020302020202020200A2031302031312020312020302020202020200A2031302031322020322020302020202020200A4D2020454E44
Contributor: SODA AROMATIC CO., LTD.
InstType: EI
InstName: HITACHI M-80B
IoniMethod: _ENERGY 70 eV
IonPolarity: pos
Date: 2010-10-09 19:48:36+02:00
Num Peaks: 55
15 28 27 180 28 27 29 115 31 145 38 10 39 247 40 40 41 393 42 27 
43 482 44 15 45 21 50 15 51 51 52 33 53 227 54 24 55 172 56 29 
57 32 58 65 59 800 60 22 63 16 65 53 66 33 67 105 68 79 69 33 
70 13 71 20 77 146 78 23 79 315 80 256 81 694 82 43 83 27 84 28 
91 107 92 135 93 999 94 116 95 49 96 18 105 46 106 14 107 112 108 15 
121 308 122 26 136 326 137 34 139 36 
