Name: PROPYL CHLORIDE
MW: 78
Formula: C3H7Cl
Synonym: MassBank: JP006800
Synonym: PROPYL CHLORIDE
Synonym: 1-CHLOROPROPANE
Structure: 310A31320A50524F50594C2043484C4F524944452E6D6F6C0A20204368656D447261773131313830393031313332440A2020342020332020302020302020302020302020302020302020302020303939392056323030300A2020202D302E333537322020202D302E3230363220202020302E303030302043202020302020302020302020302020302020302020302020302020302020302020302020300A20202020302E3335373220202020302E3230363220202020302E303030302043202020302020302020302020302020302020302020302020302020302020302020302020300A20202020312E303731372020202D302E3230363220202020302E303030302043202020302020302020302020302020302020302020302020302020302020302020302020300A2020202D312E3037313720202020302E3230363220202020302E3030303020436C2020302020302020302020302020302020302020302020302020302020302020302020300A2020312020322020312020302020202020200A2020322020332020312020302020202020200A2020312020342020312020302020202020200A4D2020454E44
Contributor: TAJIMA S, GUNMA COLLEGE OF TECHNOLOGY
InstType: EI
InstName: HITACHI RMU-7M
IoniMethod: _ENERGY 70 eV
IonPolarity: pos
Date: 2010-10-09 19:48:36+02:00
Num Peaks: 18
15 22 26 45 27 331 28 131 29 398 37 27 38 37 39 124 40 32 41 242 
42 999 43 149 49 38 51 13 63 39 65 13 78 20 80 7 
