Name: METHYL-CYCLOPENTENOLONE
MW: 112
Formula: C6H8O2
Synonym: MassBank: JP008363
Synonym: METHYL-CYCLOPENTENOLONE
Synonym: 3-METHYLCYCLOPENTANE-1,2-DIONE
Structure: 310A32310A4D455448594C2D4359434C4F50454E54454E4F4C4F4E452E6D6F6C0A20204368656D447261773033323031303135333232440A2020382020382020302020302020302020302020302020302020302020303939392056323030300A20202020302E323632372020202D302E3636373420202020302E303030302043202020302020302020302020302020302020302020302020302020302020302020302020300A2020202D302E323232332020202D302E3030303020202020302E303030302043202020302020302020302020302020302020302020302020302020302020302020302020300A20202020302E3236323720202020302E3636373420202020302E303030302043202020302020302020302020302020302020302020302020302020302020302020302020300A20202020312E3034373320202020302E3431323520202020302E303030302043202020302020302020302020302020302020302020302020302020302020302020302020300A20202020312E303437332020202D302E3431323520202020302E303030302043202020302020302020302020302020302020302020302020302020302020302020302020300A20202020302E303037372020202D312E3435323120202020302E303030302043202020302020302020302020302020302020302020302020302020302020302020302020300A20202020302E3030373720202020312E3435323120202020302E30303030204F202020302020302020302020302020302020302020302020302020302020302020302020300A2020202D312E303437332020202D302E3030303020202020302E30303030204F202020302020302020302020302020302020302020302020302020302020302020302020300A2020312020322020312020302020202020200A2020322020332020312020302020202020200A2020332020342020312020302020202020200A2020342020352020312020302020202020200A2020312020352020312020302020202020200A2020312020362020312020302020202020200A2020332020372020322020302020202020200A2020322020382020322020302020202020200A4D2020454E44
Contributor: SODA AROMATIC CO., LTD.
InstType: EI
InstName: HITACHI M-80B
IoniMethod: _ENERGY 70 eV
IonPolarity: pos
Date: 2010-10-09 19:48:36+02:00
Num Peaks: 44
15 52 25 10 26 95 27 383 28 87 29 189 30 12 31 30 37 34 38 63 
39 409 40 54 41 539 42 215 43 394 44 56 45 13 49 19 50 76 51 75 
52 36 53 121 54 56 55 559 56 334 57 52 63 12 65 40 66 84 67 24 
68 12 69 563 70 56 71 30 81 12 82 19 83 314 84 281 85 14 95 12 
97 74 111 42 112 999 113 63 
