Name: BETA-METHYL GAMMA-OCTALACTONE
MW: 156
Formula: C9H16O2
Synonym: MassBank: JP002954
Synonym: BETA-METHYL GAMMA-OCTALACTONE
Structure: 424554412D4D455448594C2047414D4D412D4F4354414C4143544F4E452E6D6F6C0A20204368656D447261773039303531303137333532440A2031312031312020302020302020302020302020302020302020302020303939392056323030300A2020202D312E3331343320202020302E3230323520202020302E303030302043202020302020302020302020302020302020302020302020302020302020302020302020300A2020202D302E393031382020202D302E3531323020202020302E303030302043202020302020302020302020302020302020302020302020302020302020302020302020300A2020202D302E303934382020202D302E3334303520202020302E303030302043202020302020302020302020302020302020302020302020302020302020302020302020300A2020202D302E3030383620202020302E3438303020202020302E303030302043202020302020302020302020302020302020302020302020302020302020302020302020300A20202020302E3730353920202020302E3839323520202020302E303030302043202020302020302020302020302020302020302020302020302020302020302020302020300A20202020312E3432303320202020302E3438303020202020302E303030302043202020302020302020302020302020302020302020302020302020302020302020302020300A20202020312E343230332020202D302E3334353020202020302E303030302043202020302020302020302020302020302020302020302020302020302020302020302020300A20202020322E313334382020202D302E3735373520202020302E303030302043202020302020302020302020302020302020302020302020302020302020302020302020300A20202020302E353138322020202D302E3839323520202020302E303030302043202020302020302020302020302020302020302020302020302020302020302020302020300A2020202D322E3133343820202020302E3238383720202020302E30303030204F202020302020302020302020302020302020302020302020302020302020302020302020300A2020202D302E3736323320202020302E3831353620202020302E30303030204F202020302020302020302020302020302020302020302020302020302020302020302020300A2020312020322020312020302020202020200A2020322020332020312020302020202020200A2020332020342020312020302020202020200A2020342020352020312020302020202020200A2020352020362020312020302020202020200A2020362020372020312020302020202020200A2020372020382020312020302020202020200A2020332020392020312020302020202020200A2020312031302020322020302020202020200A2020312031312020312020302020202020200A2020342031312020312020302020202020200A4D2020454E44
Contributor: MASS SPECTROSCOPY SOC. OF JAPAN (MSSJ)
InstType: EI
InstName: Unknown
IoniMethod: EI
IonPolarity: pos
Date: 2010-10-09 19:48:36+02:00
Num Peaks: 28
27 156 28 36 29 181 39 113 40 27 41 330 42 474 43 325 44 73 45 28 
55 126 56 140 57 134 58 25 69 349 70 208 71 322 72 22 83 20 85 73 
86 28 87 272 96 56 99 999 100 78 114 51 128 26 156 27 
