Name: DOPA
MW: 197
Formula: C9H11NO4
Synonym: MassBank: JP001409
Synonym: DOPA
Synonym: 3-(3,4-DIHYDROXYPHENYL)-L-ALANINE
Structure: 444F50412E6D6F6C0A20204368656D447261773032323231303039353632440A2031352031352020302020302020302020302020302020302020302020303939392056323030300A20202020302E333537322020202D302E3637343020202020302E303030302043202020302020302020302020302020302020302020302020302020302020302020302020300A2020202D302E333537322020202D302E3236313520202020302E303030302043202020302020302020302020302020302020302020302020302020302020302020302020300A2020202D312E303731372020202D302E3637343020202020302E303030302043202020302020302020302020302020302020302020302020302020302020302020302020300A2020202D312E373836322020202D302E3236313520202020302E303030302043202020302020302020302020302020302020302020302020302020302020302020302020300A2020202D312E3738363220202020302E3536333520202020302E303030302043202020302020302020302020302020302020302020302020302020302020302020302020300A2020202D312E3037313720202020302E3937363020202020302E303030302043202020302020302020302020302020302020302020302020302020302020302020302020300A2020202D302E3335373220202020302E3536333520202020302E303030302043202020302020302020302020302020302020302020302020302020302020302020302020300A2020202D322E3530303620202020302E3937363020202020302E30303030204F202020302020302020302020302020302020302020302020302020302020302020302020300A2020202D322E353030362020202D302E3637343020202020302E30303030204F202020302020302020302020302020302020302020302020302020302020302020302020300A20202020312E303731372020202D302E3236313520202020302E303030302043202020302020302020302020302020302020302020302020302020302020302020302020300A20202020312E3738363220202020302E3135313020202020302E303030302043202020302020302020302020302020302020302020302020302020302020302020302020300A20202020302E3635393220202020302E3435333020202020302E303030302048202020302020302020302020302020302020302020302020302020302020302020302020300A20202020312E343834322020202D302E3937363020202020302E30303030204E202020302020302020302020302020302020302020302020302020302020302020302020300A20202020322E353030362020202D302E3236313520202020302E30303030204F202020302020302020302020302020302020302020302020302020302020302020302020300A20202020312E3738363220202020302E3937363020202020302E30303030204F202020302020302020302020302020302020302020302020302020302020302020302020300A2020322020332020312020302020202020200A2020332020342020322020302020202020200A2020342020352020312020302020202020200A2020352020362020322020302020202020200A2020362020372020312020302020202020200A2020322020372020322020302020202020200A2020352020382020312020302020202020200A2020342020392020312020302020202020200A2020312020322020312020302020202020200A2020312031302020312020302020202020200A2031302031312020312020302020202020200A2031302031322020312020312020202020200A2031302031332020312020312020202020200A2031312031342020312020302020202020200A2031312031352020322020302020202020200A4D2020454E44
Contributor: HASHIMOTO K, KYOTO COLLEGE OF PHARMACY
InstType: EI
InstName: HITACHI M-80
IoniMethod: _ENERGY 20 eV
IonPolarity: pos
Date: 2010-10-09 19:48:36+02:00
Num Peaks: 12
74 28 75 17 77 20 105 1 107 17 123 999 124 159 125 1 136 13 152 48 
197 158 198 38 
