Name: MassBank: JP007532
CAS: 122-14-5
MW: 277
Formula: C9H12NO5PS
Synonym: MassBank: JP007532
Synonym: O,O-DIMETHYL O-(3-METHYL-4-NITROPHENYL) PHOSPHOROTHIOATE
Synonym: FENITROTHION
Structure: 4F2C4F2D44494D455448594C204F2D28332D4D455448594C2D342D4E4954524F5048454E594C292050484F5350484F524F5448494F4154452E6D6F6C0A20204368656D447261773038313231303033313432440A2031372031372020302020302020302020302020302020302020302020303939392056323030300A20202020312E343238392020202D302E3637343020202020302E303030302050202020302020302020302020302020302020302020302020302020302020302020302020300A20202020322E313433342020202D302E3236313520202020302E30303030204F202020302020302020302020302020302020302020302020302020302020302020302020300A20202020312E3031363420202020302E3034303520202020302E30303030204F202020302020302020302020302020302020302020302020302020302020302020302020300A20202020302E373134352020202D312E3038363520202020302E30303030204F202020302020302020302020302020302020302020302020302020302020302020302020300A20202020312E383431342020202D312E3338383520202020302E303030302053202020302020302020302020302020302020302020302020302020302020302020302020300A2020202D302E303030302020202D302E3637343020202020302E303030302043202020302020302020302020302020302020302020302020302020302020302020302020300A2020202D302E373134352020202D312E3038363520202020302E303030302043202020302020302020302020302020302020302020302020302020302020302020302020300A2020202D312E343238392020202D302E3637343020202020302E303030302043202020302020302020302020302020302020302020302020302020302020302020302020300A2020202D312E3432383920202020302E3135313020202020302E303030302043202020302020302020302020302020302020302020302020302020302020302020302020300A2020202D302E3731343520202020302E3536333520202020302E303030302043202020302020302020302020302020302020302020302020302020302020302020302020300A20202020302E3030303020202020302E3135313020202020302E303030302043202020302020302020302020302020302020302020302020302020302020302020302020300A2020202D322E3134333420202020302E3536333520202020302E30303030204E202020302020332020302020302020302020302020302020302020302020302020302020300A2020202D322E3134333420202020312E3338383520202020302E30303030204F202020302020302020302020302020302020302020302020302020302020302020302020300A2020202D322E3835373920202020302E3135313020202020302E30303030204F202020302020352020302020302020302020302020302020302020302020302020302020300A2020202D322E313433342020202D312E3038363520202020302E303030302043202020302020302020302020302020302020302020302020302020302020302020302020300A20202020322E383537392020202D302E3637343020202020302E303030302043202020302020302020302020302020302020302020302020302020302020302020302020300A20202020312E3432383920202020302E3735343920202020302E303030302043202020302020302020302020302020302020302020302020302020302020302020302020300A2020312020322020312020302020202020200A2020312020332020312020302020202020200A2020312020342020312020302020202020200A2020312020352020322020302020202020200A2020362020372020312020302020202020200A2020372020382020322020302020202020200A2020382020392020312020302020202020200A2020392031302020322020302020202020200A2031302031312020312020302020202020200A2020362031312020322020302020202020200A2031322031332020322020302020202020200A2031322031342020312020302020202020200A2020392031322020312020302020202020200A2020382031352020312020302020202020200A2020342020362020312020302020202020200A2020322031362020312020302020202020200A2020332031372020312020302020202020200A4D202043484720203220203132202020312020313420202D310A4D2020454E44
Contributor: KOGA M, UNIV. OF OCCUPATIONAL AND ENVIRONMENTAL HEALTH
InstType: EI
InstName: JEOL JMS-01-SG
IoniMethod: _ENERGY 70 eV
IonPolarity: pos
Date: 2010-10-09 19:48:36+02:00
Num Peaks: 82
45 50 47 479 50 70 51 17 52 145 53 50 62 202 63 34 64 43 65 67 
66 43 69 2 74 20 75 30 76 30 77 18 78 114 79 881 80 74 81 2 
83 20 89 189 90 177 91 5 92 27 93 597 94 77 95 8 96 70 97 33 
103 20 104 2 105 33 106 54 107 27 108 6 109 179 110 104 111 50 112 2 
119 33 120 101 121 152 122 10 123 94 124 67 125 226 126 8 127 168 136 158 
137 54 138 14 139 37 140 20 150 168 151 7 152 101 153 40 166 43 168 4 
169 47 182 33 199 30 200 3 201 20 202 30 214 138 215 3 216 43 217 20 
228 40 230 4 231 20 232 30 246 60 247 16 260 999 261 162 262 67 277 13 
278 179 279 118 
