Name: NORCAMPHOR
MW: 110
Formula: C7H10O
Synonym: MassBank: JP002599
Synonym: NORCAMPHOR
Synonym: BICYCLO(2.2.1)HEPTAN-2-ONE
Structure: 310A32320A4E4F5243414D50484F522E6D6F6C0A20204368656D447261773039303531303138353932440A2020382020392020302020302020302020302020302020302020302020303939392056323030300A2020202D302E3731343520202020302E3030303020202020302E303030302043202020302020302020302020302020302020302020302020302020302020302020302020300A2020202D302E373134352020202D302E3832353020202020302E303030302043202020302020302020302020302020302020302020302020302020302020302020302020300A20202020302E303030302020202D312E3233373520202020302E303030302043202020302020302020302020302020302020302020302020302020302020302020302020300A20202020302E373134352020202D302E3832353020202020302E303030302043202020302020302020302020302020302020302020302020302020302020302020302020300A20202020302E3731343520202020302E3030303020202020302E303030302043202020302020302020302020302020302020302020302020302020302020302020302020300A20202020302E3030303020202020302E3431323520202020302E303030302043202020302020302020302020302020302020302020302020302020302020302020302020300A20202020302E3030303020202020312E3233373520202020302E30303030204F202020302020302020302020302020302020302020302020302020302020302020302020300A20202020302E303832342020202D302E3231333520202020302E303030302043202020302020302020302020302020302020302020302020302020302020302020302020300A2020312020322020312020302020202020200A2020322020332020312020302020202020200A2020332020342020312020302020202020200A2020342020352020312020302020202020200A2020352020362020312020302020202020200A2020362020312020312020302020202020200A2020362020372020322020302020202020200A2020312020382020312020302020202020200A2020382020342020312020302020202020200A4D2020454E44
Contributor: YAMAMOTO M, DEP. CHEMISTRY, FAC. SCIENCE, NARA WOMEN'S UNIV.
InstType: EI
InstName: HITACHI RMU-6M
IoniMethod: _ENERGY 70 eV
IonPolarity: pos
Date: 2010-10-09 19:48:36+02:00
Num Peaks: 38
15 20 26 36 27 216 28 44 29 32 37 13 38 35 39 341 40 84 41 428 
42 41 43 30 50 34 51 45 52 29 53 120 54 375 55 69 56 17 63 14 
65 39 66 999 67 938 68 212 69 22 77 21 79 56 80 16 81 151 82 52 
84 12 91 13 92 42 93 13 95 54 109 49 110 414 111 36 
