Name: ISOXAZOLE
MW: 69
Formula: C3H3NO
Synonym: MassBank: JP000452
Synonym: ISOXAZOLE
Structure: 310A31350A49534F58415A4F4C452E6D6F6C0A20204368656D447261773038313131303232303032440A2020352020352020302020302020302020302020302020302020302020303939392056323030300A20202020302E3431323520202020302E3633343820202020302E30303030204F202020302020302020302020302020302020302020302020302020302020302020302020300A20202020302E363637342020202D302E3134393820202020302E30303030204E202020302020302020302020302020302020302020302020302020302020302020302020300A20202020302E303030302020202D302E3633343820202020302E303030302043202020302020302020302020302020302020302020302020302020302020302020302020300A2020202D302E363637342020202D302E3134393820202020302E303030302043202020302020302020302020302020302020302020302020302020302020302020302020300A2020202D302E3431323520202020302E3633343820202020302E303030302043202020302020302020302020302020302020302020302020302020302020302020302020300A2020312020322020312020302020202020200A2020322020332020322020302020202020200A2020332020342020312020302020202020200A2020342020352020322020302020202020200A2020312020352020312020302020202020200A4D2020454E44
Contributor: SASAKI S, TOYOHASHI UNIV. OF TECH.
InstType: EI
InstName: MX-1303
IoniMethod: _ENERGY 50 eV
IonPolarity: pos
Date: 2010-10-09 19:48:36+02:00
Num Peaks: 25
25 72 26 127 27 118 29 43 30 69 36 18 37 90 38 22 39 251 40 950 
41 605 42 17 43 42 50 21 51 42 52 3 53 15 55 21 56 15 57 2 
67 18 68 713 69 999 70 5 71 24 
