Name: BORNYL ISOBUTYRATE
MW: 224
Formula: C14H24O2
Synonym: MassBank: JP006980
Synonym: BORNYL ISOBUTYRATE
Synonym: ENDO-1,7,7-TRIMETHYLBICYCLO(2.2.1)HEPTAN-2-YL ISOBUTYRATE
Structure: 424F524E594C2049534F42555459524154452E6D6F6C0A20204368656D447261773039303631303031313532440A2031362031372020302020302020302020302020302020302020302020303939392056323030300A2020202D312E303731372020202D302E3631383820202020302E303030302043202020302020302020302020302020302020302020302020302020302020302020302020300A2020202D312E303731372020202D312E3434333820202020302E303030302043202020302020302020302020302020302020302020302020302020302020302020302020300A2020202D302E333537332020202D312E3835363220202020302E303030302043202020302020302020302020302020302020302020302020302020302020302020302020300A20202020302E333537322020202D312E3434333820202020302E303030302043202020302020302020302020302020302020302020302020302020302020302020302020300A20202020302E333537322020202D302E3631383820202020302E303030302043202020302020302020302020302020302020302020302020302020302020302020302020300A2020202D302E333537332020202D302E3230363220202020302E303030302043202020302020302020302020302020302020302020302020302020302020302020302020300A2020202D302E323734382020202D302E3833323320202020302E303030302043202020302020302020302020302020302020302020302020302020302020302020302020300A2020202D312E373836312020202D302E3230363220202020302E303030302043202020302020302020302020302020302020302020302020302020302020302020302020300A2020202D302E3335373320202020302E3631383820202020302E30303030204F202020302020302020302020302020302020302020302020302020302020302020302020300A20202020302E3335373220202020312E3033313320202020302E303030302043202020302020302020302020302020302020302020302020302020302020302020302020300A20202020302E3335373220202020312E3835363220202020302E30303030204F202020302020302020302020302020302020302020302020302020302020302020302020300A20202020302E313337372020202D302E3131373820202020302E303030302043202020302020302020302020302020302020302020302020302020302020302020302020300A2020202D302E343838342020202D312E3632393220202020302E303030302043202020302020302020302020302020302020302020302020302020302020302020302020300A20202020312E3037313720202020302E3631383820202020302E303030302043202020302020302020302020302020302020302020302020302020302020302020302020300A20202020312E3738363120202020312E3033313320202020302E303030302043202020302020302020302020302020302020302020302020302020302020302020302020300A20202020312E303731372020202D302E3230363220202020302E303030302043202020302020302020302020302020302020302020302020302020302020302020302020300A2020312020322020312020302020202020200A2020322020332020312020302020202020200A2020332020342020312020302020202020200A2020342020352020312020302020202020200A2020352020362020312020302020202020200A2020362020312020312020302020202020200A2020312020372020312020302020202020200A2020372020342020312020302020202020200A2020312020382020312020302020202020200A2020362020392020312020302020202020200A2020392031302020312020302020202020200A2031302031312020322020302020202020200A2020372031322020312020312020202020200A2020372031332020312020312020202020200A2031302031342020312020302020202020200A2031342031352020312020302020202020200A2031342031362020312020302020202020200A4D2020454E44
Contributor: SODA AROMATIC CO., LTD.
InstType: EI
InstName: HITACHI M-80B
IoniMethod: _ENERGY 70 eV
IonPolarity: pos
Date: 2010-10-09 19:48:36+02:00
Num Peaks: 54
18 11 27 136 28 13 29 74 39 107 40 19 41 420 42 45 43 999 44 31 
51 11 53 73 54 12 55 161 56 14 57 31 65 23 66 10 67 112 68 62 
69 181 70 23 71 637 72 28 77 60 78 12 79 82 80 124 81 171 82 32 
83 50 91 57 92 110 93 364 94 65 95 597 96 53 97 18 105 16 107 65 
108 257 109 334 110 124 111 28 121 265 122 22 123 14 135 28 136 345 137 106 
153 25 154 70 224 131 225 16 
