Name: CYCLOHEXANETHIOL
MW: 116
Formula: C6H12S
Synonym: MassBank: JP009159
Synonym: CYCLOHEXANETHIOL
Structure: 310A31390A4359434C4F484558414E455448494F4C2E6D6F6C0A20204368656D447261773039313531303035343132440A2020372020372020302020302020302020302020302020302020302020303939392056323030300A2020202D302E3431323520202020302E3030303020202020302E303030302043202020302020302020302020302020302020302020302020302020302020302020302020300A20202020302E3030303020202020302E3731343520202020302E303030302043202020302020302020302020302020302020302020302020302020302020302020302020300A20202020302E3832353020202020302E3731343520202020302E303030302043202020302020302020302020302020302020302020302020302020302020302020302020300A20202020312E323337352020202D302E3030303020202020302E303030302043202020302020302020302020302020302020302020302020302020302020302020302020300A20202020302E383235302020202D302E3731343520202020302E303030302043202020302020302020302020302020302020302020302020302020302020302020302020300A20202020302E303030302020202D302E3731343520202020302E303030302043202020302020302020302020302020302020302020302020302020302020302020302020300A2020202D312E3233373520202020302E3030303020202020302E303030302053202020302020302020302020302020302020302020302020302020302020302020302020300A2020312020322020312020302020202020200A2020322020332020312020302020202020200A2020332020342020312020302020202020200A2020342020352020312020302020202020200A2020352020362020312020302020202020200A2020312020362020312020302020202020200A2020312020372020312020302020202020200A4D2020454E44
Contributor: SODA AROMATIC CO., LTD.
InstType: EI
InstName: HITACHI M-80B
IoniMethod: _ENERGY 70 eV
IonPolarity: pos
Date: 2010-10-09 19:48:36+02:00
Num Peaks: 44
26 15 27 165 28 31 29 109 33 19 38 11 39 240 40 25 41 555 42 31 
43 35 45 154 46 15 47 93 50 15 51 28 52 14 53 113 54 286 55 999 
56 48 58 31 59 67 60 110 61 30 65 19 66 14 67 727 68 44 69 18 
71 20 73 101 74 14 77 21 79 45 81 108 82 623 83 664 84 34 85 11 
87 15 116 542 117 37 118 22 
