Name: MassBank: JP003233
MW: 207
Formula: C12H17NO2
Synonym: MassBank: JP003233
Synonym: 3,5-DIMETHYL-4-(2'-CYCLOHEXANOYL)METHYL-ISOXAZOLE
Structure: 332C352D44494D455448594C2D342D2832272D4359434C4F484558414E4F594C294D455448594C2D49534F58415A4F4C452E6D6F6C0A20204368656D447261773032323231303031323132440A2031352031362020302020302020302020302020302020302020302020303939392056323030300A2020202D322E3038313820202020302E3131353020202020302E303030302043202020302020302020302020302020302020302020302020302020302020302020302020300A2020202D322E303831382020202D302E3731303020202020302E303030302043202020302020302020302020302020302020302020302020302020302020302020302020300A2020202D312E333637332020202D312E3132323520202020302E303030302043202020302020302020302020302020302020302020302020302020302020302020302020300A2020202D302E363532392020202D302E3731303020202020302E303030302043202020302020302020302020302020302020302020302020302020302020302020302020300A2020202D302E3635323920202020302E3131353020202020302E303030302043202020302020302020302020302020302020302020302020302020302020302020302020300A2020202D312E3336373320202020302E3532373520202020302E303030302043202020302020302020302020302020302020302020302020302020302020302020302020300A20202020302E303631362020202D312E3132323520202020302E30303030204F202020302020302020302020302020302020302020302020302020302020302020302020300A20202020302E3036313620202020302E3532373520202020302E303030302043202020302020302020302020302020302020302020302020302020302020302020302020300A20202020302E3737363120202020302E3131353020202020302E303030302043202020302020302020302020302020302020302020302020302020302020302020302020300A20202020302E383632332020202D302E3730353520202020302E303030302043202020302020302020302020302020302020302020302020302020302020302020302020300A20202020312E363639332020202D302E3837373020202020302E30303030204F202020302020302020302020302020302020302020302020302020302020302020302020300A20202020322E303831382020202D302E3136323520202020302E30303030204E202020302020302020302020302020302020302020302020302020302020302020302020300A20202020312E3532393820202020302E3435303520202020302E303030302043202020302020302020302020302020302020302020302020302020302020302020302020300A20202020312E3730313320202020312E3235373520202020302E303030302043202020302020302020302020302020302020302020302020302020302020302020302020300A20202020302E323439322020202D312E3235373520202020302E303030302043202020302020302020302020302020302020302020302020302020302020302020302020300A2020312020322020312020302020202020200A2020322020332020312020302020202020200A2020332020342020312020302020202020200A2020342020352020312020302020202020200A2020352020362020312020302020202020200A2020362020312020312020302020202020200A2020342020372020322020302020202020200A2020352020382020312020302020202020200A2020382020392020312020302020202020200A2020392031302020322020302020202020200A2031302031312020312020302020202020200A2031312031322020312020302020202020200A2031322031332020322020302020202020200A2031332020392020312020302020202020200A2031332031342020312020302020202020200A2031302031352020312020302020202020200A4D2020454E44
Contributor: MASS SPECTROSCOPY SOC. OF JAPAN (MSSJ)
InstType: EI
InstName: HITACHI RMU-6E
IoniMethod: _ENERGY 70 eV
IonPolarity: pos
Date: 2010-10-09 19:48:36+02:00
Num Peaks: 8
207 230 164 40 110 999 95 170 68 460 43 350 42 100 41 20 
