Name: BORNYL BUTYRATE
MW: 224
Formula: C14H24O2
Synonym: MassBank: JP006538
Synonym: BORNYL BUTYRATE
Structure: 424F524E594C2042555459524154452E6D6F6C0A20204368656D447261773039303631303031313132440A2031362031372020302020302020302020302020302020302020302020303939392056323030300A2020202D312E343238392020202D302E3631383820202020302E303030302043202020302020302020302020302020302020302020302020302020302020302020302020300A2020202D312E343238392020202D312E3434333820202020302E303030302043202020302020302020302020302020302020302020302020302020302020302020302020300A2020202D302E373134352020202D312E3835363320202020302E303030302043202020302020302020302020302020302020302020302020302020302020302020302020300A20202020302E303030302020202D312E3434333820202020302E303030302043202020302020302020302020302020302020302020302020302020302020302020302020300A20202020302E303030302020202D302E3631383820202020302E303030302043202020302020302020302020302020302020302020302020302020302020302020302020300A2020202D302E373134352020202D302E3230363220202020302E303030302043202020302020302020302020302020302020302020302020302020302020302020302020300A2020202D302E3731343520202020302E3631383820202020302E30303030204F202020302020302020302020302020302020302020302020302020302020302020302020300A20202020302E3030303020202020312E3033313320202020302E303030302043202020302020302020302020302020302020302020302020302020302020302020302020300A20202020302E3731343520202020302E3631383820202020302E303030302043202020302020302020302020302020302020302020302020302020302020302020302020300A20202020302E3030303020202020312E3835363320202020302E30303030204F202020302020302020302020302020302020302020302020302020302020302020302020300A20202020312E3432383920202020312E3033313320202020302E303030302043202020302020302020302020302020302020302020302020302020302020302020302020300A20202020322E3134333420202020302E3631383820202020302E303030302043202020302020302020302020302020302020302020302020302020302020302020302020300A2020202D302E363332312020202D302E3833323320202020302E303030302043202020302020302020302020302020302020302020302020302020302020302020302020300A2020202D322E313433342020202D302E3230363220202020302E303030302043202020302020302020302020302020302020302020302020302020302020302020302020300A2020202D302E323139362020202D302E3131373820202020302E303030302043202020302020302020302020302020302020302020302020302020302020302020302020300A2020202D302E383435362020202D312E3632393220202020302E303030302043202020302020302020302020302020302020302020302020302020302020302020302020300A2020312020322020312020302020202020200A2020322020332020312020302020202020200A2020332020342020312020302020202020200A2020342020352020312020302020202020200A2020352020362020312020302020202020200A2020362020312020312020302020202020200A2020362020372020312020302020202020200A2020372020382020312020302020202020200A2020382020392020312020302020202020200A2020382031302020322020302020202020200A2020392031312020312020302020202020200A2031312031322020312020302020202020200A2020312031332020312020302020202020200A2031332020342020312020302020202020200A2020312031342020312020302020202020200A2031332031352020312020312020202020200A2031332031362020312020312020202020200A4D2020454E44
Contributor: HISAHIRO HAGIWARA, CHEMICAL RESEARCH INSTITUTE OF NON-AQUEOUSSOLUTIONS TOHOKU UNIV.
InstType: EI
InstName: HITACHI M-80B
IoniMethod: _ENERGY 70 eV
IonPolarity: pos
Date: 2010-10-09 19:48:36+02:00
Num Peaks: 61
27 175 28 22 29 105 39 124 40 20 41 499 42 65 43 831 44 24 45 14 
51 12 53 89 54 14 55 202 56 14 57 41 60 16 65 27 66 12 67 151 
68 72 69 208 70 20 71 999 72 52 73 11 77 72 78 14 79 103 80 179 
81 192 82 68 83 68 84 22 91 72 92 160 93 538 94 100 95 949 96 75 
97 23 105 20 107 102 108 332 109 407 110 191 111 57 121 406 122 34 123 22 
125 12 135 34 136 536 137 121 138 12 152 10 153 29 154 122 155 16 224 158 
225 24 
