Name: CARYOPHYLLENE
MW: 204
Formula: C15H24
Synonym: MassBank: JP007124
Synonym: CARYOPHYLLENE
Synonym: 4,11,11-TRIMETHYL-8-METHYLENEBICYCLO(7.2.0)UNDEC-4-ENE
Structure: 434152594F5048594C4C454E452E6D6F6C0A20204368656D447261773039303631303231343132440A2031382031392020302020302020302020302020302020302020302020303939392056323030300A2020202D302E3637353020202020312E3331343220202020302E303030302043202020302020302020302020302020302020302020302020302020302020302020302020300A2020202D302E3637353020202020302E3438393220202020302E303030302043202020302020302020302020302020302020302020302020302020302020302020302020300A20202020302E3033393520202020302E3037363720202020302E303030302043202020302020302020302020302020302020302020302020302020302020302020302020300A20202020302E3735343020202020302E3438393220202020302E303030302043202020302020302020302020302020302020302020302020302020302020302020302020300A20202020302E3735343020202020312E3331343220202020302E303030302043202020302020302020302020302020302020302020302020302020302020302020302020300A20202020302E3033393520202020312E3732363720202020302E303030302043202020302020302020302020302020302020302020302020302020302020302020302020300A2020202D312E323838312020202D302E3036323920202020302E303030302043202020302020302020302020302020302020302020302020302020302020302020302020300A2020202D302E393532352020202D302E3831363420202020302E303030302043202020302020302020302020302020302020302020302020302020302020302020302020300A2020202D302E313332302020202D302E3733303220202020302E303030302043202020302020302020302020302020302020302020302020302020302020302020302020300A20202020302E363735302020202D302E3930313720202020302E303030302043202020302020302020302020302020302020302020302020302020302020302020302020300A20202020302E383436352020202D302E3039343920202020302E303030302043202020302020302020302020302020302020302020302020302020302020302020302020300A20202020312E3436383520202020302E3037363720202020302E303030302043202020302020302020302020302020302020302020302020302020302020302020302020300A2020202D312E3437313820202020302E3730323720202020302E303030302043202020302020302020302020302020302020302020302020302020302020302020302020300A20202020302E3033393520202020302E3930313720202020302E303030302048202020302020302020302020302020302020302020302020302020302020302020302020300A2020202D302E313735322020202D312E3535343120202020302E303030302048202020302020302020302020302020302020302020302020302020302020302020302020300A20202020312E343731382020202D312E3131353320202020302E303030302043202020302020302020302020302020302020302020302020302020302020302020302020300A20202020302E363735302020202D312E3732363720202020302E303030302043202020302020302020302020302020302020302020302020302020302020302020302020300A2020202D312E3338393520202020312E3732363720202020302E303030302048202020302020302020302020302020302020302020302020302020302020302020302020300A2020312020322020322020302020202020200A2020332020342020312020302020202020200A2020342020352020312020302020202020200A2020352020362020312020302020202020200A2020362020312020312020302020202020200A2020322020372020312020302020202020200A2020372020382020312020302020202020200A2020382020392020312020302020202020200A2020392020332020312020302020202020200A2020392031302020312020302020202020200A2031302031312020312020302020202020200A2031312020332020312020302020202020200A2020342031322020322020302020202020200A2020322031332020312020302020202020200A2020332031342020312020362020202020200A2020392031352020312020312020202020200A2031302031362020312020362020202020200A2031302031372020312020312020202020200A2020312031382020312020302020202020200A4D2020454E44
Contributor: SODA AROMATIC CO., LTD.
InstType: EI
InstName: HITACHI M-80B
IoniMethod: _ENERGY 70 eV
IonPolarity: pos
Date: 2010-10-09 19:48:36+02:00
Num Peaks: 72
27 215 29 180 39 345 40 73 41 999 42 47 43 101 50 11 51 60 52 54 
53 311 54 35 55 354 56 70 57 54 63 18 65 147 66 48 67 345 68 79 
69 760 70 39 71 22 77 333 78 76 79 572 80 153 81 340 82 79 83 27 
91 566 92 190 93 790 94 171 95 165 96 19 103 26 104 18 105 375 106 243 
107 331 108 69 109 156 110 20 111 23 115 25 116 12 117 35 118 11 119 245 
120 305 121 206 122 49 123 40 131 18 133 583 134 164 135 101 136 42 137 15 
147 196 148 210 149 46 161 194 162 47 163 18 175 53 176 35 189 121 190 14 
204 74 205 11 
