Name: METHYL 2-TRIMETHYLSILOXY-TETRACOSANOATE
MW: 470
Formula: C28H58O3Si
Synonym: MassBank: JP002746
Synonym: METHYL 2-TRIMETHYLSILOXY-TETRACOSANOATE
Structure: 4D455448594C20322D5452494D455448594C53494C4F58592D5445545241434F53414E4F4154452E6D6F6C0A20204368656D447261773038313131303233333832440A2033322033312020302020302020302020302020302020302020302020303939392056323030300A2020202D362E3733323220202020312E3233373520202020302E303030302043202020302020302020302020302020302020302020302020302020302020302020302020300A2020202D362E3733323220202020302E3431323520202020302E303030302043202020302020302020302020302020302020302020302020302020302020302020302020300A2020202D362E303137372020202D302E3030303020202020302E303030302043202020302020302020302020302020302020302020302020302020302020302020302020300A2020202D362E303137372020202D302E3832353020202020302E303030302043202020302020302020302020302020302020302020302020302020302020302020302020300A2020202D352E333033332020202D312E3233373520202020302E303030302043202020302020302020302020302020302020302020302020302020302020302020302020300A2020202D342E353838382020202D302E3832353020202020302E303030302043202020302020302020302020302020302020302020302020302020302020302020302020300A2020202D332E383734332020202D312E3233373520202020302E303030302043202020302020302020302020302020302020302020302020302020302020302020302020300A2020202D332E313539392020202D302E3832353020202020302E303030302043202020302020302020302020302020302020302020302020302020302020302020302020300A2020202D322E343435342020202D312E3233373520202020302E303030302043202020302020302020302020302020302020302020302020302020302020302020302020300A2020202D312E373330392020202D302E3832353020202020302E303030302043202020302020302020302020302020302020302020302020302020302020302020302020300A2020202D312E303136342020202D312E3233373520202020302E303030302043202020302020302020302020302020302020302020302020302020302020302020302020300A2020202D302E333032302020202D302E3832353020202020302E303030302043202020302020302020302020302020302020302020302020302020302020302020302020300A20202020302E343132352020202D312E3233373520202020302E303030302043202020302020302020302020302020302020302020302020302020302020302020302020300A20202020312E313237302020202D302E3832353020202020302E303030302043202020302020302020302020302020302020302020302020302020302020302020302020300A20202020312E383431342020202D312E3233373520202020302E303030302043202020302020302020302020302020302020302020302020302020302020302020302020300A20202020322E353535392020202D302E3832353020202020302E303030302043202020302020302020302020302020302020302020302020302020302020302020302020300A20202020332E323730342020202D312E3233373520202020302E303030302043202020302020302020302020302020302020302020302020302020302020302020302020300A20202020332E393834392020202D302E3832353020202020302E303030302043202020302020302020302020302020302020302020302020302020302020302020302020300A20202020342E363939332020202D312E3233373520202020302E303030302043202020302020302020302020302020302020302020302020302020302020302020302020300A20202020352E343133382020202D302E3832353020202020302E303030302043202020302020302020302020302020302020302020302020302020302020302020302020300A20202020362E313238332020202D312E3233373520202020302E303030302043202020302020302020302020302020302020302020302020302020302020302020302020300A20202020362E383432372020202D302E3832353020202020302E303030302043202020302020302020302020302020302020302020302020302020302020302020302020300A20202020372E353537322020202D312E3233373520202020302E303030302043202020302020302020302020302020302020302020302020302020302020302020302020300A20202020382E323731372020202D302E3832353020202020302E303030302043202020302020302020302020302020302020302020302020302020302020302020302020300A2020202D362E3031373720202020312E3635303020202020302E30303030204F202020302020302020302020302020302020302020302020302020302020302020302020300A2020202D372E3434363720202020312E3635303020202020302E30303030204F202020302020302020302020302020302020302020302020302020302020302020302020300A2020202D372E343436372020202D302E3030303020202020302E30303030204F202020302020302020302020302020302020302020302020302020302020302020302020300A2020202D372E343436372020202D302E3832353020202020302E303030302053692020302020302020302020302020302020302020302020302020302020302020302020300A2020202D362E363231372020202D302E3832353020202020302E303030302043202020302020302020302020302020302020302020302020302020302020302020302020300A2020202D372E343436372020202D312E3635303020202020302E303030302043202020302020302020302020302020302020302020302020302020302020302020302020300A2020202D382E323731372020202D302E3832353020202020302E303030302043202020302020302020302020302020302020302020302020302020302020302020302020300A2020202D382E3136313220202020312E3233373520202020302E303030302043202020302020302020302020302020302020302020302020302020302020302020302020300A2020312020322020312020302020202020200A2020322020332020312020302020202020200A2020332020342020312020302020202020200A2020342020352020312020302020202020200A2020352020362020312020302020202020200A2020362020372020312020302020202020200A2020372020382020312020302020202020200A2020382020392020312020302020202020200A2020392031302020312020302020202020200A2031302031312020312020302020202020200A2031312031322020312020302020202020200A2031322031332020312020302020202020200A2031332031342020312020302020202020200A2031342031352020312020302020202020200A2031352031362020312020302020202020200A2031362031372020312020302020202020200A2031372031382020312020302020202020200A2031382031392020312020302020202020200A2031392032302020312020302020202020200A2032302032312020312020302020202020200A2032312032322020312020302020202020200A2032322032332020312020302020202020200A2032332032342020312020302020202020200A2020312032352020322020302020202020200A2020312032362020312020302020202020200A2032372032382020312020302020202020200A2032382032392020312020302020202020200A2032382033302020312020302020202020200A2032382033312020312020302020202020200A2020322032372020312020302020202020200A2032362033322020312020302020202020200A4D2020454E44
Contributor: HAYASHI A, DEPT. OF CHEMISTRY, FAC. OF SCI. AND TECHNOLOGY, KINKI UNIV.
InstType: EI
InstName: SHIMADZU LKB-9000B
IoniMethod: _ENERGY 70 eV
IonPolarity: pos
Date: 2010-10-09 19:48:36+02:00
Num Peaks: 158
39 17 41 98 42 26 43 221 44 7 45 16 47 8 53 1 54 16 55 127 
56 25 57 19 58 13 59 44 60 6 61 1 65 4 66 5 67 44 68 3 
69 113 70 17 71 101 72 1 73 512 74 49 75 133 76 1 77 6 79 3 
80 7 81 5 82 40 83 127 84 15 85 5 86 6 87 17 88 7 89 20 
90 21 91 46 92 5 93 1 94 7 95 55 96 16 97 10 98 19 99 16 
101 22 102 1 103 125 104 15 105 19 107 1 108 2 109 26 110 12 111 5 
112 8 113 12 115 22 116 2 117 10 118 4 119 13 120 0 121 6 123 15 
124 7 125 2 126 4 127 10 129 137 130 2 131 20 132 5 133 2 134 0 
135 2 137 9 138 5 139 1 141 5 143 19 145 18 146 2 147 6 148 2 
149 4 151 1 152 4 153 6 155 5 157 1 159 71 160 11 161 13 162 2 
163 1 171 7 173 5 185 2 186 5 199 5 201 5 207 1 215 4 219 4 
221 4 227 0 243 4 255 4 257 5 267 0 271 5 281 10 282 1 283 0 
285 5 297 4 299 5 311 4 313 4 320 5 327 1 337 1 341 5 355 5 
357 1 395 1 398 5 409 14 410 53 411 999 412 331 413 92 414 12 415 0 
423 3 426 4 427 36 428 1 429 4 431 1 438 4 452 0 453 12 454 40 
455 359 456 13 457 34 458 7 469 7 470 4 471 13 472 4 
