Name: 2-(3-CYCLOHEXENYL)ETHANOL
MW: 126
Formula: C8H14O
Synonym: MassBank: JP004683
Synonym: 2-(3-CYCLOHEXENYL)ETHANOL
Structure: 310A32330A322D28332D4359434C4F484558454E594C29455448414E4F4C2E6D6F6C0A20204368656D447261773132323130393138303332440A2020392020392020302020302020302020302020302020302020302020303939392056323030300A2020202D312E3033313320202020302E3731343520202020302E303030302043202020302020302020302020302020302020302020302020302020302020302020302020300A2020202D302E363138382020202D302E3030303020202020302E303030302043202020302020302020302020302020302020302020302020302020302020302020302020300A20202020302E323036322020202D302E3030303020202020302E303030302043202020302020302020302020302020302020302020302020302020302020302020302020300A20202020302E3631383820202020302E3731343520202020302E303030302043202020302020302020302020302020302020302020302020302020302020302020302020300A20202020312E3434333720202020302E3731343520202020302E303030302043202020302020302020302020302020302020302020302020302020302020302020302020300A20202020312E383536332020202D302E3030303020202020302E303030302043202020302020302020302020302020302020302020302020302020302020302020302020300A20202020312E343433372020202D302E3731343520202020302E303030302043202020302020302020302020302020302020302020302020302020302020302020302020300A20202020302E363138372020202D302E3731343520202020302E303030302043202020302020302020302020302020302020302020302020302020302020302020302020300A2020202D312E3835363320202020302E3731343520202020302E30303030204F202020302020302020302020302020302020302020302020302020302020302020302020300A2020312020322020312020302020202020200A2020332020342020312020302020202020200A2020342020352020312020302020202020200A2020352020362020322020302020202020200A2020362020372020312020302020202020200A2020372020382020312020302020202020200A2020332020382020312020302020202020200A2020322020332020312020302020202020200A2020312020392020312020302020202020200A4D2020454E44
Contributor: MASS SPECTROSCOPY SOC. OF JAPAN (MSSJ)
InstType: EI
InstName: JEOL JMS-D-3000
IoniMethod: _ENERGY 70 eV
IonPolarity: pos
Date: 2010-10-09 19:48:36+02:00
Num Peaks: 46
42 323 43 100 44 37 50 33 51 86 52 58 53 129 54 143 55 261 56 53 
57 127 58 88 63 16 65 73 66 67 67 390 68 112 69 97 70 469 71 75 
77 285 78 110 79 768 80 275 81 107 82 136 83 278 84 46 91 223 92 27 
93 559 94 22 95 60 96 40 97 232 98 999 99 75 104 16 105 22 106 15 
107 43 108 325 109 33 111 21 124 21 126 30 
