Name: MassBank: JP005549
MW: 216
Formula: C13H12OS
Synonym: MassBank: JP005549
Synonym: 3,4-BENZO-2-THIATRICYCLO(4.3.1.0)DEC-3-EN-5-ONE
Structure: 332C342D42454E5A4F2D322D544849415452494359434C4F28342E332E312E30294445432D332D454E2D352D4F4E452E6D6F6C0A20204368656D447261773032323131303232303632440A2031352031382020302020302020302020302020302020302020302020303939392056323030300A2020202D302E3739343220202020302E3030303020202020302E303030302043202020302020302020302020302020302020302020302020302020302020302020302020300A2020202D302E373934322020202D302E3832353020202020302E303030302043202020302020302020302020302020302020302020302020302020302020302020302020300A2020202D302E303739372020202D312E3233373520202020302E303030302053202020302020302020302020302020302020302020302020302020302020302020302020300A20202020302E363334382020202D302E3832353020202020302E303030302043202020302020302020302020302020302020302020302020302020302020302020302020300A20202020302E3633343820202020302E3030303020202020302E303030302043202020302020302020302020302020302020302020302020302020302020302020302020300A2020202D302E3037393720202020302E3431323520202020302E303030302043202020302020302020302020302020302020302020302020302020302020302020302020300A20202020312E333439322020202D312E3233373520202020302E303030302043202020302020302020302020302020302020302020302020302020302020302020302020300A20202020322E303633372020202D302E3832353020202020302E303030302043202020302020302020302020302020302020302020302020302020302020302020302020300A20202020322E3036333720202020302E3030303020202020302E303030302043202020302020302020302020302020302020302020302020302020302020302020302020300A20202020312E3334393220202020302E3431323520202020302E303030302043202020302020302020302020302020302020302020302020302020302020302020302020300A2020202D312E3537383820202020302E3235343920202020302E303030302043202020302020302020302020302020302020302020302020302020302020302020302020300A2020202D322E303633372020202D302E3431323520202020302E303030302043202020302020302020302020302020302020302020302020302020302020302020302020300A2020202D312E353738382020202D312E3037393920202020302E303030302043202020302020302020302020302020302020302020302020302020302020302020302020300A2020202D312E353038362020202D302E3431323520202020302E303030302043202020302020302020302020302020302020302020302020302020302020302020302020300A2020202D302E3037393720202020312E3233373520202020302E30303030204F202020302020302020302020302020302020302020302020302020302020302020302020300A2020312020322020312020302020202020200A2020322020332020312020302020202020200A2020332020342020312020302020202020200A2020342020352020322020302020202020200A2020352020362020312020302020202020200A2020362020312020312020302020202020200A2020342020372020312020302020202020200A2020372020382020322020302020202020200A2020382020392020312020302020202020200A2020392031302020322020302020202020200A2031302020352020312020302020202020200A2020312031312020312020302020202020200A2031312031322020312020302020202020200A2031322031332020312020302020202020200A2031332020322020312020302020202020200A2020312031342020312020302020202020200A2031342020322020312020302020202020200A2020362031352020322020302020202020200A4D2020454E44
Contributor: MASS SPECTROSCOPY SOC. OF JAPAN (MSSJ)
InstType: EI
InstName: HITACHI RMU-6L
IoniMethod: _ENERGY 70 eV
IonPolarity: pos
Date: 2010-10-09 19:48:36+02:00
Num Peaks: 44
39 97 41 50 43 70 45 53 50 49 51 82 53 47 63 45 65 52 69 77 
71 50 76 67 79 90 91 44 108 85 109 55 115 100 128 53 136 86 137 55 
147 75 153 58 154 51 155 102 160 93 163 260 172 40 173 93 174 170 175 38 
183 103 184 53 185 36 187 220 188 70 199 150 200 35 201 999 202 133 203 53 
215 90 216 710 217 114 218 41 
