Name: 1-TRIMETHYLSILYLCYCLOPENTENE
MW: 140
Formula: C8H16Si
Synonym: MassBank: JP001465
Synonym: 1-TRIMETHYLSILYLCYCLOPENTENE
Structure: 310A32330A312D5452494D455448594C53494C594C4359434C4F50454E54454E452E6D6F6C0A20204368656D447261773131323230393232353632440A2020392020392020302020302020302020302020302020302020302020303939392056323030300A2020202D302E3139303220202020302E3030303020202020302E303030302043202020302020302020302020302020302020302020302020302020302020302020302020300A2020202D302E363735322020202D302E3636373420202020302E303030302043202020302020302020302020302020302020302020302020302020302020302020302020300A2020202D312E343539382020202D302E3431323520202020302E303030302043202020302020302020302020302020302020302020302020302020302020302020302020300A2020202D312E3435393820202020302E3431323520202020302E303030302043202020302020302020302020302020302020302020302020302020302020302020302020300A2020202D302E3637353220202020302E3636373420202020302E303030302043202020302020302020302020302020302020302020302020302020302020302020302020300A20202020302E3633343820202020302E3030303020202020302E303030302053692020302020302020302020302020302020302020302020302020302020302020302020300A20202020302E3633343820202020302E3832353020202020302E303030302043202020302020302020302020302020302020302020302020302020302020302020302020300A20202020312E3435393820202020302E3030303020202020302E303030302043202020302020302020302020302020302020302020302020302020302020302020302020300A20202020302E363334382020202D302E3832353020202020302E303030302043202020302020302020302020302020302020302020302020302020302020302020302020300A2020312020322020322020302020202020200A2020322020332020312020302020202020200A2020332020342020312020302020202020200A2020342020352020312020302020202020200A2020312020352020312020302020202020200A2020362020372020312020302020202020200A2020362020382020312020302020202020200A2020362020392020312020302020202020200A2020312020362020312020302020202020200A4D2020454E44
Contributor: MASS SPECTROSCOPY SOC. OF JAPAN (MSSJ)
InstType: EI
InstName: JEOL JMS-D-3000
IoniMethod: _ENERGY 70 eV
IonPolarity: pos
Date: 2010-10-09 19:48:36+02:00
Num Peaks: 34
41 12 43 87 45 87 53 23 55 33 57 12 58 18 59 178 60 15 66 33 
67 28 69 56 71 16 72 15 73 68 74 56 75 29 80 24 81 21 83 47 
85 11 93 11 95 24 96 10 97 804 98 94 99 35 109 18 123 11 125 999 
126 135 127 44 140 191 141 27 
