Name: CEDRYL ACETATE
MW: 264
Formula: C17H28O2
Synonym: MassBank: JP006484
Synonym: CEDRYL ACETATE
Structure: 43454452594C20414345544154452E6D6F6C0A20204368656D447261773039303631303232313432440A2032322032342020302020302020302020302020302020302020302020303939392056323030300A20202020312E3134363120202020302E3136323920202020302E303030302043202020302020302020302020302020302020302020302020302020302020302020302020300A20202020312E313436312020202D302E3636323120202020302E303030302043202020302020302020302020302020302020302020302020302020302020302020302020300A20202020312E393330372020202D302E3931373120202020302E303030302043202020302020302020302020302020302020302020302020302020302020302020302020300A20202020322E343135362020202D302E3234393620202020302E303030302043202020302020302020302020302020302020302020302020302020302020302020302020300A20202020312E3933303720202020302E3431373820202020302E303030302043202020302020302020302020302020302020302020302020302020302020302020302020300A20202020302E3336313520202020302E3431373820202020302E303030302043202020302020302020302020302020302020302020302020302020302020302020302020300A2020202D302E313233352020202D302E3234393620202020302E303030302043202020302020302020302020302020302020302020302020302020302020302020302020300A20202020302E333631352020202D302E3931373120202020302E303030302043202020302020302020302020302020302020302020302020302020302020302020302020300A2020202D302E3333373020202020302E3534373220202020302E303030302043202020302020302020302020302020302020302020302020302020302020302020302020300A20202020302E3037353520202020312E3236313720202020302E303030302043202020302020302020302020302020302020302020302020302020302020302020302020300A20202020302E3837323420202020312E3034383220202020302E303030302043202020302020302020302020302020302020302020302020302020302020302020302020300A20202020312E3731373220202020312E3231343720202020302E303030302043202020302020302020302020302020302020302020302020302020302020302020302020300A20202020302E353735302020202D312E3731343020202020302E303030302043202020302020302020302020302020302020302020302020302020302020302020302020300A2020202D302E383638312020202D302E3630343820202020302E303030302048202020302020302020302020302020302020302020302020302020302020302020302020300A20202020322E3531343120202020312E3030313220202020302E303030302048202020302020302020302020302020302020302020302020302020302020302020302020300A2020202D302E323231382020202D312E3530303520202020302E303030302043202020302020302020302020302020302020302020302020302020302020302020302020300A2020202D302E3932303320202020312E3133303620202020302E303030302043202020302020302020302020302020302020302020302020302020302020302020302020300A2020202D312E3133333920202020302E3333333720202020302E30303030204F202020302020302020302020302020302020302020302020302020302020302020302020300A20202020312E313436312020202D312E3438373120202020302E303030302048202020302020302020302020302020302020302020302020302020302020302020302020300A2020202D312E3731373220202020302E3931373120202020302E303030302043202020302020302020302020302020302020302020302020302020302020302020302020300A2020202D322E3531343120202020302E3730333620202020302E303030302043202020302020302020302020302020302020302020302020302020302020302020302020300A2020202D312E3530333720202020312E3731343020202020302E30303030204F202020302020302020302020302020302020302020302020302020302020302020302020300A2020312020322020312020302020202020200A2020322020332020312020302020202020200A2020332020342020312020302020202020200A2020342020352020312020302020202020200A2020352020312020312020302020202020200A2020312020362020312020302020202020200A2020362020372020312020302020202020200A2020372020382020312020302020202020200A2020382020322020312020302020202020200A2020372020392020312020302020202020200A2020392031302020312020302020202020200A2031302031312020312020302020202020200A2031312020312020312020302020202020200A2020352031322020312020362020202020200A2020382031332020312020362020202020200A2020372031342020312020312020202020200A2020352031352020312020312020202020200A2020382031362020312020312020202020200A2020392031372020312020312020202020200A2020392031382020312020362020202020200A2020322031392020312020362020202020200A2031382032302020312020302020202020200A2032302032312020312020302020202020200A2032302032322020322020302020202020200A4D2020454E44
Contributor: HISAHIRO HAGIWARA, CHEMICAL RESEARCH INSTITUTE OF NON-AQUEOUSSOLUTIONS TOHOKU UNIV.
InstType: EI
InstName: HITACHI M-80B
IoniMethod: _ENERGY 70 eV
IonPolarity: pos
Date: 2010-10-09 19:48:36+02:00
Num Peaks: 88
15 23 27 35 29 60 39 51 40 13 41 346 42 29 43 925 44 18 45 12 
51 12 53 71 54 10 55 207 56 32 57 34 59 24 61 16 65 36 66 13 
67 151 68 26 69 260 70 22 71 51 72 14 77 90 78 24 79 171 80 33 
81 215 82 66 83 46 84 14 91 173 92 57 93 289 94 91 95 301 96 55 
97 30 99 27 101 11 103 11 105 246 106 67 107 235 108 84 109 167 110 26 
111 20 115 11 117 17 118 13 119 528 120 115 121 269 122 108 123 49 124 11 
131 15 133 143 134 89 135 136 136 49 137 25 138 11 145 12 146 15 147 181 
148 137 149 131 150 43 151 85 152 15 161 328 162 151 163 40 175 432 176 154 
177 23 189 179 190 25 204 999 205 189 206 17 207 50 222 16 
