Name: 4-TERPINEOL
CAS: 562-74-3
MW: 154
Formula: C10H18O
Synonym: MassBank: JP007569
Synonym: 4-TERPINEOL
Synonym: 4-METHYL-1-(1-METHYLETHYL)-3-CYCLOHEXEN-1-OL
Structure: 303431395F342D54455250494E454F4C2E6D6F6C0A20204368656D447261773130313931303230333432440A2031312031312020302020302020302020302020302020302020302020303939392056323030300A2020202D302E3336383420202020302E3135333020202020302E303030302043202020302020302020302020302020302020302020302020302020302020302020302020300A2020202D302E333638342020202D302E3637323020202020302E303030302043202020302020302020302020302020302020302020302020302020302020302020302020300A20202020302E333436302020202D312E3038343520202020302E303030302043202020302020302020302020302020302020302020302020302020302020302020302020300A20202020312E303630352020202D302E3637323020202020302E303030302043202020302020302020302020302020302020302020302020302020302020302020302020300A20202020312E3036303520202020302E3135333020202020302E303030302043202020302020302020302020302020302020302020302020302020302020302020302020300A20202020302E3334363020202020302E3536353520202020302E303030302043202020302020302020302020302020302020302020302020302020302020302020302020300A20202020302E333436302020202D312E3930393520202020302E303030302043202020302020302020302020302020302020302020302020302020302020302020302020300A2020202D302E3238343520202020312E3039373520202020302E303030302043202020302020302020302020302020302020302020302020302020302020302020302020300A20202020302E3932393420202020312E3134383820202020302E30303030204F202020302020302020302020302020302020302020302020302020302020302020302020300A2020202D302E3133393020202020312E3930393520202020302E303030302043202020302020302020302020302020302020302020302020302020302020302020302020300A2020202D312E3036303520202020302E3831373420202020302E303030302043202020302020302020302020302020302020302020302020302020302020302020302020300A2020312020322020312020302020202020200A2020322020332020312020302020202020200A2020332020342020322020302020202020200A2020342020352020312020302020202020200A2020352020362020312020302020202020200A2020362020312020312020302020202020200A2020332020372020312020302020202020200A2020362020382020312020302020202020200A2020362020392020312020302020202020200A2020382031302020312020302020202020200A2020382031312020312020302020202020200A4D2020454E44
Contributor: TAKEUCHI T, DEP. CHEMISTRY, FAC. SCIENCE, NARA WOMEN'S UNIV.
InstType: EI
InstName: HITACHI M-80
IoniMethod: _ENERGY 20 eV
IonPolarity: pos
Date: 2010-10-09 19:48:36+02:00
Num Peaks: 15
59 141 69 386 71 999 81 188 86 488 92 142 93 596 110 79 111 611 121 135 
125 52 136 178 139 318 154 327 155 27 
