Name: TRANS-2-HEXENOIC ACID
MW: 114
Formula: C6H10O2
Synonym: MassBank: JP009182
Synonym: TRANS-2-HEXENOIC ACID
Structure: 310A32300A5452414E532D322D484558454E4F494320414349442E6D6F6C0A20204368656D447261773038313231303037343932440A2020382020372020302020302020302020302020302020302020302020303939392056323030300A20202020312E3434333820202020302E3030303020202020302E303030302043202020302020302020302020302020302020302020302020302020302020302020302020300A20202020302E3631383820202020302E3030303020202020302E303030302043202020302020302020302020302020302020302020302020302020302020302020302020300A20202020302E3230363220202020302E3731343520202020302E303030302043202020302020302020302020302020302020302020302020302020302020302020302020300A2020202D302E3631383820202020302E3731343520202020302E303030302043202020302020302020302020302020302020302020302020302020302020302020302020300A2020202D312E303331332020202D302E3030303020202020302E303030302043202020302020302020302020302020302020302020302020302020302020302020302020300A2020202D312E383536332020202D302E3030303020202020302E303030302043202020302020302020302020302020302020302020302020302020302020302020302020300A20202020312E3835363320202020302E3731343520202020302E30303030204F202020302020302020302020302020302020302020302020302020302020302020302020300A20202020312E383536332020202D302E3731343520202020302E30303030204F202020302020302020302020302020302020302020302020302020302020302020302020300A2020312020322020312020302020202020200A2020322020332020322020302020202020200A2020332020342020312020302020202020200A2020342020352020312020302020202020200A2020352020362020312020302020202020200A2020312020372020322020302020202020200A2020312020382020312020302020202020200A4D2020454E44
Contributor: SODA AROMATIC CO., LTD.
InstType: EI
InstName: HITACHI M-80B
IoniMethod: _ENERGY 70 eV
IonPolarity: pos
Date: 2010-10-09 19:48:36+02:00
Num Peaks: 52
15 29 18 10 26 57 27 458 28 35 29 397 30 11 31 35 37 23 38 64 
39 559 40 140 41 586 42 634 43 194 44 22 45 190 50 30 51 46 52 19 
53 111 54 40 55 378 56 44 57 86 58 36 59 66 60 148 61 13 62 11 
63 13 65 19 66 15 67 61 68 329 69 154 70 17 71 52 72 12 73 999 
74 31 81 78 85 22 86 46 87 10 95 15 96 47 97 31 99 268 100 18 
114 177 115 14 
