Name: METHYL2-FUROATE
CAS: 611-13-2
MW: 126
Formula: C6H6O3
Synonym: MassBank: JP007744
Synonym: METHYL2-FUROATE
Synonym: 2-FURANCARBOXYLIC ACID METHYL ESTER
Structure: 310A32330A4D455448594C322D4655524F4154452E6D6F6C0A20204368656D447261773031303331303133353532440A2020392020392020302020302020302020302020302020302020302020303939392056323030300A2020202D302E3436383920202020302E3331303220202020302E30303030204F202020302020302020302020302020302020302020302020302020302020302020302020300A20202020302E303136302020202D302E3335373220202020302E303030302043202020302020302020302020302020302020302020302020302020302020302020302020300A2020202D302E343638392020202D312E3032343720202020302E303030302043202020302020302020302020302020302020302020302020302020302020302020302020300A2020202D312E323533352020202D302E3736393720202020302E303030302043202020302020302020302020302020302020302020302020302020302020302020302020300A2020202D312E3235333520202020302E3035353320202020302E303030302043202020302020302020302020302020302020302020302020302020302020302020302020300A20202020302E383431302020202D302E3335373220202020302E303030302043202020302020302020302020302020302020302020302020302020302020302020302020300A20202020312E323533352020202D312E3037313720202020302E30303030204F202020302020302020302020302020302020302020302020302020302020302020302020300A20202020312E3235333520202020302E3335373220202020302E30303030204F202020302020302020302020302020302020302020302020302020302020302020302020300A20202020302E3834313020202020312E3037313720202020302E303030302043202020302020302020302020302020302020302020302020302020302020302020302020300A2020312020322020312020302020202020200A2020322020332020322020302020202020200A2020332020342020312020302020202020200A2020342020352020322020302020202020200A2020312020352020312020302020202020200A2020322020362020312020302020202020200A2020362020372020322020302020202020200A2020362020382020312020302020202020200A2020382020392020312020302020202020200A4D2020454E44
Contributor: HASHIMOTO K, KYOTO COLLEGE OF PHARMACY
InstType: EI
InstName: HITACHI M-80
IoniMethod: _ENERGY 20 eV
IonPolarity: pos
Date: 2010-10-09 19:48:36+02:00
Num Peaks: 21
27 31 29 21 38 20 39 438 40 31 41 10 42 10 45 11 51 10 53 20 
55 10 59 23 66 11 67 52 68 126 69 11 95 999 96 124 97 11 126 470 
127 42 
