Name: METHYL TETRA-O-METHYL-ALPHA-D-GALACTOPYRANOSIDE
MW: 250
Formula: C11H22O6
Synonym: MassBank: JP009683
Synonym: METHYL TETRA-O-METHYL-ALPHA-D-GALACTOPYRANOSIDE
Structure: 303737345F4D455448594C2054455452412D4F2D4D455448594C2D414C5048412D442D47414C4143544F505952414E4F534944452E6D6F6C0A20204368656D447261773130313931303232353532440A2032322032322020302020302020302020302020302020302020302020303939392056323030300A2020202D302E3935343920202020302E3531393820202020302E303030302043202020302020302020302020302020302020302020302020302020302020302020302020300A2020202D322E313434382020202D302E3338363320202020302E303030302043202020302020302020302020302020302020302020302020302020302020302020302020300A2020202D302E393534392020202D312E3238303420202020302E303030302043202020302020302020302020302020302020302020302020302020302020302020302020300A20202020302E393037332020202D312E3238303420202020302E303030302043202020302020302020302020302020302020302020302020302020302020302020302020300A20202020322E313434382020202D302E3338363320202020302E303030302043202020302020302020302020302020302020302020302020302020302020302020302020300A20202020302E3930373320202020302E3531393820202020302E30303030204F202020302020302020302020302020302020302020302020302020302020302020302020300A2020202D322E3134343820202020302E3337343320202020302E30303030204F202020302020302020302020302020302020302020302020302020302020302020302020300A2020202D322E313434382020202D312E3238303420202020302E303030302048202020302020302020302020302020302020302020302020302020302020302020302020300A20202020322E3134343820202020302E3436393720202020302E303030302048202020302020302020302020302020302020302020302020302020302020302020302020300A20202020322E313434382020202D312E3139393320202020302E30303030204F202020302020302020302020302020302020302020302020302020302020302020302020300A20202020302E393037332020202D302E3438313620202020302E303030302048202020302020302020302020302020302020302020302020302020302020302020302020300A20202020302E393037332020202D322E3130353420202020302E30303030204F202020302020302020302020302020302020302020302020302020302020302020302020300A2020202D302E393534392020202D322E3130353420202020302E303030302048202020302020302020302020302020302020302020302020302020302020302020302020300A2020202D302E393534392020202D302E3532393320202020302E30303030204F202020302020302020302020302020302020302020302020302020302020302020302020300A2020202D302E3935343920202020312E3238303420202020302E303030302043202020302020302020302020302020302020302020302020302020302020302020302020300A2020202D302E393636392020202D302E3037363320202020302E303030302048202020302020302020302020302020302020302020302020302020302020302020302020300A20202020312E363231372020202D322E3531373920202020302E303030302043202020302020302020302020302020302020302020302020302020302020302020302020300A2020202D302E323433332020202D302E3131323020202020302E303030302043202020302020302020302020302020302020302020302020302020302020302020302020300A20202020322E383539322020202D312E3631313820202020302E303030302043202020302020302020302020302020302020302020302020302020302020302020302020300A2020202D312E3636393420202020312E3639323920202020302E30303030204F202020302020302020302020302020302020302020302020302020302020302020302020300A2020202D312E3636393420202020322E3531373920202020302E303030302043202020302020302020302020302020302020302020302020302020302020302020302020300A2020202D322E3835393220202020302E3738363820202020302E303030302043202020302020302020302020302020302020302020302020302020302020302020302020300A2020312020322020312020302020202020200A2020322020332020312020302020202020200A2020332020342020312020302020202020200A2020342020352020312020302020202020200A2020352020362020312020302020202020200A2020312020362020312020302020202020200A2020322020372020312020302020202020200A2020322020382020312020302020202020200A2020352020392020312020302020202020200A2020352031302020312020302020202020200A2020342031312020312020302020202020200A2020342031322020312020302020202020200A2020332031332020312020302020202020200A2020332031342020312020302020202020200A2020312031352020312020302020202020200A2020312031362020312020302020202020200A2031322031372020312020302020202020200A2031342031382020312020302020202020200A2031302031392020312020302020202020200A2031352032302020312020302020202020200A2032302032312020312020302020202020200A2020372032322020312020302020202020200A4D2020454E44
Contributor: THE INSTITUTE OF SCIENTIFIC AND INDUSTRIALRESEARCH
InstType: EI
InstName: JEOL JMS-DX-300
IoniMethod: _ENERGY 70 eV
IonPolarity: pos
Date: 2010-10-09 19:48:36+02:00
Num Peaks: 41
27 27 29 57 31 19 33 1 39 17 41 68 42 10 43 5 45 267 47 16 
53 10 55 3 57 18 59 35 66 10 69 1 71 137 72 19 73 121 74 2 
75 688 76 24 83 19 85 2 87 10 88 999 89 72 95 1 99 14 101 555 
102 58 111 4 127 30 131 28 143 10 149 28 150 18 159 12 176 40 188 3 
219 15 
