Name: MassBank: JP006660
MW: 353
Formula: C23H35N3
Synonym: MassBank: JP006660
Synonym: 2-(2-AMINO-2-METHYLPROPYL)-1-METHYL-3-(1,2,2,6,6-PENTAMETHYL-1,2,3,6-TETRAHYDRO-4-PYRIDYL)INDOLE
Structure: 322D28322D414D494E4F2D322D4D455448594C50524F50594C292D312D4D455448594C2D332D28312C322C322C362C362D50454E54414D455448594C2D312C322C332C362D5445545241485944524F2D342D5059524944594C29494E444F4C452E6D6F6C0A20204368656D447261773132323130393130353732440A2032362032382020302020302020302020302020302020302020302020303939392056323030300A20202020302E3131313720202020312E3834343420202020302E30303030204E202020302020302020302020302020302020302020302020302020302020302020302020300A2020202D302E3337333320202020312E3137363920202020302E303030302043202020302020302020302020302020302020302020302020302020302020302020302020300A20202020302E3131313720202020302E3530393520202020302E303030302043202020302020302020302020302020302020302020302020302020302020302020302020300A20202020302E3839363320202020302E3736343420202020302E303030302043202020302020302020302020302020302020302020302020302020302020302020302020300A20202020312E3631303820202020302E3335313920202020302E303030302043202020302020302020302020302020302020302020302020302020302020302020302020300A20202020322E3332353220202020302E3736343420202020302E303030302043202020302020302020302020302020302020302020302020302020302020302020302020300A20202020322E3332353220202020312E3538393420202020302E303030302043202020302020302020302020302020302020302020302020302020302020302020302020300A20202020312E3631303820202020322E3030313920202020302E303030302043202020302020302020302020302020302020302020302020302020302020302020302020300A20202020302E3839363320202020312E3538393420202020302E303030302043202020302020302020302020302020302020302020302020302020302020302020302020300A2020202D312E323136382020202D312E3232323820202020302E303030302043202020302020302020302020302020302020302020302020302020302020302020302020300A2020202D302E393530322020202D302E3434363720202020302E303030302043202020302020302020302020302020302020302020302020302020302020302020302020300A2020202D302E313433332020202D302E3237353120202020302E303030302043202020302020302020302020302020302020302020302020302020302020302020302020300A20202020302E343038382020202D302E3838383220202020302E303030302043202020302020302020302020302020302020302020302020302020302020302020302020300A20202020302E313532312020202D312E3638373120202020302E303030302043202020302020302020302020302020302020302020302020302020302020302020302020300A2020202D302E363533322020202D312E3834343420202020302E30303030204E202020302020302020302020302020302020302020302020302020302020302020302020300A20202020302E393732352020202D312E3737333420202020302E303030302043202020302020302020302020302020302020302020302020302020302020302020302020300A20202020302E313832362020202D322E3439373320202020302E303030302043202020302020302020302020302020302020302020302020302020302020302020302020300A2020202D312E393333362020202D302E3834343020202020302E303030302043202020302020302020302020302020302020302020302020302020302020302020302020300A2020202D312E373031352020202D312E3838393820202020302E303030302043202020302020302020302020302020302020302020302020302020302020302020302020300A2020202D302E393038312020202D322E3632393020202020302E303030302043202020302020302020302020302020302020302020302020302020302020302020302020300A2020202D302E3134333320202020322E3632393020202020302E303030302043202020302020302020302020302020302020302020302020302020302020302020302020300A2020202D312E3139383320202020312E3137363920202020302E303030302043202020302020302020302020302020302020302020302020302020302020302020302020300A2020202D312E3631303820202020312E3839313420202020302E303030302043202020302020302020302020302020302020302020302020302020302020302020302020300A2020202D302E3839363320202020322E3330333920202020302E303030302043202020302020302020302020302020302020302020302020302020302020302020302020300A2020202D322E3332353220202020312E3437383920202020302E303030302043202020302020302020302020302020302020302020302020302020302020302020302020300A2020202D322E3032333320202020322E3630353920202020302E30303030204E202020302020302020302020302020302020302020302020302020302020302020302020300A2020312020322020312020302020202020200A2020322020332020322020302020202020200A2020332020342020312020302020202020200A2020342020352020312020302020202020200A2020352020362020322020302020202020200A2020362020372020312020302020202020200A2020372020382020322020302020202020200A2020382020392020312020302020202020200A2020312020392020312020302020202020200A2020342020392020322020302020202020200A2031302031312020312020302020202020200A2031312031322020312020302020202020200A2031322031332020322020302020202020200A2031332031342020312020302020202020200A2031342031352020312020302020202020200A2031302031352020312020302020202020200A2031342031362020312020362020202020200A2031342031372020312020312020202020200A2031302031382020312020312020202020200A2031302031392020312020362020202020200A2031352032302020312020302020202020200A2020332031322020312020302020202020200A2020312032312020312020302020202020200A2032322032332020312020302020202020200A2032332032342020312020302020202020200A2032332032352020312020302020202020200A2032332032362020312020302020202020200A2020322032322020312020302020202020200A4D2020454E44
Contributor: SASAKI S, TOYOHASHI UNIV. OF TECH.
InstType: EI
InstName: JEOL JMS-01-SG-2
IoniMethod: _ENERGY 75 eV
IonPolarity: pos
Date: 2010-10-09 19:48:36+02:00
Num Peaks: 32
58 999 77 13 105 17 128 1 130 21 144 50 167 60 168 6 180 41 181 42 
194 101 195 8 208 75 209 52 210 62 224 7 225 136 234 34 235 32 249 5 
250 83 251 54 265 464 266 10 280 21 281 563 282 123 296 13 297 31 338 99 
339 29 353 36 
