Name: MassBank: JP000390
MW: 100
Formula: C5H12N2
Synonym: MassBank: JP000390
Synonym: 1,1-PENTAMETHYLENEHYDRAZINE
Synonym: 1-AMINOPIPERIDINE
Structure: 310A31390A312C312D50454E54414D455448594C454E4548594452415A494E452E6D6F6C0A20204368656D447261773130323330393131323532440A2020372020372020302020302020302020302020302020302020302020303939392056323030300A20202020302E3030303020202020302E3431323520202020302E30303030204E202020302020302020302020302020302020302020302020302020302020302020302020300A20202020302E3030303020202020312E3233373520202020302E30303030204E202020302020302020302020302020302020302020302020302020302020302020302020300A20202020302E3731343520202020302E3030303020202020302E303030302043202020302020302020302020302020302020302020302020302020302020302020302020300A20202020302E373134352020202D302E3832353020202020302E303030302043202020302020302020302020302020302020302020302020302020302020302020302020300A2020202D302E303030302020202D312E3233373520202020302E303030302043202020302020302020302020302020302020302020302020302020302020302020302020300A2020202D302E373134352020202D302E3832353020202020302E303030302043202020302020302020302020302020302020302020302020302020302020302020302020300A2020202D302E3731343520202020302E3030303020202020302E303030302043202020302020302020302020302020302020302020302020302020302020302020302020300A2020312020322020312020302020202020200A2020332020342020312020302020202020200A2020342020352020312020302020202020200A2020352020362020312020302020202020200A2020362020372020312020302020202020200A2020312020332020312020302020202020200A2020312020372020312020302020202020200A4D2020454E44
Contributor: SASAKI S, TOYOHASHI UNIV. OF TECH.
InstType: EI
InstName: SHIMADZU LKB-2091
IoniMethod: _ENERGY 70 eV
IonPolarity: pos
Date: 2010-10-09 19:48:36+02:00
Num Peaks: 34
26 21 27 138 28 46 29 10 30 79 31 25 39 95 40 2 41 159 42 192 
43 159 44 69 45 133 53 21 54 41 55 22 56 69 57 85 58 110 59 12 
67 12 68 10 69 12 70 2 71 44 72 23 82 39 83 2 84 77 85 41 
98 14 99 999 100 720 101 59 
