Name: 3-METHOXYCARBONYLMETHYL-1-(TETRAHYDRO-2-FURANYL)-5-FLUOROURACIL
MW: 272
Formula: C11H13FN2O5
Synonym: MassBank: JP005594
Synonym: 3-METHOXYCARBONYLMETHYL-1-(TETRAHYDRO-2-FURANYL)-5-FLUOROURACIL
Structure: 332D4D4554484F5859434152424F4E594C4D455448594C2D312D285445545241485944524F2D322D465552414E594C292D352D464C554F524F55524143494C2E6D6F6C0A20204368656D447261773032323231303233313232440A2031392032302020302020302020302020302020302020302020302020303939392056323030300A20202020302E3332393020202020302E3737363120202020302E30303030204E202020302020302020302020302020302020302020302020302020302020302020302020300A20202020302E3734313520202020302E3036313620202020302E303030302043202020302020302020302020302020302020302020302020302020302020302020302020300A20202020312E3536363520202020302E3036313620202020302E30303030204F202020302020302020302020302020302020302020302020302020302020302020302020300A20202020302E333239302020202D302E3635323920202020302E30303030204E202020302020302020302020302020302020302020302020302020302020302020302020300A2020202D302E343936302020202D302E3635323920202020302E303030302043202020302020302020302020302020302020302020302020302020302020302020302020300A2020202D302E393038352020202D312E3336373320202020302E30303030204F202020302020302020302020302020302020302020302020302020302020302020302020300A2020202D302E3930383520202020302E3036313620202020302E303030302043202020302020302020302020302020302020302020302020302020302020302020302020300A2020202D302E3439363020202020302E3737363120202020302E303030302043202020302020302020302020302020302020302020302020302020302020302020302020300A2020202D312E3733333520202020302E3036313620202020302E303030302046202020302020302020302020302020302020302020302020302020302020302020302020300A20202020312E3536323020202020312E3537363820202020302E30303030204F202020302020302020302020302020302020302020302020302020302020302020302020300A20202020302E3734313520202020312E3439303620202020302E303030302043202020302020302020302020302020302020302020302020302020302020302020302020300A20202020302E3430353920202020322E3234343220202020302E303030302043202020302020302020302020302020302020302020302020302020302020302020302020300A20202020312E3031393020202020322E3739363320202020302E303030302043202020302020302020302020302020302020302020302020302020302020302020302020300A20202020312E3733333520202020322E3338333820202020302E303030302043202020302020302020302020302020302020302020302020302020302020302020302020300A20202020302E373431352020202D312E3336373320202020302E303030302043202020302020302020302020302020302020302020302020302020302020302020302020300A20202020302E333239302020202D322E3038313820202020302E303030302043202020302020302020302020302020302020302020302020302020302020302020302020300A2020202D302E343936302020202D322E3038313820202020302E30303030204F202020302020302020302020302020302020302020302020302020302020302020302020300A20202020302E373431352020202D322E3739363320202020302E30303030204F202020302020302020302020302020302020302020302020302020302020302020302020300A20202020312E353636352020202D322E3739363320202020302E303030302043202020302020302020302020302020302020302020302020302020302020302020302020300A2020312020322020312020302020202020200A2020322020332020322020302020202020200A2020322020342020312020302020202020200A2020342020352020312020302020202020200A2020352020362020322020302020202020200A2020352020372020312020302020202020200A2020372020382020322020302020202020200A2020312020382020312020302020202020200A2020372020392020312020302020202020200A2031302031312020312020302020202020200A2031312031322020312020302020202020200A2031322031332020312020302020202020200A2031332031342020312020302020202020200A2031302031342020312020302020202020200A2020312031312020312020302020202020200A2031362031372020322020302020202020200A2031382031392020312020302020202020200A2031362031382020312020302020202020200A2031352031362020312020302020202020200A2020342031352020312020302020202020200A4D2020454E44
Contributor: MASS SPECTROSCOPY SOC. OF JAPAN (MSSJ)
InstType: EI
InstName: JEOL JMS-01-SG-2
IoniMethod: _ENERGY 75 eV
IonPolarity: pos
Date: 2010-10-09 19:48:36+02:00
Num Peaks: 23
39 50 41 130 42 30 43 2 44 10 56 40 58 60 59 0 69 20 70 60 
71 999 72 1 99 20 100 10 114 130 115 0 127 20 142 20 143 30 171 1 
203 80 272 140 273 40 
