Name: MassBank: JP007321
CAS: 109-76-2
MW: 74
Formula: C3H10N2
Synonym: MassBank: JP007321
Synonym: 1,3-DIAMINOPROPANE
Structure: 310A31340A312C332D4449414D494E4F50524F50414E452E6D6F6C0A20204368656D447261773131313130393231323932440A2020352020342020302020302020302020302020302020302020302020303939392056323030300A2020202D302E3731343520202020302E3230363320202020302E303030302043202020302020302020302020302020302020302020302020302020302020302020302020300A20202020302E303030302020202D302E3230363320202020302E303030302043202020302020302020302020302020302020302020302020302020302020302020302020300A20202020302E3731343520202020302E3230363320202020302E303030302043202020302020302020302020302020302020302020302020302020302020302020302020300A20202020312E343238392020202D302E3230363220202020302E30303030204E202020302020302020302020302020302020302020302020302020302020302020302020300A2020202D312E343238392020202D302E3230363320202020302E30303030204E202020302020302020302020302020302020302020302020302020302020302020302020300A2020312020322020312020302020202020200A2020322020332020312020302020202020200A2020332020342020312020302020202020200A2020312020352020312020302020202020200A4D2020454E44
Contributor: YAMAMOTO M, DEP. CHEMISTRY, FAC. SCIENCE, NARA WOMEN'S UNIV.
InstType: EI
InstName: HITACHI RMU-6M
IoniMethod: _ENERGY 70 eV
IonPolarity: pos
Date: 2010-10-09 19:48:36+02:00
Num Peaks: 20
15 31 17 44 18 316 26 10 27 35 28 161 29 39 30 999 31 29 39 11 
40 12 41 27 42 71 43 38 44 160 45 104 54 11 56 241 57 715 58 30 
