Name: DIETHYLHYDRAZONE ALPHA-METHYLACRYLALDEHYDE
MW: 140
Formula: C8H16N2
Synonym: MassBank: JP000875
Synonym: DIETHYLHYDRAZONE ALPHA-METHYLACRYLALDEHYDE
Synonym: 2-METHYL-2-PROPENAL DIETHYLHYDRAZONE
Structure: 4449455448594C48594452415A4F4E4520414C5048412D4D455448594C414352594C414C4445485944452E6D6F6C0A20204368656D447261773031323231303033313832440A2031302020392020302020302020302020302020302020302020302020303939392056323030300A2020202D302E333537322020202D302E3030303020202020302E303030302043202020302020302020302020302020302020302020302020302020302020302020302020300A2020202D312E3037313720202020302E3431323520202020302E303030302043202020302020302020302020302020302020302020302020302020302020302020302020300A2020202D312E373836322020202D302E3030303020202020302E303030302043202020302020302020302020302020302020302020302020302020302020302020302020300A2020202D312E3037313720202020312E3233373520202020302E303030302043202020302020302020302020302020302020302020302020302020302020302020302020300A20202020302E3335373220202020302E3431323520202020302E30303030204E202020302020302020302020302020302020302020302020302020302020302020302020300A20202020312E303731372020202D302E3030303020202020302E30303030204E202020302020302020302020302020302020302020302020302020302020302020302020300A20202020312E3738363220202020302E3431323520202020302E303030302043202020302020302020302020302020302020302020302020302020302020302020302020300A20202020312E3738363220202020312E3233373520202020302E303030302043202020302020302020302020302020302020302020302020302020302020302020302020300A20202020312E303731372020202D302E3832353020202020302E303030302043202020302020302020302020302020302020302020302020302020302020302020302020300A20202020312E373836322020202D312E3233373520202020302E303030302043202020302020302020302020302020302020302020302020302020302020302020302020300A2020312020322020312020302020202020200A2020322020332020322020302020202020200A2020322020342020312020302020202020200A2020352020362020312020302020202020200A2020372020382020312020302020202020200A2020362020372020312020302020202020200A2020392031302020312020302020202020200A2020362020392020312020302020202020200A2020312020352020322020302020202020200A4D2020454E44
Contributor: SASAKI S, TOYOHASHI UNIV. OF TECH.
InstType: EI
InstName: SHIMADZU LKB-2091
IoniMethod: _ENERGY 70 eV
IonPolarity: pos
Date: 2010-10-09 19:48:36+02:00
Num Peaks: 48
27 216 28 325 29 351 30 24 38 15 39 243 40 35 41 30 42 351 43 84 
44 216 50 1 51 22 52 22 53 100 54 7 55 82 56 325 57 43 58 20 
59 24 67 24 68 97 69 7 70 162 71 40 72 35 73 1 80 100 81 70 
82 151 83 41 84 40 94 9 95 30 96 4 97 270 98 38 99 10 109 2 
110 35 111 999 112 89 125 43 126 43 139 23 140 569 141 81 
