Name: MassBank: JP000423
MW: 200
Formula: C10H24N4
Synonym: MassBank: JP000423
Synonym: 1-ETHYL-5,5-DIISOPROPYL-3-METHYL-3,4-DIHYDROFORMAZAN
Structure: 312D455448594C2D352C352D444949534F50524F50594C2D332D4D455448594C2D332C342D4449485944524F464F524D415A414E2E6D6F6C0A20204368656D447261773131313830393033353332440A2031342031332020302020302020302020302020302020302020302020303939392056323030300A20202020312E343238392020202D302E3030303020202020302E30303030204E202020302020302020302020302020302020302020302020302020302020302020302020300A20202020302E373134352020202D302E3431323520202020302E30303030204E202020302020302020302020302020302020302020302020302020302020302020302020300A2020202D302E303030302020202D302E3030303020202020302E303030302043202020302020302020302020302020302020302020302020302020302020302020302020300A2020202D302E373134352020202D302E3431323520202020302E30303030204E202020302020302020302020302020302020302020302020302020302020302020302020300A2020202D312E343238392020202D302E3030303020202020302E30303030204E202020302020302020302020302020302020302020302020302020302020302020302020300A2020202D302E3030303020202020302E3832353020202020302E303030302043202020302020302020302020302020302020302020302020302020302020302020302020300A2020202D312E3432383920202020302E3832353020202020302E303030302043202020302020302020302020302020302020302020302020302020302020302020302020300A2020202D302E3731343520202020312E3233373520202020302E303030302043202020302020302020302020302020302020302020302020302020302020302020302020300A2020202D322E3134333420202020312E3233373520202020302E303030302043202020302020302020302020302020302020302020302020302020302020302020302020300A2020202D322E313433342020202D302E3431323520202020302E303030302043202020302020302020302020302020302020302020302020302020302020302020302020300A2020202D322E383537392020202D302E3030303020202020302E303030302043202020302020302020302020302020302020302020302020302020302020302020302020300A2020202D322E313433342020202D312E3233373520202020302E303030302043202020302020302020302020302020302020302020302020302020302020302020302020300A20202020322E313433342020202D302E3431323520202020302E303030302043202020302020302020302020302020302020302020302020302020302020302020302020300A20202020322E383537392020202D302E3030303020202020302E303030302043202020302020302020302020302020302020302020302020302020302020302020302020300A2020312020322020322020302020202020200A2020322020332020312020302020202020200A2020332020342020312020302020202020200A2020342020352020312020302020202020200A2020332020362020312020302020202020200A2020372020382020312020302020202020200A2020372020392020312020302020202020200A2020352020372020312020302020202020200A2031302031312020312020302020202020200A2031302031322020312020302020202020200A2020352031302020312020302020202020200A2031332031342020312020302020202020200A2020312031332020312020302020202020200A4D2020454E44
Contributor: SASAKI S, TOYOHASHI UNIV. OF TECH.
InstType: EI
InstName: SHIMADZU LKB-2091
IoniMethod: _ENERGY 70 eV
IonPolarity: pos
Date: 2010-10-09 19:48:36+02:00
Num Peaks: 34
28 112 29 137 30 64 31 3 39 37 40 14 41 149 42 17 43 261 44 286 
55 7 56 11 57 58 58 999 59 87 69 1 70 68 71 12 72 14 73 5 
84 34 85 311 86 137 87 1 99 27 100 77 101 162 102 1 115 24 127 137 
128 12 142 6 143 473 144 52 
