Name: 3-CHLORO-2-METHYLPROPENE
CAS: 563-47-3
MW: 90
Formula: C4H7Cl
Synonym: MassBank: JP009527
Synonym: 3-CHLORO-2-METHYLPROPENE
Synonym: METHALLYL CHLORIDE
Structure: 310A31340A332D43484C4F524F2D322D4D455448594C50524F50454E452E6D6F6C0A20204368656D447261773032323231303134353232440A2020352020342020302020302020302020302020302020302020302020303939392056323030300A20202020312E303731372020202D302E3631383820202020302E303030302043202020302020302020302020302020302020302020302020302020302020302020302020300A20202020302E333537322020202D302E3230363220202020302E303030302043202020302020302020302020302020302020302020302020302020302020302020302020300A2020202D302E333537322020202D302E3631383820202020302E303030302043202020302020302020302020302020302020302020302020302020302020302020302020300A20202020302E3335373220202020302E3631383820202020302E303030302043202020302020302020302020302020302020302020302020302020302020302020302020300A2020202D312E303731372020202D302E3230363320202020302E3030303020436C2020302020302020302020302020302020302020302020302020302020302020302020300A2020312020322020322020302020202020200A2020322020332020312020302020202020200A2020322020342020312020302020202020200A2020332020352020312020302020202020200A4D2020454E44
Contributor: NARA WOMEN'S UNIVERSITY
InstType: EI
InstName: HITACHI M-80
IoniMethod: _ENERGY 40 eV
IonPolarity: pos
Date: 2010-10-09 19:48:36+02:00
Num Peaks: 42
13 17 15 86 25 38 26 241 27 104 28 188 32 15 36 11 37 31 39 652 
40 113 41 246 42 29 43 355 49 119 50 86 51 128 52 44 53 323 54 302 
55 999 56 371 57 71 58 92 62 49 63 52 64 14 65 22 67 37 68 23 
69 13 73 15 75 121 77 58 79 26 81 21 89 106 90 308 91 63 92 94 
93 20 95 49 
