Name: DIISOPROPYLHYDRAZONE ACETALDEHYDE
MW: 142
Formula: C8H18N2
Synonym: MassBank: JP000838
Synonym: DIISOPROPYLHYDRAZONE ACETALDEHYDE
Synonym: ACETALDEHYDE DIISOPROPYLHYDRAZONE
Structure: 444949534F50524F50594C48594452415A4F4E452041434554414C4445485944452E6D6F6C0A20204368656D447261773036323431303035333532440A2031302020392020302020302020302020302020302020302020302020303939392056323030300A20202020302E383235302020202D302E3731343520202020302E303030302043202020302020302020302020302020302020302020302020302020302020302020302020300A20202020312E363530302020202D302E3731343520202020302E303030302043202020302020302020302020302020302020302020302020302020302020302020302020300A20202020302E3431323520202020302E3030303020202020302E30303030204E202020302020302020302020302020302020302020302020302020302020302020302020300A2020202D302E3431323520202020302E3030303020202020302E30303030204E202020302020302020302020302020302020302020302020302020302020302020302020300A2020202D302E383235302020202D302E3731343520202020302E303030302043202020302020302020302020302020302020302020302020302020302020302020302020300A2020202D312E363530302020202D302E3731343520202020302E303030302043202020302020302020302020302020302020302020302020302020302020302020302020300A2020202D302E343132352020202D312E3432383920202020302E303030302043202020302020302020302020302020302020302020302020302020302020302020302020300A2020202D302E3832353020202020302E3731343520202020302E303030302043202020302020302020302020302020302020302020302020302020302020302020302020300A2020202D312E3635303020202020302E3731343520202020302E303030302043202020302020302020302020302020302020302020302020302020302020302020302020300A2020202D302E3431323520202020312E3432383920202020302E303030302043202020302020302020302020302020302020302020302020302020302020302020302020300A2020312020322020312020302020202020200A2020332020342020312020302020202020200A2020352020362020312020302020202020200A2020352020372020312020302020202020200A2020342020352020312020302020202020200A2020382020392020312020302020202020200A2020382031302020312020302020202020200A2020342020382020312020302020202020200A2020312020332020322020302020202020200A4D2020454E44
Contributor: SASAKI S, TOYOHASHI UNIV. OF TECH.
InstType: EI
InstName: SHIMADZU LKB-2091
IoniMethod: _ENERGY 70 eV
IonPolarity: pos
Date: 2010-10-09 19:48:36+02:00
Num Peaks: 29
26 19 27 197 28 46 29 16 30 35 39 64 40 18 41 22 42 205 43 278 
44 333 45 1 54 8 55 12 56 58 57 12 58 40 68 13 69 12 70 3 
83 8 84 12 85 999 86 6 100 24 127 416 128 37 142 16 143 19 
