Name: MassBank: JP004921
CAS: 111-24-0
MW: 227
Formula: C5H10Br2
Synonym: MassBank: JP004921
Synonym: 1,5-DIBROMOPENTANE
Structure: 310A31380A312C352D444942524F4D4F50454E54414E452E6D6F6C0A20204368656D447261773131313630393132333432440A2020372020362020302020302020302020302020302020302020302020303939392056323030300A2020202D312E3432383920202020302E3230363220202020302E303030302043202020302020302020302020302020302020302020302020302020302020302020302020300A2020202D302E373134352020202D302E3230363320202020302E303030302043202020302020302020302020302020302020302020302020302020302020302020302020300A20202020302E3030303020202020302E3230363320202020302E303030302043202020302020302020302020302020302020302020302020302020302020302020302020300A20202020302E373134352020202D302E3230363220202020302E303030302043202020302020302020302020302020302020302020302020302020302020302020302020300A20202020312E3432383920202020302E3230363320202020302E303030302043202020302020302020302020302020302020302020302020302020302020302020302020300A20202020322E313433342020202D302E3230363220202020302E303030302042722020302020302020302020302020302020302020302020302020302020302020302020300A2020202D322E313433342020202D302E3230363320202020302E303030302042722020302020302020302020302020302020302020302020302020302020302020302020300A2020312020322020312020302020202020200A2020322020332020312020302020202020200A2020332020342020312020302020202020200A2020342020352020312020302020202020200A2020352020362020312020302020202020200A2020312020372020312020302020202020200A4D2020454E44
Contributor: MASS SPECTROSCOPY SOC. OF JAPAN (MSSJ)
InstType: EI
InstName: JEOL JMS-D-3000
IoniMethod: _ENERGY 70 eV
IonPolarity: pos
Date: 2010-10-09 19:48:36+02:00
Num Peaks: 21
42 77 43 85 53 25 55 10 67 28 68 37 69 999 70 57 80 12 82 12 
93 12 95 13 107 52 109 50 148 79 149 68 150 81 151 64 228 2 230 5 
232 2 
