Name: MassBank: JP007884
MW: 320
Formula: C21H40N2
Synonym: MassBank: JP007884
Synonym: 1-HEXADECYL-3,5-DIMETHYLPYRAZOLE
Structure: 312D48455841444543594C2D332C352D44494D455448594C505952415A4F4C452E6D6F6C0A20204368656D447261773131313930393134323732440A2032342032342020302020302020302020302020302020302020302020303939392056323030300A2020202D342E3635323720202020302E3636363620202020302E30303030204E202020302020302020302020302020302020302020302020302020302020302020302020300A2020202D352E3430363320202020312E3030323120202020302E30303030204E202020302020302020302020302020302020302020302020302020302020302020302020300A2020202D352E3935383420202020302E3338393120202020302E303030302043202020302020302020302020302020302020302020302020302020302020302020302020300A2020202D352E353435392020202D302E3332353420202020302E303030302043202020302020302020302020302020302020302020302020302020302020302020302020300A2020202D342E373338392020202D302E3135333920202020302E303030302043202020302020302020302020302020302020302020302020302020302020302020302020300A2020202D342E313235382020202D302E3730353920202020302E303030302043202020302020302020302020302020302020302020302020302020302020302020302020300A2020202D362E3737383920202020302E3437353320202020302E303030302043202020302020302020302020302020302020302020302020302020302020302020302020300A2020202D332E3933383220202020312E3037393120202020302E303030302043202020302020302020302020302020302020302020302020302020302020302020302020300A2020202D332E3232333720202020302E3636363620202020302E303030302043202020302020302020302020302020302020302020302020302020302020302020302020300A2020202D322E3530393320202020312E3037393120202020302E303030302043202020302020302020302020302020302020302020302020302020302020302020302020300A2020202D312E3739343820202020302E3636363620202020302E303030302043202020302020302020302020302020302020302020302020302020302020302020302020300A2020202D312E3038303320202020312E3037393120202020302E303030302043202020302020302020302020302020302020302020302020302020302020302020302020300A2020202D302E3336353820202020302E3636363620202020302E303030302043202020302020302020302020302020302020302020302020302020302020302020302020300A20202020302E3334383620202020312E3037393120202020302E303030302043202020302020302020302020302020302020302020302020302020302020302020302020300A20202020312E3036333120202020302E3636363620202020302E303030302043202020302020302020302020302020302020302020302020302020302020302020302020300A20202020312E3737373620202020312E3037393120202020302E303030302043202020302020302020302020302020302020302020302020302020302020302020302020300A20202020322E3439323020202020302E3636363620202020302E303030302043202020302020302020302020302020302020302020302020302020302020302020302020300A20202020332E3230363520202020312E3037393120202020302E303030302043202020302020302020302020302020302020302020302020302020302020302020302020300A20202020332E3932313020202020302E3636363620202020302E303030302043202020302020302020302020302020302020302020302020302020302020302020302020300A20202020342E3633353420202020312E3037393120202020302E303030302043202020302020302020302020302020302020302020302020302020302020302020302020300A20202020352E3334393920202020302E3636363620202020302E303030302043202020302020302020302020302020302020302020302020302020302020302020302020300A20202020362E3036343420202020312E3037393120202020302E303030302043202020302020302020302020302020302020302020302020302020302020302020302020300A20202020362E3737383920202020302E3636363620202020302E303030302043202020302020302020302020302020302020302020302020302020302020302020302020300A2020202D352E383831342020202D312E3037393120202020302E303030302048202020302020302020302020302020302020302020302020302020302020302020302020300A2020312020322020312020302020202020200A2020322020332020322020302020202020200A2020332020342020312020302020202020200A2020342020352020322020302020202020200A2020312020352020312020302020202020200A2020352020362020312020302020202020200A2020332020372020312020302020202020200A2020382020392020312020302020202020200A2020392031302020312020302020202020200A2031302031312020312020302020202020200A2031312031322020312020302020202020200A2031322031332020312020302020202020200A2031332031342020312020302020202020200A2031342031352020312020302020202020200A2031352031362020312020302020202020200A2031362031372020312020302020202020200A2031372031382020312020302020202020200A2031382031392020312020302020202020200A2031392032302020312020302020202020200A2032302032312020312020302020202020200A2032312032322020312020302020202020200A2032322032332020312020302020202020200A2020312020382020312020302020202020200A2020342032342020312020302020202020200A4D2020454E44
Contributor: SASAKI S, TOYOHASHI UNIV. OF TECH.
InstType: EI
InstName: MX-1303
IoniMethod: _ENERGY 50 eV
IonPolarity: pos
Date: 2010-10-09 19:48:36+02:00
Num Peaks: 59
26 26 27 97 28 107 29 19 39 70 40 23 41 414 42 14 43 529 53 30 
54 44 55 37 56 124 57 372 58 19 67 6 68 54 69 210 70 74 71 18 
81 43 82 44 83 116 85 10 95 80 96 457 97 287 98 4 99 20 108 21 
109 999 110 39 111 56 123 76 124 142 125 2 137 56 138 28 151 232 152 3 
165 223 166 31 179 74 180 1 193 37 207 57 208 13 221 6 222 13 235 32 
249 22 263 2 264 10 277 23 292 17 305 3 319 32 320 93 321 23 
