Name: MassBank: JP004244
MW: 281
Formula: C10H9Cl3O3
Synonym: MassBank: JP004244
Synonym: 2-(2,4,5-TRICHLOROPHENOXY)PROPIONIC ACID METHYL ESTER
Structure: 322D28322C342C352D54524943484C4F524F5048454E4F58592950524F50494F4E49432041434944204D455448594C2045535445522E6D6F6C0A20204368656D447261773132323130393130343332440A2031362031362020302020302020302020302020302020302020302020303939392056323030300A20202020322E303632352020202D302E3731343520202020302E303030302043202020302020302020302020302020302020302020302020302020302020302020302020300A20202020312E323337352020202D302E3731343520202020302E303030302043202020302020302020302020302020302020302020302020302020302020302020302020300A20202020302E383235302020202D312E3432383920202020302E303030302043202020302020302020302020302020302020302020302020302020302020302020302020300A20202020322E343735302020202D312E3432383920202020302E30303030204F202020302020302020302020302020302020302020302020302020302020302020302020300A20202020322E3437353020202020302E3030303020202020302E30303030204F202020302020302020302020302020302020302020302020302020302020302020302020300A20202020302E3832353020202020302E3030303020202020302E30303030204F202020302020302020302020302020302020302020302020302020302020302020302020300A2020202D302E3030303020202020302E3030303020202020302E303030302043202020302020302020302020302020302020302020302020302020302020302020302020300A2020202D302E343132352020202D302E3731343520202020302E303030302043202020302020302020302020302020302020302020302020302020302020302020302020300A2020202D312E323337352020202D302E3731343520202020302E303030302043202020302020302020302020302020302020302020302020302020302020302020302020300A2020202D312E3635303020202020302E3030303020202020302E303030302043202020302020302020302020302020302020302020302020302020302020302020302020300A2020202D312E3233373520202020302E3731343520202020302E303030302043202020302020302020302020302020302020302020302020302020302020302020302020300A2020202D302E3431323520202020302E3731343520202020302E303030302043202020302020302020302020302020302020302020302020302020302020302020302020300A2020202D312E3635303020202020312E3432383920202020302E3030303020436C2020302020302020302020302020302020302020302020302020302020302020302020300A2020202D322E3437353020202020302E3030303020202020302E3030303020436C2020302020302020302020302020302020302020302020302020302020302020302020300A2020202D302E303030302020202D312E3432383920202020302E3030303020436C2020302020302020302020302020302020302020302020302020302020302020302020300A20202020322E3036323520202020302E3731343520202020302E303030302043202020302020302020302020302020302020302020302020302020302020302020302020300A2020312020322020312020302020202020200A2020322020332020312020302020202020200A2020312020342020322020302020202020200A2020312020352020312020302020202020200A2020372020382020312020302020202020200A2020382020392020322020302020202020200A2020392031302020312020302020202020200A2031302031312020322020302020202020200A2031312031322020312020302020202020200A2020372031322020322020302020202020200A2020362020372020312020302020202020200A2031312031332020312020302020202020200A2031302031342020312020302020202020200A2020382031352020312020302020202020200A2020322020362020312020302020202020200A2020352031362020312020302020202020200A4D2020454E44
Contributor: KOGA M, UNIV. OF OCCUPATIONAL AND ENVIRONMENTAL HEALTH
InstType: EI
InstName: JEOL JMS-01-SG
IoniMethod: _ENERGY 70 eV
IonPolarity: pos
Date: 2010-10-09 19:48:36+02:00
Num Peaks: 71
41 35 43 63 45 33 55 22 56 35 57 12 59 341 61 2 62 45 63 10 
72 12 73 2 74 17 83 20 84 15 85 1 87 278 88 10 96 10 97 10 
99 40 107 30 108 25 109 6 110 10 111 17 125 10 132 5 133 33 134 28 
135 17 143 6 144 35 145 40 146 20 159 5 160 33 161 43 162 28 163 1 
164 10 167 73 169 71 171 2 179 51 181 48 183 12 187 2 188 73 189 22 
190 45 195 6 196 999 197 125 198 959 199 8 200 303 201 17 202 28 223 37 
224 35 225 364 226 28 227 11 247 17 282 308 283 35 284 30 285 30 286 102 
288 10 
