Name: MassBank: JP003272
MW: 350
Formula: C12H6N4O9
Synonym: MassBank: JP003272
Synonym: BIS(2,4-DINITROPHENYL)ETHER
Structure: 42495328322C342D44494E4954524F5048454E594C2945544845522E6D6F6C0A20204368656D447261773039303531303231343132440A2032352032362020302020302020302020302020302020302020302020303939392056323030300A20202020302E303030302020202D302E3631383720202020302E30303030204F202020302020302020302020302020302020302020302020302020302020302020302020300A2020202D302E373134352020202D302E3230363220202020302E303030302043202020302020302020302020302020302020302020302020302020302020302020302020300A2020202D312E343238392020202D302E3631383720202020302E303030302043202020302020302020302020302020302020302020302020302020302020302020302020300A2020202D322E313433342020202D302E3230363220202020302E303030302043202020302020302020302020302020302020302020302020302020302020302020302020300A2020202D322E3134333420202020302E3631383820202020302E303030302043202020302020302020302020302020302020302020302020302020302020302020302020300A2020202D312E3432383920202020312E3033313320202020302E303030302043202020302020302020302020302020302020302020302020302020302020302020302020300A2020202D302E3731343520202020302E3631383820202020302E303030302043202020302020302020302020302020302020302020302020302020302020302020302020300A2020202D322E3835373920202020312E3033313320202020302E30303030204E202020302020332020302020302020302020302020302020302020302020302020302020300A2020202D322E3835373920202020312E3835363320202020302E30303030204F202020302020302020302020302020302020302020302020302020302020302020302020300A2020202D332E3537323420202020302E3631383820202020302E30303030204F202020302020352020302020302020302020302020302020302020302020302020302020300A2020202D312E343238392020202D312E3434333720202020302E30303030204E202020302020332020302020302020302020302020302020302020302020302020302020300A2020202D302E373134352020202D312E3835363220202020302E30303030204F202020302020302020302020302020302020302020302020302020302020302020302020300A2020202D322E313433342020202D312E3835363220202020302E30303030204F202020302020352020302020302020302020302020302020302020302020302020302020300A20202020302E373134352020202D302E3230363220202020302E303030302043202020302020302020302020302020302020302020302020302020302020302020302020300A20202020312E343238392020202D302E3631383720202020302E303030302043202020302020302020302020302020302020302020302020302020302020302020302020300A20202020322E313433342020202D302E3230363220202020302E303030302043202020302020302020302020302020302020302020302020302020302020302020302020300A20202020322E3134333420202020302E3631383820202020302E303030302043202020302020302020302020302020302020302020302020302020302020302020302020300A20202020312E3432383920202020312E3033313320202020302E303030302043202020302020302020302020302020302020302020302020302020302020302020302020300A20202020302E3731343520202020302E3631383820202020302E303030302043202020302020302020302020302020302020302020302020302020302020302020302020300A20202020322E3835373920202020312E3033313320202020302E30303030204E202020302020332020302020302020302020302020302020302020302020302020302020300A20202020322E3835373920202020312E3835363320202020302E30303030204F202020302020302020302020302020302020302020302020302020302020302020302020300A20202020332E3537323420202020302E3631383820202020302E30303030204F202020302020352020302020302020302020302020302020302020302020302020302020300A20202020312E343238392020202D312E3434333720202020302E30303030204E202020302020332020302020302020302020302020302020302020302020302020302020300A20202020302E373134352020202D312E3835363320202020302E30303030204F202020302020302020302020302020302020302020302020302020302020302020302020300A20202020322E313433342020202D312E3835363220202020302E30303030204F202020302020352020302020302020302020302020302020302020302020302020302020300A2020322020332020312020302020202020200A2020332020342020322020302020202020200A2020342020352020312020302020202020200A2020352020362020322020302020202020200A2020362020372020312020302020202020200A2020322020372020322020302020202020200A2020382020392020322020302020202020200A2020382031302020312020302020202020200A2020352020382020312020302020202020200A2031312031322020322020302020202020200A2031312031332020312020302020202020200A2020332031312020312020302020202020200A2020312020322020312020302020202020200A2031342031352020312020302020202020200A2031352031362020322020302020202020200A2031362031372020312020302020202020200A2031372031382020322020302020202020200A2031382031392020312020302020202020200A2031342031392020322020302020202020200A2032302032312020322020302020202020200A2032302032322020312020302020202020200A2031372032302020312020302020202020200A2032332032342020322020302020202020200A2032332032352020312020302020202020200A2031352032332020312020302020202020200A2020312031342020312020302020202020200A4D202043484720203820202038202020312020313020202D3120203131202020312020313320202D3120203230202020312020323220202D3120203233202020312020323520202D310A4D2020454E44
Contributor: KOGA M, UNIV. OF OCCUPATIONAL AND ENVIRONMENTAL HEALTH
InstType: EI
InstName: JEOL JMS-01-SG-2
IoniMethod: _ENERGY 75 eV
IonPolarity: pos
Date: 2010-10-09 19:48:36+02:00
Num Peaks: 41
45 130 46 77 50 59 51 238 52 58 53 125 62 126 63 273 64 88 74 153 
75 185 76 97 77 106 79 825 80 62 86 44 87 52 88 38 90 45 91 86 
92 48 93 174 103 42 107 73 117 43 118 87 126 50 134 81 137 67 138 56 
154 36 164 80 166 40 167 999 168 110 184 82 202 52 230 224 267 38 350 94 
351 16 
