Name: MassBank: JP008025
MW: 192
Formula: C12H16O2
Synonym: MassBank: JP008025
Synonym: TRICYCLO(5.4.1.0(3,8))DODECANE-2,6-DIONE
Structure: 5452494359434C4F28352E342E312E3028332C382929444F444543414E452D322C362D44494F4E452E6D6F6C0A20204368656D447261773038313231303038323632440A2031342031362020302020302020302020302020302020302020302020303939392056323030300A2020202D312E3631373420202020302E3334313120202020302E303030302043202020302020302020302020302020302020302020302020302020302020302020302020300A2020202D302E3831333120202020302E3532343720202020302E303030302043202020302020302020302020302020302020302020302020302020302020302020302020300A2020202D302E3136383120202020302E3031303320202020302E303030302043202020302020302020302020302020302020302020302020302020302020302020302020300A20202020302E3534363420202020302E3432323820202020302E303030302043202020302020302020302020302020302020302020302020302020302020302020302020300A20202020312E3236303920202020302E3031303320202020302E303030302043202020302020302020302020302020302020302020302020302020302020302020302020300A20202020312E323630392020202D302E3831343720202020302E303030302043202020302020302020302020302020302020302020302020302020302020302020302020300A20202020302E353436342020202D312E3232373220202020302E303030302043202020302020302020302020302020302020302020302020302020302020302020302020300A2020202D302E313638312020202D302E3831343720202020302E303030302043202020302020302020302020302020302020302020302020302020302020302020302020300A2020202D302E383133312020202D312E3332393020202020302E303030302043202020302020302020302020302020302020302020302020302020302020302020302020300A2020202D312E363137342020202D312E3134353520202020302E303030302043202020302020302020302020302020302020302020302020302020302020302020302020300A2020202D312E393735332020202D302E3430323220202020302E303030302043202020302020302020302020302020302020302020302020302020302020302020302020300A2020202D302E393835302020202D312E3036323620202020302E303030302043202020302020302020302020302020302020302020302020302020302020302020302020300A2020202D302E3632393520202020312E3332393020202020302E30303030204F202020302020302020302020302020302020302020302020302020302020302020302020300A20202020312E393735332020202D312E3232373220202020302E30303030204F202020302020302020302020302020302020302020302020302020302020302020302020300A2020312020322020312020302020202020200A2020322020332020312020302020202020200A2020332020342020312020302020202020200A2020342020352020312020302020202020200A2020352020362020312020302020202020200A2020362020372020312020302020202020200A2020372020382020312020302020202020200A2020382020392020312020302020202020200A2020392031302020312020302020202020200A2031302031312020312020302020202020200A2020312031312020312020302020202020200A2020312031322020312020302020202020200A2020372031322020312020302020202020200A2020332020382020312020302020202020200A2020322031332020322020302020202020200A2020362031342020322020302020202020200A4D2020454E44
Contributor: HISAHIRO HAGIWARA, CHEMICAL RESEARCH INSTITUTE OF NON-AQUEOUSSOLUTIONS TOHOKU UNIV.
InstType: EI
InstName: JEOL JMS-DX-300
IoniMethod: _ENERGY 70 eV
IonPolarity: pos
Date: 2010-10-09 19:48:36+02:00
Num Peaks: 47
31 100 39 389 41 388 43 83 53 271 54 127 55 688 65 14 66 156 67 333 
68 192 69 99 77 253 78 84 79 633 80 38 81 257 82 170 83 181 84 89 
91 272 92 137 93 282 94 354 95 389 96 246 97 314 98 88 104 102 105 164 
107 204 108 10 109 123 110 145 112 121 119 82 120 122 121 256 122 164 125 999 
135 170 136 130 145 402 148 137 163 338 191 875 192 99 
