Name: PARA-CYANOBENZOIC ACID ISOBUTYL ESTER
MW: 203
Formula: C12H13NO2
Synonym: MassBank: JP000999
Synonym: PARA-CYANOBENZOIC ACID ISOBUTYL ESTER
Synonym: ISOBUTYL PARA-CYANOBENZOATE
Structure: 504152412D4359414E4F42454E5A4F494320414349442049534F425554594C2045535445522E6D6F6C0A20204368656D447261773038313231303034323032440A2031352031352020302020302020302020302020302020302020302020303939392056323030300A20202020302E383235302020202D302E3731343520202020302E303030302043202020302020302020302020302020302020302020302020302020302020302020302020300A20202020302E303030302020202D302E3731343520202020302E303030302043202020302020302020302020302020302020302020302020302020302020302020302020300A2020202D302E343132352020202D312E3432383920202020302E303030302043202020302020302020302020302020302020302020302020302020302020302020302020300A2020202D312E323337352020202D312E3432383920202020302E303030302043202020302020302020302020302020302020302020302020302020302020302020302020300A2020202D312E363530302020202D302E3731343520202020302E303030302043202020302020302020302020302020302020302020302020302020302020302020302020300A2020202D312E3233373520202020302E3030303020202020302E303030302043202020302020302020302020302020302020302020302020302020302020302020302020300A2020202D302E3431323520202020302E3030303020202020302E303030302043202020302020302020302020302020302020302020302020302020302020302020302020300A20202020312E323337352020202D312E3432383920202020302E30303030204F202020302020302020302020302020302020302020302020302020302020302020302020300A20202020312E3233373520202020302E3030303020202020302E30303030204F202020302020302020302020302020302020302020302020302020302020302020302020300A2020202D322E343735302020202D302E3731343520202020302E303030302043202020302020302020302020302020302020302020302020302020302020302020302020300A2020202D332E333030302020202D302E3731343520202020302E30303030204E202020302020302020302020302020302020302020302020302020302020302020302020300A20202020322E3036323520202020302E3030303020202020302E303030302043202020302020302020302020302020302020302020302020302020302020302020302020300A20202020322E3437353020202020302E3731343520202020302E303030302043202020302020302020302020302020302020302020302020302020302020302020302020300A20202020322E3036323520202020312E3432383920202020302E303030302043202020302020302020302020302020302020302020302020302020302020302020302020300A20202020332E3330303020202020302E3731343520202020302E303030302043202020302020302020302020302020302020302020302020302020302020302020302020300A2020312020322020312020302020202020200A2020322020332020312020302020202020200A2020332020342020322020302020202020200A2020342020352020312020302020202020200A2020352020362020322020302020202020200A2020362020372020312020302020202020200A2020322020372020322020302020202020200A2020312020382020322020302020202020200A2020312020392020312020302020202020200A2031302031312020332020302020202020200A2020352031302020312020302020202020200A2031322031332020312020302020202020200A2031332031342020312020302020202020200A2031332031352020312020302020202020200A2020392031322020312020302020202020200A4D2020454E44
Contributor: TAJIMA S, GUNMA COLLEGE OF TECHNOLOGY
InstType: EI
InstName: HITACHI RMU-7M
IoniMethod: _ENERGY 70 eV
IonPolarity: pos
Date: 2010-10-09 19:48:36+02:00
Num Peaks: 27
27 44 28 11 29 48 31 11 39 43 41 132 42 25 43 63 50 32 51 53 
52 11 55 28 56 810 57 63 73 22 74 12 75 80 76 54 101 10 102 346 
103 59 104 13 130 999 131 96 135 11 148 102 149 15 
