Name: 4-PIPECOLINE
MW: 99
Formula: C6H13N
Synonym: MassBank: JP005861
Synonym: 4-PIPECOLINE
Synonym: 4-METHYLPIPERIDINE
Structure: 310A31390A342D50495045434F4C494E452E6D6F6C0A20204368656D447261773034323231303136323132440A2020372020372020302020302020302020302020302020302020302020303939392056323030300A20202020302E383235302020202D302E3731343520202020302E303030302043202020302020302020302020302020302020302020302020302020302020302020302020300A2020202D302E303030302020202D302E3731343520202020302E303030302043202020302020302020302020302020302020302020302020302020302020302020302020300A2020202D302E3431323520202020302E3030303020202020302E303030302043202020302020302020302020302020302020302020302020302020302020302020302020300A2020202D302E3030303020202020302E3731343520202020302E303030302043202020302020302020302020302020302020302020302020302020302020302020302020300A20202020302E3832353020202020302E3731343520202020302E303030302043202020302020302020302020302020302020302020302020302020302020302020302020300A20202020312E323337352020202D302E3030303020202020302E30303030204E202020302020302020302020302020302020302020302020302020302020302020302020300A2020202D312E3233373520202020302E3030303020202020302E303030302043202020302020302020302020302020302020302020302020302020302020302020302020300A2020312020322020312020302020202020200A2020322020332020312020302020202020200A2020332020342020312020302020202020200A2020342020352020312020302020202020200A2020352020362020312020302020202020200A2020312020362020312020302020202020200A2020332020372020312020302020202020200A4D2020454E44
Contributor: YAMAMOTO M, DEP. CHEMISTRY, FAC. SCIENCE, NARA WOMEN'S UNIV.
InstType: EI
InstName: HITACHI RMU-6M
IoniMethod: _ENERGY 70 eV
IonPolarity: pos
Date: 2010-10-09 19:48:36+02:00
Num Peaks: 35
15 42 26 23 27 180 28 290 29 228 30 579 38 18 39 146 40 25 41 217 
42 362 43 314 44 563 45 18 50 12 51 19 52 14 53 38 54 29 55 171 
56 685 57 487 58 23 67 23 68 25 69 36 70 75 71 51 80 18 82 27 
84 246 85 14 98 999 99 589 100 41 
