Name: MassBank: JP002713
MW: 416
Formula: C24H40O2Si2
Synonym: MassBank: JP002713
Synonym: 3,17ALPHA-DI-O-TRIMETHYLSILYLESTRADIOL
Structure: 332C3137414C5048412D44492D4F2D5452494D455448594C53494C594C455354524144494F4C2E6D6F6C0A20204368656D447261773032323131303139333332440A2033322033352020302020302020302020302020302020302020302020303939392056323030300A2020202D312E383231332020202D302E3935323520202020302E303030302043202020302020302020302020302020302020302020302020302020302020302020302020300A2020202D312E383231332020202D312E3737373520202020302E303030302043202020302020302020302020302020302020302020302020302020302020302020302020300A2020202D312E313036382020202D322E3139303020202020302E303030302043202020302020302020302020302020302020302020302020302020302020302020302020300A2020202D302E333932332020202D312E3737373520202020302E303030302043202020302020302020302020302020302020302020302020302020302020302020302020300A2020202D302E333932332020202D302E3935323520202020302E303030302043202020302020302020302020302020302020302020302020302020302020302020302020300A2020202D312E313036382020202D302E3534303020202020302E303030302043202020302020302020302020302020302020302020302020302020302020302020302020300A20202020302E333232322020202D322E3139303020202020302E303030302043202020302020302020302020302020302020302020302020302020302020302020302020300A20202020312E303336362020202D312E3737373520202020302E303030302043202020302020302020302020302020302020302020302020302020302020302020302020300A20202020312E303336362020202D302E3935323520202020302E303030302043202020302020302020302020302020302020302020302020302020302020302020302020300A20202020302E333232322020202D302E3534303020202020302E303030302043202020302020302020302020302020302020302020302020302020302020302020302020300A20202020312E373531312020202D302E3534303020202020302E303030302043202020302020302020302020302020302020302020302020302020302020302020302020300A20202020312E3735313120202020302E3238353020202020302E303030302043202020302020302020302020302020302020302020302020302020302020302020302020300A20202020312E3033363620202020302E3639373520202020302E303030302043202020302020302020302020302020302020302020302020302020302020302020302020300A20202020302E3332323220202020302E3238353020202020302E303030302043202020302020302020302020302020302020302020302020302020302020302020302020300A20202020322E353335372020202D302E3739343920202020302E303030302043202020302020302020302020302020302020302020302020302020302020302020302020300A20202020332E303230362020202D302E3132373520202020302E303030302043202020302020302020302020302020302020302020302020302020302020302020302020300A20202020322E3533353720202020302E3534303020202020302E303030302043202020302020302020302020302020302020302020302020302020302020302020302020300A2020202D302E333932332020202D302E3132373520202020302E303030302048202020302020302020302020302020302020302020302020302020302020302020302020300A20202020322E313633362020202D312E3235343420202020302E303030302048202020302020302020302020302020302020302020302020302020302020302020302020300A20202020322E3533353720202020312E3336353020202020302E30303030204F202020302020302020302020302020302020302020302020302020302020302020302020300A20202020312E3735313120202020312E3131303020202020302E303030302043202020302020302020302020302020302020302020302020302020302020302020302020300A20202020332E3235303220202020302E3935323520202020302E303030302048202020302020302020302020302020302020302020302020302020302020302020302020300A20202020312E363230302020202D312E3533353820202020302E303030302048202020302020302020302020302020302020302020302020302020302020302020302020300A2020202D322E353335372020202D322E3139303020202020302E30303030204F202020302020302020302020302020302020302020302020302020302020302020302020300A2020202D332E323530322020202D312E3737373520202020302E303030302053692020302020302020302020302020302020302020302020302020302020302020302020300A2020202D332E393634372020202D312E3336353020202020302E303030302043202020302020302020302020302020302020302020302020302020302020302020302020300A2020202D322E383337372020202D312E3036333020202020302E303030302043202020302020302020302020302020302020302020302020302020302020302020302020300A2020202D332E363632372020202D322E3439313920202020302E303030302043202020302020302020302020302020302020302020302020302020302020302020302020300A20202020332E3235303220202020312E3737373520202020302E303030302053692020302020302020302020302020302020302020302020302020302020302020302020300A20202020332E3936343720202020322E3139303020202020302E303030302043202020302020302020302020302020302020302020302020302020302020302020302020300A20202020322E3833373720202020322E3439313920202020302E303030302043202020302020302020302020302020302020302020302020302020302020302020302020300A20202020332E3636323720202020312E3036333020202020302E303030302043202020302020302020302020302020302020302020302020302020302020302020302020300A2020312020322020322020302020202020200A2020322020332020312020302020202020200A2020332020342020322020302020202020200A2020342020352020312020302020202020200A2020352020362020322020302020202020200A2020362020312020312020302020202020200A2020342020372020312020302020202020200A2020372020382020312020302020202020200A2020382020392020312020302020202020200A2020392031302020312020302020202020200A2031302020352020312020302020202020200A2020392031312020312020302020202020200A2031312031322020312020302020202020200A2031322031332020312020302020202020200A2031332031342020312020302020202020200A2031342031302020312020302020202020200A2031312031352020312020302020202020200A2031352031362020312020302020202020200A2031362031372020312020302020202020200A2031372031322020312020302020202020200A2031302031382020312020362020202020200A2031312031392020312020362020202020200A2031372032302020312020362020202020200A2031322032312020312020312020202020200A2031372032322020312020312020202020200A2020392032332020312020312020202020200A2020322032342020312020302020202020200A2032342032352020312020302020202020200A2032352032362020312020302020202020200A2032352032372020312020312020202020200A2032352032382020312020312020202020200A2032302032392020312020302020202020200A2032392033302020312020302020202020200A2032392033312020312020312020202020200A2032392033322020312020312020202020200A4D2020454E44
Contributor: HAYASHI A, DEPT. OF CHEMISTRY, FAC. OF SCI. AND TECHNOLOGY, KINKI UNIV.
InstType: EI
InstName: SHIMADZU LKB-9000B
IoniMethod: _ENERGY 70 eV
IonPolarity: pos
Date: 2010-10-09 19:48:36+02:00
Num Peaks: 162
53 8 55 47 56 3 57 1 58 17 59 74 60 12 61 2 65 13 67 35 
68 13 72 2 73 868 74 73 75 264 76 2 77 35 78 17 79 41 81 5 
82 9 85 13 87 11 89 1 91 40 93 52 94 8 95 2 98 12 99 5 
100 11 101 3 103 26 105 22 107 24 108 1 109 8 113 11 115 82 116 3 
117 23 119 7 121 8 125 0 127 18 128 34 129 350 130 6 131 19 133 9 
134 14 135 1 141 33 143 18 145 11 147 2 149 5 151 5 152 11 153 1 
155 19 157 12 159 44 161 3 163 45 164 14 165 15 167 2 169 15 175 22 
177 60 178 3 179 58 180 31 181 14 182 1 185 21 187 17 189 44 190 1 
191 6 192 15 193 26 194 2 195 12 199 14 200 15 201 4 202 14 203 55 
204 26 205 12 206 34 213 12 214 11 215 4 216 24 217 65 218 157 219 4 
220 17 223 11 227 14 229 8 230 79 231 171 232 189 233 5 234 14 235 113 
237 12 242 2 243 37 244 116 245 20 246 2 247 12 250 20 253 18 254 2 
255 21 256 21 257 41 258 4 259 14 268 13 269 53 270 3 271 49 272 37 
273 13 283 6 284 103 285 596 286 168 287 11 288 25 297 48 298 75 299 3 
300 44 301 10 309 23 310 1 311 35 312 13 324 32 325 11 326 182 327 40 
328 16 340 5 344 11 401 79 402 32 403 1 414 14 415 44 416 999 417 36 
418 132 419 30 
