Name: MassBank: JP009386
MW: 193
Formula: C7H5Cl3
Synonym: MassBank: JP009386
Synonym: ALPHA,ALPHA,ALPHA-TRICHLOROTOLUENE
Structure: 414C5048412C414C5048412C414C5048412D54524943484C4F524F544F4C55454E452E6D6F6C0A20204368656D447261773038303631303034353032440A2031302031302020302020302020302020302020302020302020302020303939392056323030300A20202020302E3030303020202020302E3030303020202020302E303030302043202020302020302020302020302020302020302020302020302020302020302020302020300A2020202D302E343132352020202D302E3731343520202020302E303030302043202020302020302020302020302020302020302020302020302020302020302020302020300A2020202D312E3635303020202020302E3030303020202020302E303030302043202020302020302020302020302020302020302020302020302020302020302020302020300A2020202D302E3431323520202020302E3731343520202020302E303030302043202020302020302020302020302020302020302020302020302020302020302020302020300A2020202D312E323337352020202D302E3731343520202020302E303030302043202020302020302020302020302020302020302020302020302020302020302020302020300A2020202D312E3233373520202020302E3731343520202020302E303030302043202020302020302020302020302020302020302020302020302020302020302020302020300A20202020302E3832353020202020302E3030303020202020302E303030302043202020302020302020302020302020302020302020302020302020302020302020302020300A20202020302E3832353020202020302E3832353020202020302E3030303020436C2020302020302020302020302020302020302020302020302020302020302020302020300A20202020312E3635303020202020302E3030303020202020302E3030303020436C2020302020302020302020302020302020302020302020302020302020302020302020300A20202020302E383235302020202D302E3832353020202020302E3030303020436C2020302020302020302020302020302020302020302020302020302020302020302020300A2020312020322020312020302020202020200A2020312020342020322020302020202020200A2020322020352020322020302020202020200A2020332020352020312020302020202020200A2020332020362020322020302020202020200A2020342020362020312020302020202020200A2020312020372020312020302020202020200A2020372020382020312020302020202020200A2020372020392020312020302020202020200A2020372031302020312020302020202020200A4D2020454E44
Contributor: GUNMA COLLEGE OF TECHNOLOGY
InstType: EI
InstName: HITACHI M-80A
IoniMethod: _ENERGY 70 eV
IonPolarity: pos
Date: 2010-10-09 19:48:36+02:00
Num Peaks: 50
26 35 27 28 35 46 36 15 37 46 38 52 39 116 43 25 44 33 47 18 
49 29 50 100 51 77 60 17 61 75 62 134 63 175 64 11 72 27 73 59 
74 26 75 27 77 24 80 39 81 25 84 21 85 29 86 35 87 37 88 13 
89 258 90 20 96 12 97 43 99 35 105 11 107 11 123 85 124 66 125 34 
126 22 133 21 135 13 159 999 160 79 161 644 162 51 163 106 194 29 196 28 
