Name: TRICHLOROETHYLENE
MW: 129
Formula: C2HCl3
Synonym: MassBank: JP002102
Synonym: TRICHLOROETHYLENE
Structure: 310A31340A54524943484C4F524F455448594C454E452E6D6F6C0A20204368656D447261773038313231303038323332440A2020352020342020302020302020302020302020302020302020302020303939392056323030300A20202020302E333537322020202D302E3230363220202020302E303030302043202020302020302020302020302020302020302020302020302020302020302020302020300A2020202D302E333537322020202D302E3631383820202020302E303030302043202020302020302020302020302020302020302020302020302020302020302020302020300A20202020312E303731372020202D302E3631383720202020302E3030303020436C2020302020302020302020302020302020302020302020302020302020302020302020300A20202020302E3335373220202020302E3631383820202020302E3030303020436C2020302020302020302020302020302020302020302020302020302020302020302020300A2020202D312E303731372020202D302E3230363220202020302E3030303020436C2020302020302020302020302020302020302020302020302020302020302020302020300A2020312020322020322020302020202020200A2020312020332020312020302020202020200A2020312020342020312020302020202020200A2020322020352020312020302020202020200A4D2020454E44
Contributor: TAJIMA S, GUNMA COLLEGE OF TECHNOLOGY
InstType: EI
InstName: HITACHI RMU-7M
IoniMethod: _ENERGY 70 eV
IonPolarity: pos
Date: 2010-10-09 19:48:36+02:00
Num Peaks: 29
24 17 25 88 35 51 36 15 37 18 47 82 48 25 49 29 59 56 60 372 
61 29 62 119 65 15 66 15 82 14 83 12 84 11 94 80 95 999 96 75 
97 644 98 23 99 102 130 874 131 24 132 837 133 19 134 266 136 30 
