Name: 3-CHLOROPROPENE
MW: 76
Formula: C3H5Cl
Synonym: MassBank: JP008890
Synonym: 3-CHLOROPROPENE
Synonym: ALLYL CHLORIDE
Structure: 310A31320A332D43484C4F524F50524F50454E452E6D6F6C0A20204368656D447261773032323231303136343932440A2020342020332020302020302020302020302020302020302020302020303939392056323030300A20202020312E3037313720202020302E3230363220202020302E303030302043202020302020302020302020302020302020302020302020302020302020302020302020300A20202020302E333537322020202D302E3230363320202020302E303030302043202020302020302020302020302020302020302020302020302020302020302020302020300A2020202D302E3335373220202020302E3230363320202020302E303030302043202020302020302020302020302020302020302020302020302020302020302020302020300A2020202D312E303731372020202D302E3230363320202020302E3030303020436C2020302020302020302020302020302020302020302020302020302020302020302020300A2020312020322020322020302020202020200A2020322020332020312020302020202020200A2020332020342020312020302020202020200A4D2020454E44
Contributor: TAJIMA S, GUNMA COLLEGE OF TECHNOLOGY
InstType: EI
InstName: HITACHI RMU-7M
IoniMethod: _ENERGY 70 eV
IonPolarity: pos
Date: 2010-10-09 19:48:36+02:00
Num Peaks: 21
14 17 15 27 25 13 26 47 27 84 28 14 35 24 36 25 37 87 38 111 
39 573 40 95 41 999 42 42 49 39 51 12 61 10 75 40 76 292 77 22 
78 94 
