Name: ETHYLMETHYLSILANE
MW: 74
Formula: C3H10Si
Synonym: MassBank: JP005334
Synonym: ETHYLMETHYLSILANE
Structure: 310A31320A455448594C4D455448594C53494C414E452E6D6F6C0A20204368656D447261773038313131303139313732440A2020342020332020302020302020302020302020302020302020302020303939392056323030300A2020202D302E333537322020202D302E3230363320202020302E303030302053692020302020302020302020302020302020302020302020302020302020302020302020300A2020202D312E3037313720202020302E3230363320202020302E303030302043202020302020302020302020302020302020302020302020302020302020302020302020300A20202020302E3335373220202020302E3230363320202020302E303030302043202020302020302020302020302020302020302020302020302020302020302020302020300A20202020312E303731372020202D302E3230363220202020302E303030302043202020302020302020302020302020302020302020302020302020302020302020302020300A2020312020322020312020302020202020200A2020332020342020312020302020202020200A2020312020332020312020302020202020200A4D2020454E44
Contributor: YAMAMOTO M, DEP. CHEMISTRY, FAC. SCIENCE, NARA WOMEN'S UNIV.
InstType: EI
InstName: HITACHI RMU-6M
IoniMethod: _ENERGY 70 eV
IonPolarity: pos
Date: 2010-10-09 19:48:36+02:00
Num Peaks: 27
26 10 27 47 28 95 29 9 30 17 31 118 39 8 41 2 42 86 43 312 
44 805 45 999 46 72 47 30 53 42 54 1 55 42 56 26 57 48 58 14 
59 232 60 21 70 21 71 3 72 551 73 434 74 172 
