Name: MassBank: JP004505
MW: 378
Formula: C16H26O10
Synonym: MassBank: JP004505
Synonym: 1,3,5,6-TETRA-O-ACETYL-2,4-DI-O-METHYLHEXITOL (1-D)
Synonym: 1,3,5,6-TETRACETOXY-2,4-DIMETHOXYHEXANE (1-D)
Structure: 312C332C352C362D54455452412D4F2D41434554594C2D322C342D44492D4F2D4D455448594C48455849544F4C2028312D44292E6D6F6C0A20204368656D447261773131313130393137353432440A2032372032362020302020302020302020302020302020302020302020303939392056323030300A20202020302E383235302020202D312E3738363220202020302E303030302043202020302020302020302020302020302020302020302020302020302020302020302020300A2020202D302E303030302020202D312E3738363220202020302E303030302043202020302020302020302020302020302020302020302020302020302020302020302020300A2020202D302E343132352020202D312E3037313720202020302E303030302043202020302020302020302020302020302020302020302020302020302020302020302020300A2020202D302E303030302020202D302E3335373220202020302E303030302043202020302020302020302020302020302020302020302020302020302020302020302020300A2020202D302E3431323520202020302E3335373220202020302E303030302043202020302020302020302020302020302020302020302020302020302020302020302020300A2020202D302E3030303020202020312E3037313720202020302E303030302043202020302020302020302020302020302020302020302020302020302020302020302020300A20202020312E323337352020202D322E3530303620202020302E303030302048202020312020302020302020302020302020302020302020302020302020302020302020300A20202020302E383235302020202D302E3335373220202020302E30303030204F202020302020302020302020302020302020302020302020302020302020302020302020300A20202020312E3233373520202020302E3335373220202020302E303030302043202020302020302020302020302020302020302020302020302020302020302020302020300A2020202D302E343132352020202D322E3530303620202020302E30303030204F202020302020302020302020302020302020302020302020302020302020302020302020300A2020202D302E303030302020202D332E3231353120202020302E303030302043202020302020302020302020302020302020302020302020302020302020302020302020300A2020202D302E3431323520202020312E3738363220202020302E30303030204F202020302020302020302020302020302020302020302020302020302020302020302020300A2020202D302E3030303020202020322E3530303620202020302E303030302043202020302020302020302020302020302020302020302020302020302020302020302020300A2020202D302E3431323520202020332E3231353120202020302E30303030204F202020302020302020302020302020302020302020302020302020302020302020302020300A20202020302E3832353020202020322E3530303620202020302E303030302043202020302020302020302020302020302020302020302020302020302020302020302020300A2020202D312E3233373520202020302E3335373220202020302E30303030204F202020302020302020302020302020302020302020302020302020302020302020302020300A2020202D312E3635303020202020312E3037313720202020302E303030302043202020302020302020302020302020302020302020302020302020302020302020302020300A2020202D322E3437353020202020312E3037313720202020302E30303030204F202020302020302020302020302020302020302020302020302020302020302020302020300A2020202D312E3233373520202020312E3738363220202020302E303030302043202020302020302020302020302020302020302020302020302020302020302020302020300A2020202D312E323337352020202D312E3037313720202020302E30303030204F202020302020302020302020302020302020302020302020302020302020302020302020300A2020202D312E363530302020202D312E3738363220202020302E303030302043202020302020302020302020302020302020302020302020302020302020302020302020300A2020202D322E343735302020202D312E3738363220202020302E30303030204F202020302020302020302020302020302020302020302020302020302020302020302020300A2020202D312E323337352020202D322E3530303620202020302E303030302043202020302020302020302020302020302020302020302020302020302020302020302020300A20202020312E323337352020202D312E3037313720202020302E30303030204F202020302020302020302020302020302020302020302020302020302020302020302020300A20202020322E303632352020202D312E3037313720202020302E303030302043202020302020302020302020302020302020302020302020302020302020302020302020300A20202020322E343735302020202D302E3335373220202020302E30303030204F202020302020302020302020302020302020302020302020302020302020302020302020300A20202020322E343735302020202D312E3738363220202020302E303030302043202020302020302020302020302020302020302020302020302020302020302020302020300A2020312020322020312020302020202020200A2020322020332020312020302020202020200A2020332020342020312020302020202020200A2020342020352020312020302020202020200A2020352020362020312020302020202020200A2020312020372020312020302020202020200A2020382020392020312020302020202020200A2020342020382020312020302020202020200A2031302031312020312020302020202020200A2020322031302020312020302020202020200A2031332031342020322020302020202020200A2031332031352020312020302020202020200A2031322031332020312020302020202020200A2020362031322020312020302020202020200A2031372031382020322020302020202020200A2031372031392020312020302020202020200A2031362031372020312020302020202020200A2020352031362020312020302020202020200A2032312032322020322020302020202020200A2032312032332020312020302020202020200A2032302032312020312020302020202020200A2020332032302020312020302020202020200A2032352032362020322020302020202020200A2032352032372020312020302020202020200A2032342032352020312020302020202020200A2020312032342020312020302020202020200A4D202049534F20203120202037202020320A4D2020454E44
Contributor: SEYAMA Y, DEPT. OF PHYSIOL. CHEMISTRY AND NUTRITION, FAC. OF MEDICINE, UNIV. OF TOKYO
InstType: EI
InstName: SHIMADZU LKB-9000B
IoniMethod: _ENERGY 70 eV
IonPolarity: pos
Date: 2010-10-09 19:48:36+02:00
Num Peaks: 55
41 18 42 17 43 98 44 2 45 30 58 17 59 85 60 1 61 10 69 37 
70 26 71 4 72 11 73 16 74 62 75 3 76 12 85 27 86 54 87 31 
88 27 97 32 99 35 100 8 101 138 103 15 111 17 112 2 114 30 117 60 
118 999 119 58 126 2 128 122 129 745 130 78 139 8 140 13 142 12 143 31 
144 1 145 11 148 18 157 26 159 3 160 37 174 51 185 14 189 35 190 39 
202 92 231 39 234 18 235 22 245 24 
