Name: PROPANEDIOIC ACID DIMETHYL ESTER
MW: 132
Formula: C5H8O4
Synonym: MassBank: JP001827
Synonym: PROPANEDIOIC ACID DIMETHYL ESTER
Synonym: DIMETHYL MALONATE
Structure: 310A32320A50524F50414E4544494F494320414349442044494D455448594C2045535445522E6D6F6C0A20204368656D447261773038313231303036303132440A2020392020382020302020302020302020302020302020302020302020303939392056323030300A20202020302E303030302020202D302E3731343520202020302E303030302043202020302020302020302020302020302020302020302020302020302020302020302020300A20202020302E3431323520202020302E3030303020202020302E303030302043202020302020302020302020302020302020302020302020302020302020302020302020300A20202020302E3030303020202020302E3731343520202020302E303030302043202020302020302020302020302020302020302020302020302020302020302020302020300A2020202D302E383235302020202D302E3731343520202020302E30303030204F202020302020302020302020302020302020302020302020302020302020302020302020300A20202020302E343132352020202D312E3432383920202020302E30303030204F202020302020302020302020302020302020302020302020302020302020302020302020300A20202020302E3431323520202020312E3432383920202020302E30303030204F202020302020302020302020302020302020302020302020302020302020302020302020300A2020202D302E3832353020202020302E3731343520202020302E30303030204F202020302020302020302020302020302020302020302020302020302020302020302020300A20202020312E323337352020202D312E3432383920202020302E303030302043202020302020302020302020302020302020302020302020302020302020302020302020300A2020202D312E323337352020202D302E3030303020202020302E303030302043202020302020302020302020302020302020302020302020302020302020302020302020300A2020312020322020312020302020202020200A2020322020332020312020302020202020200A2020312020342020322020302020202020200A2020312020352020312020302020202020200A2020332020362020322020302020202020200A2020332020372020312020302020202020200A2020352020382020312020302020202020200A2020372020392020312020302020202020200A4D2020454E44
Contributor: TAJIMA S, GUNMA COLLEGE OF TECHNOLOGY
InstType: EI
InstName: HITACHI RMU-7M
IoniMethod: _ENERGY 70 eV
IonPolarity: pos
Date: 2010-10-09 19:48:36+02:00
Num Peaks: 24
14 25 15 174 27 37 29 254 30 20 31 53 41 54 42 391 43 252 44 25 
45 119 57 352 58 57 59 999 60 21 69 82 74 285 100 42 101 990 102 40 
104 25 105 13 132 10 133 19 
