Name: 2-(METHYLDIETHYLSILOXY)OCTANE
MW: 230
Formula: C13H30OSi
Synonym: MassBank: JP002267
Synonym: 2-(METHYLDIETHYLSILOXY)OCTANE
Structure: 322D284D455448594C4449455448594C53494C4F5859294F4354414E452E6D6F6C0A20204368656D447261773132323130393231303032440A2031352031342020302020302020302020302020302020302020302020303939392056323030300A2020202D302E3030303020202020302E3331363820202020302E303030302043202020302020302020302020302020302020302020302020302020302020302020302020300A20202020302E373134352020202D302E3039353720202020302E303030302043202020302020302020302020302020302020302020302020302020302020302020302020300A20202020302E373134352020202D302E3932303720202020302E303030302043202020302020302020302020302020302020302020302020302020302020302020302020300A2020202D302E303030302020202D312E3333333220202020302E303030302043202020302020302020302020302020302020302020302020302020302020302020302020300A2020202D302E373134352020202D302E3932303720202020302E303030302043202020302020302020302020302020302020302020302020302020302020302020302020300A2020202D312E343238392020202D312E3333333220202020302E303030302043202020302020302020302020302020302020302020302020302020302020302020302020300A2020202D322E313433342020202D302E3932303720202020302E303030302043202020302020302020302020302020302020302020302020302020302020302020302020300A2020202D322E383537392020202D312E3333333220202020302E303030302043202020302020302020302020302020302020302020302020302020302020302020302020300A20202020312E3432383920202020302E3331363820202020302E30303030204F202020302020302020302020302020302020302020302020302020302020302020302020300A20202020322E313433342020202D302E3039353720202020302E303030302053692020302020302020302020302020302020302020302020302020302020302020302020300A20202020322E3535353920202020302E3631383820202020302E303030302043202020302020302020302020302020302020302020302020302020302020302020302020300A20202020322E3134333420202020312E3333333220202020302E303030302043202020302020302020302020302020302020302020302020302020302020302020302020300A20202020322E383537392020202D302E3530383220202020302E303030302043202020302020302020302020302020302020302020302020302020302020302020302020300A20202020322E383537392020202D312E3333333220202020302E303030302043202020302020302020302020302020302020302020302020302020302020302020302020300A20202020312E373330392020202D302E3831303220202020302E303030302043202020302020302020302020302020302020302020302020302020302020302020302020300A2020312020322020312020302020202020200A2020322020332020312020302020202020200A2020332020342020312020302020202020200A2020342020352020312020302020202020200A2020352020362020312020302020202020200A2020362020372020312020302020202020200A2020372020382020312020302020202020200A2020392031302020312020302020202020200A2031312031322020312020302020202020200A2031302031312020312020302020202020200A2031332031342020312020302020202020200A2031302031332020312020302020202020200A2031302031352020312020302020202020200A2020322020392020312020302020202020200A4D2020454E44
Contributor: MASS SPECTROSCOPY SOC. OF JAPAN (MSSJ)
InstType: EI
InstName: JEOL JMS-D-3000
IoniMethod: _ENERGY 70 eV
IonPolarity: pos
Date: 2010-10-09 19:48:36+02:00
Num Peaks: 27
42 87 43 61 45 69 55 72 57 74 61 274 69 39 71 59 73 268 75 999 
76 73 77 37 89 711 90 63 101 198 103 87 115 44 117 73 145 250 159 86 
187 434 188 73 201 773 202 141 203 43 215 37 230 4 
