Name: 3-METHYL-1-(2-(6-METHYL-3-PYRIDYL)ETHYL)INDOLE
MW: 250
Formula: C17H18N2
Synonym: MassBank: JP005061
Synonym: 3-METHYL-1-(2-(6-METHYL-3-PYRIDYL)ETHYL)INDOLE
Structure: 332D4D455448594C2D312D28322D28362D4D455448594C2D332D5059524944594C29455448594C29494E444F4C452E6D6F6C0A20204368656D447261773032323231303233313732440A2031392032312020302020302020302020302020302020302020302020303939392056323030300A2020202D302E323534352020202D312E3237323420202020302E30303030204E202020302020302020302020302020302020302020302020302020302020302020302020300A2020202D312E303038322020202D312E3630383020202020302E303030302043202020302020302020302020302020302020302020302020302020302020302020302020300A2020202D302E393231392020202D322E3432383520202020302E303030302043202020302020302020302020302020302020302020302020302020302020302020302020300A2020202D302E313135302020202D322E3630303020202020302E303030302043202020302020302020302020302020302020302020302020302020302020302020302020300A20202020302E323937352020202D332E3331343520202020302E303030302043202020302020302020302020302020302020302020302020302020302020302020302020300A20202020312E313232352020202D332E3331343520202020302E303030302043202020302020302020302020302020302020302020302020302020302020302020302020300A20202020312E353335302020202D322E3630303020202020302E303030302043202020302020302020302020302020302020302020302020302020302020302020302020300A20202020312E313232352020202D312E3838353520202020302E303030302043202020302020302020302020302020302020302020302020302020302020302020302020300A20202020302E323937352020202D312E3838353520202020302E303030302043202020302020302020302020302020302020302020302020302020302020302020302020300A2020202D302E303833302020202D302E3436353520202020302E303030302043202020302020302020302020302020302020302020302020302020302020302020302020300A2020202D302E3639363120202020302E3038363620202020302E303030302043202020302020302020302020302020302020302020302020302020302020302020302020300A2020202D312E3133373620202020312E3434353620202020302E303030302043202020302020302020302020302020302020302020302020302020302020302020302020300A2020202D302E3532343520202020302E3839333520202020302E303030302043202020302020302020302020302020302020302020302020302020302020302020302020300A20202020302E3236303120202020312E3134383520202020302E303030302043202020302020302020302020302020302020302020302020302020302020302020302020300A20202020302E3433313620202020312E3935353520202020302E303030302043202020302020302020302020302020302020302020302020302020302020302020302020300A2020202D302E3138313520202020322E3530373520202020302E303030302043202020302020302020302020302020302020302020302020302020302020302020302020300A2020202D302E3936363120202020322E3235323620202020302E30303030204E202020302020302020302020302020302020302020302020302020302020302020302020300A2020202D302E3031303020202020332E3331343520202020302E303030302043202020302020302020302020302020302020302020302020302020302020302020302020300A2020202D312E353335302020202D322E3938303520202020302E303030302043202020302020302020302020302020302020302020302020302020302020302020302020300A2020312020322020312020302020202020200A2020322020332020322020302020202020200A2020332020342020312020302020202020200A2020342020352020312020302020202020200A2020352020362020322020302020202020200A2020362020372020312020302020202020200A2020372020382020322020302020202020200A2020382020392020312020302020202020200A2020312020392020312020302020202020200A2020342020392020322020302020202020200A2031302031312020312020302020202020200A2031322031332020312020302020202020200A2031332031342020322020302020202020200A2031342031352020312020302020202020200A2031352031362020322020302020202020200A2031362031372020312020302020202020200A2031322031372020322020302020202020200A2031362031382020312020302020202020200A2031312031332020312020302020202020200A2020312031302020312020302020202020200A2020332031392020312020302020202020200A4D2020454E44
Contributor: SASAKI S, TOYOHASHI UNIV. OF TECH.
InstType: EI
InstName: Unknown
IoniMethod: _ENERGY 75 eV
IonPolarity: pos
Date: 2010-10-09 19:48:36+02:00
Num Peaks: 11
42 11 77 12 105 10 106 1 115 38 128 13 130 10 143 7 144 999 145 90 
250 199 
