Name: MassBank: JP006060
MW: 131
Formula: C2H3Cl3
Synonym: MassBank: JP006060
Synonym: 1,1,2-TRICHLOROETHANE
Structure: 310A31340A312C312C322D54524943484C4F524F455448414E452E6D6F6C0A20204368656D447261773130323330393031333832440A2020352020342020302020302020302020302020302020302020302020303939392056323030300A2020202D302E3431323520202020302E3030303520202020302E303030302043202020302020302020302020302020302020302020302020302020302020302020302020300A20202020302E3431323520202020302E3030313620202020302E303030302043202020302020302020302020302020302020302020302020302020302020302020302020300A20202020302E383235392020202D302E3731323420202020302E3030303020436C2020302020302020302020302020302020302020302020302020302020302020302020300A2020202D302E3832353920202020302E3731343520202020302E3030303020436C2020302020302020302020302020302020302020302020302020302020302020302020300A2020202D302E383234312020202D302E3731343520202020302E3030303020436C2020302020302020302020302020302020302020302020302020302020302020302020300A2020312020322020312020302020202020200A2020322020332020312020302020202020200A2020312020342020312020302020202020200A2020312020352020312020302020202020200A4D2020454E44
Contributor: HASHIMOTO K, KYOTO COLLEGE OF PHARMACY
InstType: EI
InstName: HITACHI M-80
IoniMethod: _ENERGY 20 eV
IonPolarity: pos
Date: 2010-10-09 19:48:36+02:00
Num Peaks: 23
27 17 49 40 51 12 61 279 62 31 63 94 83 906 84 13 85 589 87 95 
95 20 96 199 97 999 98 155 99 650 100 36 101 106 132 97 133 4 134 96 
135 3 136 32 138 3 
