Name: MassBank: JP001985
MW: 204
Formula: C11H12N2O2
Synonym: MassBank: JP001985
Synonym: 2,3,6-TRIMETHYL-5-NITROINDOLE
Structure: 322C332C362D5452494D455448594C2D352D4E4954524F494E444F4C452E6D6F6C0A20204368656D447261773132323030393039353632440A2031352031362020302020302020302020302020302020302020302020303939392056323030300A2020202D312E313636332020202D312E3037393920202020302E30303030204E202020302020302020302020302020302020302020302020302020302020302020302020300A2020202D312E363531322020202D302E3431323520202020302E303030302043202020302020302020302020302020302020302020302020302020302020302020302020300A2020202D312E3136363320202020302E3235343920202020302E303030302043202020302020302020302020302020302020302020302020302020302020302020302020300A2020202D302E3338313720202020302E3030303020202020302E303030302043202020302020302020302020302020302020302020302020302020302020302020302020300A20202020302E3333323820202020302E3431323520202020302E303030302043202020302020302020302020302020302020302020302020302020302020302020302020300A20202020312E3034373320202020302E3030303020202020302E303030302043202020302020302020302020302020302020302020302020302020302020302020302020300A20202020312E303437332020202D302E3832353020202020302E303030302043202020302020302020302020302020302020302020302020302020302020302020302020300A20202020302E333332382020202D312E3233373520202020302E303030302043202020302020302020302020302020302020302020302020302020302020302020302020300A2020202D302E333831372020202D302E3832353020202020302E303030302043202020302020302020302020302020302020302020302020302020302020302020302020300A20202020312E3736313720202020302E3431323520202020302E30303030204E202020302020332020302020302020302020302020302020302020302020302020302020300A20202020312E3736313720202020312E3233373520202020302E30303030204F202020302020302020302020302020302020302020302020302020302020302020302020300A20202020322E3437363220202020302E3030303020202020302E30303030204F202020302020352020302020302020302020302020302020302020302020302020302020300A20202020312E373631372020202D312E3233373520202020302E303030302043202020302020302020302020302020302020302020302020302020302020302020302020300A2020202D312E3432313220202020312E3033393620202020302E303030302043202020302020302020302020302020302020302020302020302020302020302020302020300A2020202D322E343736322020202D302E3431323520202020302E303030302043202020302020302020302020302020302020302020302020302020302020302020302020300A2020312020322020312020302020202020200A2020322020332020322020302020202020200A2020332020342020312020302020202020200A2020342020352020312020302020202020200A2020352020362020322020302020202020200A2020362020372020312020302020202020200A2020372020382020322020302020202020200A2020382020392020312020302020202020200A2020312020392020312020302020202020200A2020342020392020322020302020202020200A2031302031312020322020302020202020200A2031302031322020312020302020202020200A2020362031302020312020302020202020200A2020372031332020312020302020202020200A2020332031342020312020302020202020200A2020322031352020312020302020202020200A4D202043484720203220203130202020312020313220202D310A4D2020454E44
Contributor: SASAKI S, TOYOHASHI UNIV. OF TECH.
InstType: EI
InstName: MX-1303
IoniMethod: _ENERGY 50 eV
IonPolarity: pos
Date: 2010-10-09 19:48:36+02:00
Num Peaks: 77
39 395 40 13 41 199 42 14 43 284 44 520 45 170 51 4 52 36 53 51 
54 13 55 15 56 37 57 250 61 14 62 1 63 130 64 24 65 114 66 2 
67 22 68 12 69 146 70 2 71 96 73 72 74 65 75 5 76 79 77 44 
78 100 79 12 81 35 82 11 83 45 84 1 85 112 87 15 89 65 90 1 
91 105 95 14 97 26 101 1 102 34 103 29 104 10 114 1 115 332 116 85 
117 36 118 1 127 25 128 56 129 42 130 8 131 48 132 196 141 24 142 12 
143 253 144 62 145 26 146 2 154 20 155 15 156 213 157 46 158 552 159 442 
160 34 174 1 187 580 188 46 203 10 204 999 205 51 
