Name: 2-(ETHYLTHIO)ETHANOL
MW: 106
Formula: C4H10OS
Synonym: MassBank: JP009163
Synonym: 2-(ETHYLTHIO)ETHANOL
Structure: 310A31360A322D28455448594C5448494F29455448414E4F4C2E6D6F6C0A20204368656D447261773132323130393230353132440A2020362020352020302020302020302020302020302020302020302020303939392056323030300A2020202D312E3037313720202020302E3230363320202020302E303030302043202020302020302020302020302020302020302020302020302020302020302020302020300A2020202D302E333537322020202D302E3230363320202020302E303030302043202020302020302020302020302020302020302020302020302020302020302020302020300A20202020302E3335373220202020302E3230363320202020302E303030302053202020302020302020302020302020302020302020302020302020302020302020302020300A20202020312E303731372020202D302E3230363220202020302E303030302043202020302020302020302020302020302020302020302020302020302020302020302020300A20202020312E3738363220202020302E3230363320202020302E303030302043202020302020302020302020302020302020302020302020302020302020302020302020300A2020202D312E373836322020202D302E3230363320202020302E30303030204F202020302020302020302020302020302020302020302020302020302020302020302020300A2020312020322020312020302020202020200A2020342020352020312020302020202020200A2020332020342020312020302020202020200A2020322020332020312020302020202020200A2020312020362020312020302020202020200A4D2020454E44
Contributor: SODA AROMATIC CO., LTD.
InstType: EI
InstName: HITACHI M-80B
IoniMethod: _ENERGY 70 eV
IonPolarity: pos
Date: 2010-10-09 19:48:36+02:00
Num Peaks: 31
14 11 15 40 19 15 26 61 27 317 28 40 29 262 31 166 35 63 41 68 
42 23 43 78 44 65 45 294 46 148 47 632 48 83 49 29 57 21 58 69 
59 147 60 137 61 212 62 115 63 133 75 999 76 64 77 62 106 483 107 25 
108 19 
