Name: METHYL 3-HYDROXY-2-PYRAZINECARBOXYLATE
MW: 154
Formula: C6H6N2O3
Synonym: MassBank: JP004092
Synonym: METHYL 3-HYDROXY-2-PYRAZINECARBOXYLATE
Structure: 4D455448594C20332D485944524F58592D322D505952415A494E45434152424F58594C4154452E6D6F6C0A20204368656D447261773038313131303233343832440A2031312031312020302020302020302020302020302020302020302020303939392056323030300A2020202D302E323036322020202D302E3030303020202020302E303030302043202020302020302020302020302020302020302020302020302020302020302020302020300A20202020302E3230363220202020302E3731343520202020302E303030302043202020302020302020302020302020302020302020302020302020302020302020302020300A20202020302E323036322020202D302E3731343520202020302E30303030204E202020302020302020302020302020302020302020302020302020302020302020302020300A20202020312E3033313320202020302E3731343520202020302E30303030204E202020302020302020302020302020302020302020302020302020302020302020302020300A20202020312E343433382020202D302E3030303020202020302E303030302043202020302020302020302020302020302020302020302020302020302020302020302020300A20202020312E303331332020202D302E3731343520202020302E303030302043202020302020302020302020302020302020302020302020302020302020302020302020300A2020202D312E303331332020202D302E3030303020202020302E303030302043202020302020302020302020302020302020302020302020302020302020302020302020300A2020202D312E3434333820202020302E3731343520202020302E30303030204F202020302020302020302020302020302020302020302020302020302020302020302020300A2020202D312E343433382020202D302E3731343520202020302E30303030204F202020302020302020302020302020302020302020302020302020302020302020302020300A2020202D302E3230363220202020312E3432383920202020302E30303030204F202020302020302020302020302020302020302020302020302020302020302020302020300A2020202D312E303331332020202D312E3432383920202020302E303030302043202020302020302020302020302020302020302020302020302020302020302020302020300A2020312020322020312020302020202020200A2020312020332020322020302020202020200A2020322020342020322020302020202020200A2020342020352020312020302020202020200A2020352020362020322020302020202020200A2020332020362020312020302020202020200A2020372020382020322020302020202020200A2020372020392020312020302020202020200A2020312020372020312020302020202020200A2020322031302020312020302020202020200A2020392031312020312020302020202020200A4D2020454E44
Contributor: YAMAMOTO M, DEP. CHEMISTRY, FAC. SCIENCE, NARA WOMEN'S UNIV.
InstType: EI
InstName: HITACHI RMU-6E
IoniMethod: _ENERGY 70 eV
IonPolarity: pos
Date: 2010-10-09 19:48:36+02:00
Num Peaks: 31
15 167 26 41 27 34 28 105 29 52 31 27 38 35 39 11 40 566 41 66 
42 78 44 3 45 57 51 27 52 52 54 3 59 90 66 32 67 120 68 54 
69 68 70 39 94 291 95 33 96 999 97 54 123 107 124 44 125 29 154 520 
155 61 
