Name: MassBank: JP003727
MW: 283
Formula: C14H13N5O2
Synonym: MassBank: JP003727
Synonym: 7-CYANO-2-ETHYL-5,8-DIMETHOXY-1,3,4,9-TETRAAZAPHENALENE
Structure: 372D4359414E4F2D322D455448594C2D352C382D44494D4554484F58592D312C332C342C392D5445545241415A415048454E414C454E452E6D6F6C0A20204368656D447261773035323131303033343432440A2032312032332020302020302020302020302020302020302020302020303939392056323030300A20202020302E373135352020202D312E3233373520202020302E30303030204E202020302020302020302020302020302020302020302020302020302020302020302020300A20202020302E303031302020202D312E3635303020202020302E303030302043202020302020302020302020302020302020302020302020302020302020302020302020300A2020202D302E373133352020202D312E3233373520202020302E30303030204E202020302020302020302020302020302020302020302020302020302020302020302020300A2020202D302E373133352020202D302E3431323620202020302E303030302043202020302020302020302020302020302020302020302020302020302020302020302020300A2020202D312E3432383720202020302E3030303320202020302E30303030204E202020302020302020302020302020302020302020302020302020302020302020302020300A2020202D312E3432383720202020302E3832343920202020302E303030302043202020302020302020302020302020302020302020302020302020302020302020302020300A2020202D302E3731343420202020312E3233373320202020302E303030302043202020302020302020302020302020302020302020302020302020302020302020302020300A2020202D302E3030303020202020302E3832343820202020302E303030302043202020302020302020302020302020302020302020302020302020302020302020302020300A20202020302E3731343520202020312E3233373320202020302E303030302043202020302020302020302020302020302020302020302020302020302020302020302020300A20202020312E3432393020202020302E3832343920202020302E303030302043202020302020302020302020302020302020302020302020302020302020302020302020300A20202020312E343239302020202D302E3030303120202020302E30303030204E202020302020302020302020302020302020302020302020302020302020302020302020300A20202020302E373134352020202D302E3431323620202020302E303030302043202020302020302020302020302020302020302020302020302020302020302020302020300A20202020302E303030302020202D302E3030303120202020302E303030302043202020302020302020302020302020302020302020302020302020302020302020302020300A20202020322E3134333420202020312E3233373420202020302E30303030204F202020302020302020302020302020302020302020302020302020302020302020302020300A20202020322E3835373920202020302E3832343920202020302E303030302043202020302020302020302020302020302020302020302020302020302020302020302020300A2020202D322E3134333320202020312E3233373520202020302E30303030204F202020302020302020302020302020302020302020302020302020302020302020302020300A2020202D322E3835373920202020302E3832343920202020302E303030302043202020302020302020302020302020302020302020302020302020302020302020302020300A20202020302E303031302020202D322E3437343920202020302E303030302043202020302020302020302020302020302020302020302020302020302020302020302020300A20202020302E373135342020202D322E3838373420202020302E303030302043202020302020302020302020302020302020302020302020302020302020302020302020300A20202020302E3731343520202020322E3036323420202020302E303030302043202020302020302020302020302020302020302020302020302020302020302020302020300A20202020302E3731343520202020322E3838373420202020302E30303030204E202020302020302020302020302020302020302020302020302020302020302020302020300A2020312020322020312020302020202020200A2020322020332020322020302020202020200A2020332020342020312020302020202020200A2020342020352020312020302020202020200A2020352020362020322020302020202020200A2020362020372020312020302020202020200A2020372020382020322020302020202020200A2020382020392020312020302020202020200A2020392031302020322020302020202020200A2031302031312020312020302020202020200A2031312031322020322020302020202020200A2020312031322020312020302020202020200A2031322031332020312020302020202020200A2020342031332020322020302020202020200A2020382031332020312020302020202020200A2031342031352020312020302020202020200A2031302031342020312020302020202020200A2031362031372020312020302020202020200A2020362031362020312020302020202020200A2031382031392020312020302020202020200A2020322031382020312020302020202020200A2032302032312020332020302020202020200A2020392032302020312020302020202020200A4D2020454E44
Contributor: SASAKI S, TOYOHASHI UNIV. OF TECH.
InstType: EI
InstName: Unknown
IoniMethod: EI
IonPolarity: pos
Date: 2010-10-09 19:48:36+02:00
Num Peaks: 14
39 13 40 31 41 39 42 24 43 75 44 750 45 19 56 2 58 54 72 75 
73 999 74 6 282 13 283 17 
