Name: 4-NITROPHENYLACETONITRILE
CAS: 555-21-5
MW: 162
Formula: C8H6N2O2
Synonym: MassBank: JP008167
Synonym: 4-NITROPHENYLACETONITRILE
Synonym: 4-NITROBENZYL CYANIDE
Structure: 342D4E4954524F5048454E594C414345544F4E495452494C452E6D6F6C0A20204368656D447261773034323231303137313132440A2031322031322020302020302020302020302020302020302020302020303939392056323030300A20202020312E3835363320202020302E3335373220202020302E303030302043202020302020302020302020302020302020302020302020302020302020302020302020300A20202020312E343433372020202D302E3335373220202020302E303030302043202020302020302020302020302020302020302020302020302020302020302020302020300A20202020322E3236383820202020312E3037313720202020302E30303030204E202020302020302020302020302020302020302020302020302020302020302020302020300A20202020302E363138382020202D302E3335373220202020302E303030302043202020302020302020302020302020302020302020302020302020302020302020302020300A20202020302E323036332020202D312E3037313720202020302E303030302043202020302020302020302020302020302020302020302020302020302020302020302020300A2020202D302E363138372020202D312E3037313720202020302E303030302043202020302020302020302020302020302020302020302020302020302020302020302020300A2020202D312E303331332020202D302E3335373220202020302E303030302043202020302020302020302020302020302020302020302020302020302020302020302020300A2020202D302E3631383820202020302E3335373220202020302E303030302043202020302020302020302020302020302020302020302020302020302020302020302020300A20202020302E3230363320202020302E3335373220202020302E303030302043202020302020302020302020302020302020302020302020302020302020302020302020300A2020202D312E383536322020202D302E3335373220202020302E30303030204E202020302020332020302020302020302020302020302020302020302020302020302020300A2020202D322E323638382020202D312E3037313720202020302E30303030204F202020302020302020302020302020302020302020302020302020302020302020302020300A2020202D322E3236383720202020302E3335373220202020302E30303030204F202020302020352020302020302020302020302020302020302020302020302020302020300A2020312020322020312020302020202020200A2020312020332020332020302020202020200A2020342020352020312020302020202020200A2020352020362020322020302020202020200A2020362020372020312020302020202020200A2020372020382020322020302020202020200A2020382020392020312020302020202020200A2020342020392020322020302020202020200A2020322020342020312020302020202020200A2031302031312020322020302020202020200A2031302031322020312020302020202020200A2020372031302020312020302020202020200A4D202043484720203220203130202020312020313220202D310A4D2020454E44
Contributor: NARA WOMEN'S UNIVERSITY
InstType: EI
InstName: HITACHI M-80
IoniMethod: _ENERGY 70 eV
IonPolarity: pos
Date: 2010-10-09 19:48:36+02:00
Num Peaks: 47
27 11 30 228 37 13 38 25 39 85 40 10 46 41 50 71 51 51 52 19 
61 21 62 64 63 185 64 43 65 39 74 36 75 34 76 44 77 140 78 34 
86 14 87 27 88 53 89 749 90 136 91 14 92 9 102 15 103 24 104 313 
105 31 106 12 114 29 115 38 116 858 117 103 118 10 130 20 131 13 132 400 
133 45 136 56 146 204 147 43 162 999 163 397 164 38 
