Name: MassBank: JP007522
MW: 237
Formula: C8H5Cl3O2
Synonym: MassBank: JP007522
Synonym: 2,4,5-TRICHLOROPHENYL ACETATE
Structure: 322C342C352D54524943484C4F524F5048454E594C20414345544154452E6D6F6C0A20204368656D447261773132323030393133323632440A2031332031332020302020302020302020302020302020302020302020303939392056323030300A20202020312E3432383920202020302E3431323520202020302E303030302043202020302020302020302020302020302020302020302020302020302020302020302020300A20202020322E3134333420202020302E3832353020202020302E303030302043202020302020302020302020302020302020302020302020302020302020302020302020300A20202020312E343238392020202D302E3431323520202020302E30303030204F202020302020302020302020302020302020302020302020302020302020302020302020300A20202020302E3731343520202020302E3832353020202020302E30303030204F202020302020302020302020302020302020302020302020302020302020302020302020300A2020202D302E3030303020202020302E3431323520202020302E303030302043202020302020302020302020302020302020302020302020302020302020302020302020300A2020202D302E303030302020202D302E3431323520202020302E303030302043202020302020302020302020302020302020302020302020302020302020302020302020300A2020202D302E373134352020202D302E3832353020202020302E303030302043202020302020302020302020302020302020302020302020302020302020302020302020300A2020202D312E343238392020202D302E3431323520202020302E303030302043202020302020302020302020302020302020302020302020302020302020302020302020300A2020202D312E3432383920202020302E3431323520202020302E303030302043202020302020302020302020302020302020302020302020302020302020302020302020300A2020202D302E3731343520202020302E3832353020202020302E303030302043202020302020302020302020302020302020302020302020302020302020302020302020300A2020202D322E3134333420202020302E3832353020202020302E3030303020436C2020302020302020302020302020302020302020302020302020302020302020302020300A2020202D322E313433342020202D302E3832353020202020302E3030303020436C2020302020302020302020302020302020302020302020302020302020302020302020300A20202020302E373134352020202D302E3832353020202020302E3030303020436C2020302020302020302020302020302020302020302020302020302020302020302020300A2020312020322020312020302020202020200A2020312020332020322020302020202020200A2020312020342020312020302020202020200A2020352020362020312020302020202020200A2020362020372020322020302020202020200A2020372020382020312020302020202020200A2020382020392020322020302020202020200A2020392031302020312020302020202020200A2020352031302020322020302020202020200A2020392031312020312020302020202020200A2020382031322020312020302020202020200A2020362031332020312020302020202020200A2020342020352020312020302020202020200A4D2020454E44
Contributor: KOGA M, UNIV. OF OCCUPATIONAL AND ENVIRONMENTAL HEALTH
InstType: EI
InstName: JEOL JMS-01-SG
IoniMethod: _ENERGY 70 eV
IonPolarity: pos
Date: 2010-10-09 19:48:36+02:00
Num Peaks: 43
42 22 43 999 44 20 49 1 50 10 53 10 60 13 61 5 62 69 63 12 
72 26 73 3 74 21 83 21 85 13 96 2 97 128 98 12 99 40 107 5 
108 11 109 35 131 10 132 4 133 30 134 26 135 15 160 1 161 10 162 12 
167 55 169 5 171 15 196 503 197 40 198 49 199 34 200 158 201 10 202 1 
238 88 240 86 242 26 
