Name: 2-ETHYLBUTYRIC ACID
MW: 116
Formula: C6H12O2
Synonym: MassBank: JP009189
Synonym: 2-ETHYLBUTYRIC ACID
Structure: 310A32300A322D455448594C4255545952494320414349442E6D6F6C0A20204368656D447261773031303331303133303032440A2020382020372020302020302020302020302020302020302020302020303939392056323030300A20202020302E3431323520202020302E3335373220202020302E303030302043202020302020302020302020302020302020302020302020302020302020302020302020300A2020202D302E303030302020202D302E3335373220202020302E303030302043202020302020302020302020302020302020302020302020302020302020302020302020300A20202020302E343132352020202D312E3037313720202020302E303030302043202020302020302020302020302020302020302020302020302020302020302020302020300A20202020312E323337352020202D312E3037313720202020302E303030302043202020302020302020302020302020302020302020302020302020302020302020302020300A20202020312E3233373520202020302E3335373220202020302E30303030204F202020302020302020302020302020302020302020302020302020302020302020302020300A2020202D302E3030303020202020312E3037313720202020302E30303030204F202020302020302020302020302020302020302020302020302020302020302020302020300A2020202D302E383235302020202D302E3335373220202020302E303030302043202020302020302020302020302020302020302020302020302020302020302020302020300A2020202D312E323337352020202D312E3037313720202020302E303030302043202020302020302020302020302020302020302020302020302020302020302020302020300A2020312020322020312020302020202020200A2020322020332020312020302020202020200A2020332020342020312020302020202020200A2020312020352020322020302020202020200A2020312020362020312020302020202020200A2020372020382020312020302020202020200A2020322020372020312020302020202020200A4D2020454E44
Contributor: SODA AROMATIC CO., LTD.
InstType: EI
InstName: HITACHI M-80B
IoniMethod: _ENERGY 70 eV
IonPolarity: pos
Date: 2010-10-09 19:48:36+02:00
Num Peaks: 33
15 33 26 41 27 439 28 36 29 346 31 24 38 23 39 309 40 34 41 445 
42 67 43 931 44 28 45 200 51 16 53 36 54 11 55 245 56 21 57 21 
59 20 60 23 68 18 69 88 70 38 71 229 72 12 73 717 74 31 87 344 
88 999 89 41 101 45 
