Name: O-METHOXYPHENOL
MW: 124
Formula: C7H8O2
Synonym: MassBank: JP003526
Synonym: O-METHOXYPHENOL
Structure: 310A32330A4F2D4D4554484F58595048454E4F4C2E6D6F6C0A20204368656D447261773038313231303033303932440A2020392020392020302020302020302020302020302020302020302020303939392056323030300A2020202D302E3230363220202020302E3335373220202020302E303030302043202020302020302020302020302020302020302020302020302020302020302020302020300A20202020302E323036332020202D302E3335373220202020302E303030302043202020302020302020302020302020302020302020302020302020302020302020302020300A2020202D302E323036322020202D312E3037313720202020302E303030302043202020302020302020302020302020302020302020302020302020302020302020302020300A2020202D312E303331322020202D312E3037313720202020302E303030302043202020302020302020302020302020302020302020302020302020302020302020302020300A2020202D312E343433382020202D302E3335373220202020302E303030302043202020302020302020302020302020302020302020302020302020302020302020302020300A2020202D312E3033313320202020302E3335373220202020302E303030302043202020302020302020302020302020302020302020302020302020302020302020302020300A20202020312E303331332020202D302E3335373220202020302E30303030204F202020302020302020302020302020302020302020302020302020302020302020302020300A20202020312E343433382020202D312E3037313720202020302E303030302043202020302020302020302020302020302020302020302020302020302020302020302020300A20202020302E3230363320202020312E3037313720202020302E30303030204F202020302020302020302020302020302020302020302020302020302020302020302020300A2020312020322020312020302020202020200A2020322020332020322020302020202020200A2020332020342020312020302020202020200A2020342020352020322020302020202020200A2020352020362020312020302020202020200A2020312020362020322020302020202020200A2020372020382020312020302020202020200A2020322020372020312020302020202020200A2020312020392020312020302020202020200A4D2020454E44
Contributor: YAMAMOTO M, DEP. CHEMISTRY, FAC. SCIENCE, NARA WOMEN'S UNIV.
InstType: EI
InstName: HITACHI RMU-6E
IoniMethod: _ENERGY 70 eV
IonPolarity: pos
Date: 2010-10-09 19:48:36+02:00
Num Peaks: 21
38 20 39 59 50 37 51 53 52 63 53 108 55 23 62 2 63 39 64 17 
65 49 77 3 80 17 81 433 82 25 95 2 109 999 110 68 121 14 124 90 
125 73 
