Name: CYCLODODECANONE
MW: 182
Formula: C12H22O
Synonym: MassBank: JP003616
Synonym: CYCLODODECANONE
Structure: 4359434C4F444F444543414E4F4E452E6D6F6C0A20204368656D447261773039313531303035323532440A2031332031332020302020302020302020302020302020302020302020303939392056323030300A2020202D312E313831332020202D302E3030303020202020302E303030302043202020302020302020302020302020302020302020302020302020302020302020302020300A2020202D302E3936373820202020302E3739363920202020302E303030302043202020302020302020302020302020302020302020302020302020302020302020302020300A2020202D302E3338343420202020312E3338303320202020302E303030302043202020302020302020302020302020302020302020302020302020302020302020302020300A20202020302E3431323520202020312E3539333820202020302E303030302043202020302020302020302020302020302020302020302020302020302020302020302020300A20202020312E3230393420202020312E3338303320202020302E303030302043202020302020302020302020302020302020302020302020302020302020302020302020300A20202020312E3739323820202020302E3739363920202020302E303030302043202020302020302020302020302020302020302020302020302020302020302020302020300A20202020322E3030363320202020302E3030303020202020302E303030302043202020302020302020302020302020302020302020302020302020302020302020302020300A20202020312E373932382020202D302E3739363920202020302E303030302043202020302020302020302020302020302020302020302020302020302020302020302020300A20202020312E323039342020202D312E3338303320202020302E303030302043202020302020302020302020302020302020302020302020302020302020302020302020300A20202020302E343132352020202D312E3539333820202020302E303030302043202020302020302020302020302020302020302020302020302020302020302020302020300A2020202D302E333834342020202D312E3338303320202020302E303030302043202020302020302020302020302020302020302020302020302020302020302020302020300A2020202D302E393637382020202D302E3739363920202020302E303030302043202020302020302020302020302020302020302020302020302020302020302020302020300A2020202D322E303036332020202D302E3030303020202020302E30303030204F202020302020302020302020302020302020302020302020302020302020302020302020300A2020312020322020312020302020202020200A2020322020332020312020302020202020200A2020332020342020312020302020202020200A2020342020352020312020302020202020200A2020352020362020312020302020202020200A2020362020372020312020302020202020200A2020372020382020312020302020202020200A2020382020392020312020302020202020200A2020392031302020312020302020202020200A2031302031312020312020302020202020200A2031312031322020312020302020202020200A2020312031322020312020302020202020200A2020312031332020322020302020202020200A4D2020454E44
Contributor: MASS SPECTROSCOPY SOC. OF JAPAN (MSSJ)
InstType: EI
InstName: Unknown
IoniMethod: EI
IonPolarity: pos
Date: 2010-10-09 19:48:36+02:00
Num Peaks: 57
27 130 29 201 39 133 40 3 41 618 42 251 43 457 44 3 53 61 54 127 
55 999 56 33 57 201 58 974 59 235 66 2 67 205 68 190 69 371 70 25 
71 771 72 75 79 83 80 8 81 190 82 349 83 372 84 26 85 80 86 31 
93 78 94 5 95 115 96 129 97 380 98 47 99 58 100 30 107 52 108 4 
109 27 110 26 111 295 112 13 113 22 114 20 121 43 122 7 123 27 124 106 
125 162 126 5 127 23 135 58 149 98 184 14 185 30 
