Name: MassBank: JP008279
MW: 145
Formula: C6H11NO3
Synonym: MassBank: JP008279
Synonym: 3,3,3-TRIMETHOXYPROPIONITRILE
Structure: 332C332C332D5452494D4554484F585950524F50494F4E495452494C452E6D6F6C0A20204368656D447261773032323131303139343932440A2031302020392020302020302020302020302020302020302020302020303939392056323030300A20202020302E383235302020202D302E3435333020202020302E303030302043202020302020302020302020302020302020302020302020302020302020302020302020300A20202020302E303030302020202D302E3435333020202020302E303030302043202020302020302020302020302020302020302020302020302020302020302020302020300A2020202D302E3431323520202020302E3236313520202020302E303030302043202020302020302020302020302020302020302020302020302020302020302020302020300A20202020312E363530302020202D302E3435333020202020302E30303030204E202020302020302020302020302020302020302020302020302020302020302020302020300A2020202D312E313237302020202D302E3135313020202020302E30303030204F202020302020302020302020302020302020302020302020302020302020302020302020300A2020202D312E313237302020202D302E3937363020202020302E303030302043202020302020302020302020302020302020302020302020302020302020302020302020300A2020202D302E3832353020202020302E3937363020202020302E30303030204F202020302020302020302020302020302020302020302020302020302020302020302020300A2020202D312E3635303020202020302E3937363020202020302E303030302043202020302020302020302020302020302020302020302020302020302020302020302020300A20202020302E3330323020202020302E3637343020202020302E30303030204F202020302020302020302020302020302020302020302020302020302020302020302020300A20202020312E3031363420202020302E3236313520202020302E303030302043202020302020302020302020302020302020302020302020302020302020302020302020300A2020312020322020312020302020202020200A2020322020332020312020302020202020200A2020312020342020332020302020202020200A2020352020362020312020302020202020200A2020332020352020312020312020202020200A2020372020382020312020302020202020200A2020332020372020312020302020202020200A2020392031302020312020302020202020200A2020332020392020312020312020202020200A4D2020454E44
Contributor: UBE SCIENTIFIC ANALYSIS LABORATORY
InstType: EI
InstName: HITACHI M-60
IoniMethod: _ENERGY 70 eV
IonPolarity: pos
Date: 2010-10-09 19:48:36+02:00
Num Peaks: 38
14 19 15 406 17 15 18 18 26 10 27 40 28 39 29 111 30 16 31 42 
39 26 40 115 41 22 42 132 43 55 45 84 47 92 53 11 54 46 55 204 
56 13 57 42 58 17 59 258 61 30 67 17 68 141 69 14 70 53 72 469 
73 18 75 44 82 79 105 213 106 10 114 999 115 56 116 7 
