Name: 3-ACETYL-3-METHYL-GAMMA-BUTYROLACTONE
MW: 142
Formula: C7H10O3
Synonym: MassBank: JP004531
Synonym: 3-ACETYL-3-METHYL-GAMMA-BUTYROLACTONE
Structure: 332D41434554594C2D332D4D455448594C2D47414D4D412D42555459524F4C4143544F4E452E6D6F6C0A20204368656D447261773032323231303133333532440A2031302031302020302020302020302020302020302020302020302020303939392056323030300A2020202D312E303136352020202D302E3336303920202020302E303030302043202020302020302020302020302020302020302020302020302020302020302020302020300A2020202D302E313936302020202D302E3434373120202020302E303030302043202020302020302020302020302020302020302020302020302020302020302020302020300A20202020302E3133393620202020302E3330363520202020302E303030302043202020302020302020302020302020302020302020302020302020302020302020302020300A2020202D302E3437333520202020302E3835383620202020302E303030302043202020302020302020302020302020302020302020302020302020302020302020302020300A20202020302E3632343520202020302E3937343020202020302E303030302043202020302020302020302020302020302020302020302020302020302020302020302020300A20202020302E383534302020202D302E3130363020202020302E303030302043202020302020302020302020302020302020302020302020302020302020302020302020300A20202020302E383534302020202D302E3933313020202020302E30303030204F202020302020302020302020302020302020302020302020302020302020302020302020300A20202020312E3536383520202020302E3330363520202020302E303030302043202020302020302020302020302020302020302020302020302020302020302020302020300A2020202D312E353638352020202D302E3937343020202020302E30303030204F202020302020302020302020302020302020302020302020302020302020302020302020300A2020202D312E3138383020202020302E3434363120202020302E30303030204F202020302020302020302020302020302020302020302020302020302020302020302020300A2020312020322020312020302020202020200A2020322020332020312020302020202020200A2020332020342020312020302020202020200A2020332020352020312020302020202020200A2020362020372020322020302020202020200A2020362020382020312020302020202020200A2020332020362020312020302020202020200A2020312020392020322020302020202020200A2020312031302020312020302020202020200A2020342031302020312020302020202020200A4D2020454E44
Contributor: MASS SPECTROSCOPY SOC. OF JAPAN (MSSJ)
InstType: EI
InstName: HITACHI RMU-6E
IoniMethod: _ENERGY 70 eV
IonPolarity: pos
Date: 2010-10-09 19:48:36+02:00
Num Peaks: 87
25 3 26 31 27 136 28 7 29 104 30 9 31 32 32 2 37 9 38 22 
39 194 40 4 41 296 42 60 43 960 44 4 45 22 50 20 51 27 52 1 
53 60 54 80 55 366 56 9 57 29 58 31 59 24 60 0 61 2 65 8 
66 7 67 3 68 25 69 196 70 17 71 3 72 15 73 15 74 3 75 0 
77 4 78 1 79 8 80 0 81 22 82 128 83 62 84 1 85 150 86 80 
87 6 88 0 91 3 93 3 95 8 96 3 97 43 98 19 99 284 100 999 
101 62 102 7 103 1 107 0 108 2 109 9 110 44 111 9 112 9 113 10 
114 7 115 0 121 2 122 1 123 2 124 1 125 2 126 1 127 4 128 1 
129 2 130 1 140 2 141 1 142 50 143 16 144 3 
