Name: N-PROPYLDODECANAMIDE
MW: 241
Formula: C15H31NO
Synonym: MassBank: JP004174
Synonym: N-PROPYLDODECANAMIDE
Structure: 4E2D50524F50594C444F444543414E414D4944452E6D6F6C0A20204368656D447261773038313231303032323432440A2031372031362020302020302020302020302020302020302020302020303939392056323030300A2020202D322E353030362020202D302E3230363220202020302E303030302043202020302020302020302020302020302020302020302020302020302020302020302020300A2020202D312E373836322020202D302E3631383820202020302E303030302043202020302020302020302020302020302020302020302020302020302020302020302020300A2020202D312E303731372020202D302E3230363220202020302E303030302043202020302020302020302020302020302020302020302020302020302020302020302020300A2020202D302E333537322020202D302E3631383720202020302E303030302043202020302020302020302020302020302020302020302020302020302020302020302020300A20202020302E333537322020202D302E3230363220202020302E303030302043202020302020302020302020302020302020302020302020302020302020302020302020300A20202020312E303731372020202D302E3631383720202020302E303030302043202020302020302020302020302020302020302020302020302020302020302020302020300A20202020312E373836322020202D302E3230363220202020302E303030302043202020302020302020302020302020302020302020302020302020302020302020302020300A20202020322E353030362020202D302E3631383720202020302E303030302043202020302020302020302020302020302020302020302020302020302020302020302020300A20202020332E323135312020202D302E3230363220202020302E303030302043202020302020302020302020302020302020302020302020302020302020302020302020300A20202020332E393239362020202D302E3631383720202020302E303030302043202020302020302020302020302020302020302020302020302020302020302020302020300A20202020342E363434312020202D302E3230363220202020302E303030302043202020302020302020302020302020302020302020302020302020302020302020302020300A20202020352E333538352020202D302E3631383720202020302E303030302043202020302020302020302020302020302020302020302020302020302020302020302020300A2020202D322E3530303620202020302E3631383820202020302E30303030204F202020302020302020302020302020302020302020302020302020302020302020302020300A2020202D332E323135312020202D302E3631383820202020302E30303030204E202020302020302020302020302020302020302020302020302020302020302020302020300A2020202D332E393239362020202D302E3230363220202020302E303030302043202020302020302020302020302020302020302020302020302020302020302020302020300A2020202D342E363434312020202D302E3631383820202020302E303030302043202020302020302020302020302020302020302020302020302020302020302020302020300A2020202D352E333538352020202D302E3230363220202020302E303030302043202020302020302020302020302020302020302020302020302020302020302020302020300A2020312020322020312020302020202020200A2020322020332020312020302020202020200A2020332020342020312020302020202020200A2020342020352020312020302020202020200A2020352020362020312020302020202020200A2020362020372020312020302020202020200A2020372020382020312020302020202020200A2020382020392020312020302020202020200A2020392031302020312020302020202020200A2031302031312020312020302020202020200A2031312031322020312020302020202020200A2020312031332020322020302020202020200A2020312031342020312020302020202020200A2031352031362020312020302020202020200A2031362031372020312020302020202020200A2031342031352020312020302020202020200A4D2020454E44
Contributor: MASS SPECTROSCOPY SOC. OF JAPAN (MSSJ)
InstType: EI
InstName: HITACHI RMU-6E
IoniMethod: _ENERGY 70 eV
IonPolarity: pos
Date: 2010-10-09 19:48:36+02:00
Num Peaks: 144
26 3 27 50 28 34 29 8 30 148 31 5 32 3 35 0 36 2 37 1 
38 1 39 2 40 6 41 180 42 39 43 30 44 74 45 5 46 2 47 1 
48 4 49 4 50 2 51 0 52 1 53 11 54 10 55 11 56 33 57 118 
58 50 59 2 60 68 61 3 65 2 66 0 67 14 68 7 69 34 70 1 
71 41 72 54 73 124 74 1 75 1 76 1 77 3 78 0 79 4 80 2 
81 13 82 1 83 35 84 24 85 28 86 18 87 31 88 4 89 1 91 0 
92 1 93 3 94 1 95 2 96 4 97 14 98 20 99 1 100 18 101 999 
102 72 103 1 104 1 105 1 106 1 107 0 108 1 109 10 110 2 111 1 
112 5 113 4 114 230 115 4 116 3 117 1 118 1 119 0 120 1 121 2 
122 1 123 0 124 1 125 2 126 2 127 0 128 48 129 11 130 1 131 0 
140 2 141 2 142 26 143 1 144 1 152 1 153 2 154 0 155 9 156 39 
157 7 158 0 165 2 167 2 168 1 169 0 170 29 171 4 181 1 182 0 
183 70 184 21 185 5 186 0 196 1 197 1 198 2 199 2 200 5 201 5 
202 1 210 0 211 1 212 29 213 7 214 0 225 1 226 6 227 2 239 0 
240 7 241 62 242 11 243 1 
