Name: MassBank: JP004397
MW: 241
Formula: C13H11N3O2
Synonym: MassBank: JP004397
Synonym: 2,3-DIMETHYL-8-NITROPYRROLO(2,3-F)QUINOLINE
Structure: 322C332D44494D455448594C2D382D4E4954524F505952524F4C4F28322C332D46295155494E4F4C494E452E6D6F6C0A20204368656D447261773132323030393131353132440A2031382032302020302020302020302020302020302020302020302020303939392056323030300A2020202D302E373130302020202D312E3632383820202020302E30303030204E202020302020302020302020302020302020302020302020302020302020302020302020300A2020202D312E343234352020202D312E3231363320202020302E303030302043202020302020302020302020302020302020302020302020302020302020302020302020300A2020202D312E343234352020202D302E3339313320202020302E303030302043202020302020302020302020302020302020302020302020302020302020302020302020300A2020202D302E3731303020202020302E3032313220202020302E303030302043202020302020302020302020302020302020302020302020302020302020302020302020300A20202020302E303034342020202D302E3339313320202020302E303030302043202020302020302020302020302020302020302020302020302020302020302020302020300A20202020302E3731383920202020302E3032313220202020302E303030302043202020302020302020302020302020302020302020302020302020302020302020302020300A20202020312E343333342020202D302E3339313320202020302E303030302043202020302020302020302020302020302020302020302020302020302020302020302020300A20202020312E343333342020202D312E3231363320202020302E303030302043202020302020302020302020302020302020302020302020302020302020302020302020300A20202020302E373138392020202D312E3632383820202020302E303030302043202020302020302020302020302020302020302020302020302020302020302020302020300A20202020302E303034342020202D312E3231363320202020302E303030302043202020302020302020302020302020302020302020302020302020302020302020302020300A20202020302E3839303420202020302E3832383120202020302E30303030204E202020302020302020302020302020302020302020302020302020302020302020302020300A20202020322E3034363520202020302E3136303720202020302E303030302043202020302020302020302020302020302020302020302020302020302020302020302020300A20202020312E3731303920202020302E3931343420202020302E303030302043202020302020302020302020302020302020302020302020302020302020302020302020300A2020202D322E3133393020202020302E3032313220202020302E30303030204E202020302020332020302020302020302020302020302020302020302020302020302020300A2020202D322E3133393020202020302E3834363220202020302E30303030204F202020302020302020302020302020302020302020302020302020302020302020302020300A2020202D322E383533342020202D302E3339313320202020302E30303030204F202020302020352020302020302020302020302020302020302020302020302020302020300A20202020322E383533342020202D302E3031303820202020302E303030302043202020302020302020302020302020302020302020302020302020302020302020302020300A20202020322E3132333420202020312E3632383820202020302E303030302043202020302020302020302020302020302020302020302020302020302020302020302020300A2020312020322020322020302020202020200A2020322020332020312020302020202020200A2020332020342020322020302020202020200A2020342020352020312020302020202020200A2020352020362020322020302020202020200A2020362020372020312020302020202020200A2020372020382020322020302020202020200A2020382020392020312020302020202020200A2020392031302020322020302020202020200A2020312031302020312020302020202020200A2020352031302020312020302020202020200A2031322031332020322020302020202020200A2031312031332020312020302020202020200A2020362031312020312020302020202020200A2020372031322020312020302020202020200A2031342031352020322020302020202020200A2031342031362020312020302020202020200A2020332031342020312020302020202020200A2031322031372020312020302020202020200A2031332031382020312020302020202020200A4D202043484720203220203134202020312020313620202D310A4D2020454E44
Contributor: SASAKI S, TOYOHASHI UNIV. OF TECH.
InstType: EI
InstName: Unknown
IoniMethod: _ENERGY 50 eV
IonPolarity: pos
Date: 2010-10-09 19:48:36+02:00
Num Peaks: 23
41 77 43 124 44 154 45 5 56 92 57 107 69 62 83 3 97 31 167 46 
168 69 179 3 180 25 183 30 193 31 194 5 195 330 196 31 211 23 226 2 
240 100 241 999 242 77 
