Name: TRIDEUTEROMETHYLISOEUGENOL
MW: 178
Formula: C11H14O2
Synonym: MassBank: JP009452
Synonym: TRIDEUTEROMETHYLISOEUGENOL
Structure: 5452494445555445524F4D455448594C49534F455547454E4F4C2E6D6F6C0A20204368656D447261773038313231303038323932440A2031362031362020302020302020302020302020302020302020302020303939392056323030300A2020202D312E373035332020202D302E3335373220202020302E30303030204F202020302020302020302020302020302020302020302020302020302020302020302020300A2020202D302E383830332020202D302E3335373220202020302E303030302043202020302020302020302020302020302020302020302020302020302020302020302020300A2020202D302E3436373820202020302E3335373220202020302E303030302043202020302020302020302020302020302020302020302020302020302020302020302020300A2020202D302E3838303320202020312E3037313720202020302E30303030204F202020302020302020302020302020302020302020302020302020302020302020302020300A2020202D302E3436373820202020312E3738363220202020302E303030302043202020302020302020302020302020302020302020302020302020302020302020302020300A20202020302E3335373220202020302E3335373220202020302E303030302043202020302020302020302020302020302020302020302020302020302020302020302020300A20202020302E373639372020202D302E3335373220202020302E303030302043202020302020302020302020302020302020302020302020302020302020302020302020300A20202020312E353934372020202D302E3335373220202020302E303030302043202020302020302020302020302020302020302020302020302020302020302020302020300A20202020322E303037322020202D312E3037313720202020302E303030302043202020302020302020302020302020302020302020302020302020302020302020302020300A20202020322E383332322020202D312E3037313720202020302E303030302043202020302020302020302020302020302020302020302020302020302020302020302020300A20202020302E333537322020202D312E3037313720202020302E303030302043202020302020302020302020302020302020302020302020302020302020302020302020300A2020202D302E343637382020202D312E3037313720202020302E303030302043202020302020302020302020302020302020302020302020302020302020302020302020300A2020202D322E313137382020202D312E3037313720202020302E303030302043202020302020302020302020302020302020302020302020302020302020302020302020300A2020202D312E343033332020202D312E3438343220202020302E303030302048202020312020302020302020302020302020302020302020302020302020302020302020300A2020202D322E353330332020202D312E3738363220202020302E303030302048202020312020302020302020302020302020302020302020302020302020302020302020300A2020202D322E383332322020202D302E3635393220202020302E303030302048202020312020302020302020302020302020302020302020302020302020302020302020300A2020312020322020312020302020202020200A2020322020332020312020302020202020200A2020332020342020312020302020202020200A2020342020352020312020302020202020200A2020332020362020322020302020202020200A2020362020372020312020302020202020200A2020372020382020312020302020202020200A2020382020392020322020302020202020200A2020392031302020312020302020202020200A2020372031312020322020302020202020200A2031312031322020312020302020202020200A2020322031322020322020302020202020200A2031332031342020312020302020202020200A2031332031352020312020302020202020200A2031332031362020312020302020202020200A2020312031332020312020302020202020200A4D202049534F2020332020313420202032202031352020203220203136202020320A4D2020454E44
Contributor: EGUCHI S, FAC. OF SCIENCE, HIROSHIMA UNIV.
InstType: EI
InstName: HITACHI RMS-4
IoniMethod: _ENERGY 80 eV
IonPolarity: pos
Date: 2010-10-09 19:48:36+02:00
Num Peaks: 114
40 35 41 215 42 25 43 95 44 15 45 25 46 95 47 15 48 25 49 15 
50 70 51 170 52 65 53 105 54 30 55 110 56 15 57 35 58 10 59 15 
60 10 61 10 62 45 63 135 64 45 65 170 66 70 67 75 68 10 69 75 
71 20 74 30 75 30 76 30 77 265 78 100 79 260 80 60 81 80 82 55 
83 85 84 15 85 65 86 15 87 15 88 10 89 70 90 55 91 555 92 150 
93 110 94 35 95 85 96 30 97 15 98 10 101 10 102 40 103 380 104 90 
105 180 106 60 107 465 108 70 109 85 110 40 111 40 115 110 116 85 117 95 
118 50 119 90 120 75 121 55 122 20 123 30 124 15 125 10 131 80 132 30 
133 70 134 25 135 155 136 135 137 35 138 55 139 10 145 15 146 25 147 75 
148 45 149 80 150 70 151 20 152 15 153 25 154 25 159 15 160 10 161 35 
162 25 163 65 164 105 165 40 166 70 167 20 168 15 169 15 178 105 179 110 
180 430 181 999 182 115 183 15 
