Name: 1-ETHYL-1-PHENYLHYDRAZINE
MW: 136
Formula: C8H12N2
Synonym: MassBank: JP000397
Synonym: 1-ETHYL-1-PHENYLHYDRAZINE
Structure: 312D455448594C2D312D5048454E594C48594452415A494E452E6D6F6C0A20204368656D447261773131313830393033343232440A2031302031302020302020302020302020302020302020302020302020303939392056323030300A20202020312E303331332020202D302E3335373220202020302E30303030204E202020302020302020302020302020302020302020302020302020302020302020302020300A20202020312E343433382020202D312E3037313720202020302E30303030204E202020302020302020302020302020302020302020302020302020302020302020302020300A20202020302E323036332020202D302E3335373220202020302E303030302043202020302020302020302020302020302020302020302020302020302020302020302020300A2020202D302E323036332020202D312E3037313720202020302E303030302043202020302020302020302020302020302020302020302020302020302020302020302020300A2020202D312E303331322020202D312E3037313720202020302E303030302043202020302020302020302020302020302020302020302020302020302020302020302020300A2020202D312E343433382020202D302E3335373220202020302E303030302043202020302020302020302020302020302020302020302020302020302020302020302020300A2020202D312E3033313320202020302E3335373220202020302E303030302043202020302020302020302020302020302020302020302020302020302020302020302020300A2020202D302E3230363220202020302E3335373220202020302E303030302043202020302020302020302020302020302020302020302020302020302020302020302020300A20202020312E3434333820202020302E3335373220202020302E303030302043202020302020302020302020302020302020302020302020302020302020302020302020300A20202020312E3033313320202020312E3037313720202020302E303030302043202020302020302020302020302020302020302020302020302020302020302020302020300A2020312020322020312020302020202020200A2020332020342020312020302020202020200A2020342020352020322020302020202020200A2020352020362020312020302020202020200A2020362020372020322020302020202020200A2020372020382020312020302020202020200A2020332020382020322020302020202020200A2020312020332020312020302020202020200A2020392031302020312020302020202020200A2020312020392020312020302020202020200A4D2020454E44
Contributor: SASAKI S, TOYOHASHI UNIV. OF TECH.
InstType: EI
InstName: SHIMADZU LKB-2091
IoniMethod: _ENERGY 70 eV
IonPolarity: pos
Date: 2010-10-09 19:48:36+02:00
Num Peaks: 42
27 68 29 92 30 16 38 2 39 76 40 12 41 17 42 2 43 114 44 16 
50 56 51 10 52 56 53 52 63 36 64 4 65 68 66 16 74 16 75 2 
76 16 77 680 78 108 79 13 80 15 91 128 92 72 93 6 94 44 104 174 
105 192 106 34 107 380 108 36 118 36 119 3 120 36 121 999 122 92 135 2 
136 900 137 96 
