Name: P-BENZOQUINONE DIOXIME
CAS: 105-11-3
MW: 138
Formula: C6H6N2O2
Synonym: MassBank: JP005701
Synonym: P-BENZOQUINONE DIOXIME
Synonym: QUINONE DIOXIME
Structure: 502D42454E5A4F5155494E4F4E452044494F58494D452E6D6F6C0A20204368656D447261773038313231303033353732440A2031302031302020302020302020302020302020302020302020302020303939392056323030300A2020202D302E383235302020202D302E3030303020202020302E303030302043202020302020302020302020302020302020302020302020302020302020302020302020300A2020202D302E3431323520202020302E3731343520202020302E303030302043202020302020302020302020302020302020302020302020302020302020302020302020300A20202020302E3431323520202020302E3731343520202020302E303030302043202020302020302020302020302020302020302020302020302020302020302020302020300A20202020302E383235302020202D302E3030303020202020302E303030302043202020302020302020302020302020302020302020302020302020302020302020302020300A20202020302E343132352020202D302E3731343520202020302E303030302043202020302020302020302020302020302020302020302020302020302020302020302020300A2020202D302E343132352020202D302E3731343520202020302E303030302043202020302020302020302020302020302020302020302020302020302020302020302020300A20202020312E363530302020202D302E3030303020202020302E30303030204E202020302020302020302020302020302020302020302020302020302020302020302020300A20202020322E303632352020202D302E3731343520202020302E30303030204F202020302020302020302020302020302020302020302020302020302020302020302020300A2020202D312E363530302020202D302E3030303020202020302E30303030204E202020302020302020302020302020302020302020302020302020302020302020302020300A2020202D322E303632352020202D302E3731343520202020302E30303030204F202020302020302020302020302020302020302020302020302020302020302020302020300A2020312020322020312020302020202020200A2020322020332020322020302020202020200A2020332020342020312020302020202020200A2020342020352020312020302020202020200A2020352020362020322020302020202020200A2020312020362020312020302020202020200A2020372020382020312020302020202020200A2020342020372020322020302020202020200A2020392031302020312020302020202020200A2020312020392020322020302020202020200A4D2020454E44
Contributor: MASS SPECTROSCOPY SOC. OF JAPAN (MSSJ)
InstType: EI
InstName: HITACHI M-80
IoniMethod: _ENERGY 70 eV
IonPolarity: pos
Date: 2010-10-09 19:48:36+02:00
Num Peaks: 61
18 8 26 24 27 12 28 22 29 8 30 40 31 7 37 19 38 25 39 57 
40 25 41 12 42 13 43 13 44 15 50 32 51 62 52 165 53 97 54 11 
55 5 61 14 62 26 63 85 64 61 65 47 66 24 67 10 68 12 69 10 
74 10 75 11 76 45 77 47 78 177 79 31 80 20 81 9 87 4 88 8 
89 3 90 60 91 46 92 20 93 6 94 5 95 24 103 27 104 7 106 12 
107 42 108 61 109 5 121 8 122 26 123 18 136 12 137 9 138 999 139 101 
140 9 
