Name: ALPHA-HIMACHALENE
MW: 204
Formula: C15H24
Synonym: MassBank: JP002838
Synonym: ALPHA-HIMACHALENE
Structure: 414C5048412D48494D414348414C454E452E6D6F6C0A20204368656D447261773038303631303036323332440A2031382031392020302020302020302020302020302020302020302020303939392056323030300A2020202D312E3236303920202020302E3430383820202020302E303030302043202020302020302020302020302020302020302020302020302020302020302020302020300A2020202D312E323630392020202D302E3431363220202020302E303030302043202020302020302020302020302020302020302020302020302020302020302020302020300A2020202D302E353436342020202D302E3832383720202020302E303030302043202020302020302020302020302020302020302020302020302020302020302020302020300A20202020302E313638312020202D302E3431363220202020302E303030302043202020302020302020302020302020302020302020302020302020302020302020302020300A20202020302E3136383120202020302E3430383820202020302E303030302043202020302020302020302020302020302020302020302020302020302020302020302020300A2020202D302E3534363420202020302E3832313320202020302E303030302043202020302020302020302020302020302020302020302020302020302020302020302020300A20202020302E383133312020202D302E3933303620202020302E303030302043202020302020302020302020302020302020302020302020302020302020302020302020300A20202020312E363137342020202D302E3734373020202020302E303030302043202020302020302020302020302020302020302020302020302020302020302020302020300A20202020312E393735332020202D302E3030333720202020302E303030302043202020302020302020302020302020302020302020302020302020302020302020302020300A20202020312E3631373420202020302E3733393620202020302E303030302043202020302020302020302020302020302020302020302020302020302020302020302020300A20202020302E3831333120202020302E3932333220202020302E303030302043202020302020302020302020302020302020302020302020302020302020302020302020300A20202020302E3632393520202020312E3732373520202020302E303030302043202020302020302020302020302020302020302020302020302020302020302020302020300A2020202D312E393735332020202D302E3832383720202020302E303030302043202020302020302020302020302020302020302020302020302020302020302020302020300A2020202D302E353436342020202D312E3635333720202020302E303030302048202020302020302020302020302020302020302020302020302020302020302020302020300A20202020302E3136383120202020312E3233333820202020302E303030302048202020302020302020302020302020302020302020302020302020302020302020302020300A20202020302E393131342020202D302E3035383320202020302E303030302048202020302020302020302020302020302020302020302020302020302020302020302020300A20202020312E303236362020202D312E3732373520202020302E303030302043202020302020302020302020302020302020302020302020302020302020302020302020300A20202020302E313232392020202D312E3338323520202020302E303030302043202020302020302020302020302020302020302020302020302020302020302020302020300A2020312020322020312020302020202020200A2020322020332020322020302020202020200A2020332020342020312020302020202020200A2020342020352020312020302020202020200A2020352020362020312020302020202020200A2020362020312020312020302020202020200A2020342020372020312020302020202020200A2020372020382020312020302020202020200A2020382020392020312020302020202020200A2020392031302020312020302020202020200A2031302031312020312020302020202020200A2031312020352020312020302020202020200A2031312031322020322020302020202020200A2020322031332020312020302020202020200A2020332031342020312020302020202020200A2020352031352020312020362020202020200A2020342031362020312020362020202020200A2020372031372020312020362020202020200A2020372031382020312020312020202020200A4D2020454E44
Contributor: SASAKI S, TOYOHASHI UNIV. OF TECH.
InstType: EI
InstName: Unknown
IoniMethod: EI
IonPolarity: pos
Date: 2010-10-09 19:48:36+02:00
Num Peaks: 98
26 8 27 143 29 151 38 1 39 207 40 36 41 610 42 4 43 163 44 5 
50 11 51 1 52 30 53 191 54 23 55 37 56 60 57 41 58 5 63 0 
64 15 65 123 66 40 67 31 68 63 69 491 70 41 71 0 75 13 76 6 
77 347 78 10 79 560 80 155 81 271 82 10 83 50 84 8 89 16 90 1 
91 530 92 323 93 999 94 8 95 251 96 50 97 27 102 1 103 48 104 30 
105 530 106 2 107 405 108 175 109 391 110 4 111 22 112 5 115 60 116 3 
117 87 118 31 119 680 120 22 121 420 122 115 123 30 127 0 128 26 129 23 
130 11 131 5 132 20 133 307 134 381 135 30 136 103 137 11 141 6 143 1 
145 27 146 10 147 167 148 12 149 32 150 5 159 11 160 0 161 410 162 83 
163 16 175 8 176 43 189 425 190 71 204 51 205 91 206 6 
