Name: MassBank: JP003285
MW: 239
Formula: C10H13N3O4
Synonym: MassBank: JP003285
Synonym: N,N-DIETHYL-2,4-DINITROBENZENAMINE
Structure: 4E2C4E2D4449455448594C2D322C342D44494E4954524F42454E5A454E414D494E452E6D6F6C0A20204368656D447261773038313231303032333232440A2031372031372020302020302020302020302020302020302020302020303939392056323030300A2020202D302E343132352020202D302E3335373220202020302E303030302043202020302020302020302020302020302020302020302020302020302020302020302020300A2020202D302E3030303020202020302E3335373220202020302E303030302043202020302020302020302020302020302020302020302020302020302020302020302020300A20202020302E3832353020202020302E3335373220202020302E303030302043202020302020302020302020302020302020302020302020302020302020302020302020300A20202020312E323337352020202D302E3335373220202020302E303030302043202020302020302020302020302020302020302020302020302020302020302020302020300A20202020302E383235302020202D312E3037313720202020302E303030302043202020302020302020302020302020302020302020302020302020302020302020302020300A2020202D302E303030302020202D312E3037313720202020302E303030302043202020302020302020302020302020302020302020302020302020302020302020302020300A2020202D312E323337352020202D302E3335373220202020302E30303030204E202020302020302020302020302020302020302020302020302020302020302020302020300A20202020322E303632352020202D302E3335373220202020302E30303030204E202020302020332020302020302020302020302020302020302020302020302020302020300A20202020322E343735302020202D312E3037313720202020302E30303030204F202020302020302020302020302020302020302020302020302020302020302020302020300A20202020322E3437353020202020302E3335373220202020302E30303030204F202020302020352020302020302020302020302020302020302020302020302020302020300A2020202D302E3431323520202020312E3037313720202020302E30303030204E202020302020332020302020302020302020302020302020302020302020302020302020300A2020202D312E3233373520202020312E3037313720202020302E30303030204F202020302020302020302020302020302020302020302020302020302020302020302020300A2020202D302E3030303020202020312E3738363220202020302E30303030204F202020302020352020302020302020302020302020302020302020302020302020302020300A2020202D312E363530302020202D312E3037313720202020302E303030302043202020302020302020302020302020302020302020302020302020302020302020302020300A2020202D312E323337352020202D312E3738363220202020302E303030302043202020302020302020302020302020302020302020302020302020302020302020302020300A2020202D312E3635303020202020302E3335373220202020302E303030302043202020302020302020302020302020302020302020302020302020302020302020302020300A2020202D322E3437353020202020302E3335373220202020302E303030302043202020302020302020302020302020302020302020302020302020302020302020302020300A2020312020322020312020302020202020200A2020322020332020322020302020202020200A2020332020342020312020302020202020200A2020342020352020322020302020202020200A2020352020362020312020302020202020200A2020312020362020322020302020202020200A2020312020372020312020302020202020200A2020382020392020322020302020202020200A2020382031302020312020302020202020200A2020342020382020312020302020202020200A2031312031322020322020302020202020200A2031312031332020312020302020202020200A2020322031312020312020302020202020200A2031342031352020312020302020202020200A2020372031342020312020302020202020200A2031362031372020312020302020202020200A2020372031362020312020302020202020200A4D202043484720203420202038202020312020313020202D3120203131202020312020313320202D310A4D2020454E44
Contributor: KOGA M, UNIV. OF OCCUPATIONAL AND ENVIRONMENTAL HEALTH
InstType: EI
InstName: JEOL JMS-01-SG-2
IoniMethod: _ENERGY 75 eV
IonPolarity: pos
Date: 2010-10-09 19:48:36+02:00
Num Peaks: 102
41 21 42 24 44 999 45 37 50 60 51 98 52 85 53 52 54 36 55 38 
56 134 57 21 62 46 63 132 64 62 65 127 66 42 68 22 70 26 74 41 
75 77 76 129 77 190 78 156 79 56 80 38 81 20 82 23 83 25 84 24 
89 69 90 87 91 155 92 125 93 63 95 22 103 96 104 144 105 58 106 64 
107 36 108 54 109 18 110 19 115 21 116 27 117 175 118 127 119 130 120 129 
121 62 122 113 123 20 128 20 130 51 131 91 132 189 133 51 134 110 135 40 
136 30 137 24 138 68 141 15 145 52 146 83 147 71 148 43 149 186 150 275 
151 40 161 23 163 43 164 356 165 72 166 114 168 20 175 47 176 55 177 78 
178 122 179 61 180 128 181 26 190 26 191 68 192 109 193 37 194 26 196 435 
197 59 206 25 207 37 209 21 210 24 211 33 222 570 223 71 224 671 225 71 
239 80 240 16 
