Name: MassBank: JP005758
CAS: 121-69-7
MW: 121
Formula: C8H11N
Synonym: MassBank: JP005758
Synonym: N,N-DIMETHYLANILINE
Structure: 310A32330A4E2C4E2D44494D455448594C42454E5A454E414D494E452E6D6F6C0A20204368656D447261773038313231303032333932440A2020392020392020302020302020302020302020302020302020302020303939392056323030300A2020202D302E3230363320202020302E3030303020202020302E303030302043202020302020302020302020302020302020302020302020302020302020302020302020300A20202020302E3230363320202020302E3731343520202020302E303030302043202020302020302020302020302020302020302020302020302020302020302020302020300A20202020312E3033313220202020302E3731343520202020302E303030302043202020302020302020302020302020302020302020302020302020302020302020302020300A20202020312E343433382020202D302E3030303020202020302E303030302043202020302020302020302020302020302020302020302020302020302020302020302020300A20202020312E303331332020202D302E3731343520202020302E303030302043202020302020302020302020302020302020302020302020302020302020302020302020300A20202020302E323036332020202D302E3731343520202020302E303030302043202020302020302020302020302020302020302020302020302020302020302020302020300A2020202D312E3033313220202020302E3030303020202020302E30303030204E202020302020302020302020302020302020302020302020302020302020302020302020300A2020202D312E343433382020202D302E3731343520202020302E303030302043202020302020302020302020302020302020302020302020302020302020302020302020300A2020202D312E3434333820202020302E3731343520202020302E303030302043202020302020302020302020302020302020302020302020302020302020302020302020300A2020312020322020312020302020202020200A2020322020332020322020302020202020200A2020332020342020312020302020202020200A2020342020352020322020302020202020200A2020352020362020312020302020202020200A2020312020362020322020302020202020200A2020312020372020312020302020202020200A2020372020382020312020302020202020200A2020372020392020312020302020202020200A4D2020454E44
Contributor: MASS SPECTROSCOPY SOC. OF JAPAN (MSSJ)
InstType: EI
InstName: HITACHI M-80
IoniMethod: _ENERGY 70 eV
IonPolarity: pos
Date: 2010-10-09 19:48:36+02:00
Num Peaks: 57
37 6 38 31 39 122 40 15 47 11 49 2 50 36 51 83 52 69 53 68 
54 45 55 11 59 18 60 20 61 24 62 18 63 48 64 14 65 74 66 28 
67 26 68 17 69 9 70 2 73 3 74 8 75 9 76 13 77 170 78 102 
79 63 80 34 81 17 82 24 83 4 89 15 90 7 91 115 92 30 93 56 
94 25 95 13 96 8 102 14 103 74 104 47 105 24 106 620 107 49 117 10 
118 27 119 18 120 494 121 999 122 93 123 3 124 7 
