Name: 4-NITROQUINOLINE-N-OXIDE
CAS: 56-57-5
MW: 190
Formula: C9H6N2O3
Synonym: MassBank: JP005717
Synonym: 4-NITROQUINOLINE-N-OXIDE
Structure: 342D4E4954524F5155494E4F4C494E452D4E2D4F584944452E6D6F6C0A20204368656D447261773034323231303137353332440A2031342031352020302020302020302020302020302020302020302020303939392056323030300A20202020302E3731343520202020312E3033313320202020302E30303030204E202020302020332020302020302020302020302020302020302020302020302020302020300A20202020312E3432383920202020302E3631383820202020302E303030302043202020302020302020302020302020302020302020302020302020302020302020302020300A20202020312E343238392020202D302E3230363220202020302E303030302043202020302020302020302020302020302020302020302020302020302020302020302020300A20202020302E373134352020202D302E3631383720202020302E303030302043202020302020302020302020302020302020302020302020302020302020302020302020300A2020202D302E303030302020202D302E3230363220202020302E303030302043202020302020302020302020302020302020302020302020302020302020302020302020300A2020202D302E373134352020202D302E3631383720202020302E303030302043202020302020302020302020302020302020302020302020302020302020302020302020300A2020202D312E343238392020202D302E3230363220202020302E303030302043202020302020302020302020302020302020302020302020302020302020302020302020300A2020202D312E3432383920202020302E3631383820202020302E303030302043202020302020302020302020302020302020302020302020302020302020302020302020300A2020202D302E3731343520202020312E3033313320202020302E303030302043202020302020302020302020302020302020302020302020302020302020302020302020300A20202020302E3030303020202020302E3631383820202020302E303030302043202020302020302020302020302020302020302020302020302020302020302020302020300A20202020302E3731343520202020312E3835363320202020302E30303030204F202020302020352020302020302020302020302020302020302020302020302020302020300A20202020302E373134352020202D312E3434333720202020302E30303030204E202020302020332020302020302020302020302020302020302020302020302020302020300A20202020312E343238392020202D312E3835363320202020302E30303030204F202020302020302020302020302020302020302020302020302020302020302020302020300A2020202D302E303030302020202D312E3835363220202020302E30303030204F202020302020352020302020302020302020302020302020302020302020302020302020300A2020312020322020312020302020202020200A2020322020332020322020302020202020200A2020332020342020312020302020202020200A2020342020352020322020302020202020200A2020352020362020312020302020202020200A2020362020372020322020302020202020200A2020372020382020312020302020202020200A2020382020392020322020302020202020200A2020392031302020312020302020202020200A2020312031302020322020302020202020200A2020352031302020312020302020202020200A2020312031312020312020302020202020200A2031322031332020322020302020202020200A2031322031342020312020302020202020200A2020342031322020312020302020202020200A4D202043484720203420202031202020312020313120202D3120203132202020312020313420202D310A4D2020454E44
Contributor: MASS SPECTROSCOPY SOC. OF JAPAN (MSSJ)
InstType: EI
InstName: HITACHI M-80
IoniMethod: _ENERGY 70 eV
IonPolarity: pos
Date: 2010-10-09 19:48:36+02:00
Num Peaks: 51
28 8 30 74 38 14 39 32 50 40 51 53 52 13 53 21 61 15 62 62 
63 89 64 24 65 12 74 63 75 87 76 56 77 116 78 19 85 8 86 26 
87 38 88 103 89 250 90 51 98 12 99 14 100 24 101 66 102 28 103 9 
104 81 105 25 113 70 114 202 115 41 116 161 117 23 127 28 128 42 132 81 
133 9 134 17 143 4 144 21 160 462 161 49 174 32 175 4 190 999 191 115 
192 13 
