Name: BETA-CARYOPHYLLENE
MW: 204
Formula: C15H24
Synonym: MassBank: JP002852
Synonym: BETA-CARYOPHYLLENE
Structure: 424554412D434152594F5048594C4C454E452E6D6F6C0A20204368656D447261773039303531303132323032440A2031382031392020302020302020302020302020302020302020302020303939392056323030300A2020202D302E3638363820202020312E3331343220202020302E303030302043202020302020302020302020302020302020302020302020302020302020302020302020300A2020202D302E3638363820202020302E3438393220202020302E303030302043202020302020302020302020302020302020302020302020302020302020302020302020300A20202020302E3032373720202020302E3037363720202020302E303030302043202020302020302020302020302020302020302020302020302020302020302020302020300A20202020302E3734323220202020302E3438393220202020302E303030302043202020302020302020302020302020302020302020302020302020302020302020302020300A20202020302E3734323220202020312E3331343220202020302E303030302043202020302020302020302020302020302020302020302020302020302020302020302020300A20202020302E3032373720202020312E3732363720202020302E303030302043202020302020302020302020302020302020302020302020302020302020302020302020300A2020202D312E323939382020202D302E3036323820202020302E303030302043202020302020302020302020302020302020302020302020302020302020302020302020300A2020202D302E393634332020202D302E3831363520202020302E303030302043202020302020302020302020302020302020302020302020302020302020302020302020300A2020202D302E313433382020202D302E3733303220202020302E303030302043202020302020302020302020302020302020302020302020302020302020302020302020300A20202020302E363633322020202D302E3930313720202020302E303030302043202020302020302020302020302020302020302020302020302020302020302020302020300A20202020302E383334372020202D302E3039343820202020302E303030302043202020302020302020302020302020302020302020302020302020302020302020302020300A2020202D312E3438333620202020302E3730323820202020302E303030302043202020302020302020302020302020302020302020302020302020302020302020302020300A20202020312E3435363720202020302E3037363720202020302E303030302043202020302020302020302020302020302020302020302020302020302020302020302020300A2020202D312E3430313220202020312E3732363720202020302E303030302048202020302020302020302020302020302020302020302020302020302020302020302020300A2020202D302E313837302020202D312E3535343120202020302E303030302048202020302020302020302020302020302020302020302020302020302020302020302020300A20202020302E363633322020202D312E3732363720202020302E303030302043202020302020302020302020302020302020302020302020302020302020302020302020300A20202020312E343833362020202D302E3938383020202020302E303030302043202020302020302020302020302020302020302020302020302020302020302020302020300A20202020302E3032373720202020302E3930313720202020302E303030302048202020302020302020302020302020302020302020302020302020302020302020302020300A2020312020322020322020302020202020200A2020332020342020312020302020202020200A2020342020352020312020302020202020200A2020352020362020312020302020202020200A2020362020312020312020302020202020200A2020322020372020312020302020202020200A2020372020382020312020302020202020200A2020382020392020312020302020202020200A2020392020332020312020302020202020200A2020392031302020312020302020202020200A2031302031312020312020302020202020200A2031312020332020312020302020202020200A2020322031322020312020302020202020200A2020342031332020322020302020202020200A2020312031342020312020302020202020200A2020392031352020312020312020202020200A2031302031362020312020312020202020200A2031302031372020312020362020202020200A2020332031382020312020362020202020200A4D2020454E44
Contributor: SASAKI S, TOYOHASHI UNIV. OF TECH.
InstType: EI
InstName: Unknown
IoniMethod: EI
IonPolarity: pos
Date: 2010-10-09 19:48:36+02:00
Num Peaks: 105
18 6 26 6 27 180 29 18 38 10 39 297 40 77 41 89 42 45 43 140 
44 5 50 2 51 65 52 55 53 281 54 5 55 385 56 55 57 56 58 1 
63 22 64 10 65 141 66 6 67 330 68 105 69 848 70 6 71 40 75 12 
76 8 77 33 78 110 79 597 80 202 81 4 82 140 83 51 84 5 85 0 
89 15 90 10 91 620 92 25 93 999 94 245 95 243 96 0 97 15 98 1 
102 8 103 0 104 21 105 473 106 290 107 44 108 121 109 213 110 32 111 4 
112 6 115 35 116 15 117 5 118 17 119 348 120 415 121 3 122 101 123 70 
124 10 128 2 129 12 130 15 131 33 132 0 133 635 134 241 135 183 136 9 
137 28 138 2 145 12 146 1 147 302 148 290 149 100 150 1 159 5 160 10 
161 345 162 1 163 35 164 4 170 1 173 1 175 107 176 47 177 10 189 20 
190 32 191 4 204 210 205 4 206 5 
