Name: MassBank: JP002459
MW: 188
Formula: C9H16O4
Synonym: MassBank: JP002459
Synonym: (4S,5S)-2-ETHYLIDENE-4,5-BIS(METHOXYMETHYL)-1,3-DIOXOLANE
Structure: 2834532C3553292D322D455448594C4944454E452D342C352D424953284D4554484F58594D455448594C292D312C332D44494F584F4C414E452E6D6F6C0A20204368656D447261773130323230393032353032440A2031352031352020302020302020302020302020302020302020302020303939392056323030300A2020202D302E3038303620202020302E3235303520202020302E303030302043202020302020302020302020302020302020302020302020302020302020302020302020300A20202020302E3733393920202020302E3136343320202020302E30303030204F202020302020302020302020302020302020302020302020302020302020302020302020300A20202020312E3037353620202020302E3931373920202020302E303030302043202020302020302020302020302020302020302020302020302020302020302020302020300A20202020302E3436323320202020312E3436393120202020302E30303030204F202020302020302020302020302020302020302020302020302020302020302020302020300A2020202D302E3235323020202020312E3035373620202020302E303030302043202020302020302020302020302020302020302020302020302020302020302020302020300A20202020312E3838323420202020312E3038393920202020302E303030302043202020302020302020302020302020302020302020302020302020302020302020302020300A2020202D302E3538373120202020312E3831313520202020302E303030302048202020302020302020302020302020302020302020302020302020302020302020302020300A2020202D302E303830362020202D302E3537343520202020302E303030302043202020302020302020302020302020302020302020302020302020302020302020302020300A2020202D312E3033363820202020302E3830323820202020302E303030302043202020302020302020302020302020302020302020302020302020302020302020302020300A2020202D302E3930313020202020302E3136343320202020302E303030302048202020302020302020302020302020302020302020302020302020302020302020302020300A2020202D302E373935302020202D302E3938373020202020302E30303030204F202020302020302020302020302020302020302020302020302020302020302020302020300A2020202D312E3634393720202020312E3335353120202020302E30303030204F202020302020302020302020302020302020302020302020302020302020302020302020300A20202020322E3433343720202020302E3437373020202020302E303030302043202020302020302020302020302020302020302020302020302020302020302020302020300A2020202D322E3433343720202020312E3130313320202020302E303030302043202020302020302020302020302020302020302020302020302020302020302020302020300A2020202D302E373936312020202D312E3831313520202020302E303030302043202020302020302020302020302020302020302020302020302020302020302020302020300A2020312020322020312020302020202020200A2020322020332020312020302020202020200A2020332020342020312020302020202020200A2020342020352020312020302020202020200A2020352020312020312020302020202020200A2020332020362020322020302020202020200A2020352020372020312020312020202020200A2020312020382020312020312020202020200A2020352020392020312020362020202020200A2020312031302020312020362020202020200A2020382031312020312020302020202020200A2020392031322020312020302020202020200A2020362031332020312020302020202020200A2031322031342020312020302020202020200A2031312031352020312020302020202020200A4D202053545920203120202031205355500A4D2020534C4220203120202031202020310A4D202053414C20202031202031202031340A4D202053424C20202031202031202031340A4D2020534D5420202031204D650A4D2020534256202020312031342020202D372E3532323420202020372E353832300A4D202053545920203120202032205355500A4D2020534C4220203120202032202020320A4D202053414C20202032202031202031350A4D202053424C20202032202031202031350A4D2020534D5420202032204D650A4D2020534256202020322031352020202D362E3733383520202020372E303131340A4D2020454E44
Contributor: ITO S, DEPT. OF CHEM., TOHOKU UNIV.
InstType: EI
InstName: HITACHI M-52
IoniMethod: _ENERGY 13.5 eV
IonPolarity: pos
Date: 2010-10-09 19:48:36+02:00
Num Peaks: 20
55 32 56 27 57 20 58 3 68 17 70 39 71 76 84 7 85 250 87 30 
100 61 113 3 114 76 115 91 128 22 143 18 158 34 187 25 188 999 189 30 
