Name: MassBank: JP000460
MW: 97
Formula: C5H7NO
Synonym: MassBank: JP000460
Synonym: 3,5-DIMETHYLISOXAZOLE
Structure: 310A31390A332C352D44494D455448594C49534F58415A4F4C452E6D6F6C0A20204368656D447261773032323231303031333932440A2020372020372020302020302020302020302020302020302020302020303939392056323030300A2020202D302E3037313120202020302E3738323420202020302E30303030204F202020302020302020302020302020302020302020302020302020302020302020302020300A20202020302E3731333620202020302E3532373520202020302E30303030204E202020302020302020302020302020302020302020302020302020302020302020302020300A20202020302E373133362020202D302E3239373520202020302E303030302043202020302020302020302020302020302020302020302020302020302020302020302020300A2020202D302E303731312020202D302E3535323420202020302E303030302043202020302020302020302020302020302020302020302020302020302020302020302020300A2020202D302E3535363020202020302E3131353020202020302E303030302043202020302020302020302020302020302020302020302020302020302020302020302020300A2020202D312E3338313020202020302E3131353020202020302E303030302043202020302020302020302020302020302020302020302020302020302020302020302020300A20202020312E333831302020202D302E3738323420202020302E303030302043202020302020302020302020302020302020302020302020302020302020302020302020300A2020312020322020312020302020202020200A2020322020332020322020302020202020200A2020332020342020312020302020202020200A2020342020352020322020302020202020200A2020312020352020312020302020202020200A2020352020362020312020302020202020200A2020332020372020312020302020202020200A4D2020454E44
Contributor: SASAKI S, TOYOHASHI UNIV. OF TECH.
InstType: EI
InstName: MX-1303
IoniMethod: _ENERGY 50 eV
IonPolarity: pos
Date: 2010-10-09 19:48:36+02:00
Num Peaks: 30
26 115 27 286 29 52 30 4 37 36 38 80 39 278 40 9 41 148 42 199 
43 725 50 3 51 63 52 88 53 47 54 72 55 297 56 22 62 25 63 5 
65 36 66 25 67 25 68 4 81 27 82 999 83 50 97 80 98 52 99 19 
