Name: SAFRAMYCIN-A
MW: 562
Formula: C29H30N4O8
Synonym: MassBank: JP000145
Synonym: SAFRAMYCIN-A
Structure: 303539345F53414652414D5943494E2D412E6D6F6C0A20204368656D447261773038323031303036313332440A2034362035302020302020302020302020302020302020302020302020303939392056323030300A20202020322E3232393020202020322E3731383920202020302E303030302043202020302020302020302020302020302020302020302020302020302020302020302020300A20202020322E3836313020202020322E3138383620202020302E303030302043202020302020302020302020302020302020302020302020302020302020302020302020300A20202020322E3731373720202020312E3337363120202020302E303030302043202020302020302020302020302020302020302020302020302020302020302020302020300A20202020312E3934323520202020312E3039343020202020302E303030302043202020302020302020302020302020302020302020302020302020302020302020302020300A20202020312E3331303620202020312E3632343320202020302E303030302043202020302020302020302020302020302020302020302020302020302020302020302020300A20202020312E3435333820202020322E3433363720202020302E303030302043202020302020302020302020302020302020302020302020302020302020302020302020300A20202020322E3031343420202020302E3237323220202020302E303030302043202020302020302020302020302020302020302020302020302020302020302020302020300A20202020312E343834312020202D302E3335393820202020302E303030302043202020302020302020302020302020302020302020302020302020302020302020302020300A20202020302E363632332020202D302E3433313820202020302E303030302043202020302020302020302020302020302020302020302020302020302020302020302020300A20202020302E3033303320202020302E3039383520202020302E30303030204E202020302020302020302020302020302020302020302020302020302020302020302020300A2020202D302E3034313620202020302E3932303420202020302E303030302043202020302020302020302020302020302020302020302020302020302020302020302020300A20202020302E3438383720202020312E3535323420202020302E303030302043202020302020302020302020302020302020302020302020302020302020302020302020300A2020202D302E363435352020202D302E3337343620202020302E303030302043202020302020302020302020302020302020302020302020302020302020302020302020300A2020202D312E333933322020202D302E3032363020202020302E303030302043202020302020302020302020302020302020302020302020302020302020302020302020300A2020202D312E3436353120202020302E3739353920202020302E303030302043202020302020302020302020302020302020302020302020302020302020302020302020300A2020202D302E3738393320202020312E3236393120202020302E303030302043202020302020302020302020302020302020302020302020302020302020302020302020300A2020202D322E303639312020202D302E3439393220202020302E303030302043202020302020302020302020302020302020302020302020302020302020302020302020300A2020202D322E383136372020202D302E3135303620202020302E303030302043202020302020302020302020302020302020302020302020302020302020302020302020300A2020202D322E3838383620202020302E3637313420202020302E303030302043202020302020302020302020302020302020302020302020302020302020302020302020300A2020202D322E3231323820202020312E3134343620202020302E303030302043202020302020302020302020302020302020302020302020302020302020302020302020300A20202020322E3337323320202020332E3533313420202020302E30303030204F202020302020302020302020302020302020302020302020302020302020302020302020300A20202020332E3633363320202020322E3437303820202020302E303030302043202020302020302020302020302020302020302020302020302020302020302020302020300A20202020332E3334393720202020302E3834353820202020302E30303030204F202020302020302020302020302020302020302020302020302020302020302020302020300A20202020302E3832313820202020322E3936373020202020302E30303030204F202020302020302020302020302020302020302020302020302020302020302020302020300A20202020312E373636332020202D312E3133353120202020302E303030302048202020302020302020302020302020302020302020302020302020302020302020302020300A20202020302E3831383720202020302E3439323720202020302E30303030204E202020302020302020302020302020302020302020302020302020302020302020302020300A20202020312E3631353620202020302E3730363220202020302E303030302043202020302020302020302020302020302020302020302020302020302020302020302020300A20202020302E3130373720202020322E3238343220202020302E303030302048202020302020302020302020302020302020302020302020302020302020302020302020300A2020202D302E333433332020202D312E3033363620202020302E303030302043202020302020302020302020302020302020302020302020302020302020302020302020300A2020202D302E3332333820202020312E3639353720202020302E303030302048202020302020302020302020302020302020302020302020302020302020302020302020300A2020202D322E3238343820202020312E3936363420202020302E30303030204F202020302020302020302020302020302020302020302020302020302020302020302020300A2020202D332E3633363320202020312E3032303020202020302E303030302043202020302020302020302020302020302020302020302020302020302020302020302020300A2020202D312E393937312020202D312E3332313020202020302E30303030204F202020302020302020302020302020302020302020302020302020302020302020302020300A2020202D332E343932352020202D302E3632333720202020302E30303030204F202020302020302020302020302020302020302020302020302020302020302020302020300A2020202D332E343230362020202D312E3434353520202020302E303030302043202020302020302020302020302020302020302020302020302020302020302020302020300A2020202D302E373335322020202D312E3832303320202020302E30303030204E202020302020302020302020302020302020302020302020302020302020302020302020300A2020202D302E343637302020202D322E3331353320202020302E303030302043202020302020302020302020302020302020302020302020302020302020302020302020300A2020202D312E323433332020202D322E3635323620202020302E30303030204F202020302020302020302020302020302020302020302020302020302020302020302020300A20202020302E303639322020202D332E3039393120202020302E303030302043202020302020302020302020302020302020302020302020302020302020302020302020300A20202020302E383934322020202D332E3039393120202020302E30303030204F202020302020302020302020302020302020302020302020302020302020302020302020300A2020202D302E333433332020202D332E3831333620202020302E303030302043202020302020302020302020302020302020302020302020302020302020302020302020300A20202020332E3134373620202020332E3831333620202020302E303030302043202020302020302020302020302020302020302020302020302020302020302020302020300A2020202D312E303538302020202D312E3038393120202020302E303030302048202020302020302020302020302020302020302020302020302020302020302020302020300A20202020302E323534382020202D312E3138313020202020302E303030302043202020302020302020302020302020302020302020302020302020302020302020302020300A2020202D302E313537372020202D312E3839353420202020302E30303030204E202020302020302020302020302020302020302020302020302020302020302020302020300A20202020302E383735382020202D312E3232383720202020302E303030302048202020302020302020302020302020302020302020302020302020302020302020302020300A2020312020322020322020302020202020200A2020322020332020312020302020202020200A2020332020342020312020302020202020200A2020342020352020322020302020202020200A2020352020362020312020302020202020200A2020362020312020312020302020202020200A2020342020372020312020302020202020200A2020372020382020312020302020202020200A2020382020392020312020302020202020200A2020392031302020312020302020202020200A2031302031312020312020302020202020200A2031312031322020312020302020202020200A2031322020352020312020302020202020200A2031302031332020312020302020202020200A2031332031342020312020302020202020200A2031342031352020322020302020202020200A2031352031362020312020302020202020200A2031362031312020312020302020202020200A2031342031372020312020302020202020200A2031372031382020312020302020202020200A2031382031392020322020302020202020200A2031392032302020312020302020202020200A2032302031352020312020302020202020200A2020312032312020312020302020202020200A2020322032322020312020302020202020200A2020332032332020322020302020202020200A2020362032342020322020302020202020200A2020382032352020312020312020202020200A2020382032362020312020362020202020200A2031322032362020312020362020202020200A2032362032372020312020302020202020200A2031322032382020312020312020202020200A2031332032392020312020312020202020200A2031312033302020312020362020202020200A2032302033312020322020302020202020200A2031392033322020312020302020202020200A2031372033332020322020302020202020200A2031382033342020312020302020202020200A2033342033352020312020302020202020200A2033362033372020312020302020202020200A2033372033382020322020302020202020200A2033372033392020312020302020202020200A2033392034302020322020302020202020200A2033392034312020312020302020202020200A2032312034322020312020302020202020200A2031332034332020312020362020202020200A2032392033362020312020302020202020200A2020392034342020312020362020202020200A2034342034352020332020302020202020200A2020392034362020312020312020202020200A4D2020454E44
Contributor: FUKUSHIMA K, INST. FOR CHEMOBIODYNAMICS, CHIBA UNIV.
InstType: EI
InstName: JEOL JMS-01-SG-2
IoniMethod: _ENERGY 70 eV
IonPolarity: pos
Date: 2010-10-09 19:48:36+02:00
Num Peaks: 161
14 18 15 95 16 152 19 171 20 105 25 11 26 68 27 512 28 703 29 157 
30 54 31 221 32 132 35 10 36 101 38 18 39 119 40 31 41 371 42 98 
43 147 44 786 45 112 46 79 50 62 51 58 52 23 53 50 54 41 55 202 
56 179 57 109 58 41 59 77 60 35 63 48 64 15 65 78 67 60 68 42 
69 69 70 34 71 38 72 21 73 46 74 38 75 21 76 57 77 88 78 45 
79 71 80 14 81 49 82 29 83 60 84 22 87 58 89 37 90 34 91 58 
92 32 93 57 94 28 95 42 98 24 99 28 100 19 101 53 102 33 103 38 
104 81 105 80 106 23 107 29 109 18 110 16 115 35 116 37 117 75 118 27 
119 24 120 11 121 32 122 17 123 11 128 21 129 42 130 30 131 82 132 35 
133 13 143 23 144 37 145 33 146 25 147 32 148 15 149 999 150 93 153 13 
156 29 157 26 158 21 159 25 160 42 161 27 162 12 163 23 167 12 171 15 
172 18 173 25 174 24 175 22 176 75 177 12 181 19 185 23 186 46 187 26 
188 44 189 26 190 57 191 17 192 20 199 18 200 33 201 48 202 31 203 98 
204 135 205 150 206 43 213 17 214 17 215 40 216 78 218 280 219 94 220 899 
221 178 222 20 223 86 227 15 228 14 229 47 230 14 242 56 243 509 244 131 
245 64 259 118 260 96 278 39 343 11 460 22 462 113 463 48 464 75 465 17 
562 14 
