Name: N-(TERT-BUTYL)-2-HEPTANIMINE
MW: 169
Formula: C11H23N
Synonym: MassBank: JP002244
Synonym: N-(TERT-BUTYL)-2-HEPTANIMINE
Structure: 4E2D28544552542D425554594C292D322D48455054414E494D494E452E6D6F6C0A20204368656D447261773038313231303031323432440A2031322031312020302020302020302020302020302020302020302020303939392056323030300A2020202D302E3335373220202020302E3637343020202020302E303030302043202020302020302020302020302020302020302020302020302020302020302020302020300A20202020302E3335373220202020302E3236313520202020302E303030302043202020302020302020302020302020302020302020302020302020302020302020302020300A20202020302E333537322020202D302E3536333520202020302E303030302043202020302020302020302020302020302020302020302020302020302020302020302020300A2020202D302E333537322020202D302E3937363020202020302E303030302043202020302020302020302020302020302020302020302020302020302020302020302020300A2020202D312E303731372020202D302E3536333520202020302E303030302043202020302020302020302020302020302020302020302020302020302020302020302020300A2020202D312E373836322020202D302E3937363020202020302E303030302043202020302020302020302020302020302020302020302020302020302020302020302020300A2020202D322E353030362020202D302E3536333520202020302E303030302043202020302020302020302020302020302020302020302020302020302020302020302020300A20202020312E3037313720202020302E3637343020202020302E30303030204E202020302020302020302020302020302020302020302020302020302020302020302020300A20202020312E3738363220202020302E3236313520202020302E303030302043202020302020302020302020302020302020302020302020302020302020302020302020300A20202020312E333733372020202D302E3435333020202020302E303030302043202020302020302020302020302020302020302020302020302020302020302020302020300A20202020322E353030362020202D302E3135313020202020302E303030302043202020302020302020302020302020302020302020302020302020302020302020302020300A20202020322E3139383720202020302E3937363020202020302E303030302043202020302020302020302020302020302020302020302020302020302020302020302020300A2020312020322020312020302020202020200A2020322020332020312020302020202020200A2020332020342020312020302020202020200A2020342020352020312020302020202020200A2020352020362020312020302020202020200A2020362020372020312020302020202020200A2020322020382020322020302020202020200A2020392031302020312020302020202020200A2020392031322020312020302020202020200A2020392031312020312020302020202020200A2020382020392020312020302020202020200A4D2020454E44
Contributor: MASS SPECTROSCOPY SOC. OF JAPAN (MSSJ)
InstType: EI
InstName: JEOL JMS-D-3000
IoniMethod: _ENERGY 70 eV
IonPolarity: pos
Date: 2010-10-09 19:48:36+02:00
Num Peaks: 24
41 461 42 323 43 325 53 18 54 16 55 135 56 109 57 999 58 437 59 52 
69 11 70 232 71 113 72 17 82 17 84 69 96 15 98 142 99 18 113 167 
114 66 126 42 154 103 169 14 
