Name: MassBank: JP002010
MW: 136
Formula: C8H12N2
Synonym: MassBank: JP002010
Synonym: 1-ALLYL-3,5-DIMETHYLPYRAZOLE
Structure: 312D414C4C594C2D332C352D44494D455448594C505952415A4F4C452E6D6F6C0A20204368656D447261773131313730393231313832440A2031312031312020302020302020302020302020302020302020302020303939392056323030300A20202020302E3034373820202020302E3334383620202020302E30303030204E202020302020302020302020302020302020302020302020302020302020302020302020300A2020202D302E3737323620202020302E3236323420202020302E30303030204E202020302020302020302020302020302020302020302020302020302020302020302020300A2020202D302E393434322020202D302E3534343620202020302E303030302043202020302020302020302020302020302020302020302020302020302020302020302020300A2020202D302E323239372020202D302E3935373120202020302E303030302043202020302020302020302020302020302020302020302020302020302020302020302020300A20202020302E333833342020202D302E3430353120202020302E303030302043202020302020302020302020302020302020302020302020302020302020302020302020300A20202020312E313930342020202D302E3537363620202020302E303030302043202020302020302020302020302020302020302020302020302020302020302020302020300A2020202D312E363937382020202D302E3838303120202020302E303030302043202020302020302020302020302020302020302020302020302020302020302020302020300A20202020302E3436303320202020312E3036333120202020302E303030302043202020302020302020302020302020302020302020302020302020302020302020302020300A20202020312E3238353320202020312E3036333120202020302E303030302043202020302020302020302020302020302020302020302020302020302020302020302020300A20202020312E3639373820202020312E3737373620202020302E303030302043202020302020302020302020302020302020302020302020302020302020302020302020300A2020202D302E313433352020202D312E3737373620202020302E303030302048202020302020302020302020302020302020302020302020302020302020302020302020300A2020312020322020312020302020202020200A2020322020332020322020302020202020200A2020332020342020312020302020202020200A2020342020352020322020302020202020200A2020312020352020312020302020202020200A2020352020362020312020302020202020200A2020332020372020312020302020202020200A2020382020392020312020302020202020200A2020392031302020322020302020202020200A2020312020382020312020302020202020200A2020342031312020312020302020202020200A4D2020454E44
Contributor: SASAKI S, TOYOHASHI UNIV. OF TECH.
InstType: EI
InstName: MX-1303
IoniMethod: _ENERGY 50 eV
IonPolarity: pos
Date: 2010-10-09 19:48:36+02:00
Num Peaks: 41
26 35 27 159 28 159 38 4 39 494 40 130 41 408 42 32 51 36 52 58 
53 86 54 13 55 84 65 82 66 82 67 8 68 130 69 23 79 30 80 9 
81 53 82 65 83 14 91 1 92 21 93 42 94 119 95 22 96 84 107 30 
108 174 109 57 110 48 120 11 121 130 122 1 133 14 134 30 135 999 136 63 
137 61 
