Name: MassBank: JP008795
MW: 225
Formula: C8H4F5NO
Synonym: MassBank: JP008795
Synonym: FORMALDEHYDE O-2,3,4,5,6-PENTAFLUOROBENZYLOXIME
Structure: 303538375F464F524D414C444548594445204F2D322C332C342C352C362D50454E5441464C554F524F42454E5A594C4F58494D452E6D6F6C0A20204368656D447261773130313931303232303332440A2031352031352020302020302020302020302020302020302020302020303939392056323030300A2020202D302E373134352020202D302E3431323520202020302E303030302043202020302020302020302020302020302020302020302020302020302020302020302020300A2020202D302E373134352020202D312E3233373520202020302E303030302043202020302020302020302020302020302020302020302020302020302020302020302020300A20202020302E303030302020202D312E3635303020202020302E303030302043202020302020302020302020302020302020302020302020302020302020302020302020300A20202020302E373134352020202D312E3233373520202020302E303030302043202020302020302020302020302020302020302020302020302020302020302020302020300A20202020302E373134352020202D302E3431323520202020302E303030302043202020302020302020302020302020302020302020302020302020302020302020302020300A20202020302E3030303020202020302E3030303020202020302E303030302043202020302020302020302020302020302020302020302020302020302020302020302020300A2020202D312E3432383920202020302E3030303020202020302E303030302046202020302020302020302020302020302020302020302020302020302020302020302020300A2020202D312E343238392020202D312E3635303020202020302E303030302046202020302020302020302020302020302020302020302020302020302020302020302020300A20202020302E303030302020202D322E3437353020202020302E303030302046202020302020302020302020302020302020302020302020302020302020302020302020300A20202020312E343238392020202D312E3635303020202020302E303030302046202020302020302020302020302020302020302020302020302020302020302020302020300A20202020312E3432383920202020302E3030303020202020302E303030302046202020302020302020302020302020302020302020302020302020302020302020302020300A20202020302E3030303020202020302E3832353020202020302E303030302043202020302020302020302020302020302020302020302020302020302020302020302020300A20202020302E3731343520202020312E3233373520202020302E30303030204F202020302020302020302020302020302020302020302020302020302020302020302020300A20202020302E3731343520202020322E3036323520202020302E30303030204E202020302020302020302020302020302020302020302020302020302020302020302020300A20202020312E3432383920202020322E3437353020202020302E303030302043202020302020302020302020302020302020302020302020302020302020302020302020300A2020312020322020322020302020202020200A2020322020332020312020302020202020200A2020332020342020322020302020202020200A2020342020352020312020302020202020200A2020352020362020322020302020202020200A2020362020312020312020302020202020200A2020312020372020312020302020202020200A2020322020382020312020302020202020200A2020332020392020312020302020202020200A2020342031302020312020302020202020200A2020352031312020312020302020202020200A2020362031322020312020302020202020200A2031322031332020312020302020202020200A2031332031342020312020302020202020200A2031342031352020322020302020202020200A4D2020454E44
Contributor: UOEH
InstType: EI
InstName: HP 5970
IoniMethod: _ENERGY 70 eV
IonPolarity: pos
Date: 2010-10-09 19:48:36+02:00
Num Peaks: 64
43 6 44 31 49 2 50 1 51 12 55 3 56 3 57 4 61 5 62 5 
68 5 69 29 74 8 75 19 79 12 80 8 81 20 86 5 92 4 93 33 
98 17 99 45 100 3 105 3 110 2 111 7 112 12 113 4 117 57 118 7 
119 25 120 1 123 2 124 1 129 4 130 7 131 25 132 1 137 9 141 2 
143 10 148 8 149 9 150 15 151 2 155 18 161 72 162 17 163 2 167 43 
168 18 169 6 176 1 177 6 178 5 179 4 181 999 182 75 183 2 195 114 
196 14 197 6 198 6 225 1 
