Name: CYCLOHEXYLACETIC ACID TRIMETHYLSILYL ESTER
MW: 214
Formula: C11H22O2Si
Synonym: MassBank: JP001893
Synonym: CYCLOHEXYLACETIC ACID TRIMETHYLSILYL ESTER
Structure: 4359434C4F484558594C4143455449432041434944205452494D455448594C53494C594C2045535445522E6D6F6C0A20204368656D447261773038313131303137323632440A2031342031342020302020302020302020302020302020302020302020303939392056323030300A2020202D302E333537322020202D302E3236313520202020302E303030302043202020302020302020302020302020302020302020302020302020302020302020302020300A20202020302E333537322020202D302E3637343020202020302E303030302043202020302020302020302020302020302020302020302020302020302020302020302020300A2020202D302E3335373220202020302E3536333520202020302E30303030204F202020302020302020302020302020302020302020302020302020302020302020302020300A2020202D312E303731372020202D302E3637343020202020302E30303030204F202020302020302020302020302020302020302020302020302020302020302020302020300A20202020312E303731372020202D302E3236313520202020302E303030302043202020302020302020302020302020302020302020302020302020302020302020302020300A20202020312E3037313720202020302E3536333520202020302E303030302043202020302020302020302020302020302020302020302020302020302020302020302020300A20202020312E3738363220202020302E3937363020202020302E303030302043202020302020302020302020302020302020302020302020302020302020302020302020300A20202020322E3530303620202020302E3536333520202020302E303030302043202020302020302020302020302020302020302020302020302020302020302020302020300A20202020322E353030362020202D302E3236313520202020302E303030302043202020302020302020302020302020302020302020302020302020302020302020302020300A20202020312E373836322020202D302E3637343020202020302E303030302043202020302020302020302020302020302020302020302020302020302020302020302020300A2020202D312E373836322020202D302E3236313520202020302E303030302053692020302020302020302020302020302020302020302020302020302020302020302020300A2020202D322E313938372020202D302E3937363020202020302E303030302043202020302020302020302020302020302020302020302020302020302020302020302020300A2020202D322E3530303620202020302E3135313020202020302E303030302043202020302020302020302020302020302020302020302020302020302020302020302020300A2020202D312E3337333720202020302E3435333020202020302E303030302043202020302020302020302020302020302020302020302020302020302020302020302020300A2020312020322020312020302020202020200A2020312020332020322020302020202020200A2020312020342020312020302020202020200A2020352020362020312020302020202020200A2020362020372020312020302020202020200A2020372020382020312020302020202020200A2020382020392020312020302020202020200A2020392031302020312020302020202020200A2020352031302020312020302020202020200A2020322020352020312020302020202020200A2031312031322020312020302020202020200A2031312031332020312020302020202020200A2031312031342020312020302020202020200A2020342031312020312020302020202020200A4D2020454E44
Contributor: KOGA M, UNIV. OF OCCUPATIONAL AND ENVIRONMENTAL HEALTH
InstType: EI
InstName: JEOL JMS-01-SG
IoniMethod: _ENERGY 70 eV
IonPolarity: pos
Date: 2010-10-09 19:48:36+02:00
Num Peaks: 30
43 52 44 49 45 98 47 8 55 121 59 43 61 46 67 4 72 54 73 453 
74 60 75 70 76 57 77 158 79 98 81 6 83 20 107 43 116 46 117 999 
118 95 119 49 131 78 132 34 133 83 147 17 148 20 155 2 199 364 200 63 
