Name: CHLORODIMETHYLPHENYLGERMANE
MW: 215
Formula: C8H11ClGe
Synonym: MassBank: JP001338
Synonym: CHLORODIMETHYLPHENYLGERMANE
Structure: 43484C4F524F44494D455448594C5048454E594C4745524D414E452E6D6F6C0A20204368656D447261773039303731303034323732440A2031302031302020302020302020302020302020302020302020302020303939392056323030300A20202020302E3832353020202020302E3030303020202020302E303030302047652020302020302020302020302020302020302020302020302020302020302020302020300A20202020302E3030303020202020302E3030303020202020302E303030302043202020302020302020302020302020302020302020302020302020302020302020302020300A2020202D302E343132352020202D302E3731343520202020302E303030302043202020302020302020302020302020302020302020302020302020302020302020302020300A2020202D312E323337352020202D302E3731343520202020302E303030302043202020302020302020302020302020302020302020302020302020302020302020302020300A2020202D312E3635303020202020302E3030303020202020302E303030302043202020302020302020302020302020302020302020302020302020302020302020302020300A2020202D312E3233373520202020302E3731343520202020302E303030302043202020302020302020302020302020302020302020302020302020302020302020302020300A2020202D302E3431323520202020302E3731343520202020302E303030302043202020302020302020302020302020302020302020302020302020302020302020302020300A20202020302E3832353020202020302E3832353020202020302E303030302043202020302020302020302020302020302020302020302020302020302020302020302020300A20202020312E3635303020202020302E3030303020202020302E303030302043202020302020302020302020302020302020302020302020302020302020302020302020300A20202020302E383235302020202D302E3832353020202020302E3030303020436C2020302020302020302020302020302020302020302020302020302020302020302020300A2020322020332020312020302020202020200A2020332020342020322020302020202020200A2020342020352020312020302020202020200A2020352020362020322020302020202020200A2020362020372020312020302020202020200A2020322020372020322020302020202020200A2020312020322020312020302020202020200A2020312020382020312020302020202020200A2020312020392020312020302020202020200A2020312031302020312020302020202020200A4D2020454E44
Contributor: MASS SPECTROSCOPY SOC. OF JAPAN (MSSJ)
InstType: EI
InstName: JEOL JMS-D-3000
IoniMethod: _ENERGY 70 eV
IonPolarity: pos
Date: 2010-10-09 19:48:36+02:00
Num Peaks: 75
50 77 51 268 52 24 63 29 65 93 70 11 72 14 74 22 75 16 76 11 
77 193 78 46 85 68 87 87 88 31 89 113 90 10 91 154 92 15 95 38 
97 51 98 17 99 65 100 28 101 20 105 113 107 186 108 47 109 248 110 19 
111 113 113 20 121 28 122 19 123 38 124 26 125 33 135 33 137 41 138 14 
139 51 141 21 147 62 149 75 150 27 151 95 153 20 159 11 163 14 165 13 
177 64 179 86 180 32 181 113 182 31 183 34 184 34 185 18 186 42 188 18 
197 458 198 41 199 742 200 234 201 999 202 135 203 424 204 33 205 57 212 52 
214 84 215 27 216 111 217 16 218 49 
