Name: CHOLESTANE
MW: 372
Formula: C27H48
Synonym: MassBank: JP004122
Synonym: CHOLESTANE
Structure: 43484F4C455354414E452E6D6F6C0A20204368656D447261773039303731303131313932440A2033332033362020302020302020302020302020302020302020302020303939392056323030300A2020202D342E303930392020202D312E3837333220202020302E303030302043202020302020302020302020302020302020302020302020302020302020302020302020300A2020202D342E303930392020202D312E3034383220202020302E303030302043202020302020302020302020302020302020302020302020302020302020302020302020300A2020202D332E333736352020202D302E3633353720202020302E303030302043202020302020302020302020302020302020302020302020302020302020302020302020300A2020202D332E333736352020202D322E3238353720202020302E303030302043202020302020302020302020302020302020302020302020302020302020302020302020300A2020202D322E363632302020202D312E3837333220202020302E303030302043202020302020302020302020302020302020302020302020302020302020302020302020300A2020202D312E393437352020202D322E3238353720202020302E303030302043202020302020302020302020302020302020302020302020302020302020302020302020300A2020202D312E323333302020202D312E3837333220202020302E303030302043202020302020302020302020302020302020302020302020302020302020302020302020300A2020202D312E323333302020202D312E3034383220202020302E303030302043202020302020302020302020302020302020302020302020302020302020302020302020300A2020202D302E353138362020202D302E3633353720202020302E303030302043202020302020302020302020302020302020302020302020302020302020302020302020300A20202020302E323636302020202D302E3839303720202020302E303030302043202020302020302020302020302020302020302020302020302020302020302020302020300A20202020302E373531302020202D302E3232333220202020302E303030302043202020302020302020302020302020302020302020302020302020302020302020302020300A20202020302E3236363020202020302E3434343220202020302E303030302043202020302020302020302020302020302020302020302020302020302020302020302020300A20202020302E3532313020202020312E3232383820202020302E303030302043202020302020302020302020302020302020302020302020302020302020302020302020300A2020202D302E3531383620202020302E3138393320202020302E303030302043202020302020302020302020302020302020302020302020302020302020302020302020300A2020202D302E3531383620202020312E3031343320202020302E303030302043202020302020302020302020302020302020302020302020302020302020302020302020300A2020202D312E3233333020202020302E3630313820202020302E303030302043202020302020302020302020302020302020302020302020302020302020302020302020300A2020202D312E3934373520202020302E3138393320202020302E303030302043202020302020302020302020302020302020302020302020302020302020302020302020300A2020202D312E393437352020202D302E3633353720202020302E303030302043202020302020302020302020302020302020302020302020302020302020302020302020300A2020202D322E363632302020202D312E3034383220202020302E303030302043202020302020302020302020302020302020302020302020302020302020302020302020300A2020202D312E393437352020202D312E3436303720202020302E303030302043202020302020302020302020302020302020302020302020302020302020302020302020300A2020202D322E363632302020202D302E3232333220202020302E303030302048202020302020302020302020302020302020302020302020302020302020302020302020300A2020202D302E353138362020202D312E3436303720202020302E303030302048202020302020302020302020302020302020302020302020302020302020302020302020300A2020202D302E313036312020202D312E3335303220202020302E303030302048202020302020302020302020302020302020302020302020302020302020302020302020300A2020202D322E363632302020202D322E3639383220202020302E303030302048202020302020302020302020302020302020302020302020302020302020302020302020300A20202020312E3038303920202020302E3537333320202020302E303030302048202020302020302020302020302020302020302020302020302020302020302020302020300A20202020302E3733343520202020322E3032353720202020302E303030302048202020302020302020302020302020302020302020302020302020302020302020302020300A20202020312E3331323020202020302E3939343520202020302E303030302043202020302020302020302020302020302020302020302020302020302020302020302020300A2020202D302E3237303020202020312E3436333220202020302E303030302043202020302020302020302020302020302020302020302020302020302020302020302020300A20202020312E3931303420202020312E3536323420202020302E303030302043202020302020302020302020302020302020302020302020302020302020302020302020300A20202020322E3730313520202020312E3332383120202020302E303030302043202020302020302020302020302020302020302020302020302020302020302020302020300A20202020332E3239393920202020312E3839363020202020302E303030302043202020302020302020302020302020302020302020302020302020302020302020302020300A20202020342E3039303920202020312E3636313720202020302E303030302043202020302020302020302020302020302020302020302020302020302020302020302020300A20202020332E3130373320202020322E3639383220202020302E303030302043202020302020302020302020302020302020302020302020302020302020302020302020300A2020312020322020312020302020202020200A2020322020332020312020302020202020200A2020312020342020312020302020202020200A2020342020352020312020302020202020200A2020352020362020312020302020202020200A2020362020372020312020302020202020200A2020372020382020312020302020202020200A2020382020392020312020302020202020200A2020392031302020312020302020202020200A2031302031312020312020302020202020200A2031312031322020312020302020202020200A2031322031332020312020302020202020200A2031322031342020312020302020202020200A2020392031342020312020302020202020200A2031342031352020312020312020202020200A2031342031362020312020302020202020200A2031362031372020312020302020202020200A2031372031382020312020302020202020200A2020382031382020312020302020202020200A2031382031392020312020302020202020200A2020332031392020312020302020202020200A2020352031392020312020302020202020200A2031392032302020312020312020202020200A2031382032312020312020362020202020200A2020382032322020312020312020202020200A2020392032332020312020362020202020200A2020352032342020312020362020202020200A2031322032352020312020362020202020200A2031332032362020312020312020202020200A2031332032372020312020302020202020200A2031332032382020312020302020202020200A2032372032392020312020302020202020200A2032392033302020312020302020202020200A2033302033312020312020302020202020200A2033312033322020312020302020202020200A2033312033332020312020302020202020200A4D2020454E44
Contributor: YAMAMOTO M, DEP. CHEMISTRY, FAC. SCIENCE, NARA WOMEN'S UNIV.
InstType: EI
InstName: HITACHI RMU-6E
IoniMethod: _ENERGY 70 eV
IonPolarity: pos
Date: 2010-10-09 19:48:36+02:00
Num Peaks: 75
29 60 41 200 42 20 43 300 53 30 54 20 55 400 56 4 57 200 67 330 
68 100 69 23 70 20 71 100 77 40 79 16 80 50 81 450 82 100 83 20 
84 20 85 20 93 220 94 2 95 450 97 130 105 60 106 3 107 190 108 210 
109 450 110 6 111 60 119 40 120 30 121 22 122 190 123 210 124 30 125 2 
133 40 134 20 135 150 137 10 148 160 149 500 150 200 151 10 152 20 161 60 
162 80 163 9 164 20 175 90 176 30 177 3 189 40 190 30 191 20 203 14 
204 40 216 20 217 999 218 68 219 190 220 20 232 130 233 4 259 20 262 120 
263 30 357 26 372 500 373 160 374 20 
