Name: AMINOPYRIN
MW: 231
Formula: C13H17N3O
Synonym: MassBank: JP003242
Synonym: AMINOPYRIN
Structure: 414D494E4F505952494E2E6D6F6C0A20204368656D447261773038303731303033353832440A2031372031382020302020302020302020302020302020302020302020303939392056323030300A2020202D302E323531302020202D302E3034373820202020302E30303030204E202020302020302020302020302020302020302020302020302020302020302020302020300A2020202D302E3136343720202020302E3737323620202020302E30303030204E202020302020302020302020302020302020302020302020302020302020302020302020300A20202020302E3634323220202020302E3934343220202020302E303030302043202020302020302020302020302020302020302020302020302020302020302020302020300A20202020312E3035343720202020302E3232393720202020302E303030302043202020302020302020302020302020302020302020302020302020302020302020302020300A20202020302E353032372020202D302E3338333420202020302E303030302043202020302020302020302020302020302020302020302020302020302020302020302020300A20202020302E363734322020202D312E3139303420202020302E30303030204F202020302020302020302020302020302020302020302020302020302020302020302020300A2020202D302E393635352020202D302E3436303320202020302E303030302043202020302020302020302020302020302020302020302020302020302020302020302020300A2020202D302E393635352020202D312E3238353320202020302E303030302043202020302020302020302020302020302020302020302020302020302020302020302020300A2020202D312E363739392020202D312E3639373820202020302E303030302043202020302020302020302020302020302020302020302020302020302020302020302020300A2020202D322E333934342020202D312E3238353320202020302E303030302043202020302020302020302020302020302020302020302020302020302020302020302020300A2020202D322E333934342020202D302E3436303320202020302E303030302043202020302020302020302020302020302020302020302020302020302020302020302020300A2020202D312E363739392020202D302E3034373820202020302E303030302043202020302020302020302020302020302020302020302020302020302020302020302020300A20202020302E3937373820202020312E3639373820202020302E303030302043202020302020302020302020302020302020302020302020302020302020302020302020300A2020202D302E3737373820202020312E3332343720202020302E303030302043202020302020302020302020302020302020302020302020302020302020302020302020300A20202020312E3837353220202020302E3134333520202020302E30303030204E202020302020302020302020302020302020302020302020302020302020302020302020300A20202020322E3339343420202020302E3738343620202020302E303030302043202020302020302020302020302020302020302020302020302020302020302020302020300A20202020322E313730392020202D302E3632363720202020302E303030302043202020302020302020302020302020302020302020302020302020302020302020302020300A2020312020322020312020302020202020200A2020322020332020312020302020202020200A2020332020342020322020302020202020200A2020342020352020312020302020202020200A2020312020352020312020302020202020200A2020352020362020322020302020202020200A2020372020382020312020302020202020200A2020382020392020322020302020202020200A2020392031302020312020302020202020200A2031302031312020322020302020202020200A2031312031322020312020302020202020200A2020372031322020322020302020202020200A2020312020372020312020302020202020200A2020332031332020312020302020202020200A2020322031342020312020302020202020200A2031352031362020312020302020202020200A2031352031372020312020302020202020200A2020342031352020312020302020202020200A4D2020454E44
Contributor: MASS SPECTROSCOPY SOC. OF JAPAN (MSSJ)
InstType: EI
InstName: HITACHI RMU-6E
IoniMethod: _ENERGY 70 eV
IonPolarity: pos
Date: 2010-10-09 19:48:36+02:00
Num Peaks: 16
232 280 231 999 216 170 123 180 112 200 111 370 97 710 91 70 83 100 82 100 
77 130 70 170 67 110 56 920 51 70 42 180 
