Name: FENCHYL ALCOHOL
MW: 154
Formula: C10H18O
Synonym: MassBank: JP006926
Synonym: FENCHYL ALCOHOL
Synonym: 1,3,3-TRIMETHYLBICYCLO(2.2.1)HEPTAN-1-OL
Structure: 46454E4348594C20414C434F484F4C2E6D6F6C0A20204368656D447261773131313030393135343932440A2031312031322020302020302020302020302020302020302020302020303939392056323030300A2020202D302E3231393420202020302E3434373720202020302E303030302043202020302020302020302020302020302020302020302020302020302020302020302020300A20202020302E3537333420202020302E3335353620202020302E303030302043202020302020302020302020302020302020302020302020302020302020302020302020300A20202020302E3537333420202020312E3138303620202020302E303030302043202020302020302020302020302020302020302020302020302020302020302020302020300A20202020312E3339333620202020302E3434373920202020302E303030302043202020302020302020302020302020302020302020302020302020302020302020302020300A20202020302E373532302020202D302E3432383820202020302E303030302043202020302020302020302020302020302020302020302020302020302020302020302020300A20202020302E343132322020202D312E3138303620202020302E303030302043202020302020302020302020302020302020302020302020302020302020302020302020300A2020202D302E343037382020202D312E3038393720202020302E303030302043202020302020302020302020302020302020302020302020302020302020302020302020300A2020202D302E353733362020202D302E3238333820202020302E303030302043202020302020302020302020302020302020302020302020302020302020302020302020300A2020202D312E333933362020202D302E3138313320202020302E303030302043202020302020302020302020302020302020302020302020302020302020302020302020300A20202020302E3134303920202020302E3132383720202020302E303030302043202020302020302020302020302020302020302020302020302020302020302020302020300A2020202D302E3633313920202020312E3136323220202020302E30303030204F202020302020302020302020302020302020302020302020302020302020302020302020300A2020312020322020312020302020202020200A2020322020332020312020362020202020200A2020322020342020312020312020202020200A2020322020352020312020302020202020200A2020352020362020312020302020202020200A2020362020372020312020302020202020200A2020372020382020312020302020202020200A2020382020392020312020302020202020200A2020312020382020312020302020202020200A2020352031302020312020302020202020200A2020382031302020312020302020202020200A2020312031312020312020302020202020200A4D2020454E44
Contributor: TAJIMA S, GUNMA COLLEGE OF TECHNOLOGY
InstType: EI
InstName: HITACHI M-80B
IoniMethod: _ENERGY 10 eV
IonPolarity: pos
Date: 2010-10-09 19:48:36+02:00
Num Peaks: 62
15 12 18 15 27 148 28 27 29 122 31 25 39 197 40 34 41 391 42 39 
43 347 44 15 45 35 51 35 52 13 53 125 54 33 55 200 56 47 57 160 
59 14 65 38 66 15 67 220 68 40 69 247 70 41 71 243 72 232 73 25 
77 61 78 11 79 96 80 630 81 999 82 187 83 133 84 203 85 48 91 42 
92 33 93 147 94 21 95 71 96 43 97 50 98 35 99 14 105 12 107 116 
108 17 109 21 110 15 111 142 112 14 121 118 122 11 123 46 125 18 136 29 
139 50 154 20 
