Name: N-BUTYL-N-(TERT-BUTYLDIMETHYLSILYL)ANILINE
MW: 263
Formula: C16H29NSi
Synonym: MassBank: JP001357
Synonym: N-BUTYL-N-(TERT-BUTYLDIMETHYLSILYL)ANILINE
Structure: 4E2D425554594C2D4E2D28544552542D425554594C44494D455448594C53494C594C29414E494C494E452E6D6F6C0A20204368656D447261773038313231303031353432440A2031382031382020302020302020302020302020302020302020302020303939392056323030300A20202020302E303030302020202D302E3637303720202020302E30303030204E202020302020302020302020302020302020302020302020302020302020302020302020300A2020202D302E383235302020202D302E3637303720202020302E303030302043202020302020302020302020302020302020302020302020302020302020302020302020300A2020202D312E323337352020202D312E3338353120202020302E303030302043202020302020302020302020302020302020302020302020302020302020302020302020300A2020202D322E303632352020202D312E3338353120202020302E303030302043202020302020302020302020302020302020302020302020302020302020302020302020300A2020202D322E343735302020202D302E3637303720202020302E303030302043202020302020302020302020302020302020302020302020302020302020302020302020300A2020202D322E3036323520202020302E3034333820202020302E303030302043202020302020302020302020302020302020302020302020302020302020302020302020300A2020202D312E3233373520202020302E3034333820202020302E303030302043202020302020302020302020302020302020302020302020302020302020302020302020300A20202020302E3533363320202020302E3235383220202020302E303030302053692020302020302020302020302020302020302020302020302020302020302020302020300A20202020302E3934383820202020302E3937323620202020302E303030302043202020302020302020302020302020302020302020302020302020302020302020302020300A20202020312E323530372020202D302E3135343320202020302E303030302043202020302020302020302020302020302020302020302020302020302020302020302020300A2020202D302E3137383220202020302E3637303720202020302E303030302043202020302020302020302020302020302020302020302020302020302020302020302020300A2020202D302E3839323720202020312E3038333220202020302E303030302043202020302020302020302020302020302020302020302020302020302020302020302020300A20202020302E3233343320202020312E3338353120202020302E303030302043202020302020302020302020302020302020302020302020302020302020302020302020300A2020202D302E353930372020202D302E3034333820202020302E303030302043202020302020302020302020302020302020302020302020302020302020302020302020300A20202020302E343132352020202D312E3338353120202020302E303030302043202020302020302020302020302020302020302020302020302020302020302020302020300A20202020312E323337352020202D312E3338353120202020302E303030302043202020302020302020302020302020302020302020302020302020302020302020302020300A20202020312E363530302020202D302E3637303720202020302E303030302043202020302020302020302020302020302020302020302020302020302020302020302020300A20202020322E343735302020202D302E3637303720202020302E303030302043202020302020302020302020302020302020302020302020302020302020302020302020300A2020312020322020312020302020202020200A2020322020332020312020302020202020200A2020332020342020322020302020202020200A2020342020352020312020302020202020200A2020352020362020322020302020202020200A2020362020372020312020302020202020200A2020322020372020322020302020202020200A2020382020392020312020302020202020200A2020382031302020312020302020202020200A2031312031322020312020302020202020200A2031312031342020312020302020202020200A2031312031332020312020302020202020200A2020382031312020312020302020202020200A2020312020382020312020302020202020200A2031352031362020312020302020202020200A2031362031372020312020302020202020200A2031372031382020312020302020202020200A2020312031352020312020302020202020200A4D2020454E44
Contributor: MASS SPECTROSCOPY SOC. OF JAPAN (MSSJ)
InstType: EI
InstName: JEOL JMS-D-3000
IoniMethod: _ENERGY 70 eV
IonPolarity: pos
Date: 2010-10-09 19:48:36+02:00
Num Peaks: 59
43 35 45 34 50 15 51 45 52 13 53 13 55 19 56 36 57 19 58 26 
59 345 60 27 61 15 65 20 73 262 74 24 75 52 76 10 77 119 78 15 
79 27 83 10 84 14 85 17 91 15 92 12 93 19 99 13 104 50 105 22 
106 302 107 34 115 13 117 11 118 26 119 48 120 24 121 17 132 26 133 13 
134 19 135 43 136 12 146 47 147 20 148 44 149 75 150 40 162 14 164 96 
165 18 204 12 206 999 207 188 208 50 220 41 248 17 263 74 264 18 
