Name: ISOPENTYL 2-FURYLPROPIONATE
MW: 210
Formula: C12H18O3
Synonym: MassBank: JP007754
Synonym: ISOPENTYL 2-FURYLPROPIONATE
Structure: 49534F50454E54594C20322D465552594C50524F50494F4E4154452E6D6F6C0A20204368656D447261773038313131303231323532440A2031352031352020302020302020302020302020302020302020302020303939392056323030300A20202020302E3332393020202020302E3731343520202020302E303030302043202020302020302020302020302020302020302020302020302020302020302020302020300A20202020312E3135343020202020302E3731343520202020302E303030302043202020302020302020302020302020302020302020302020302020302020302020302020300A20202020312E3536363520202020312E3432383920202020302E303030302043202020302020302020302020302020302020302020302020302020302020302020302020300A2020202D302E3038333520202020312E3432383920202020302E30303030204F202020302020302020302020302020302020302020302020302020302020302020302020300A2020202D302E303833352020202D302E3030303020202020302E30303030204F202020302020302020302020302020302020302020302020302020302020302020302020300A20202020312E323330392020202D302E3735333720202020302E30303030204F202020302020302020302020302020302020302020302020302020302020302020302020300A20202020312E353636352020202D302E3030303020202020302E303030302043202020302020302020302020302020302020302020302020302020302020302020302020300A20202020322E333837302020202D302E3038363220202020302E303030302043202020302020302020302020302020302020302020302020302020302020302020302020300A20202020322E353538352020202D302E3839333220202020302E303030302043202020302020302020302020302020302020302020302020302020302020302020302020300A20202020312E383434302020202D312E3330353720202020302E303030302043202020302020302020302020302020302020302020302020302020302020302020302020300A2020202D302E393038352020202D302E3030303020202020302E303030302043202020302020302020302020302020302020302020302020302020302020302020302020300A2020202D312E333231302020202D302E3731343520202020302E303030302043202020302020302020302020302020302020302020302020302020302020302020302020300A2020202D322E313436302020202D302E3731343520202020302E303030302043202020302020302020302020302020302020302020302020302020302020302020302020300A2020202D322E353538352020202D312E3432383920202020302E303030302043202020302020302020302020302020302020302020302020302020302020302020302020300A2020202D322E3535383520202020302E3030303020202020302E303030302043202020302020302020302020302020302020302020302020302020302020302020302020300A2020312020322020312020302020202020200A2020322020332020312020302020202020200A2020312020342020322020302020202020200A2020312020352020312020302020202020200A2020362020372020312020302020202020200A2020372020382020322020302020202020200A2020382020392020312020302020202020200A2020392031302020322020302020202020200A2020362031302020312020302020202020200A2020322020372020312020302020202020200A2031312031322020312020302020202020200A2031322031332020312020302020202020200A2031332031342020312020302020202020200A2031332031352020312020302020202020200A2020352031312020312020302020202020200A4D2020454E44
Contributor: HASHIMOTO K, KYOTO COLLEGE OF PHARMACY
InstType: EI
InstName: HITACHI M-80
IoniMethod: _ENERGY 20 eV
IonPolarity: pos
Date: 2010-10-09 19:48:36+02:00
Num Peaks: 30
29 21 41 58 42 21 43 999 44 45 53 18 54 17 55 174 67 81 68 81 
69 68 70 67 71 636 72 50 81 609 82 123 94 651 95 245 96 42 97 313 
98 20 123 218 124 53 139 218 140 463 141 95 142 64 153 10 210 234 211 63 
