Name: MassBank: JP000760
MW: 179
Formula: C9H9NO3
Synonym: MassBank: JP000760
Synonym: 3,7-DIMETHYL-5-NITROSOTROPOLONE
Structure: 332C372D44494D455448594C2D352D4E4954524F534F54524F504F4C4F4E452E6D6F6C0A20204368656D447261773032323231303036303532440A2031332031332020302020302020302020302020302020302020302020303939392056323030300A20202020302E3132363720202020312E3635363320202020302E30303030204F202020302020302020302020302020302020302020302020302020302020302020302020300A20202020302E3037303220202020302E3833353120202020302E303030302043202020302020302020302020302020302020302020302020302020302020302020302020300A2020202D302E3730393420202020302E3531353520202020302E303030302043202020302020302020302020302020302020302020302020302020302020302020302020300A2020202D302E393336352020202D302E3236313520202020302E303030302043202020302020302020302020302020302020302020302020302020302020302020302020300A2020202D302E343636362020202D302E3934313820202020302E303030302043202020302020302020302020302020302020302020302020302020302020302020302020300A20202020302E333432302020202D302E3938363320202020302E303030302043202020302020302020302020302020302020302020302020302020302020302020302020300A20202020302E393235342020202D302E3430323920202020302E303030302043202020302020302020302020302020302020302020302020302020302020302020302020300A20202020302E3738343720202020302E3432323620202020302E303030302043202020302020302020302020302020302020302020302020302020302020302020302020300A20202020312E3436353020202020302E3839323520202020302E30303030204F202020302020302020302020302020302020302020302020302020302020302020302020300A2020202D302E383739312020202D312E3635363320202020302E30303030204E202020302020302020302020302020302020302020302020302020302020302020302020300A2020202D312E373032332020202D312E3635363320202020302E30303030204F202020302020302020302020302020302020302020302020302020302020302020302020300A2020202D312E3239323720202020312E3039383820202020302E303030302043202020302020302020302020302020302020302020302020302020302020302020302020300A20202020312E373032332020202D302E3633303020202020302E303030302043202020302020302020302020302020302020302020302020302020302020302020302020300A2020312020322020322020302020202020200A2020322020332020312020302020202020200A2020332020342020322020302020202020200A2020342020352020312020302020202020200A2020352020362020322020302020202020200A2020362020372020312020302020202020200A2020372020382020322020302020202020200A2020322020382020312020302020202020200A2020382020392020312020302020202020200A2031302031312020322020302020202020200A2020352031302020312020302020202020200A2020332031322020312020302020202020200A2020372031332020312020302020202020200A4D2020454E44
Contributor: ITO S, DEPT. OF CHEM., TOHOKU UNIV.
InstType: EI
InstName: Unknown
IoniMethod: EI
IonPolarity: pos
Date: 2010-10-09 19:48:36+02:00
Num Peaks: 51
53 210 55 90 65 130 66 12 67 110 68 125 69 30 77 61 78 175 79 375 
80 120 81 5 85 30 90 30 91 580 92 10 93 620 94 480 95 70 96 6 
103 95 104 55 105 85 106 36 107 140 108 80 112 100 113 9 116 45 120 90 
121 490 122 6 123 75 124 35 131 240 132 5 133 160 134 560 135 85 136 4 
139 30 149 180 150 35 151 76 152 55 161 45 162 215 163 5 164 55 179 999 
180 130 
