Name: ETHYLENEDIAMINE
MW: 60
Formula: C2H8N2
Synonym: MassBank: JP003993
Synonym: ETHYLENEDIAMINE
Structure: 310A31320A455448594C454E454449414D494E452E6D6F6C0A20204368656D447261773038313131303139313232440A2020342020332020302020302020302020302020302020302020302020303939392056323030300A2020202D302E333537322020202D302E3230363320202020302E303030302043202020302020302020302020302020302020302020302020302020302020302020302020300A20202020302E3335373220202020302E3230363320202020302E303030302043202020302020302020302020302020302020302020302020302020302020302020302020300A2020202D312E3037313720202020302E3230363320202020302E30303030204E202020302020302020302020302020302020302020302020302020302020302020302020300A20202020312E303731372020202D302E3230363320202020302E30303030204E202020302020302020302020302020302020302020302020302020302020302020302020300A2020312020322020312020302020202020200A2020312020332020312020302020202020200A2020322020342020312020302020202020200A4D2020454E44
Contributor: MASS SPECTROSCOPY SOC. OF JAPAN (MSSJ)
InstType: EI
InstName: HITACHI RMU-6L
IoniMethod: _ENERGY 70 eV
IonPolarity: pos
Date: 2010-10-09 19:48:36+02:00
Num Peaks: 20
14 15 15 34 16 12 17 3 18 120 26 12 27 46 28 2 29 45 30 999 
31 33 40 2 41 20 42 60 43 53 44 4 45 15 58 10 59 10 60 27 
