Name: ETHYLENE GLYCOL MONOACETATE
MW: 104
Formula: C4H8O3
Synonym: MassBank: JP006173
Synonym: ETHYLENE GLYCOL MONOACETATE
Synonym: 2-HYDROXYETHYL ACETATE
Structure: 310A31380A455448594C454E4520474C59434F4C204D4F4E4F414345544154452E6D6F6C0A20204368656D447261773031323131303231343332440A2020372020362020302020302020302020302020302020302020302020303939392056323030300A20202020302E3335373220202020302E3230363220202020302E303030302043202020302020302020302020302020302020302020302020302020302020302020302020300A20202020312E3037313720202020302E3631383820202020302E303030302043202020302020302020302020302020302020302020302020302020302020302020302020300A20202020312E3738363220202020302E3230363220202020302E30303030204F202020302020302020302020302020302020302020302020302020302020302020302020300A2020202D312E3037313720202020302E3230363220202020302E303030302043202020302020302020302020302020302020302020302020302020302020302020302020300A2020202D312E3738363220202020302E3631383820202020302E303030302043202020302020302020302020302020302020302020302020302020302020302020302020300A2020202D312E303731372020202D302E3631383820202020302E30303030204F202020302020302020302020302020302020302020302020302020302020302020302020300A2020202D302E3335373220202020302E3631383820202020302E30303030204F202020302020302020302020302020302020302020302020302020302020302020302020300A2020312020322020312020302020202020200A2020322020332020312020302020202020200A2020342020352020312020302020202020200A2020342020362020322020302020202020200A2020342020372020312020302020202020200A2020312020372020312020302020202020200A4D2020454E44
Contributor: HASHIMOTO K, KYOTO COLLEGE OF PHARMACY
InstType: EI
InstName: HITACHI M-80
IoniMethod: _ENERGY 20 eV
IonPolarity: pos
Date: 2010-10-09 19:48:36+02:00
Num Peaks: 12
18 11 29 21 31 86 42 23 43 999 44 130 45 78 61 113 73 183 74 260 
76 13 104 2 
