Name: MassBank: JP002684
MW: 400
Formula: C23H44O5
Synonym: MassBank: JP002684
Synonym: 1-HEXADECYL-2,3-DI-O-ACETHYL GLYCEROL
Structure: 312D48455841444543594C2D322C332D44492D4F2D4143455448594C20474C594345524F4C2E6D6F6C0A20204368656D447261773131313930393134343332440A2032382032372020302020302020302020302020302020302020302020303939392056323030300A20202020312E303331322020202D352E3335383520202020302E303030302043202020302020302020302020302020302020302020302020302020302020302020302020300A20202020312E343433372020202D342E3634343020202020302E303030302043202020302020302020302020302020302020302020302020302020302020302020302020300A20202020302E323036332020202D352E3335383520202020302E303030302043202020302020302020302020302020302020302020302020302020302020302020302020300A20202020312E343433372020202D362E3037323920202020302E30303030204F202020302020302020302020302020302020302020302020302020302020302020302020300A20202020312E303331322020202D362E3738373420202020302E303030302043202020302020302020302020302020302020302020302020302020302020302020302020300A20202020312E343433382020202D372E3530313920202020302E30303030204F202020302020302020302020302020302020302020302020302020302020302020302020300A20202020302E323036322020202D362E3738373420202020302E303030302043202020302020302020302020302020302020302020302020302020302020302020302020300A2020202D302E323036322020202D362E3037333020202020302E30303030204F202020302020302020302020302020302020302020302020302020302020302020302020300A2020202D312E303331332020202D362E3037333020202020302E303030302043202020302020302020302020302020302020302020302020302020302020302020302020300A2020202D312E343433382020202D362E3738373420202020302E30303030204F202020302020302020302020302020302020302020302020302020302020302020302020300A2020202D312E343433382020202D352E3335383520202020302E303030302043202020302020302020302020302020302020302020302020302020302020302020302020300A20202020312E303331322020202D332E3932393620202020302E30303030204F202020302020302020302020302020302020302020302020302020302020302020302020300A20202020312E343433382020202D332E3231353120202020302E303030302043202020302020302020302020302020302020302020302020302020302020302020302020300A20202020312E303331322020202D322E3530303720202020302E303030302043202020302020302020302020302020302020302020302020302020302020302020302020300A20202020312E343433372020202D312E3738363220202020302E303030302043202020302020302020302020302020302020302020302020302020302020302020302020300A20202020312E303331322020202D312E3037313720202020302E303030302043202020302020302020302020302020302020302020302020302020302020302020302020300A20202020312E343433372020202D302E3335373320202020302E303030302043202020302020302020302020302020302020302020302020302020302020302020302020300A20202020312E3033313220202020302E3335373220202020302E303030302043202020302020302020302020302020302020302020302020302020302020302020302020300A20202020312E3434333720202020312E3037313620202020302E303030302043202020302020302020302020302020302020302020302020302020302020302020302020300A20202020312E3033313220202020312E3738363120202020302E303030302043202020302020302020302020302020302020302020302020302020302020302020302020300A20202020312E3434333720202020322E3530303620202020302E303030302043202020302020302020302020302020302020302020302020302020302020302020302020300A20202020312E3033313220202020332E3231353120202020302E303030302043202020302020302020302020302020302020302020302020302020302020302020302020300A20202020312E3434333720202020332E3932393620202020302E303030302043202020302020302020302020302020302020302020302020302020302020302020302020300A20202020312E3033313220202020342E3634343020202020302E303030302043202020302020302020302020302020302020302020302020302020302020302020302020300A20202020312E3434333720202020352E3335383520202020302E303030302043202020302020302020302020302020302020302020302020302020302020302020302020300A20202020312E3033313220202020362E3037333020202020302E303030302043202020302020302020302020302020302020302020302020302020302020302020302020300A20202020312E3434333720202020362E3738373420202020302E303030302043202020302020302020302020302020302020302020302020302020302020302020302020300A20202020312E3033313220202020372E3530313920202020302E303030302043202020302020302020302020302020302020302020302020302020302020302020302020300A2020312020322020312020302020202020200A2020312020332020312020302020202020200A2020312020342020312020302020202020200A2020342020352020312020302020202020200A2020352020362020322020302020202020200A2020352020372020312020302020202020200A2020332020382020312020302020202020200A2020382020392020312020302020202020200A2020392031302020322020302020202020200A2020392031312020312020302020202020200A2020322031322020312020302020202020200A2031322031332020312020302020202020200A2031332031342020312020302020202020200A2031342031352020312020302020202020200A2031352031362020312020302020202020200A2031362031372020312020302020202020200A2031372031382020312020302020202020200A2031382031392020312020302020202020200A2031392032302020312020302020202020200A2032302032312020312020302020202020200A2032312032322020312020302020202020200A2032322032332020312020302020202020200A2032332032342020312020302020202020200A2032342032352020312020302020202020200A2032352032362020312020302020202020200A2032362032372020312020302020202020200A2032372032382020312020302020202020200A4D2020454E44
Contributor: HAYASHI A, DEPT. OF CHEMISTRY, FAC. OF SCI. AND TECHNOLOGY, KINKI UNIV.
InstType: EI
InstName: SHIMADZU LKB-9000B
IoniMethod: _ENERGY 70 eV
IonPolarity: pos
Date: 2010-10-09 19:48:36+02:00
Num Peaks: 168
41 14 43 173 44 16 54 29 55 261 56 116 57 607 58 7 59 16 60 34 
61 72 66 1 67 116 68 104 69 454 70 14 71 759 72 58 73 400 74 6 
75 42 77 39 79 33 80 3 81 210 82 306 83 579 84 15 85 825 86 201 
87 39 91 2 93 27 94 50 95 270 96 34 97 649 98 188 99 454 100 72 
101 259 102 33 103 524 104 3 105 29 107 32 108 45 109 18 110 196 111 413 
112 257 113 28 114 37 115 113 116 323 117 999 118 56 119 69 120 15 121 6 
122 44 123 164 124 170 125 33 126 105 127 231 128 29 129 5 130 15 133 41 
135 98 136 4 137 124 138 132 139 136 140 5 141 203 142 28 143 12 144 1 
145 203 146 19 147 46 149 13 150 24 151 74 152 85 153 10 154 38 155 153 
156 21 157 1 158 20 159 719 160 59 161 2 163 33 165 67 166 64 167 9 
168 33 169 103 170 20 171 2 177 56 178 14 179 60 180 4 181 42 182 23 
183 58 184 2 185 30 186 13 189 28 191 5 192 13 193 57 194 52 195 4 
196 36 199 15 205 19 206 2 207 376 208 95 209 83 210 2 213 17 219 22 
220 19 221 2 222 94 223 82 224 50 225 23 226 39 227 23 233 21 237 5 
238 23 239 16 241 13 251 10 252 54 253 169 254 34 255 61 256 120 257 11 
267 31 269 2 280 144 281 107 282 27 283 3 285 69 286 17 297 758 298 19 
299 27 327 25 338 16 339 2 341 34 342 11 355 14 357 7 
