Name: 3-PHENYL-2-(TRIMETHYLSILYL)OXYBENZOIC ACIDTRIMETHYLSILYL ESTER
MW: 358
Formula: C19H26O3Si2
Synonym: MassBank: JP001050
Synonym: 3-PHENYL-2-(TRIMETHYLSILYL)OXYBENZOIC ACIDTRIMETHYLSILYL ESTER
Synonym: TRIMETHYLSILYL 3-PHENYL-2-TRIMETHYLSILOXYBENZOATE
Structure: 332D5048454E594C2D322D285452494D455448594C53494C594C294F585942454E5A4F494320414349445452494D455448594C53494C594C2045535445522E6D6F6C0A20204368656D447261773033323331303132313432440A2032342032352020302020302020302020302020302020302020302020303939392056323030300A2020202D312E313738392020202D302E3032373220202020302E303030302043202020302020302020302020302020302020302020302020302020302020302020302020300A2020202D302E323530312020202D302E3536333520202020302E303030302043202020302020302020302020302020302020302020302020302020302020302020302020300A20202020302E343634342020202D302E3135313020202020302E303030302043202020302020302020302020302020302020302020302020302020302020302020302020300A20202020312E313738392020202D302E3536333520202020302E303030302043202020302020302020302020302020302020302020302020302020302020302020302020300A20202020312E313738392020202D312E3338383520202020302E303030302043202020302020302020302020302020302020302020302020302020302020302020302020300A20202020302E343634342020202D312E3830313020202020302E303030302043202020302020302020302020302020302020302020302020302020302020302020302020300A2020202D302E323530312020202D312E3338383520202020302E303030302043202020302020302020302020302020302020302020302020302020302020302020302020300A2020202D312E3137383920202020302E3739373820202020302E30303030204F202020302020302020302020302020302020302020302020302020302020302020302020300A2020202D312E383933332020202D302E3433393720202020302E30303030204F202020302020302020302020302020302020302020302020302020302020302020302020300A20202020302E3436343420202020302E3637343020202020302E30303030204F202020302020302020302020302020302020302020302020302020302020302020302020300A2020202D302E3235303120202020312E3038363520202020302E303030302053692020302020302020302020302020302020302020302020302020302020302020302020300A20202020302E3136323420202020312E3830313020202020302E303030302043202020302020302020302020302020302020302020302020302020302020302020302020300A2020202D302E3636323620202020302E3337323020202020302E303030302043202020302020302020302020302020302020302020302020302020302020302020302020300A2020202D302E3936343520202020312E3439393020202020302E303030302043202020302020302020302020302020302020302020302020302020302020302020302020300A20202020312E383933332020202D302E3135313020202020302E303030302043202020302020302020302020302020302020302020302020302020302020302020302020300A20202020312E3839333320202020302E3637343020202020302E303030302043202020302020302020302020302020302020302020302020302020302020302020302020300A20202020322E3630373820202020312E3038363520202020302E303030302043202020302020302020302020302020302020302020302020302020302020302020302020300A20202020332E3332323320202020302E3637343020202020302E303030302043202020302020302020302020302020302020302020302020302020302020302020302020300A20202020332E333232332020202D302E3135313020202020302E303030302043202020302020302020302020302020302020302020302020302020302020302020302020300A20202020322E363037382020202D302E3536333520202020302E303030302043202020302020302020302020302020302020302020302020302020302020302020302020300A2020202D322E363037382020202D302E3032373220202020302E303030302053692020302020302020302020302020302020302020302020302020302020302020302020300A2020202D332E303230332020202D302E3734313720202020302E303030302043202020302020302020302020302020302020302020302020302020302020302020302020300A2020202D332E3332323320202020302E3338353320202020302E303030302043202020302020302020302020302020302020302020302020302020302020302020302020300A2020202D322E3139353320202020302E3638373220202020302E303030302043202020302020302020302020302020302020302020302020302020302020302020302020300A2020312020322020312020302020202020200A2020322020332020312020302020202020200A2020332020342020322020302020202020200A2020342020352020312020302020202020200A2020352020362020322020302020202020200A2020362020372020312020302020202020200A2020322020372020322020302020202020200A2020312020382020322020302020202020200A2020312020392020312020302020202020200A2031312031322020312020302020202020200A2031312031332020312020302020202020200A2031312031342020312020302020202020200A2031302031312020312020302020202020200A2020332031302020312020302020202020200A2031352031362020312020302020202020200A2031362031372020322020302020202020200A2031372031382020312020302020202020200A2031382031392020322020302020202020200A2031392032302020312020302020202020200A2031352032302020322020302020202020200A2020342031352020312020302020202020200A2032312032322020312020312020202020200A2032312032332020312020302020202020200A2032312032342020312020312020202020200A2020392032312020312020302020202020200A4D2020454E44
Contributor: KOGA M, UNIV. OF OCCUPATIONAL AND ENVIRONMENTAL HEALTH
InstType: EI
InstName: JEOL JMS-01-SG
IoniMethod: _ENERGY 70 eV
IonPolarity: pos
Date: 2010-10-09 19:48:36+02:00
Num Peaks: 17
45 180 73 999 74 74 75 8 133 31 139 35 147 54 149 6 152 31 165 35 
211 82 269 4 285 31 309 31 343 847 344 24 345 74 
