Name: METHYL PROPYL SULFIDE
MW: 90
Formula: C4H10S
Synonym: MassBank: JP008752
Synonym: METHYL PROPYL SULFIDE
Structure: 310A31340A4D455448594C2050524F50594C2053554C464944452E6D6F6C0A20204368656D447261773038313231303030333832440A2020352020342020302020302020302020302020302020302020302020303939392056323030300A2020202D302E3731343520202020302E3230363220202020302E303030302053202020302020302020302020302020302020302020302020302020302020302020302020300A2020202D302E303030302020202D302E3230363220202020302E303030302043202020302020302020302020302020302020302020302020302020302020302020302020300A20202020302E3731343520202020302E3230363220202020302E303030302043202020302020302020302020302020302020302020302020302020302020302020302020300A20202020312E343238392020202D302E3230363220202020302E303030302043202020302020302020302020302020302020302020302020302020302020302020302020300A2020202D312E343238392020202D302E3230363220202020302E303030302043202020302020302020302020302020302020302020302020302020302020302020302020300A2020322020332020312020302020202020200A2020332020342020312020302020202020200A2020312020322020312020302020202020200A2020312020352020312020302020202020200A4D2020454E44
Contributor: SODA AROMATIC CO., LTD.
InstType: EI
InstName: HITACHI M-80B
IoniMethod: _ENERGY 70 eV
IonPolarity: pos
Date: 2010-10-09 19:48:36+02:00
Num Peaks: 27
15 51 26 27 27 288 29 24 35 112 37 13 38 24 39 212 40 25 41 350 
42 96 43 181 45 251 46 120 47 233 48 409 49 188 50 17 58 24 59 30 
61 999 62 41 63 39 75 98 90 454 91 20 92 18 
