Name: MassBank: JP001471
MW: 230
Formula: C12H30Si2
Synonym: MassBank: JP001471
Synonym: 3,3-DIMETHYL-1,1-BIS(TRIMETHYLSILYL)BUTANE
Structure: 332C332D44494D455448594C2D312C312D424953285452494D455448594C53494C594C29425554414E452E6D6F6C0A20204368656D447261773032323131303230303732440A2031342031332020302020302020302020302020302020302020302020303939392056323030300A2020202D302E3538363020202020302E3031363720202020302E303030302043202020302020302020302020302020302020302020302020302020302020302020302020300A20202020302E3438323420202020302E3131303120202020302E303030302043202020302020302020302020302020302020302020302020302020302020302020302020300A20202020312E303635382020202D302E3437333220202020302E303030302043202020302020302020302020302020302020302020302020302020302020302020302020300A20202020302E353932362020202D312E3134393020202020302E303030302043202020302020302020302020302020302020302020302020302020302020302020302020300A2020202D302E393430352020202D302E3734313520202020302E303030302053692020302020302020302020302020302020302020302020302020302020302020302020300A2020202D312E363535302020202D302E3332393020202020302E303030302043202020302020302020302020302020302020302020302020302020302020302020302020300A2020202D302E323538382020202D312E3230343220202020302E303030302043202020302020302020302020302020302020302020302020302020302020302020302020300A2020202D312E333437302020202D312E3434353620202020302E303030302043202020302020302020302020302020302020302020302020302020302020302020302020300A2020202D302E3939383520202020302E3733313120202020302E303030302053692020302020302020302020302020302020302020302020302020302020302020302020300A2020202D312E3731323920202020302E3331383620202020302E303030302043202020302020302020302020302020302020302020302020302020302020302020302020300A2020202D312E3431313020202020312E3434353620202020302E303030302043202020302020302020302020302020302020302020302020302020302020302020302020300A2020202D302E3238343020202020312E3134333620202020302E303030302043202020302020302020302020302020302020302020302020302020302020302020302020300A20202020312E373132392020202D302E3938343920202020302E303030302043202020302020302020302020302020302020302020302020302020302020302020302020300A20202020312E3631343320202020302E3134333120202020302E303030302043202020302020302020302020302020302020302020302020302020302020302020302020300A2020312020322020312020302020202020200A2020322020332020312020302020202020200A2020332020342020312020312020202020200A2020352020362020312020312020202020200A2020352020372020312020312020202020200A2020352020382020312020302020202020200A2020312020352020312020302020202020200A2020392031302020312020312020202020200A2020392031312020312020302020202020200A2020392031322020312020312020202020200A2020312020392020312020302020202020200A2020332031332020312020302020202020200A2020332031342020312020312020202020200A4D2020454E44
Contributor: MASS SPECTROSCOPY SOC. OF JAPAN (MSSJ)
InstType: EI
InstName: JEOL JMS-D-3000
IoniMethod: _ENERGY 70 eV
IonPolarity: pos
Date: 2010-10-09 19:48:36+02:00
Num Peaks: 28
41 26 43 24 45 93 57 27 58 12 59 95 72 17 73 999 74 80 75 37 
83 11 85 532 86 55 87 23 99 44 100 28 127 47 129 12 141 162 142 51 
143 12 145 51 146 10 157 28 173 136 174 27 175 11 215 36 
