Name: MassBank: JP006622
MW: 283
Formula: C18H25N3
Synonym: MassBank: JP006622
Synonym: 2-(2-AMINO-2-METHYLPROPYL)-3-(3-METHYL-1,2,5,6-TETRAHYDRO-4-PYRIDYL)INDOLE
Structure: 322D28322D414D494E4F2D322D4D455448594C50524F50594C292D332D28332D4D455448594C2D312C322C352C362D5445545241485944524F2D342D5059524944594C29494E444F4C452E6D6F6C0A20204368656D447261773132323130393133323832440A2032312032332020302020302020302020302020302020302020302020303939392056323030300A20202020302E3131313720202020312E3436333620202020302E30303030204E202020302020302020302020302020302020302020302020302020302020302020302020300A2020202D302E3337333320202020302E3739363220202020302E303030302043202020302020302020302020302020302020302020302020302020302020302020302020300A20202020302E3131313720202020302E3132383720202020302E303030302043202020302020302020302020302020302020302020302020302020302020302020302020300A20202020302E3839363320202020302E3338333720202020302E303030302043202020302020302020302020302020302020302020302020302020302020302020302020300A20202020312E363130382020202D302E3032383820202020302E303030302043202020302020302020302020302020302020302020302020302020302020302020302020300A20202020322E3332353220202020302E3338333720202020302E303030302043202020302020302020302020302020302020302020302020302020302020302020302020300A20202020322E3332353220202020312E3230383720202020302E303030302043202020302020302020302020302020302020302020302020302020302020302020302020300A20202020312E3631303820202020312E3632313220202020302E303030302043202020302020302020302020302020302020302020302020302020302020302020302020300A20202020302E3839363320202020312E3230383720202020302E303030302043202020302020302020302020302020302020302020302020302020302020302020302020300A20202020302E313533382020202D322E3035333620202020302E303030302043202020302020302020302020302020302020302020302020302020302020302020302020300A20202020302E343038382020202D312E3236393020202020302E303030302043202020302020302020302020302020302020302020302020302020302020302020302020300A2020202D302E313433332020202D302E3635353920202020302E303030302043202020302020302020302020302020302020302020302020302020302020302020302020300A2020202D302E393530322020202D302E3832373420202020302E303030302043202020302020302020302020302020302020302020302020302020302020302020302020300A2020202D312E323035322020202D312E3631323020202020302E303030302043202020302020302020302020302020302020302020302020302020302020302020302020300A2020202D302E363533322020202D322E3232353120202020302E30303030204E202020302020302020302020302020302020302020302020302020302020302020302020300A20202020312E323135372020202D312E3039373420202020302E303030302043202020302020302020302020302020302020302020302020302020302020302020302020300A2020202D312E3139383320202020302E3739363220202020302E303030302043202020302020302020302020302020302020302020302020302020302020302020302020300A2020202D312E3631303820202020312E3531303720202020302E303030302043202020302020302020302020302020302020302020302020302020302020302020302020300A2020202D302E3839363320202020312E3932333220202020302E303030302043202020302020302020302020302020302020302020302020302020302020302020302020300A2020202D322E3332353220202020312E3039383220202020302E303030302043202020302020302020302020302020302020302020302020302020302020302020302020300A2020202D322E3032333320202020322E3232353120202020302E30303030204E202020302020302020302020302020302020302020302020302020302020302020302020300A2020312020322020312020302020202020200A2020322020332020322020302020202020200A2020332020342020312020302020202020200A2020342020352020312020302020202020200A2020352020362020322020302020202020200A2020362020372020312020302020202020200A2020372020382020322020302020202020200A2020382020392020312020302020202020200A2020312020392020312020302020202020200A2020342020392020322020302020202020200A2031302031312020312020302020202020200A2031312031322020322020302020202020200A2031322031332020312020302020202020200A2031332031342020312020302020202020200A2031342031352020312020302020202020200A2031302031352020312020302020202020200A2031312031362020312020302020202020200A2020332031322020312020302020202020200A2031372031382020312020302020202020200A2031382031392020312020302020202020200A2031382032302020312020302020202020200A2031382032312020312020302020202020200A2020322031372020312020302020202020200A4D2020454E44
Contributor: SASAKI S, TOYOHASHI UNIV. OF TECH.
InstType: EI
InstName: JEOL JMS-01-SG-2
IoniMethod: _ENERGY 75 eV
IonPolarity: pos
Date: 2010-10-09 19:48:36+02:00
Num Peaks: 21
58 999 77 12 105 21 115 1 128 12 130 53 144 60 167 8 168 65 180 84 
181 76 182 16 183 66 196 134 197 878 198 14 211 30 225 86 226 590 227 11 
283 160 
