Name: BUTANE
MW: 58
Formula: C4H10
Synonym: MassBank: JP008954
Synonym: BUTANE
Structure: 310A31320A425554414E452E6D6F6C0A20204368656D447261773039303631303031343832440A2020342020332020302020302020302020302020302020302020302020303939392056323030300A2020202D312E3037313720202020302E3230363320202020302E303030302043202020302020302020302020302020302020302020302020302020302020302020302020300A2020202D302E333537322020202D302E3230363320202020302E303030302043202020302020302020302020302020302020302020302020302020302020302020302020300A20202020302E3335373220202020302E3230363320202020302E303030302043202020302020302020302020302020302020302020302020302020302020302020302020300A20202020312E303731372020202D302E3230363220202020302E303030302043202020302020302020302020302020302020302020302020302020302020302020302020300A2020312020322020312020302020202020200A2020322020332020312020302020202020200A2020332020342020312020302020202020200A4D2020454E44
Contributor: YAMAMOTO M, DEP. CHEMISTRY, FAC. SCIENCE, NARA WOMEN'S UNIV.
InstType: EI
InstName: HITACHI RMU-6M
IoniMethod: _ENERGY 70 eV
IonPolarity: pos
Date: 2010-10-09 19:48:36+02:00
Num Peaks: 19
14 10 15 13 26 41 27 27 28 264 29 367 38 17 39 11 40 11 41 282 
42 282 43 999 44 32 50 11 51 11 55 1 57 26 58 139 59 8 
