Name: ISOBUTYL CHLOROFORMATE
MW: 136
Formula: C5H9ClO2
Synonym: MassBank: JP009403
Synonym: ISOBUTYL CHLOROFORMATE
Synonym: 2-METHYLPROPYL CHLOROFORMATE
Structure: 310A32300A49534F425554594C2043484C4F524F464F524D4154452E6D6F6C0A20204368656D447261773032323131303035353732440A2020382020372020302020302020302020302020302020302020302020303939392056323030300A20202020312E3037313720202020302E3230363220202020302E303030302043202020302020302020302020302020302020302020302020302020302020302020302020300A20202020312E3037313720202020312E3033313320202020302E30303030204F202020302020302020302020302020302020302020302020302020302020302020302020300A20202020302E333537322020202D302E3230363320202020302E30303030204F202020302020302020302020302020302020302020302020302020302020302020302020300A20202020312E373836322020202D302E3230363320202020302E3030303020436C2020302020302020302020302020302020302020302020302020302020302020302020300A2020202D302E3335373220202020302E3230363220202020302E303030302043202020302020302020302020302020302020302020302020302020302020302020302020300A2020202D312E303731372020202D302E3230363320202020302E303030302043202020302020302020302020302020302020302020302020302020302020302020302020300A2020202D312E303731372020202D312E3033313320202020302E303030302043202020302020302020302020302020302020302020302020302020302020302020302020300A2020202D312E3738363220202020302E3230363220202020302E303030302043202020302020302020302020302020302020302020302020302020302020302020302020300A2020312020322020322020302020202020200A2020312020332020312020302020202020200A2020312020342020312020302020202020200A2020352020362020312020302020202020200A2020362020372020312020302020202020200A2020362020382020312020302020202020200A2020332020352020312020302020202020200A4D2020454E44
Contributor: GUNMA COLLEGE OF TECHNOLOGY
InstType: EI
InstName: HITACHI M-80A
IoniMethod: _ENERGY 70 eV
IonPolarity: pos
Date: 2010-10-09 19:48:36+02:00
Num Peaks: 33
15 110 26 89 27 410 28 12 29 295 30 12 31 23 35 47 36 142 37 30 
38 60 39 457 40 88 41 999 42 119 43 553 44 271 45 14 49 12 50 39 
51 34 53 43 54 15 55 146 56 685 57 481 58 21 62 15 63 130 65 43 
77 16 94 21 95 10 
