Name: TETRAHYDROFURFURYL ALCOHOL
MW: 102
Formula: C5H10O2
Synonym: MassBank: JP006569
Synonym: TETRAHYDROFURFURYL ALCOHOL
Structure: 310A31390A5445545241485944524F465552465552594C20414C434F484F4C2E6D6F6C0A20204368656D447261773038313231303037323332440A2020372020372020302020302020302020302020302020302020302020303939392056323030300A2020202D302E363532392020202D302E3730323320202020302E303030302043202020302020302020302020302020302020302020302020302020302020302020302020300A20202020302E303631362020202D302E3238393820202020302E303030302043202020302020302020302020302020302020302020302020302020302020302020302020300A20202020302E3134373920202020302E3533303720202020302E303030302043202020302020302020302020302020302020302020302020302020302020302020302020300A20202020302E3935343820202020302E3730323320202020302E303030302043202020302020302020302020302020302020302020302020302020302020302020302020300A20202020312E333637332020202D302E3031323220202020302E303030302043202020302020302020302020302020302020302020302020302020302020302020302020300A20202020302E383135332020202D302E3632353320202020302E30303030204F202020302020302020302020302020302020302020302020302020302020302020302020300A2020202D312E333637332020202D302E3238393820202020302E30303030204F202020302020302020302020302020302020302020302020302020302020302020302020300A2020312020322020312020302020202020200A2020322020332020312020302020202020200A2020332020342020312020302020202020200A2020342020352020312020302020202020200A2020352020362020312020302020202020200A2020322020362020312020302020202020200A2020312020372020312020302020202020200A4D2020454E44
Contributor: HISAHIRO HAGIWARA, CHEMICAL RESEARCH INSTITUTE OF NON-AQUEOUSSOLUTIONS TOHOKU UNIV.
InstType: EI
InstName: HITACHI M-80B
IoniMethod: _ENERGY 70 eV
IonPolarity: pos
Date: 2010-10-09 19:48:36+02:00
Num Peaks: 22
15 30 26 18 27 219 28 13 29 145 30 10 31 181 38 13 39 132 40 24 
41 338 42 124 43 624 44 87 45 10 53 15 55 16 57 33 61 13 70 38 
71 999 72 46 
