Name: 2-METHYL-3-PHENYLINDOLE
MW: 207
Formula: C15H13N
Synonym: MassBank: JP004361
Synonym: 2-METHYL-3-PHENYLINDOLE
Structure: 322D4D455448594C2D332D5048454E594C494E444F4C452E6D6F6C0A20204368656D447261773031323231303033343132440A2031362031382020302020302020302020302020302020302020302020303939392056323030300A2020202D302E3434383420202020312E3736353620202020302E30303030204E202020302020302020302020302020302020302020302020302020302020302020302020300A2020202D302E3933333320202020312E3039383220202020302E303030302043202020302020302020302020302020302020302020302020302020302020302020302020300A2020202D302E3434383420202020302E3433303720202020302E303030302043202020302020302020302020302020302020302020302020302020302020302020302020300A20202020302E3333363320202020302E3638353720202020302E303030302043202020302020302020302020302020302020302020302020302020302020302020302020300A20202020312E3035303720202020302E3237333220202020302E303030302043202020302020302020302020302020302020302020302020302020302020302020302020300A20202020312E3736353220202020302E3638353720202020302E303030302043202020302020302020302020302020302020302020302020302020302020302020302020300A20202020312E3736353220202020312E3531303720202020302E303030302043202020302020302020302020302020302020302020302020302020302020302020302020300A20202020312E3035303720202020312E3932333220202020302E303030302043202020302020302020302020302020302020302020302020302020302020302020302020300A20202020302E3333363320202020312E3531303720202020302E303030302043202020302020302020302020302020302020302020302020302020302020302020302020300A2020202D302E373033332020202D302E3335333920202020302E303030302043202020302020302020302020302020302020302020302020302020302020302020302020300A2020202D312E353130332020202D302E3532353420202020302E303030302043202020302020302020302020302020302020302020302020302020302020302020302020300A2020202D312E373635322020202D312E3331303120202020302E303030302043202020302020302020302020302020302020302020302020302020302020302020302020300A2020202D312E323133322020202D312E3932333220202020302E303030302043202020302020302020302020302020302020302020302020302020302020302020302020300A2020202D302E343036322020202D312E3735313620202020302E303030302043202020302020302020302020302020302020302020302020302020302020302020302020300A2020202D302E313531332020202D302E3936373020202020302E303030302043202020302020302020302020302020302020302020302020302020302020302020302020300A2020202D312E3735383320202020312E3039383220202020302E303030302043202020302020302020302020302020302020302020302020302020302020302020302020300A2020312020322020312020302020202020200A2020322020332020322020302020202020200A2020332020342020312020302020202020200A2020342020352020312020302020202020200A2020352020362020322020302020202020200A2020362020372020312020302020202020200A2020372020382020322020302020202020200A2020382020392020312020302020202020200A2020312020392020312020302020202020200A2020342020392020322020302020202020200A2031302031312020312020302020202020200A2031312031322020322020302020202020200A2031322031332020312020302020202020200A2031332031342020322020302020202020200A2031342031352020312020302020202020200A2031302031352020322020302020202020200A2020332031302020312020302020202020200A2020322031362020312020302020202020200A4D2020454E44
Contributor: SASAKI S, TOYOHASHI UNIV. OF TECH.
InstType: EI
InstName: MX-1303
IoniMethod: _ENERGY 50 eV
IonPolarity: pos
Date: 2010-10-09 19:48:36+02:00
Num Peaks: 58
27 25 29 11 30 72 39 2 41 29 42 14 43 18 51 2 55 14 57 14 
63 22 69 1 74 11 75 14 76 22 77 4 78 18 88 18 89 29 90 2 
90.5 22 91 11 95.5 14 101.5 1 102 51 102.5 47 103 22 103.5 4 104 14 118 18 
126 11 128 4 129 14 130 141 131 22 139 2 151 18 152 22 163 33 164 3 
165 76 166 18 167 11 176 3 177 29 178 91 179 62 180 3 190 18 191 29 
192 14 203 2 204 116 205 62 206 428 207 999 208 156 209 14 
