Name: MassBank: JP000891
MW: 98
Formula: C5H10N2
Synonym: MassBank: JP000891
Synonym: 4,5-DIMETHYL-2-PYRAZOLINE
Structure: 310A31390A342C352D44494D455448594C2D322D505952415A4F4C494E452E6D6F6C0A20204368656D447261773130313831303136333332440A2020372020372020302020302020302020302020302020302020302020303939392056323030300A20202020312E3034373320202020302E3032303220202020302E30303030204E202020302020302020302020302020302020302020302020302020302020302020302020300A20202020312E303437332020202D302E3830343820202020302E30303030204E202020302020302020302020302020302020302020302020302020302020302020302020300A20202020302E323632372020202D312E3035393720202020302E303030302043202020302020302020302020302020302020302020302020302020302020302020302020300A2020202D302E323232332020202D302E3339323320202020302E303030302043202020302020302020302020302020302020302020302020302020302020302020302020300A20202020302E3236323720202020302E3237353120202020302E303030302043202020302020302020302020302020302020302020302020302020302020302020302020300A20202020302E3030373720202020312E3035393720202020302E303030302043202020302020302020302020302020302020302020302020302020302020302020302020300A2020202D312E303437332020202D302E3339323320202020302E303030302043202020302020302020302020302020302020302020302020302020302020302020302020300A2020312020322020312020302020202020200A2020322020332020322020302020202020200A2020332020342020312020302020202020200A2020342020352020312020302020202020200A2020312020352020312020302020202020200A2020352020362020312020302020202020200A2020342020372020312020302020202020200A4D2020454E44
Contributor: SASAKI S, TOYOHASHI UNIV. OF TECH.
InstType: EI
InstName: SHIMADZU LKB-2091
IoniMethod: _ENERGY 70 eV
IonPolarity: pos
Date: 2010-10-09 19:48:36+02:00
Num Peaks: 32
26 32 27 121 28 441 29 8 30 35 38 12 39 88 40 2 41 144 42 441 
43 88 44 12 51 12 52 12 53 24 54 5 55 26 56 260 57 17 66 1 
67 7 68 14 69 41 70 2 81 17 82 9 83 999 84 5 95 4 97 56 
98 471 99 29 
