Name: ISOPENTYL ISOPENTANOATE
MW: 172
Formula: C10H20O2
Synonym: MassBank: JP006523
Synonym: ISOPENTYL ISOPENTANOATE
Synonym: ISOAMYL ISOVALERATE
Structure: 49534F50454E54594C2049534F50454E54414E4F4154452E6D6F6C0A20204368656D447261773038313131303231323932440A2031322031312020302020302020302020302020302020302020302020303939392056323030300A20202020302E373134352020202D302E3230363220202020302E303030302043202020302020302020302020302020302020302020302020302020302020302020302020300A20202020312E343238392020202D302E3631383720202020302E303030302043202020302020302020302020302020302020302020302020302020302020302020302020300A20202020322E313433342020202D302E3230363220202020302E303030302043202020302020302020302020302020302020302020302020302020302020302020302020300A20202020322E3134333420202020302E3631383820202020302E303030302043202020302020302020302020302020302020302020302020302020302020302020302020300A20202020322E383537392020202D302E3631383720202020302E303030302043202020302020302020302020302020302020302020302020302020302020302020302020300A20202020302E3731343520202020302E3631383820202020302E30303030204F202020302020302020302020302020302020302020302020302020302020302020302020300A2020202D302E303030302020202D302E3631383720202020302E30303030204F202020302020302020302020302020302020302020302020302020302020302020302020300A2020202D302E373134352020202D302E3230363220202020302E303030302043202020302020302020302020302020302020302020302020302020302020302020302020300A2020202D312E343238392020202D302E3631383720202020302E303030302043202020302020302020302020302020302020302020302020302020302020302020302020300A2020202D322E313433342020202D302E3230363320202020302E303030302043202020302020302020302020302020302020302020302020302020302020302020302020300A2020202D322E383537392020202D302E3631383820202020302E303030302043202020302020302020302020302020302020302020302020302020302020302020302020300A2020202D322E3134333420202020302E3631383720202020302E303030302043202020302020302020302020302020302020302020302020302020302020302020302020300A2020312020322020312020302020202020200A2020322020332020312020302020202020200A2020332020342020312020302020202020200A2020332020352020312020302020202020200A2020312020362020322020302020202020200A2020312020372020312020302020202020200A2020382020392020312020302020202020200A2020392031302020312020302020202020200A2031302031312020312020302020202020200A2031302031322020312020302020202020200A2020372020382020312020302020202020200A4D2020454E44
Contributor: HISAHIRO HAGIWARA, CHEMICAL RESEARCH INSTITUTE OF NON-AQUEOUSSOLUTIONS TOHOKU UNIV.
InstType: EI
InstName: HITACHI M-80B
IoniMethod: _ENERGY 70 eV
IonPolarity: pos
Date: 2010-10-09 19:48:36+02:00
Num Peaks: 29
27 130 29 135 31 11 39 109 41 339 42 137 43 484 44 11 45 18 53 15 
55 290 56 37 57 375 58 17 59 18 60 37 61 20 69 53 70 999 71 300 
72 15 85 551 86 27 87 33 102 14 103 136 115 24 129 24 130 12 
