Name: 1-METHYL-4-PROPYL-2-PYRAZOLINE
MW: 126
Formula: C7H14N2
Synonym: MassBank: JP000907
Synonym: 1-METHYL-4-PROPYL-2-PYRAZOLINE
Structure: 312D4D455448594C2D342D50524F50594C2D322D505952415A4F4C494E452E6D6F6C0A20204368656D447261773131323030393131343432440A2031302031302020302020302020302020302020302020302020302020303939392056323030300A2020202D302E3230323520202020312E3331343320202020302E30303030204E202020302020302020302020302020302020302020302020302020302020302020302020300A20202020302E3531323020202020302E3930313820202020302E30303030204E202020302020302020302020302020302020302020302020302020302020302020302020300A20202020302E3334303520202020302E3039343820202020302E303030302043202020302020302020302020302020302020302020302020302020302020302020302020300A2020202D302E3438303020202020302E3030383620202020302E303030302043202020302020302020302020302020302020302020302020302020302020302020302020300A2020202D302E3831353620202020302E3736323320202020302E303030302043202020302020302020302020302020302020302020302020302020302020302020302020300A2020202D302E383932352020202D302E3730353920202020302E303030302043202020302020302020302020302020302020302020302020302020302020302020302020300A2020202D302E343830302020202D312E3432303320202020302E303030302043202020302020302020302020302020302020302020302020302020302020302020302020300A2020202D302E383932352020202D322E3133343820202020302E303030302043202020302020302020302020302020302020302020302020302020302020302020302020300A2020202D302E3238383720202020322E3133343820202020302E303030302043202020302020302020302020302020302020302020302020302020302020302020302020300A20202020302E383932352020202D302E3531383220202020302E303030302048202020302020302020302020302020302020302020302020302020302020302020302020300A2020312020322020312020302020202020200A2020322020332020322020302020202020200A2020332020342020312020302020202020200A2020342020352020312020302020202020200A2020312020352020312020302020202020200A2020362020372020312020302020202020200A2020372020382020312020302020202020200A2020342020362020312020302020202020200A2020312020392020312020302020202020200A2020332031302020312020302020202020200A4D2020454E44
Contributor: SASAKI S, TOYOHASHI UNIV. OF TECH.
InstType: EI
InstName: SHIMADZU LKB-2091
IoniMethod: _ENERGY 70 eV
IonPolarity: pos
Date: 2010-10-09 19:48:36+02:00
Num Peaks: 36
26 8 27 72 28 90 29 4 30 20 38 6 39 58 40 2 41 92 42 318 
43 101 44 3 51 5 52 6 53 11 54 2 55 32 56 158 57 15 66 1 
67 7 68 17 69 20 70 1 81 15 82 3 83 999 84 9 85 50 95 14 
96 5 97 3 98 3 125 25 126 207 127 19 
