Name: MassBank: JP009814
MW: 183
Formula: C11H21NO
Synonym: MassBank: JP009814
Synonym: 4-ETHENYL-4-HYDROXY-2,2,6,6-TETRAMETHYLPIPERIDINE
Structure: 342D455448454E594C2D342D485944524F58592D322C322C362C362D54455452414D455448594C50495045524944494E452E6D6F6C0A20204368656D447261773033323531303230333832440A2031332031332020302020302020302020302020302020302020302020303939392056323030300A20202020302E3030303020202020312E3334373220202020302E30303030204E202020302020302020302020302020302020302020302020302020302020302020302020300A20202020302E3731343520202020302E3933343720202020302E303030302043202020302020302020302020302020302020302020302020302020302020302020302020300A20202020302E3731343520202020302E3130393720202020302E303030302043202020302020302020302020302020302020302020302020302020302020302020302020300A2020202D302E303030302020202D302E3330323820202020302E303030302043202020302020302020302020302020302020302020302020302020302020302020302020300A2020202D302E3731343520202020302E3130393720202020302E303030302043202020302020302020302020302020302020302020302020302020302020302020302020300A2020202D302E3731343520202020302E3933343720202020302E303030302043202020302020302020302020302020302020302020302020302020302020302020302020300A2020202D312E3532363920202020302E3739313520202020302E303030302043202020302020302020302020302020302020302020302020302020302020302020302020300A2020202D302E3939363620202020312E3731303020202020302E303030302043202020302020302020302020302020302020302020302020302020302020302020302020300A20202020302E3939363620202020312E3731303020202020302E303030302043202020302020302020302020302020302020302020302020302020302020302020302020300A20202020312E3532363920202020302E3739313520202020302E303030302043202020302020302020302020302020302020302020302020302020302020302020302020300A2020202D302E353330332020202D302E3933343720202020302E30303030204F202020302020302020302020302020302020302020302020302020302020302020302020300A20202020302E353330332020202D302E3933343720202020302E303030302043202020302020302020302020302020302020302020302020302020302020302020302020300A20202020302E323438312020202D312E3731303020202020302E303030302043202020302020302020302020302020302020302020302020302020302020302020302020300A2020312020322020312020302020202020200A2020322020332020312020302020202020200A2020332020342020312020302020202020200A2020342020352020312020302020202020200A2020352020362020312020302020202020200A2020312020362020312020302020202020200A2020362020372020312020362020202020200A2020362020382020312020312020202020200A2020322020392020312020362020202020200A2020322031302020312020312020202020200A2020342031312020312020302020202020200A2031322031332020322020302020202020200A2020342031322020312020302020202020200A4D2020454E44
Contributor: KURARAY CO., LTD.
InstType: EI
InstName: JEOL JMS-D-300
IoniMethod: _ENERGY 70 eV
IonPolarity: pos
Date: 2010-10-09 19:48:36+02:00
Num Peaks: 31
27 78 29 31 39 61 40 2 41 150 42 258 43 81 53 2 55 397 56 48 
57 72 58 74 59 38 67 20 69 25 70 5 71 98 72 73 77 25 83 2 
84 100 91 31 93 22 98 44 99 264 100 17 111 61 112 9 150 102 168 999 
169 123 
