Name: MassBank: JP004367
MW: 294
Formula: C19H18O3
Synonym: MassBank: JP004367
Synonym: 1,7-DIPHENYL-5-METHYL-6,8-DIOXABICYCLO(3.2.1)OCTAN-3-ONE
Structure: 312C372D44495048454E594C2D352D4D455448594C2D362C382D44494F584142494359434C4F28332E322E31294F4354414E2D332D4F4E452E6D6F6C0A20204368656D447261773131313730393037333932440A2032322032352020302020302020302020302020302020302020302020303939392056323030300A20202020302E3133333120202020302E3431323520202020302E303030302043202020302020302020302020302020302020302020302020302020302020302020302020300A20202020302E313333312020202D302E3431323520202020302E303030302043202020302020302020302020302020302020302020302020302020302020302020302020300A20202020302E373738312020202D302E3932363920202020302E303030302043202020302020302020302020302020302020302020302020302020302020302020302020300A20202020312E353832342020202D302E3734333320202020302E303030302043202020302020302020302020302020302020302020302020302020302020302020302020300A20202020312E393430342020202D302E3030303020202020302E303030302043202020302020302020302020302020302020302020302020302020302020302020302020300A20202020312E3538323420202020302E3734333320202020302E303030302043202020302020302020302020302020302020302020302020302020302020302020302020300A20202020302E3737383120202020302E3932363920202020302E30303030204F202020302020302020302020302020302020302020302020302020302020302020302020300A2020202D302E3631303220202020302E3737303520202020302E303030302043202020302020302020302020302020302020302020302020302020302020302020302020300A2020202D302E3637313920202020312E3539333120202020302E303030302043202020302020302020302020302020302020302020302020302020302020302020302020300A2020202D312E3431353220202020312E3935313120202020302E303030302043202020302020302020302020302020302020302020302020302020302020302020302020300A2020202D322E3039363820202020312E3438363420202020302E303030302043202020302020302020302020302020302020302020302020302020302020302020302020300A2020202D322E3033353120202020302E3636333720202020302E303030302043202020302020302020302020302020302020302020302020302020302020302020302020300A2020202D312E3239313820202020302E3330353720202020302E303030302043202020302020302020302020302020302020302020302020302020302020302020302020300A20202020302E393330302020202D302E3139393020202020302E30303030204F202020302020302020302020302020302020302020302020302020302020302020302020300A20202020322E3039363820202020312E3338383320202020302E303030302043202020302020302020302020302020302020302020302020302020302020302020302020300A20202020322E303936382020202D312E3338383320202020302E30303030204F202020302020302020302020302020302020302020302020302020302020302020302020300A2020202D302E363130322020202D302E3737303520202020302E303030302043202020302020302020302020302020302020302020302020302020302020302020302020300A2020202D312E323931382020202D302E3330353720202020302E303030302043202020302020302020302020302020302020302020302020302020302020302020302020300A2020202D322E303335312020202D302E3636333720202020302E303030302043202020302020302020302020302020302020302020302020302020302020302020302020300A2020202D322E303936382020202D312E3438363420202020302E303030302043202020302020302020302020302020302020302020302020302020302020302020302020300A2020202D312E343135322020202D312E3935313120202020302E303030302043202020302020302020302020302020302020302020302020302020302020302020302020300A2020202D302E363731392020202D312E3539333120202020302E303030302043202020302020302020302020302020302020302020302020302020302020302020302020300A2020312020322020312020302020202020200A2020322020332020312020302020202020200A2020332020342020312020302020202020200A2020342020352020312020302020202020200A2020352020362020312020302020202020200A2020362020372020312020302020202020200A2020372020312020312020302020202020200A2020312020382020312020302020202020200A2020382020392020322020302020202020200A2020392031302020312020302020202020200A2031302031312020322020302020202020200A2031312031322020312020302020202020200A2031322031332020322020302020202020200A2031332020382020312020302020202020200A2020322031342020312020302020202020200A2020362031342020312020302020202020200A2020362031352020312020302020202020200A2020342031362020322020302020202020200A2020322031372020312020302020202020200A2031372031382020322020302020202020200A2031382031392020312020302020202020200A2031392032302020322020302020202020200A2032302032312020312020302020202020200A2032312032322020322020302020202020200A2032322031372020312020302020202020200A4D2020454E44
Contributor: HAGIWARA H, CHEM. RES. INST. OF NON-AQUEOUS SOLUTIONS, TOHOKU UNIV.
InstType: EI
InstName: JEOL JMS-DX-300
IoniMethod: _ENERGY 70 eV
IonPolarity: pos
Date: 2010-10-09 19:48:36+02:00
Num Peaks: 50
28 999 40 16 41 53 43 34 44 15 50 15 51 66 52 11 55 16 57 29 
58 13 63 17 65 13 67 27 69 65 76 2 77 238 78 34 79 55 84 12 
85 270 86 16 89 24 90 15 91 34 102 44 103 283 104 40 105 378 106 32 
107 51 115 22 116 14 117 120 118 34 131 17 145 44 146 16 147 13 152 13 
159 19 160 223 161 28 165 25 167 18 187 19 188 421 189 62 190 13 191 23 
