Name: 4-NITROPHENOXYACETIC ACID TRIMETHYLSILYL ESTER
MW: 269
Formula: C11H15NO5Si
Synonym: MassBank: JP007507
Synonym: 4-NITROPHENOXYACETIC ACID TRIMETHYLSILYL ESTER
Structure: 342D4E4954524F5048454E4F58594143455449432041434944205452494D455448594C53494C594C2045535445522E6D6F6C0A20204368656D447261773034323231303137313232440A2031382031382020302020302020302020302020302020302020302020303939392056323030300A20202020312E343433382020202D302E3035353320202020302E303030302043202020302020302020302020302020302020302020302020302020302020302020302020300A20202020302E363138382020202D302E3035353320202020302E303030302043202020302020302020302020302020302020302020302020302020302020302020302020300A20202020312E383536332020202D302E3736393720202020302E30303030204F202020302020302020302020302020302020302020302020302020302020302020302020300A20202020312E3835363320202020302E3635393220202020302E30303030204F202020302020302020302020302020302020302020302020302020302020302020302020300A20202020302E323036322020202D302E3736393720202020302E30303030204F202020302020302020302020302020302020302020302020302020302020302020302020300A2020202D302E363138372020202D302E3736393720202020302E303030302043202020302020302020302020302020302020302020302020302020302020302020302020300A2020202D312E303331322020202D312E3438343220202020302E303030302043202020302020302020302020302020302020302020302020302020302020302020302020300A2020202D312E383536322020202D312E3438343220202020302E303030302043202020302020302020302020302020302020302020302020302020302020302020302020300A2020202D322E323638372020202D302E3736393720202020302E303030302043202020302020302020302020302020302020302020302020302020302020302020302020300A2020202D312E383536332020202D302E3035353320202020302E303030302043202020302020302020302020302020302020302020302020302020302020302020302020300A2020202D312E303331322020202D302E3035353320202020302E303030302043202020302020302020302020302020302020302020302020302020302020302020302020300A2020202D332E303933372020202D302E3736393720202020302E30303030204E202020302020332020302020302020302020302020302020302020302020302020302020300A2020202D332E353036332020202D302E3035353320202020302E30303030204F202020302020302020302020302020302020302020302020302020302020302020302020300A2020202D332E353036332020202D312E3438343220202020302E30303030204F202020302020352020302020302020302020302020302020302020302020302020302020300A20202020322E3638313220202020302E3635393220202020302E303030302053692020302020302020302020302020302020302020302020302020302020302020302020300A20202020322E3638313220202020312E3438343220202020302E303030302043202020302020302020302020302020302020302020302020302020302020302020302020300A20202020332E3530363320202020302E3635393220202020302E303030302043202020302020302020302020302020302020302020302020302020302020302020302020300A20202020322E363831322020202D302E3136353820202020302E303030302043202020302020302020302020302020302020302020302020302020302020302020302020300A2020312020322020312020302020202020200A2020312020332020322020302020202020200A2020312020342020312020302020202020200A2020362020372020312020302020202020200A2020372020382020322020302020202020200A2020382020392020312020302020202020200A2020392031302020322020302020202020200A2031302031312020312020302020202020200A2020362031312020322020302020202020200A2020352020362020312020302020202020200A2020322020352020312020302020202020200A2031322031332020322020302020202020200A2031322031342020312020302020202020200A2020392031322020312020302020202020200A2031352031362020312020302020202020200A2031352031372020312020302020202020200A2031352031382020312020302020202020200A2020342031352020312020302020202020200A4D202043484720203220203132202020312020313420202D310A4D2020454E44
Contributor: KOGA M, UNIV. OF OCCUPATIONAL AND ENVIRONMENTAL HEALTH
InstType: EI
InstName: JEOL JMS-01-SG
IoniMethod: _ENERGY 70 eV
IonPolarity: pos
Date: 2010-10-09 19:48:36+02:00
Num Peaks: 90
43 74 44 43 45 254 46 1 47 136 50 130 51 37 52 1 53 12 55 12 
57 12 58 7 59 55 61 62 63 86 64 7 65 12 69 24 71 31 72 11 
73 434 74 409 75 999 76 26 77 93 78 62 79 12 83 2 88 31 89 12 
91 43 92 9 93 18 101 37 103 12 104 2 105 24 106 55 107 99 108 10 
115 31 116 93 117 161 118 2 119 12 120 12 121 24 122 3 123 12 127 12 
129 12 130 2 131 24 132 31 134 12 135 14 136 49 148 12 149 260 150 12 
151 37 152 18 163 18 164 52 165 93 166 31 168 18 179 1 180 80 181 12 
182 12 193 2 195 124 196 440 197 80 198 1 208 55 210 43 224 161 225 7 
226 93 227 12 237 18 239 2 253 12 254 149 255 24 269 29 270 43 271 12 
