Name: MassBank: JP006736
MW: 245
Formula: C15H19NO2
Synonym: MassBank: JP006736
Synonym: N-(3,3,4,4-TETRADEUTERO-4-PHENYLBUTYRYL)PIPERIDIN-2-ONE
Structure: 4E2D28332C332C342C342D54455452414445555445524F2D342D5048454E594C4255545952594C2950495045524944494E2D322D4F4E452E6D6F6C0A20204368656D447261773038313231303031313732440A2032322032332020302020302020302020302020302020302020302020303939392056323030300A2020202D312E373432342020202D302E3131373120202020302E30303030204E202020302020302020302020302020302020302020302020302020302020302020302020300A2020202D312E373432342020202D302E3934323120202020302E303030302043202020302020302020302020302020302020302020302020302020302020302020302020300A2020202D322E343536382020202D312E3335343620202020302E303030302043202020302020302020302020302020302020302020302020302020302020302020302020300A2020202D332E313731332020202D302E3934323120202020302E303030302043202020302020302020302020302020302020302020302020302020302020302020302020300A2020202D332E313731332020202D302E3131373120202020302E303030302043202020302020302020302020302020302020302020302020302020302020302020302020300A2020202D322E3435363820202020302E3239353420202020302E303030302043202020302020302020302020302020302020302020302020302020302020302020302020300A2020202D312E303237392020202D312E3335343620202020302E30303030204F202020302020302020302020302020302020302020302020302020302020302020302020300A2020202D312E3032373920202020302E3239353420202020302E303030302043202020302020302020302020302020302020302020302020302020302020302020302020300A2020202D312E3032373920202020312E3132303420202020302E30303030204F202020302020302020302020302020302020302020302020302020302020302020302020300A2020202D302E333133342020202D302E3131373120202020302E303030302043202020302020302020302020302020302020302020302020302020302020302020302020300A20202020302E3430313120202020302E3239353420202020302E303030302043202020302020302020302020302020302020302020302020302020302020302020302020300A20202020302E383133362020202D302E3431393120202020302E303030302043202020302020302020302020302020302020302020302020302020302020302020302020300A20202020312E3734323420202020302E3131373120202020302E303030302043202020302020302020302020302020302020302020302020302020302020302020302020300A20202020322E343536382020202D302E3239353420202020302E303030302043202020302020302020302020302020302020302020302020302020302020302020302020300A20202020332E3137313320202020302E3131373120202020302E303030302043202020302020302020302020302020302020302020302020302020302020302020302020300A20202020332E3137313320202020302E3934323120202020302E303030302043202020302020302020302020302020302020302020302020302020302020302020302020300A20202020322E3435363820202020312E3335343620202020302E303030302043202020302020302020302020302020302020302020302020302020302020302020302020300A20202020312E3734323420202020302E3934323120202020302E303030302043202020302020302020302020302020302020302020302020302020302020302020302020300A20202020302E303939312020202D302E3833313620202020302E303030302048202020312020302020302020302020302020302020302020302020302020302020302020300A20202020312E323236312020202D312E3133333620202020302E303030302048202020312020302020302020302020302020302020302020302020302020302020302020300A2020202D302E3031313420202020312E3030393820202020302E303030302048202020312020302020302020302020302020302020302020302020302020302020302020300A20202020312E3131353520202020302E3730373920202020302E303030302048202020312020302020302020302020302020302020302020302020302020302020302020300A2020312020322020312020302020202020200A2020322020332020312020302020202020200A2020332020342020312020302020202020200A2020342020352020312020302020202020200A2020352020362020312020302020202020200A2020312020362020312020302020202020200A2020322020372020322020302020202020200A2020382020392020322020302020202020200A2020382031302020312020302020202020200A2031302031312020312020302020202020200A2031312031322020312020302020202020200A2031332031342020312020302020202020200A2031342031352020322020302020202020200A2031352031362020312020302020202020200A2031362031372020322020302020202020200A2031372031382020312020302020202020200A2031332031382020322020302020202020200A2031322031332020312020302020202020200A2031322031392020312020302020202020200A2031322032302020312020302020202020200A2031312032312020312020302020202020200A2031312032322020312020302020202020200A2020312020382020312020302020202020200A4D202049534F20203420203139202020322020323020202032202032312020203220203232202020320A4D2020454E44
Contributor: MASS SPECTROSCOPY SOC. OF JAPAN (MSSJ)
InstType: EI
InstName: HITACHI RMU-6G
IoniMethod: _ENERGY 20 eV
IonPolarity: pos
Date: 2010-10-09 19:48:36+02:00
Num Peaks: 49
30 20 41 10 42 15 43 3 44 42 45 45 55 45 56 3 57 100 58 60 
70 42 71 3 72 25 73 10 82 25 85 2 86 42 91 27 92 60 93 18 
94 30 98 45 99 270 100 69 101 320 102 32 106 10 107 13 108 30 109 26 
113 70 114 86 115 65 119 10 120 20 121 2 132 18 141 95 142 999 143 9 
144 10 149 7 150 9 151 5 156 75 249 55 250 20 251 3 252 3 
