Name: MassBank: JP000739
MW: 172
Formula: C10H20O2
Synonym: MassBank: JP000739
Synonym: 3,3,7-TRIMETHYL-4-OXA-7-OCTEN-1-OL
Structure: 332C332C372D5452494D455448594C2D342D4F58412D372D4F4354454E2D312D4F4C2E6D6F6C0A20204368656D447261773032323131303230303032440A2031322031312020302020302020302020302020302020302020302020303939392056323030300A2020202D312E343433382020202D302E3635393220202020302E303030302043202020302020302020302020302020302020302020302020302020302020302020302020300A2020202D302E363138382020202D302E3635393220202020302E303030302043202020302020302020302020302020302020302020302020302020302020302020302020300A20202020302E323036322020202D302E3635393220202020302E30303030204F202020302020302020302020302020302020302020302020302020302020302020302020300A2020202D302E3631383820202020302E3136353820202020302E303030302043202020302020302020302020302020302020302020302020302020302020302020302020300A2020202D302E363138382020202D312E3438343220202020302E303030302043202020302020302020302020302020302020302020302020302020302020302020302020300A20202020302E3631383820202020302E3035353320202020302E303030302043202020302020302020302020302020302020302020302020302020302020302020302020300A20202020312E3434333820202020302E3035353320202020302E303030302043202020302020302020302020302020302020302020302020302020302020302020302020300A20202020312E3835363320202020302E3736393720202020302E303030302043202020302020302020302020302020302020302020302020302020302020302020302020300A20202020322E3638313220202020302E3736393720202020302E303030302043202020302020302020302020302020302020302020302020302020302020302020302020300A20202020312E3434333820202020312E3438343220202020302E303030302043202020302020302020302020302020302020302020302020302020302020302020302020300A2020202D312E383536332020202D312E3337333720202020302E303030302043202020302020302020302020302020302020302020302020302020302020302020302020300A2020202D322E363831322020202D312E3337333720202020302E30303030204F202020302020302020302020302020302020302020302020302020302020302020302020300A2020312020322020312020302020202020200A2020322020332020312020302020202020200A2020322020342020312020302020202020200A2020322020352020312020302020202020200A2020332020362020312020302020202020200A2020362020372020312020302020202020200A2020372020382020312020302020202020200A2020382020392020322020302020202020200A2020382031302020312020302020202020200A2020312031312020312020302020202020200A2031312031322020312020302020202020200A4D2020454E44
Contributor: NAKAYAMA M, MASS SPECTROSCOPY SOC. OF JAPAN (MSSJ)
InstType: EI
InstName: HITACHI RMS-4
IoniMethod: _ENERGY 70 eV
IonPolarity: pos
Date: 2010-10-09 19:48:36+02:00
Num Peaks: 42
31 410 39 50 40 20 41 300 42 30 43 100 44 10 45 40 53 30 54 10 
55 70 56 60 57 70 58 10 59 60 60 10 67 40 68 60 69 999 70 110 
71 100 81 40 87 220 88 10 89 50 97 10 99 160 100 10 103 30 105 30 
115 30 116 10 117 50 127 50 138 10 139 10 143 10 147 10 155 30 156 10 
157 10 172 20 
