Name: 3-CYANO-8-HYDROXYMETHYL-4-METHOXYMETHYLAZULENE-1-CARBOXYLIC ACID LACTONE
MW: 253
Formula: C15H11NO3
Synonym: MassBank: JP000768
Synonym: 3-CYANO-8-HYDROXYMETHYL-4-METHOXYMETHYLAZULENE-1-CARBOXYLIC ACID LACTONE
Structure: 332D4359414E4F2D382D485944524F58594D455448594C2D342D4D4554484F58594D455448594C415A554C454E452D312D434152424F58594C49432041434944204C4143544F4E452E6D6F6C0A20204368656D447261773032323231303136353532440A2031392032312020302020302020302020302020302020302020302020303939392056323030300A20202020312E3338313720202020302E3731373120202020302E303030302043202020302020302020302020302020302020302020302020302020302020302020302020300A20202020302E3739383320202020312E3330303520202020302E303030302043202020302020302020302020302020302020302020302020302020302020302020302020300A20202020302E3035353020202020302E3933313320202020302E303030302043202020302020302020302020302020302020302020302020302020302020302020302020300A20202020302E3137363820202020302E3132363920202020302E303030302043202020302020302020302020302020302020302020302020302020302020302020302020300A2020202D302E343431382020202D302E3431393020202020302E303030302043202020302020302020302020302020302020302020302020302020302020302020302020300A2020202D302E343030372020202D312E3234333020202020302E303030302043202020302020302020302020302020302020302020302020302020302020302020302020300A20202020302E323639322020202D312E3732343620202020302E303030302043202020302020302020302020302020302020302020302020302020302020302020302020300A20202020312E303633332020202D312E3530313120202020302E303030302043202020302020302020302020302020302020302020302020302020302020302020302020300A20202020312E333932372020202D302E3733353920202020302E303030302043202020302020302020302020302020302020302020302020302020302020302020302020300A20202020302E393830322020202D302E3032313420202020302E303030302043202020302020302020302020302020302020302020302020302020302020302020302020300A20202020322E3230313420202020302E3731373220202020302E303030302043202020302020302020302020302020302020302020302020302020302020302020302020300A20202020322E3631333920202020312E3433313720202020302E30303030204F202020302020302020302020302020302020302020302020302020302020302020302020300A20202020322E363139392020202D302E3030363320202020302E30303030204F202020302020302020302020302020302020302020302020302020302020302020302020300A2020202D312E323032302020202D302E3039383520202020302E303030302043202020302020302020302020302020302020302020302020302020302020302020302020300A2020202D312E383539372020202D302E3539363720202020302E30303030204F202020302020302020302020302020302020302020302020302020302020302020302020300A2020202D322E363139392020202D302E3237363220202020302E303030302043202020302020302020302020302020302020302020302020302020302020302020302020300A20202020322E323038372020202D302E3733353920202020302E303030302043202020302020302020302020302020302020302020302020302020302020302020302020300A2020202D302E3637363920202020312E3331323120202020302E303030302043202020302020302020302020302020302020302020302020302020302020302020302020300A2020202D312E3339313420202020312E3732343620202020302E30303030204E202020302020302020302020302020302020302020302020302020302020302020302020300A2020312020322020312020302020202020200A2020322020332020322020302020202020200A2020332020342020312020302020202020200A2020342020352020322020302020202020200A2020352020362020312020302020202020200A2020362020372020322020302020202020200A2020372020382020312020302020202020200A2020382020392020322020302020202020200A2020392031302020312020302020202020200A2020312031302020322020302020202020200A2020342031302020312020302020202020200A2031312031322020322020302020202020200A2031312031332020312020302020202020200A2020312031312020312020302020202020200A2031352031362020312020302020202020200A2031342031352020312020302020202020200A2020352031342020312020302020202020200A2020392031372020312020302020202020200A2031382031392020332020302020202020200A2020332031382020312020302020202020200A2031332031372020312020302020202020200A4D2020454E44
Contributor: ITO S, DEPT. OF CHEM., TOHOKU UNIV.
InstType: EI
InstName: Unknown
IoniMethod: _ENERGY 25 eV
IonPolarity: pos
Date: 2010-10-09 19:48:36+02:00
Num Peaks: 79
45 999 81 120 82 60 83 15 84 100 85 150 89 60 91 6 93 60 95 140 
96 90 97 14 98 65 99 65 109 90 111 10 115 100 119 60 121 70 123 7 
125 100 127 90 129 65 137 9 138 60 139 115 140 130 141 8 147 155 149 195 
150 90 151 10 152 130 153 120 154 60 155 7 163 100 164 245 165 165 166 17 
167 110 168 90 169 100 176 7 177 100 178 130 179 95 180 13 181 90 191 110 
192 100 193 16 194 250 202 55 203 90 204 10 205 125 206 110 207 95 208 11 
209 90 210 60 219 60 220 5 221 270 222 100 223 155 224 14 225 55 228 60 
234 105 235 7 236 155 237 55 238 60 245 15 246 60 253 250 254 70 
