Name: 5-METHYLFURFURAL
MW: 110
Formula: C6H6O2
Synonym: MassBank: JP008701
Synonym: 5-METHYLFURFURAL
Structure: 310A32310A352D4D455448594C465552465552414C2E6D6F6C0A20204368656D447261773034323331303037323632440A2020382020382020302020302020302020302020302020302020302020303939392056323030300A20202020312E3030343220202020302E3738323420202020302E303030302043202020302020302020302020302020302020302020302020302020302020302020302020300A20202020302E3333363720202020302E3239373520202020302E303030302043202020302020302020302020302020302020302020302020302020302020302020302020300A20202020302E333336372020202D302E3532373520202020302E303030302043202020302020302020302020302020302020302020302020302020302020302020302020300A2020202D302E343437392020202D302E3738323420202020302E303030302043202020302020302020302020302020302020302020302020302020302020302020302020300A2020202D302E393332382020202D302E3131353020202020302E303030302043202020302020302020302020302020302020302020302020302020302020302020302020300A2020202D302E3434373920202020302E3535323420202020302E30303030204F202020302020302020302020302020302020302020302020302020302020302020302020300A20202020312E3735373820202020302E3434363920202020302E30303030204F202020302020302020302020302020302020302020302020302020302020302020302020300A2020202D312E373537382020202D302E3131353020202020302E303030302043202020302020302020302020302020302020302020302020302020302020302020302020300A2020312020322020312020302020202020200A2020322020332020322020302020202020200A2020332020342020312020302020202020200A2020342020352020322020302020202020200A2020352020362020312020302020202020200A2020322020362020312020302020202020200A2020312020372020322020302020202020200A2020352020382020312020302020202020200A4D2020454E44
Contributor: SODA AROMATIC CO., LTD.
InstType: EI
InstName: HITACHI M-80B
IoniMethod: _ENERGY 70 eV
IonPolarity: pos
Date: 2010-10-09 19:48:36+02:00
Num Peaks: 25
15 23 26 46 27 255 28 41 29 132 37 46 38 63 39 156 41 15 42 24 
43 115 49 29 50 164 51 194 52 108 53 664 54 53 55 10 79 20 80 14 
81 123 95 10 109 871 110 999 111 59 
