Name: MassBank: JP003678
MW: 176
Formula: C9H20O3
Synonym: MassBank: JP003678
Synonym: 1,2,3-TRIMETHOXYHEXANE
Structure: 312C322C332D5452494D4554484F5859484558414E452E6D6F6C0A20204368656D447261773130323330393133323532440A2031322031312020302020302020302020302020302020302020302020303939392056323030300A20202020302E323036332020202D312E3738363220202020302E303030302043202020302020302020302020302020302020302020302020302020302020302020302020300A2020202D302E323036332020202D312E3037313720202020302E303030302043202020302020302020302020302020302020302020302020302020302020302020302020300A20202020302E323036332020202D302E3335373220202020302E303030302043202020302020302020302020302020302020302020302020302020302020302020302020300A2020202D302E3230363320202020302E3335373220202020302E303030302043202020302020302020302020302020302020302020302020302020302020302020302020300A20202020302E3230363220202020312E3037313720202020302E303030302043202020302020302020302020302020302020302020302020302020302020302020302020300A2020202D302E3230363320202020312E3738363220202020302E303030302043202020302020302020302020302020302020302020302020302020302020302020302020300A20202020312E303331322020202D302E3335373220202020302E30303030204F202020302020302020302020302020302020302020302020302020302020302020302020300A20202020312E3434333720202020302E3335373220202020302E303030302043202020302020302020302020302020302020302020302020302020302020302020302020300A2020202D312E303331332020202D312E3037313720202020302E30303030204F202020302020302020302020302020302020302020302020302020302020302020302020300A2020202D312E343433382020202D312E3738363220202020302E303030302043202020302020302020302020302020302020302020302020302020302020302020302020300A20202020312E303331332020202D312E3738363220202020302E30303030204F202020302020302020302020302020302020302020302020302020302020302020302020300A20202020312E343433382020202D312E3037313720202020302E303030302043202020302020302020302020302020302020302020302020302020302020302020302020300A2020312020322020312020302020202020200A2020322020332020312020302020202020200A2020332020342020312020302020202020200A2020342020352020312020302020202020200A2020352020362020312020302020202020200A2020372020382020312020302020202020200A2020332020372020312020302020202020200A2020392031302020312020302020202020200A2020322020392020312020302020202020200A2031312031322020312020302020202020200A2020312031312020312020302020202020200A4D2020454E44
Contributor: SASAKI S, TOYOHASHI UNIV. OF TECH.
InstType: EI
InstName: Unknown
IoniMethod: EI
IonPolarity: pos
Date: 2010-10-09 19:48:36+02:00
Num Peaks: 60
39 27 41 83 42 13 43 6 44 49 45 999 46 22 47 2 53 12 54 4 
55 154 56 1 57 56 58 359 59 114 60 1 65 3 66 1 67 35 68 0 
69 19 70 3 71 94 72 1 73 31 74 7 75 88 76 0 79 2 80 1 
81 7 82 0 83 3 84 6 85 13 86 16 87 500 88 53 89 47 90 0 
91 1 97 4 99 51 100 1 101 41 102 3 103 5 111 0 112 3 113 3 
115 3 117 1 118 10 131 20 132 2 133 2 134 2 143 2 144 3 161 1 
