Name: PIPERONYL ALCOHOL
MW: 152
Formula: C8H8O3
Synonym: MassBank: JP006870
Synonym: PIPERONYL ALCOHOL
Synonym: 3,4-METHYLENEDIOXYBENZYL ALCOHOL
Structure: 50495045524F4E594C20414C434F484F4C2E6D6F6C0A20204368656D447261773032323131303233303532440A2031312031322020302020302020302020302020302020302020302020303939392056323030300A20202020312E3334393220202020302E3832353020202020302E303030302043202020302020302020302020302020302020302020302020302020302020302020302020300A20202020302E3633343820202020302E3431323520202020302E303030302043202020302020302020302020302020302020302020302020302020302020302020302020300A2020202D302E3037393720202020302E3832353020202020302E303030302043202020302020302020302020302020302020302020302020302020302020302020302020300A2020202D302E3739343220202020302E3431323520202020302E303030302043202020302020302020302020302020302020302020302020302020302020302020302020300A2020202D312E3537383820202020302E3636373420202020302E30303030204F202020302020302020302020302020302020302020302020302020302020302020302020300A2020202D322E3036333720202020302E3030303020202020302E303030302043202020302020302020302020302020302020302020302020302020302020302020302020300A2020202D312E353738382020202D302E3636373420202020302E30303030204F202020302020302020302020302020302020302020302020302020302020302020302020300A2020202D302E373934322020202D302E3431323520202020302E303030302043202020302020302020302020302020302020302020302020302020302020302020302020300A2020202D302E303739372020202D302E3832353020202020302E303030302043202020302020302020302020302020302020302020302020302020302020302020302020300A20202020302E363334382020202D302E3431323520202020302E303030302043202020302020302020302020302020302020302020302020302020302020302020302020300A20202020322E3036333720202020302E3431323520202020302E30303030204F202020302020302020302020302020302020302020302020302020302020302020302020300A2020312020322020312020302020202020200A2020322020332020312020302020202020200A2020332020342020322020302020202020200A2020342020352020312020302020202020200A2020352020362020312020302020202020200A2020362020372020312020302020202020200A2020342020382020312020302020202020200A2020372020382020312020302020202020200A2020382020392020322020302020202020200A2020392031302020312020302020202020200A2020322031302020322020302020202020200A2020312031312020312020302020202020200A4D2020454E44
Contributor: TAJIMA S, GUNMA COLLEGE OF TECHNOLOGY
InstType: EI
InstName: HITACHI M-80B
IoniMethod: _ENERGY 70 eV
IonPolarity: pos
Date: 2010-10-09 19:48:36+02:00
Num Peaks: 47
26 15 27 35 29 112 30 17 31 59 37 22 38 53 39 235 40 37 41 21 
42 14 43 11 50 92 51 159 52 23 53 69 55 36 61 32 62 66 63 176 
64 40 65 447 66 149 67 31 74 26 75 51 76 27 77 192 78 22 79 29 
81 11 91 23 93 523 94 216 95 33 105 53 121 138 122 219 123 226 124 17 
135 481 136 35 149 46 150 17 151 328 152 999 153 77 
