Name: MassBank: JP001885
MW: 388
Formula: C27H48O
Synonym: MassBank: JP001885
Synonym: 5ALPHA-CHOLESTAN-3BETA-OL (25,26,26,26,27,27,27-D7)
Synonym: CHOLESTANOL (25,26,26,26,27,27,27-D7)
Structure: 35414C5048412D43484F4C455354414E2D33424554412D4F4C202832352C32362C32362C32362C32372C32372C32372D4437292E6D6F6C0A20204368656D447261773034323331303037353632440A2034302034332020302020302020302020302020302020302020302020303939392056323030300A2020202D322E333139332020202D332E3335373720202020302E303030302043202020302020302020302020302020302020302020302020302020302020302020302020300A2020202D322E333139332020202D322E3533323720202020302E303030302043202020302020302020302020302020302020302020302020302020302020302020302020300A2020202D312E363033302020202D322E3131393120202020302E303030302043202020302020302020302020302020302020302020302020302020302020302020302020300A2020202D312E363036362020202D332E3736393120202020302E303030302043202020302020302020302020302020302020302020302020302020302020302020302020300A2020202D302E383936362020202D332E3335393220202020302E303030302043202020302020302020302020302020302020302020302020302020302020302020302020300A2020202D302E313736332020202D332E3737353120202020302E303030302043202020302020302020302020302020302020302020302020302020302020302020302020300A20202020302E353331362020202D332E3336363320202020302E303030302043202020302020302020302020302020302020302020302020302020302020302020302020300A20202020302E353331362020202D322E3534393220202020302E303030302043202020302020302020302020302020302020302020302020302020302020302020302020300A20202020312E323533312020202D322E3133323720202020302E303030302043202020302020302020302020302020302020302020302020302020302020302020302020300A20202020322E303430392020202D322E3430303520202020302E303030302043202020302020302020302020302020302020302020302020302020302020302020302020300A20202020322E353239372020202D312E3733353920202020302E303030302043202020302020302020302020302020302020302020302020302020302020302020302020300A20202020322E303438372020202D312E3036353620202020302E303030302043202020302020302020302020302020302020302020302020302020302020302020302020300A20202020322E333038322020202D302E3238323520202020302E303030302043202020302020302020302020302020302020302020302020302020302020302020302020300A20202020312E3732383220202020302E3330343320202020302E303030302043202020302020302020302020302020302020302020302020302020302020302020302020300A20202020312E3934363420202020312E3039393920202020302E303030302043202020302020302020302020302020302020302020302020302020302020302020302020300A20202020312E3336363420202020312E3638363620202020302E303030302043202020302020302020302020302020302020302020302020302020302020302020302020300A20202020312E3538343620202020322E3438323320202020302E303030302043202020302020302020302020302020302020302020302020302020302020302020302020300A20202020312E3939333620202020332E3438393120202020302E303030302043202020302020302020302020302020302020302020302020302020302020302020302020300A20202020302E3534393920202020322E3730353020202020302E303030302043202020302020302020302020302020302020302020302020302020302020302020302020300A20202020332E313136322020202D302E3131353720202020302E303030302043202020302020302020302020302020302020302020302020302020302020302020302020300A20202020312E323533312020202D312E3331353920202020302E303030302043202020302020302020302020302020302020302020302020302020302020302020302020300A20202020312E323533312020202D302E3439303920202020302E303030302043202020302020302020302020302020302020302020302020302020302020302020302020300A20202020302E353435382020202D302E3930373620202020302E303030302043202020302020302020302020302020302020302020302020302020302020302020302020300A2020202D302E313631362020202D312E3331363020202020302E303030302043202020302020302020302020302020302020302020302020302020302020302020302020300A2020202D302E313631362020202D322E3133323720202020302E303030302043202020302020302020302020302020302020302020302020302020302020302020302020300A2020202D302E383833322020202D322E3534393320202020302E303030302043202020302020302020302020302020302020302020302020302020302020302020302020300A2020202D302E383833322020202D312E3732343320202020302E303030302043202020302020302020302020302020302020302020302020302020302020302020302020300A2020202D332E303335362020202D332E3737313220202020302E30303030204F202020302020302020302020302020302020302020302020302020302020302020302020300A2020202D302E3238353920202020322E3738313920202020302E303030302048202020312020302020302020302020302020302020302020302020302020302020302020300A20202020302E3534393920202020332E3533303020202020302E303030302048202020312020302020302020302020302020302020302020302020302020302020302020300A20202020302E3431313220202020312E3838393720202020302E303030302048202020312020302020302020302020302020302020302020302020302020302020302020300A20202020312E3237393520202020332E3930313420202020302E303030302048202020312020302020302020302020302020302020302020302020302020302020302020300A20202020322E3339383820202020342E3139313020202020302E303030302048202020312020302020302020302020302020302020302020302020302020302020302020300A20202020322E3733323020202020332E3132333720202020302E303030302048202020312020302020302020302020302020302020302020302020302020302020302020300A20202020322E3336363220202020322E3231383220202020302E303030302048202020312020302020302020302020302020302020302020302020302020302020302020300A2020202D302E383936362020202D342E3139313020202020302E303030302048202020302020302020302020302020302020302020302020302020302020302020302020300A2020202D302E313631362020202D322E3935373720202020302E303030302048202020302020302020302020302020302020302020302020302020302020302020302020300A20202020302E353331362020202D312E3732343220202020302E303030302048202020302020302020302020302020302020302020302020302020302020302020302020300A20202020312E323533312020202D322E3935373720202020302E303030302048202020302020302020302020302020302020302020302020302020302020302020302020300A2020202D332E313136322020202D332E3134343120202020302E303030302048202020302020302020302020302020302020302020302020302020302020302020302020300A2020312020322020312020302020202020200A2020322020332020312020302020202020200A2020312020342020312020302020202020200A2020342020352020312020302020202020200A2020352020362020312020302020202020200A2020362020372020312020302020202020200A2020372020382020312020302020202020200A2020382020392020312020302020202020200A2020392031302020312020302020202020200A2031302031312020312020302020202020200A2031312031322020312020302020202020200A2031322031332020312020302020202020200A2031332031342020312020302020202020200A2031342031352020312020302020202020200A2031352031362020312020302020202020200A2031362031372020312020302020202020200A2031372031382020312020302020202020200A2031372031392020312020302020202020200A2031332032302020312020312020202020200A2031322032312020312020302020202020200A2020392032312020312020302020202020200A2032312032322020312020312020202020200A2032312032332020312020302020202020200A2032332032342020312020302020202020200A2032342032352020312020302020202020200A2020382032352020312020302020202020200A2032352032362020312020302020202020200A2020332032362020312020302020202020200A2020352032362020312020302020202020200A2032362032372020312020312020202020200A2020312032382020312020312020202020200A2031392032392020312020302020202020200A2031392033302020312020302020202020200A2031392033312020312020302020202020200A2031382033322020312020302020202020200A2031382033332020312020302020202020200A2031382033342020312020302020202020200A2031372033352020312020302020202020200A2020352033362020312020362020202020200A2032352033372020312020362020202020200A2020382033382020312020312020202020200A2020392033392020312020362020202020200A2020312034302020312020362020202020200A4D202049534F20203720203239202020322020333020202032202033312020203220203332202020322020333320202032202033342020203220203335202020320A4D2020454E44
Contributor: SEYAMA Y, DEPT. OF PHYSIOL. CHEMISTRY AND NUTRITION, FAC. OF MEDICINE, UNIV. OF TOKYO
InstType: EI
InstName: SHIMADZU LKB-9000B
IoniMethod: _ENERGY 70 eV
IonPolarity: pos
Date: 2010-10-09 19:48:36+02:00
Num Peaks: 203
39 32 40 64 41 269 42 46 43 216 44 73 45 62 46 96 47 57 48 38 
49 66 50 197 53 58 54 25 55 500 56 93 57 198 58 56 59 43 60 82 
61 62 62 28 63 70 64 57 65 25 66 17 67 370 68 146 69 274 70 77 
71 68 72 32 73 30 74 42 75 77 76 31 77 89 78 35 79 321 80 87 
81 563 82 131 83 164 84 48 85 38 86 23 87 31 88 20 89 25 90 13 
91 228 92 62 93 412 94 182 95 531 96 96 97 117 98 36 99 31 100 13 
101 26 103 13 104 24 105 246 106 145 107 524 108 446 109 354 110 87 111 90 
112 25 113 17 115 38 117 40 118 27 119 185 120 141 121 313 122 212 123 227 
124 179 125 52 126 12 128 33 129 22 130 10 131 68 132 28 133 177 134 115 
135 245 136 111 137 92 138 49 139 12 143 18 144 13 145 111 146 44 147 283 
148 205 149 335 150 54 151 44 152 12 157 13 158 10 159 89 160 68 161 165 
162 88 163 85 164 44 165 531 166 182 167 40 171 11 173 75 174 38 175 82 
176 42 177 39 178 35 179 20 185 11 187 53 188 34 189 46 190 76 191 50 
192 26 198 31 199 30 200 19 201 118 202 36 203 51 204 26 205 36 206 38 
213 18 214 16 215 837 216 330 217 457 218 88 219 147 220 46 229 34 230 99 
231 155 232 101 233 999 234 675 235 113 236 11 243 11 246 15 247 13 248 178 
249 35 254 14 255 18 257 73 258 17 268 12 269 160 270 48 271 14 273 22 
274 12 282 10 283 11 285 46 286 10 295 16 296 13 322 12 323 34 331 13 
338 34 345 14 346 38 347 13 359 13 360 10 361 11 362 237 363 64 364 12 
366 30 376 17 377 101 378 47 379 26 380 383 381 116 382 19 393 54 394 48 
395 952 396 288 397 43 
