Name: MassBank: JP003508
MW: 229
Formula: C5H11O4PS2
Synonym: MassBank: JP003508
Synonym: O,O-DIMETHYL S-(METHOXYCARBONYL)METHYL PHOSPHORODITHIOATE
Structure: 4F2C4F2D44494D455448594C20532D284D4554484F5859434152424F4E594C294D455448594C2050484F5350484F524F44495448494F4154452E6D6F6C0A20204368656D447261773038313231303033313532440A2031322031312020302020302020302020302020302020302020302020303939392056323030300A2020202D302E3435333020202020302E3631383820202020302E303030302050202020302020302020302020302020302020302020302020302020302020302020302020300A2020202D302E3435333020202020312E3434333820202020302E30303030204F202020302020302020302020302020302020302020302020302020302020302020302020300A2020202D312E3237383020202020302E3631383820202020302E30303030204F202020302020302020302020302020302020302020302020302020302020302020302020300A2020202D302E343533302020202D302E3230363220202020302E303030302053202020302020302020302020302020302020302020302020302020302020302020302020300A20202020302E3337323020202020302E3631383820202020302E303030302053202020302020302020302020302020302020302020302020302020302020302020302020300A20202020302E323631352020202D302E3631383820202020302E303030302043202020302020302020302020302020302020302020302020302020302020302020302020300A20202020302E323631352020202D312E3434333720202020302E303030302043202020302020302020302020302020302020302020302020302020302020302020302020300A2020202D302E343533302020202D312E3835363320202020302E30303030204F202020302020302020302020302020302020302020302020302020302020302020302020300A20202020302E393736302020202D312E3835363220202020302E30303030204F202020302020302020302020302020302020302020302020302020302020302020302020300A20202020312E363930352020202D312E3434333720202020302E303030302043202020302020302020302020302020302020302020302020302020302020302020302020300A2020202D312E363930352020202D302E3039353720202020302E303030302043202020302020302020302020302020302020302020302020302020302020302020302020300A20202020302E3236313520202020312E3835363320202020302E303030302043202020302020302020302020302020302020302020302020302020302020302020302020300A2020312020322020312020302020202020200A2020312020332020312020302020202020200A2020312020342020312020302020202020200A2020312020352020322020302020202020200A2020372020382020322020302020202020200A2020392031302020312020302020202020200A2020372020392020312020302020202020200A2020362020372020312020302020202020200A2020342020362020312020302020202020200A2020332031312020312020302020202020200A2020322031322020312020302020202020200A4D2020454E44
Contributor: MASS SPECTROSCOPY SOC. OF JAPAN (MSSJ)
InstType: EI
InstName: HITACHI M-60
IoniMethod: _ENERGY 20 eV
IonPolarity: pos
Date: 2010-10-09 19:48:36+02:00
Num Peaks: 60
39 2 40 4 44 63 46 68 55 6 58 6 59 15 61 6 62 28 63 52 
74 61 79 94 88 44 89 12 90 8 93 867 94 30 95 25 96 3 102 7 
103 2 106 8 109 9 110 4 111 6 120 6 124 8 125 999 126 128 127 59 
128 7 134 20 139 5 141 3 142 9 143 12 155 6 156 10 157 109 158 19 
159 8 167 21 168 8 170 102 171 68 172 14 173 7 174 18 183 4 187 2 
188 4 197 20 198 547 199 84 200 55 201 6 230 436 231 38 232 46 233 2 
