Name: MassBank: JP008844
MW: 161
Formula: C6H19NSi2
Synonym: MassBank: JP008844
Synonym: 1,1,1,3,3,3-HEXAMETHYLDISILAZANE
Structure: 310A32320A312C312C312C332C332C332D484558414D455448594C444953494C415A414E452E6D6F6C0A20204368656D447261773130323230393232343832440A2020392020382020302020302020302020302020302020302020302020303939392056323030300A2020202D302E3731343520202020302E3030303020202020302E303030302053692020302020302020302020302020302020302020302020302020302020302020302020300A20202020302E3030303020202020302E3431323520202020302E30303030204E202020302020302020302020302020302020302020302020302020302020302020302020300A20202020302E3731343520202020302E3030303020202020302E303030302053692020302020302020302020302020302020302020302020302020302020302020302020300A20202020312E3132373020202020302E3731343520202020302E303030302043202020302020302020302020302020302020302020302020302020302020302020302020300A20202020312E343238392020202D302E3431323520202020302E303030302043202020302020302020302020302020302020302020302020302020302020302020302020300A20202020302E333032302020202D302E3731343520202020302E303030302043202020302020302020302020302020302020302020302020302020302020302020302020300A2020202D302E333032302020202D302E3731343520202020302E303030302043202020302020302020302020302020302020302020302020302020302020302020302020300A2020202D312E343238392020202D302E3431323520202020302E303030302043202020302020302020302020302020302020302020302020302020302020302020302020300A2020202D312E3132373020202020302E3731343520202020302E303030302043202020302020302020302020302020302020302020302020302020302020302020302020300A2020312020322020312020302020202020200A2020322020332020312020302020202020200A2020332020342020312020312020202020200A2020332020352020312020302020202020200A2020332020362020312020312020202020200A2020312020372020312020302020202020200A2020312020382020312020302020202020200A2020312020392020312020302020202020200A4D2020454E44
Contributor: TAJIMA S, GUNMA COLLEGE OF TECHNOLOGY
InstType: EI
InstName: HITACHI RMU-7M
IoniMethod: _ENERGY 70 eV
IonPolarity: pos
Date: 2010-10-09 19:48:36+02:00
Num Peaks: 35
15 10 43 36 44 18 45 73 46 14 47 16 51.5 41 52 13 57.5 29 58 10 
58.5 10 59 56 60 10 65.5 119 66 41 66.5 13 72 14 73 128 74 68 75 101 
85 10 86 16 100 45 102 10 113 17 114 10 116 13 130 223 131 43 132 22 
146 999 147 386 148 111 149 25 161 22 
