Name: TRANS-NEROLIDYL ACETATE
MW: 264
Formula: C17H28O2
Synonym: MassBank: JP006486
Synonym: TRANS-NEROLIDYL ACETATE
Synonym: 1,5,9-TRIMETHYL-1-VINYL-(4E)-4,8-DECADIENYL ACETATE
Structure: 5452414E532D4E45524F4C4944594C20414345544154452E6D6F6C0A20204368656D447261773131313630393132313732440A2032302031392020302020302020302020302020302020302020302020303939392056323030300A2020202D312E323532332020202D302E3330323020202020302E303030302043202020302020302020302020302020302020302020302020302020302020302020302020300A2020202D312E393636382020202D302E3731343520202020302E303030302043202020302020302020302020302020302020302020302020302020302020302020302020300A2020202D322E3337393320202020302E3030303020202020302E30303030204F202020302020302020302020302020302020302020302020302020302020302020302020300A2020202D322E363831332020202D312E3132373020202020302E303030302043202020302020302020302020302020302020302020302020302020302020302020302020300A2020202D332E333935372020202D302E3731343520202020302E303030302043202020302020302020302020302020302020302020302020302020302020302020302020300A2020202D312E353534332020202D312E3432383920202020302E303030302043202020302020302020302020302020302020302020302020302020302020302020302020300A2020202D302E373239332020202D312E3432383920202020302E303030302043202020302020302020302020302020302020302020302020302020302020302020302020300A2020202D302E333136382020202D302E3731343520202020302E303030302043202020302020302020302020302020302020302020302020302020302020302020302020300A20202020302E353038322020202D302E3731343520202020302E303030302043202020302020302020302020302020302020302020302020302020302020302020302020300A20202020302E393230372020202D312E3432383920202020302E303030302043202020302020302020302020302020302020302020302020302020302020302020302020300A20202020302E3932303720202020302E3030303020202020302E303030302043202020302020302020302020302020302020302020302020302020302020302020302020300A20202020312E3734353720202020302E3030303020202020302E303030302043202020302020302020302020302020302020302020302020302020302020302020302020300A20202020322E3135383220202020302E3731343520202020302E303030302043202020302020302020302020302020302020302020302020302020302020302020302020300A20202020322E3938333220202020302E3731343520202020302E303030302043202020302020302020302020302020302020302020302020302020302020302020302020300A20202020332E3339353720202020312E3432383920202020302E303030302043202020302020302020302020302020302020302020302020302020302020302020302020300A20202020332E3339353720202020302E3030303020202020302E303030302043202020302020302020302020302020302020302020302020302020302020302020302020300A2020202D312E3936363820202020302E3731343520202020302E303030302043202020302020302020302020302020302020302020302020302020302020302020302020300A2020202D322E3337393320202020312E3432383920202020302E30303030204F202020302020302020302020302020302020302020302020302020302020302020302020300A2020202D312E3134313820202020302E3731343520202020302E303030302043202020302020302020302020302020302020302020302020302020302020302020302020300A2020202D302E3732393320202020302E3030303020202020302E303030302048202020302020302020302020302020302020302020302020302020302020302020302020300A2020322020332020312020302020202020200A2020322020342020312020302020202020200A2020342020352020322020302020202020200A2020322020362020312020302020202020200A2020362020372020312020302020202020200A2020372020382020312020302020202020200A2020382020392020322020302020202020200A2020392031302020312020302020202020200A2020392031312020312020302020202020200A2031312031322020312020302020202020200A2031322031332020312020302020202020200A2031332031342020322020302020202020200A2031342031352020312020302020202020200A2031342031362020312020302020202020200A2020312020322020312020302020202020200A2020332031372020312020302020202020200A2031372031382020322020302020202020200A2031372031392020312020302020202020200A2020382032302020312020302020202020200A4D2020454E44
Contributor: HISAHIRO HAGIWARA, CHEMICAL RESEARCH INSTITUTE OF NON-AQUEOUSSOLUTIONS TOHOKU UNIV.
InstType: EI
InstName: HITACHI M-80B
IoniMethod: _ENERGY 70 eV
IonPolarity: pos
Date: 2010-10-09 19:48:36+02:00
Num Peaks: 71
15 19 27 66 29 58 39 75 40 10 41 646 42 45 43 822 44 13 45 22 
51 15 52 15 53 129 54 20 55 321 56 34 57 24 65 31 66 18 67 202 
68 170 69 999 70 63 71 129 72 16 77 63 78 20 79 217 80 368 81 233 
82 41 83 11 84 12 85 18 91 121 92 50 93 949 94 89 95 69 96 14 
97 19 105 92 106 27 107 426 108 51 109 69 111 15 113 25 115 13 119 124 
120 42 121 89 122 34 123 158 124 35 125 10 133 50 134 31 135 136 136 64 
137 27 147 38 148 23 149 20 153 13 161 72 162 14 189 41 195 41 204 44 
205 11 
