Name: MassBank: JP002984
MW: 250
Formula: C15H10N2O2
Synonym: MassBank: JP002984
Synonym: 2-PHENYL-5-BENZOYL-1,3,4-OXADIAZOLE
Structure: 322D5048454E594C2D352D42454E5A4F594C2D312C332C342D4F58414449415A4F4C452E6D6F6C0A20204368656D447261773032323131303134313432440A2031392032312020302020302020302020302020302020302020302020303939392056323030300A2020202D302E3239393020202020302E3333353620202020302E30303030204F202020302020302020302020302020302020302020302020302020302020302020302020300A2020202D302E383531312020202D302E3237373520202020302E303030302043202020302020302020302020302020302020302020302020302020302020302020302020300A2020202D302E343338362020202D302E3939323020202020302E30303030204E202020302020302020302020302020302020302020302020302020302020302020302020300A20202020302E333638342020202D302E3832303520202020302E30303030204E202020302020302020302020302020302020302020302020302020302020302020302020300A20202020302E3435343620202020302E3030303020202020302E303030302043202020302020302020302020302020302020302020302020302020302020302020302020300A20202020312E3136393120202020302E3431323520202020302E303030302043202020302020302020302020302020302020302020302020302020302020302020302020300A20202020312E3838333620202020302E3030303020202020302E303030302043202020302020302020302020302020302020302020302020302020302020302020302020300A20202020312E383833362020202D302E3832353020202020302E303030302043202020302020302020302020302020302020302020302020302020302020302020302020300A20202020322E353938302020202D312E3233373520202020302E303030302043202020302020302020302020302020302020302020302020302020302020302020302020300A20202020332E333132352020202D302E3832353020202020302E303030302043202020302020302020302020302020302020302020302020302020302020302020302020300A20202020332E333132352020202D302E3030303020202020302E303030302043202020302020302020302020302020302020302020302020302020302020302020302020300A20202020322E3539383020202020302E3431323520202020302E303030302043202020302020302020302020302020302020302020302020302020302020302020302020300A20202020312E3136393120202020312E3233373520202020302E30303030204F202020302020302020302020302020302020302020302020302020302020302020302020300A2020202D312E363731362020202D302E3139313320202020302E303030302043202020302020302020302020302020302020302020302020302020302020302020302020300A2020202D322E3030373120202020302E3536323420202020302E303030302043202020302020302020302020302020302020302020302020302020302020302020302020300A2020202D322E3832373620202020302E3634383620202020302E303030302043202020302020302020302020302020302020302020302020302020302020302020302020300A2020202D332E333132352020202D302E3031383820202020302E303030302043202020302020302020302020302020302020302020302020302020302020302020302020300A2020202D322E393737302020202D302E3737323520202020302E303030302043202020302020302020302020302020302020302020302020302020302020302020302020300A2020202D322E313536352020202D302E3835383720202020302E303030302043202020302020302020302020302020302020302020302020302020302020302020302020300A2020312020322020312020302020202020200A2020322020332020322020302020202020200A2020332020342020312020302020202020200A2020342020352020322020302020202020200A2020312020352020312020302020202020200A2020362020372020312020302020202020200A2020372020382020312020302020202020200A2020382020392020322020302020202020200A2020392031302020312020302020202020200A2031302031312020322020302020202020200A2031312031322020312020302020202020200A2020372031322020322020302020202020200A2020362031332020322020302020202020200A2020352020362020312020302020202020200A2031342031352020312020302020202020200A2031352031362020322020302020202020200A2031362031372020312020302020202020200A2031372031382020322020302020202020200A2031382031392020312020302020202020200A2031342031392020322020302020202020200A2020322031342020312020302020202020200A4D2020454E44
Contributor: SASAKI S, TOYOHASHI UNIV. OF TECH.
InstType: EI
InstName: Unknown
IoniMethod: EI
IonPolarity: pos
Date: 2010-10-09 19:48:36+02:00
Num Peaks: 11
50 130 51 250 77 990 103 25 105 999 145 270 164 90 165 1 222 360 223 60 
250 280 
