Name: FURFURYL MERCAPTAN
MW: 114
Formula: C5H6OS
Synonym: MassBank: JP009160
Synonym: FURFURYL MERCAPTAN
Structure: 310A31390A465552465552594C204D455243415054414E2E6D6F6C0A20204368656D447261773038313131303139333832440A2020372020372020302020302020302020302020302020302020302020303939392056323030300A2020202D302E363532392020202D302E3730323320202020302E303030302043202020302020302020302020302020302020302020302020302020302020302020302020300A20202020302E303631362020202D302E3238393820202020302E303030302043202020302020302020302020302020302020302020302020302020302020302020302020300A20202020302E3134373920202020302E3533303720202020302E303030302043202020302020302020302020302020302020302020302020302020302020302020302020300A20202020302E3935343820202020302E3730323320202020302E303030302043202020302020302020302020302020302020302020302020302020302020302020302020300A20202020312E333637332020202D302E3031323220202020302E303030302043202020302020302020302020302020302020302020302020302020302020302020302020300A20202020302E383135332020202D302E3632353320202020302E30303030204F202020302020302020302020302020302020302020302020302020302020302020302020300A2020202D312E333637332020202D302E3238393820202020302E303030302053202020302020302020302020302020302020302020302020302020302020302020302020300A2020312020322020312020302020202020200A2020322020332020322020302020202020200A2020332020342020312020302020202020200A2020342020352020322020302020202020200A2020352020362020312020302020202020200A2020322020362020312020302020202020200A2020312020372020312020302020202020200A4D2020454E44
Contributor: SODA AROMATIC CO., LTD.
InstType: EI
InstName: HITACHI M-80B
IoniMethod: _ENERGY 70 eV
IonPolarity: pos
Date: 2010-10-09 19:48:36+02:00
Num Peaks: 29
26 48 27 221 29 67 32 12 33 44 37 38 38 65 39 114 41 26 42 25 
45 195 46 20 47 39 49 22 50 118 51 178 52 116 53 778 54 40 57 27 
58 41 59 32 69 21 81 999 82 84 85 41 114 381 115 23 116 15 
