Name: 2-(PARA-NITROPHENYL)-HEPTAMETHYLTRISILANE
MW: 311
Formula: C13H25NO2Si3
Synonym: MassBank: JP001979
Synonym: 2-(PARA-NITROPHENYL)-HEPTAMETHYLTRISILANE
Structure: 322D28504152412D4E4954524F5048454E594C292D48455054414D455448594C54524953494C414E452E6D6F6C0A20204368656D447261773132323130393231313432440A2031392031392020302020302020302020302020302020302020302020303939392056323030300A20202020312E3537313320202020302E3832353020202020302E303030302053692020302020302020302020302020302020302020302020302020302020302020302020300A20202020312E3537313320202020302E3030303020202020302E303030302053692020302020302020302020302020302020302020302020302020302020302020302020300A20202020312E353731332020202D302E3832353020202020302E303030302053692020302020302020302020302020302020302020302020302020302020302020302020300A20202020302E3439383820202020302E3030303020202020302E303030302043202020302020302020302020302020302020302020302020302020302020302020302020300A20202020302E303837332020202D302E3730353820202020302E303030302043202020302020302020302020302020302020302020302020302020302020302020302020300A2020202D302E373432392020202D302E3730353820202020302E303030302043202020302020302020302020302020302020302020302020302020302020302020302020300A2020202D312E3135383820202020302E3031343620202020302E303030302043202020302020302020302020302020302020302020302020302020302020302020302020300A2020202D302E3734323520202020302E3733353620202020302E303030302043202020302020302020302020302020302020302020302020302020302020302020302020300A20202020302E3039303420202020302E3733353620202020302E303030302043202020302020302020302020302020302020302020302020302020302020302020302020300A2020202D312E3938333820202020302E3031343620202020302E30303030204E202020302020332020302020302020302020302020302020302020302020302020302020300A2020202D322E3339363320202020302E3732393020202020302E30303030204F202020302020302020302020302020302020302020302020302020302020302020302020300A2020202D322E333936332020202D302E3639393920202020302E30303030204F202020302020352020302020302020302020302020302020302020302020302020302020300A20202020302E3734363320202020302E3832353020202020302E303030302043202020302020302020302020302020302020302020302020302020302020302020302020300A20202020322E3339363320202020302E3832353020202020302E303030302043202020302020302020302020302020302020302020302020302020302020302020302020300A20202020312E3537313320202020312E3635303020202020302E303030302043202020302020302020302020302020302020302020302020302020302020302020302020300A20202020322E3339363320202020302E3030303020202020302E303030302043202020302020302020302020302020302020302020302020302020302020302020302020300A20202020302E373436332020202D302E3832353020202020302E303030302043202020302020302020302020302020302020302020302020302020302020302020302020300A20202020312E353731332020202D312E3635303020202020302E303030302043202020302020302020302020302020302020302020302020302020302020302020302020300A20202020322E333936332020202D302E3832353020202020302E303030302043202020302020302020302020302020302020302020302020302020302020302020302020300A2020322020312020312020312020202020200A2020322020332020312020312020202020200A2020342020352020312020302020202020200A2020352020362020322020302020202020200A2020362020372020312020302020202020200A2020372020382020322020302020202020200A2020382020392020312020302020202020200A2020342020392020322020302020202020200A2031302031312020322020302020202020200A2031302031322020312020302020202020200A2020372031302020312020302020202020200A2020322020342020312020302020202020200A2020312031332020312020302020202020200A2020312031342020312020302020202020200A2020312031352020312020302020202020200A2020322031362020312020302020202020200A2020332031372020312020302020202020200A2020332031382020312020302020202020200A2020332031392020312020302020202020200A4D202043484720203220203130202020312020313220202D310A4D2020454E44
Contributor: MASS SPECTROSCOPY SOC. OF JAPAN (MSSJ)
InstType: EI
InstName: JEOL JMS-D-3000
IoniMethod: _ENERGY 70 eV
IonPolarity: pos
Date: 2010-10-09 19:48:36+02:00
Num Peaks: 30
40 86 56 42 73 999 74 87 75 50 117 35 119 63 121 30 131 38 133 53 
134 109 135 30 147 78 148 38 149 43 162 28 164 66 177 97 179 160 180 63 
192 76 193 81 222 89 223 42 238 30 265 60 296 38 297 11 311 32 312 10 
