Name: 4-ETHYL-5-METHYL-2-PROPYLOXAZOLE
MW: 153
Formula: C9H15NO
Synonym: MassBank: JP007762
Synonym: 4-ETHYL-5-METHYL-2-PROPYLOXAZOLE
Structure: 342D455448594C2D352D4D455448594C2D322D50524F50594C4F58415A4F4C452E6D6F6C0A20204368656D447261773033323531303231353332440A2031312031312020302020302020302020302020302020302020302020303939392056323030300A2020202D302E3137303820202020302E3636373420202020302E30303030204F202020302020302020302020302020302020302020302020302020302020302020302020300A20202020302E3331343120202020302E3030303020202020302E303030302043202020302020302020302020302020302020302020302020302020302020302020302020300A2020202D302E313730382020202D302E3636373420202020302E30303030204E202020302020302020302020302020302020302020302020302020302020302020302020300A2020202D302E393535352020202D302E3431323520202020302E303030302043202020302020302020302020302020302020302020302020302020302020302020302020300A2020202D302E3935353520202020302E3431323520202020302E303030302043202020302020302020302020302020302020302020302020302020302020302020302020300A20202020312E3133393120202020302E3030303020202020302E303030302043202020302020302020302020302020302020302020302020302020302020302020302020300A20202020312E3535313620202020302E3731343520202020302E303030302043202020302020302020302020302020302020302020302020302020302020302020302020300A20202020322E3337363620202020302E3731343520202020302E303030302043202020302020302020302020302020302020302020302020302020302020302020302020300A2020202D312E3632323920202020302E3839373420202020302E303030302043202020302020302020302020302020302020302020302020302020302020302020302020300A2020202D312E363232392020202D302E3839373420202020302E303030302043202020302020302020302020302020302020302020302020302020302020302020302020300A2020202D322E333736362020202D302E3536313920202020302E303030302043202020302020302020302020302020302020302020302020302020302020302020302020300A2020312020322020312020302020202020200A2020322020332020322020302020202020200A2020332020342020312020302020202020200A2020342020352020322020302020202020200A2020312020352020312020302020202020200A2020362020372020312020302020202020200A2020372020382020312020302020202020200A2020322020362020312020302020202020200A2020352020392020312020302020202020200A2031302031312020312020302020202020200A2020342031302020312020302020202020200A4D2020454E44
Contributor: HASHIMOTO K, KYOTO COLLEGE OF PHARMACY
InstType: EI
InstName: HITACHI M-80
IoniMethod: _ENERGY 20 eV
IonPolarity: pos
Date: 2010-10-09 19:48:36+02:00
Num Peaks: 32
27 17 29 17 41 133 42 78 43 827 44 18 54 164 55 165 56 96 67 21 
68 29 69 826 70 781 71 67 82 279 83 47 84 148 96 164 97 12 110 14 
122 12 123 13 124 716 125 999 126 301 127 21 138 718 139 229 140 11 152 284 
153 611 154 229 
