Name: MassBank: JP003672
MW: 132
Formula: C7H16O2
Synonym: MassBank: JP003672
Synonym: 1,5-DIMETHOXYPENTANE
Structure: 310A32320A312C352D44494D4554484F585950454E54414E452E6D6F6C0A20204368656D447261773131313630393132343432440A2020392020382020302020302020302020302020302020302020302020303939392056323030300A20202020312E343238392020202D302E3230363320202020302E303030302043202020302020302020302020302020302020302020302020302020302020302020302020300A20202020302E3731343520202020302E3230363320202020302E303030302043202020302020302020302020302020302020302020302020302020302020302020302020300A2020202D302E303030302020202D302E3230363320202020302E303030302043202020302020302020302020302020302020302020302020302020302020302020302020300A2020202D302E3731343520202020302E3230363220202020302E303030302043202020302020302020302020302020302020302020302020302020302020302020302020300A2020202D312E343238392020202D302E3230363320202020302E303030302043202020302020302020302020302020302020302020302020302020302020302020302020300A2020202D322E3134333420202020302E3230363220202020302E30303030204F202020302020302020302020302020302020302020302020302020302020302020302020300A2020202D322E383537392020202D302E3230363320202020302E303030302043202020302020302020302020302020302020302020302020302020302020302020302020300A20202020322E3134333420202020302E3230363320202020302E30303030204F202020302020302020302020302020302020302020302020302020302020302020302020300A20202020322E383537392020202D302E3230363220202020302E303030302043202020302020302020302020302020302020302020302020302020302020302020302020300A2020312020322020312020302020202020200A2020322020332020312020302020202020200A2020332020342020312020302020202020200A2020342020352020312020302020202020200A2020362020372020312020302020202020200A2020352020362020312020302020202020200A2020382020392020312020302020202020200A2020312020382020312020302020202020200A4D2020454E44
Contributor: SASAKI S, TOYOHASHI UNIV. OF TECH.
InstType: EI
InstName: Unknown
IoniMethod: EI
IonPolarity: pos
Date: 2010-10-09 19:48:36+02:00
Num Peaks: 41
39 31 41 111 42 48 43 3 45 999 46 26 47 6 52 0 53 15 54 10 
55 60 56 1 57 26 58 180 59 21 60 0 65 6 66 8 67 83 68 23 
69 63 70 22 71 652 72 6 73 5 75 4 81 2 82 0 83 3 84 1 
85 50 86 0 87 29 88 2 97 3 98 0 99 11 100 317 101 23 102 0 
117 9 
