Name: MassBank: JP003043
MW: 126
Formula: C4H8Cl2
Synonym: MassBank: JP003043
Synonym: 2,2-DICHLOROBUTANE
Structure: 310A31360A322C322D444943484C4F524F425554414E452E6D6F6C0A20204368656D447261773132323030393036333232440A2020362020352020302020302020302020302020302020302020302020303939392056323030300A2020202D312E303731372020202D302E3431323520202020302E303030302043202020302020302020302020302020302020302020302020302020302020302020302020300A2020202D302E3335373220202020302E3030303020202020302E303030302043202020302020302020302020302020302020302020302020302020302020302020302020300A20202020302E3335373220202020302E3431323520202020302E303030302043202020302020302020302020302020302020302020302020302020302020302020302020300A20202020312E3037313720202020302E3030303020202020302E303030302043202020302020302020302020302020302020302020302020302020302020302020302020300A20202020302E303535332020202D302E3731343520202020302E3030303020436C2020302020302020302020302020302020302020302020302020302020302020302020300A2020202D302E3736393720202020302E3731343520202020302E3030303020436C2020302020302020302020302020302020302020302020302020302020302020302020300A2020312020322020312020302020202020200A2020322020332020312020302020202020200A2020332020342020312020302020202020200A2020322020352020312020312020202020200A2020322020362020312020312020202020200A4D2020454E44
Contributor: SASAKI S, TOYOHASHI UNIV. OF TECH.
InstType: EI
InstName: Unknown
IoniMethod: EI
IonPolarity: pos
Date: 2010-10-09 19:48:36+02:00
Num Peaks: 81
24 1 25 9 26 87 27 38 28 80 29 250 30 5 35 2 36 55 37 31 
38 54 39 25 40 23 41 102 42 14 43 12 44 6 45 2 47 7 48 1 
49 63 50 46 51 67 52 2 53 96 54 29 55 724 56 4 57 9 58 1 
59 2 60 1 61 137 62 50 63 159 64 2 65 36 66 1 67 1 69 1 
70 5 71 3 72 3 73 1 74 2 75 136 76 14 77 4 78 16 79 1 
82 2 83 2 84 2 85 10 86 1 87 0 88 1 89 11 90 49 91 999 
92 60 93 320 94 14 95 0 96 120 97 507 98 85 99 32 100 19 101 51 
102 1 106 1 107 1 108 2 109 2 110 0 111 36 112 3 113 23 114 0 
115 4 
