Name: MassBank: JP008330
MW: 112
Formula: C6H8O2
Synonym: MassBank: JP008330
Synonym: 1,4-CYCLOHEXANEDIONE
Structure: 310A32310A312C342D4359434C4F484558414E4544494F4E452E6D6F6C0A20204368656D447261773131313430393232353132440A2020382020382020302020302020302020302020302020302020302020303939392056323030300A20202020302E303030302020202D302E3832353020202020302E303030302043202020302020302020302020302020302020302020302020302020302020302020302020300A2020202D302E373134352020202D302E3431323520202020302E303030302043202020302020302020302020302020302020302020302020302020302020302020302020300A2020202D302E3731343520202020302E3431323520202020302E303030302043202020302020302020302020302020302020302020302020302020302020302020302020300A20202020302E3030303020202020302E3832353020202020302E303030302043202020302020302020302020302020302020302020302020302020302020302020302020300A20202020302E3731343520202020302E3431323520202020302E303030302043202020302020302020302020302020302020302020302020302020302020302020302020300A20202020302E373134352020202D302E3431323520202020302E303030302043202020302020302020302020302020302020302020302020302020302020302020302020300A20202020302E303030302020202D312E3635303020202020302E30303030204F202020302020302020302020302020302020302020302020302020302020302020302020300A20202020302E3030303020202020312E3635303020202020302E30303030204F202020302020302020302020302020302020302020302020302020302020302020302020300A2020312020322020312020302020202020200A2020322020332020312020302020202020200A2020332020342020312020302020202020200A2020342020352020312020302020202020200A2020352020362020312020302020202020200A2020312020362020312020302020202020200A2020312020372020322020302020202020200A2020342020382020322020302020202020200A4D2020454E44
Contributor: UBE SCIENTIFIC ANALYSIS LABORATORY
InstType: EI
InstName: HITACHI M-60
IoniMethod: _ENERGY 70 eV
IonPolarity: pos
Date: 2010-10-09 19:48:36+02:00
Num Peaks: 38
14 28 15 22 25 5 26 124 27 315 28 999 29 189 31 7 37 9 38 18 
39 59 40 16 41 45 42 205 43 36 45 17 50 12 51 10 52 4 53 30 
54 30 55 329 56 562 57 193 58 9 66 7 67 12 69 20 70 35 83 48 
84 24 85 5 94 5 97 12 111 12 112 649 113 46 114 3 
