Name: 1.5.9-CYCLODODECATRIENE
MW: 162
Formula: C12H18
Synonym: MassBank: JP001559
Synonym: 1.5.9-CYCLODODECATRIENE
Structure: 312E352E392D4359434C4F444F44454341545249454E452E6D6F6C0A20204368656D447261773131323230393233303932440A2031322031322020302020302020302020302020302020302020302020303939392056323030300A2020202D312E3731303320202020302E3431323520202020302E303030302043202020302020302020302020302020302020302020302020302020302020302020302020300A2020202D312E373130332020202D302E3431323520202020302E303030302043202020302020302020302020302020302020302020302020302020302020302020302020300A2020202D302E393935392020202D302E3832353020202020302E303030302043202020302020302020302020302020302020302020302020302020302020302020302020300A2020202D302E323831342020202D302E3431323520202020302E303030302043202020302020302020302020302020302020302020302020302020302020302020302020300A2020202D302E3238313420202020302E3431323520202020302E303030302043202020302020302020302020302020302020302020302020302020302020302020302020300A2020202D302E3939353920202020302E3832353020202020302E303030302043202020302020302020302020302020302020302020302020302020302020302020302020300A20202020302E333032302020202D302E3939353920202020302E303030302043202020302020302020302020302020302020302020302020302020302020302020302020300A20202020312E313237302020202D302E3939353920202020302E303030302043202020302020302020302020302020302020302020302020302020302020302020302020300A20202020312E373130332020202D302E3431323520202020302E303030302043202020302020302020302020302020302020302020302020302020302020302020302020300A20202020312E3731303320202020302E3431323520202020302E303030302043202020302020302020302020302020302020302020302020302020302020302020302020300A20202020312E3132373020202020302E3939353920202020302E303030302043202020302020302020302020302020302020302020302020302020302020302020302020300A20202020302E3330323020202020302E3939353920202020302E303030302043202020302020302020302020302020302020302020302020302020302020302020302020300A2020312020322020312020302020202020200A2020322020332020312020302020202020200A2020332020342020322020302020202020200A2020352020362020322020302020202020200A2020362020312020312020302020202020200A2020342020372020312020302020202020200A2020372020382020312020302020202020200A2020382020392020312020302020202020200A2020392031302020322020302020202020200A2031302031312020312020302020202020200A2031312031322020312020302020202020200A2031322020352020312020302020202020200A4D2020454E44
Contributor: YAMAMOTO M, DEP. CHEMISTRY, FAC. SCIENCE, NARA WOMEN'S UNIV.
InstType: EI
InstName: HITACHI RMU-6M
IoniMethod: _ENERGY 70 eV
IonPolarity: pos
Date: 2010-10-09 19:48:36+02:00
Num Peaks: 47
27 164 28 71 29 54 38 12 39 375 40 44 41 335 42 20 43 13 50 16 
51 52 52 38 53 141 54 999 55 92 63 18 65 85 66 140 67 505 68 42 
77 113 78 92 79 514 80 382 81 80 82 12 91 991 92 92 93 340 94 96 
95 62 96 14 105 80 106 65 107 64 108 73 109 11 119 144 120 88 121 11 
133 143 134 127 135 17 147 30 161 13 162 167 163 24 
