Name: MONOCRESYL DIPHENYL PHOSPHATE
MW: 340
Formula: C19H17O4P
Synonym: MassBank: JP003368
Synonym: MONOCRESYL DIPHENYL PHOSPHATE
Structure: 303634325F4D4F4E4F43524553594C2044495048454E594C2050484F5350484154452E6D6F6C0A20204368656D447261773039303631303139333632440A2032342032362020302020302020302020302020302020302020302020303939392056323030300A2020202D312E3935323620202020322E3036333220202020302E303030302043202020302020302020302020302020302020302020302020302020302020302020302020300A2020202D312E3935323620202020312E3233383220202020302E303030302043202020302020302020302020302020302020302020302020302020302020302020302020300A2020202D312E3233383120202020302E3832353720202020302E303030302043202020302020302020302020302020302020302020302020302020302020302020302020300A2020202D302E3532333720202020312E3233383220202020302E303030302043202020302020302020302020302020302020302020302020302020302020302020302020300A2020202D302E3532333720202020322E3036333220202020302E303030302043202020302020302020302020302020302020302020302020302020302020302020302020300A2020202D312E3233383120202020322E3437353720202020302E303030302043202020302020302020302020302020302020302020302020302020302020302020302020300A20202020302E3139313420202020302E3832353720202020302E30303030204F202020302020302020302020302020302020302020302020302020302020302020302020300A20202020302E313931382020202D302E3030303720202020302E303030302050202020302020302020302020302020302020302020302020302020302020302020302020300A20202020312E303136382020202D302E3030303720202020302E30303030204F202020302020302020302020302020302020302020302020302020302020302020302020300A20202020302E313931382020202D302E3832353720202020302E30303030204F202020302020302020302020302020302020302020302020302020302020302020302020300A2020202D302E363333322020202D302E3030303720202020302E30303030204F202020302020302020302020302020302020302020302020302020302020302020302020300A20202020312E3432383620202020302E3731353220202020302E303030302043202020302020302020302020302020302020302020302020302020302020302020302020300A20202020322E3235333620202020302E3731353220202020302E303030302043202020302020302020302020302020302020302020302020302020302020302020302020300A20202020322E3636363120202020312E3432393620202020302E303030302043202020302020302020302020302020302020302020302020302020302020302020302020300A20202020322E3235333620202020322E3134343120202020302E303030302043202020302020302020302020302020302020302020302020302020302020302020302020300A20202020312E3432383620202020322E3134343120202020302E303030302043202020302020302020302020302020302020302020302020302020302020302020302020300A20202020312E3031363120202020312E3432393620202020302E303030302043202020302020302020302020302020302020302020302020302020302020302020302020300A2020202D302E353232372020202D312E3233383220202020302E303030302043202020302020302020302020302020302020302020302020302020302020302020302020300A2020202D312E323337322020202D302E3832353720202020302E303030302043202020302020302020302020302020302020302020302020302020302020302020302020300A2020202D312E393531372020202D312E3233383220202020302E303030302043202020302020302020302020302020302020302020302020302020302020302020302020300A2020202D312E393531372020202D322E3036333220202020302E303030302043202020302020302020302020302020302020302020302020302020302020302020302020300A2020202D312E323337322020202D322E3437353720202020302E303030302043202020302020302020302020302020302020302020302020302020302020302020302020300A2020202D302E353232372020202D322E3036333220202020302E303030302043202020302020302020302020302020302020302020302020302020302020302020302020300A2020202D322E363636312020202D322E3437353720202020302E303030302043202020302020302020302020302020302020302020302020302020302020302020302020300A2020312020322020322020302020202020200A2020322020332020312020302020202020200A2020332020342020322020302020202020200A2020342020352020312020302020202020200A2020352020362020322020302020202020200A2020362020312020312020302020202020200A2020342020372020312020302020202020200A2020372020382020312020302020202020200A2020382020392020312020302020202020200A2020382031302020312020302020202020200A2020382031312020322020302020202020200A2020392031322020312020302020202020200A2031322031332020322020302020202020200A2031332031342020312020302020202020200A2031342031352020322020302020202020200A2031352031362020312020302020202020200A2031362031372020322020302020202020200A2031372031322020312020302020202020200A2031302031382020312020302020202020200A2031382031392020322020302020202020200A2031392032302020312020302020202020200A2032302032312020322020302020202020200A2032312032322020312020302020202020200A2032322032332020322020302020202020200A2031382032332020312020302020202020200A2032312032342020312020302020202020200A4D2020454E44
Contributor: KOGA M, UNIV. OF OCCUPATIONAL AND ENVIRONMENTAL HEALTH
InstType: EI
InstName: JEOL JMS-01-SG-2
IoniMethod: _ENERGY 75 eV
IonPolarity: pos
Date: 2010-10-09 19:48:36+02:00
Num Peaks: 92
47 46 50 40 51 140 52 35 53 33 62 40 63 20 65 24 66 30 76 20 
77 378 78 10 79 89 89 38 90 58 91 18 92 30 93 35 94 132 103 3 
104 38 105 35 106 20 107 12 108 135 109 20 115 25 121 3 122 30 139 25 
140 28 141 3 152 30 153 28 154 23 155 2 165 171 166 86 167 33 168 5 
169 97 170 132 171 20 178 3 179 97 180 69 181 56 182 4 183 51 184 94 
185 20 193 3 194 48 195 84 196 33 197 2 198 33 209 23 215 99 216 2 
227 25 228 74 229 94 230 2 231 23 232 69 233 148 234 3 241 30 242 38 
243 40 244 2 245 23 246 69 247 125 248 3 249 30 260 25 261 58 262 2 
263 25 275 25 277 20 291 3 325 439 326 664 327 135 328 2 339 493 340 999 
341 219 342 25 
