Name: MassBank: JP005702
CAS: 554-95-0
MW: 210
Formula: C9H6O6
Synonym: MassBank: JP005702
Synonym: 1,3,5-BENZENETRICARBOXYLIC ACID
Synonym: TRIMESIC ACID
Structure: 312C332C352D42454E5A454E45545249434152424F58594C494320414349442E6D6F6C0A20204368656D447261773131313130393137353532440A2031352031352020302020302020302020302020302020302020302020303939392056323030300A2020202D302E373134352020202D302E3631383820202020302E303030302043202020302020302020302020302020302020302020302020302020302020302020302020300A2020202D302E3731343520202020302E3230363320202020302E303030302043202020302020302020302020302020302020302020302020302020302020302020302020300A20202020302E3030303020202020302E3631383820202020302E303030302043202020302020302020302020302020302020302020302020302020302020302020302020300A20202020302E3731343520202020302E3230363220202020302E303030302043202020302020302020302020302020302020302020302020302020302020302020302020300A20202020302E373134352020202D302E3631383820202020302E303030302043202020302020302020302020302020302020302020302020302020302020302020302020300A20202020302E303030302020202D312E3033313320202020302E303030302043202020302020302020302020302020302020302020302020302020302020302020302020300A2020202D312E343238392020202D312E3033313320202020302E303030302043202020302020302020302020302020302020302020302020302020302020302020302020300A2020202D312E343238392020202D312E3835363320202020302E30303030204F202020302020302020302020302020302020302020302020302020302020302020302020300A2020202D322E313433342020202D302E3631383820202020302E30303030204F202020302020302020302020302020302020302020302020302020302020302020302020300A2020202D302E3030303020202020312E3434333820202020302E303030302043202020302020302020302020302020302020302020302020302020302020302020302020300A2020202D302E3731343520202020312E3835363320202020302E30303030204F202020302020302020302020302020302020302020302020302020302020302020302020300A20202020302E3731343520202020312E3835363320202020302E30303030204F202020302020302020302020302020302020302020302020302020302020302020302020300A20202020312E343238392020202D312E3033313320202020302E303030302043202020302020302020302020302020302020302020302020302020302020302020302020300A20202020322E313433342020202D302E3631383820202020302E30303030204F202020302020302020302020302020302020302020302020302020302020302020302020300A20202020312E343238392020202D312E3835363320202020302E30303030204F202020302020302020302020302020302020302020302020302020302020302020302020300A2020312020322020312020302020202020200A2020322020332020322020302020202020200A2020332020342020312020302020202020200A2020342020352020322020302020202020200A2020352020362020312020302020202020200A2020312020362020322020302020202020200A2020372020382020322020302020202020200A2020372020392020312020302020202020200A2020312020372020312020302020202020200A2031302031312020322020302020202020200A2031302031322020312020302020202020200A2020332031302020312020302020202020200A2031332031342020322020302020202020200A2031332031352020312020302020202020200A2020352031332020312020302020202020200A4D2020454E44
Contributor: MASS SPECTROSCOPY SOC. OF JAPAN (MSSJ)
InstType: EI
InstName: HITACHI M-80
IoniMethod: _ENERGY 70 eV
IonPolarity: pos
Date: 2010-10-09 19:48:36+02:00
Num Peaks: 104
17 5 18 20 27 16 28 33 29 14 32 10 35 16 36 34 37 29 38 38 
39 113 40 7 41 27 42 12 43 37 44 42 45 223 46 6 47 26 48 13 
49 36 50 184 51 138 52 30 53 167 54 13 55 51 56 16 57 30 58 7 
59 4 60 7 61 29 62 51 63 146 64 54 65 421 66 35 67 15 68 5 
69 43 70 13 71 17 72 10 73 69 74 323 75 335 76 49 77 55 78 15 
79 23 80 9 81 339 82 27 83 78 84 14 85 48 86 7 87 12 88 9 
89 6 90 12 91 48 92 29 93 20 94 5 95 6 100 4 101 17 102 42 
103 18 104 7 105 10 106 4 107 11 108 5 109 40 110 3 119 71 120 74 
121 29 122 5 147 13 148 10 149 16 150 2 165 181 166 19 167 5 182 7 
183 4 185 4 189 7 191 14 192 3 193 999 194 102 195 18 196 3 209 9 
210 790 211 78 212 12 213 3 
