Name: MassBank: JP000500
MW: 147
Formula: C10H13N
Synonym: MassBank: JP000500
Synonym: 3-METHYL-5,6,7,8-TETRAHYDROQUINOLINE
Structure: 332D4D455448594C2D352C362C372C382D5445545241485944524F5155494E4F4C494E452E6D6F6C0A20204368656D447261773033323031303031343332440A2031312031322020302020302020302020302020302020302020302020303939392056323030300A20202020302E3335373220202020302E3832353020202020302E30303030204E202020302020302020302020302020302020302020302020302020302020302020302020300A20202020312E3037313720202020302E3431323520202020302E303030302043202020302020302020302020302020302020302020302020302020302020302020302020300A20202020312E303731372020202D302E3431323520202020302E303030302043202020302020302020302020302020302020302020302020302020302020302020302020300A20202020302E333537322020202D302E3832353020202020302E303030302043202020302020302020302020302020302020302020302020302020302020302020302020300A2020202D302E333537322020202D302E3431323520202020302E303030302043202020302020302020302020302020302020302020302020302020302020302020302020300A2020202D312E303731372020202D302E3832353020202020302E303030302043202020302020302020302020302020302020302020302020302020302020302020302020300A2020202D312E373836322020202D302E3431323520202020302E303030302043202020302020302020302020302020302020302020302020302020302020302020302020300A2020202D312E3738363220202020302E3431323520202020302E303030302043202020302020302020302020302020302020302020302020302020302020302020302020300A2020202D312E3037313720202020302E3832353020202020302E303030302043202020302020302020302020302020302020302020302020302020302020302020302020300A2020202D302E3335373220202020302E3431323520202020302E303030302043202020302020302020302020302020302020302020302020302020302020302020302020300A20202020312E373836322020202D302E3832353020202020302E303030302043202020302020302020302020302020302020302020302020302020302020302020302020300A2020312020322020322020302020202020200A2020322020332020312020302020202020200A2020332020342020322020302020202020200A2020342020352020312020302020202020200A2020352020362020312020302020202020200A2020362020372020312020302020202020200A2020372020382020312020302020202020200A2020382020392020312020302020202020200A2020392031302020312020302020202020200A2020312031302020312020302020202020200A2020352031302020322020302020202020200A2020332031312020312020302020202020200A4D2020454E44
Contributor: SASAKI S, TOYOHASHI UNIV. OF TECH.
InstType: EI
InstName: MX-1303
IoniMethod: _ENERGY 50 eV
IonPolarity: pos
Date: 2010-10-09 19:48:36+02:00
Num Peaks: 66
18 120 26 29 27 120 29 1 37 23 39 286 40 33 41 8 42 15 49 21 
50 228 51 28 52 204 53 94 54 21 55 1 58.5 16 62 24 63 102 64 3 
65 126 65.5 29 66 51 67 2 71.5 28 72.5 23 73 16 74 5 75 31 76 54 
77 306 78 69 79 124 80 20 89 34 90 2 91 156 92 49 93 85 94 1 
102 19 103 43 104 126 105 4 106 67 107 28 115 56 116 3 117 120 118 156 
119 469 120 7 121 17 128 17 129 21 130 11 131 186 132 408 133 46 142 1 
143 28 144 126 145 58 146 999 147 979 148 107 
