Name: MassBank: JP000877
MW: 154
Formula: C9H18N2
Synonym: MassBank: JP000877
Synonym: DIETHYLHYDRAZONE ALPHA,BETA-DIMETHYLACRYLALDEHYDE
Synonym: 2-METHYL-2-BUTENAL DIETHYLHYDRAZONE
Structure: 4449455448594C48594452415A4F4E4520414C5048412C424554412D44494D455448594C414352594C414C4445485944452E6D6F6C0A20204368656D447261773031323231303033303632440A2031312031302020302020302020302020302020302020302020302020303939392056323030300A20202020312E3738363220202020302E3030303020202020302E303030302043202020302020302020302020302020302020302020302020302020302020302020302020300A20202020312E303731372020202D302E3431323520202020302E303030302043202020302020302020302020302020302020302020302020302020302020302020302020300A20202020302E3335373220202020302E3030303020202020302E303030302043202020302020302020302020302020302020302020302020302020302020302020302020300A20202020312E3738363220202020302E3832353020202020302E303030302043202020302020302020302020302020302020302020302020302020302020302020302020300A2020202D302E333537322020202D302E3431323520202020302E30303030204E202020302020302020302020302020302020302020302020302020302020302020302020300A2020202D312E3037313720202020302E3030303020202020302E30303030204E202020302020302020302020302020302020302020302020302020302020302020302020300A2020202D312E373836322020202D302E3431323520202020302E303030302043202020302020302020302020302020302020302020302020302020302020302020302020300A2020202D312E373836322020202D312E3233373520202020302E303030302043202020302020302020302020302020302020302020302020302020302020302020302020300A2020202D312E3037313720202020302E3832353020202020302E303030302043202020302020302020302020302020302020302020302020302020302020302020302020300A2020202D312E3738363220202020312E3233373520202020302E303030302043202020302020302020302020302020302020302020302020302020302020302020302020300A20202020312E303731372020202D312E3233373520202020302E303030302043202020302020302020302020302020302020302020302020302020302020302020302020300A2020312020322020322020302020202020200A2020322020332020312020302020202020200A2020312020342020312020302020202020200A2020352020362020312020302020202020200A2020372020382020312020302020202020200A2020362020372020312020302020202020200A2020392031302020312020302020202020200A2020362020392020312020302020202020200A2020332020352020322020302020202020200A2020322031312020312020302020202020200A4D2020454E44
Contributor: SASAKI S, TOYOHASHI UNIV. OF TECH.
InstType: EI
InstName: SHIMADZU LKB-2091
IoniMethod: _ENERGY 70 eV
IonPolarity: pos
Date: 2010-10-09 19:48:36+02:00
Num Peaks: 57
26 42 27 500 28 560 29 84 30 500 39 321 40 84 41 43 42 610 43 117 
44 440 45 2 46 17 51 39 52 32 53 28 54 89 55 667 56 56 57 7 
58 945 59 83 65 50 66 2 67 284 68 67 69 100 70 22 71 56 72 240 
73 28 74 3 77 28 80 67 81 100 82 61 83 140 84 111 85 20 94 14 
95 100 96 139 97 500 98 7 109 56 110 72 111 217 112 4 124 33 125 999 
126 89 139 67 140 67 153 39 154 945 155 11 156 6 
