Name: 22-DIHYDROCHONDRILLASTEROL
CAS: 18525-35-4
MW: 414
Formula: C29H50O
Synonym: MassBank: JP009474
Synonym: 22-DIHYDROCHONDRILLASTEROL
Synonym: STIGMAST-7-EN-3-OL(3BETA,5ALPHA,24S)
Structure: 32322D4449485944524F43484F4E4452494C4C41535445524F4C2E6D6F6C0A20204368656D447261773032323131303137313532440A2033352033382020302020302020302020302020302020302020302020303939392056323030300A2020202D322E373937312020202D322E3632353520202020302E303030302043202020302020302020302020302020302020302020302020302020302020302020302020300A2020202D322E373937312020202D312E3830303520202020302E303030302043202020302020302020302020302020302020302020302020302020302020302020302020300A2020202D322E303832362020202D312E3338383020202020302E303030302043202020302020302020302020302020302020302020302020302020302020302020302020300A2020202D322E303832362020202D332E3033383020202020302E303030302043202020302020302020302020302020302020302020302020302020302020302020302020300A2020202D312E333638322020202D322E3632353520202020302E303030302043202020302020302020302020302020302020302020302020302020302020302020302020300A2020202D302E363533372020202D332E3033383020202020302E303030302043202020302020302020302020302020302020302020302020302020302020302020302020300A20202020302E303630382020202D322E3632353520202020302E303030302043202020302020302020302020302020302020302020302020302020302020302020302020300A20202020302E303630382020202D312E3830303520202020302E303030302043202020302020302020302020302020302020302020302020302020302020302020302020300A20202020302E373735322020202D312E3338383020202020302E303030302043202020302020302020302020302020302020302020302020302020302020302020302020300A20202020312E353539392020202D312E3634333020202020302E303030302043202020302020302020302020302020302020302020302020302020302020302020302020300A20202020322E303434382020202D302E3937353520202020302E303030302043202020302020302020302020302020302020302020302020302020302020302020302020300A20202020312E353539392020202D302E3330383120202020302E303030302043202020302020302020302020302020302020302020302020302020302020302020302020300A20202020312E3831343820202020302E3437363520202020302E303030302043202020302020302020302020302020302020302020302020302020302020302020302020300A20202020312E3233313420202020312E3035393920202020302E303030302043202020302020302020302020302020302020302020302020302020302020302020302020300A20202020312E3434353020202020312E3835363820202020302E303030302043202020302020302020302020302020302020302020302020302020302020302020302020300A20202020322E3234313920202020322E3037303320202020302E303030302043202020302020302020302020302020302020302020302020302020302020302020302020300A20202020322E3832353220202020312E3438363920202020302E303030302043202020302020302020302020302020302020302020302020302020302020302020302020300A20202020332E3632323120202020312E3730303520202020302E303030302043202020302020302020302020302020302020302020302020302020302020302020302020300A20202020322E3435353420202020322E3836373220202020302E303030302043202020302020302020302020302020302020302020302020302020302020302020302020300A20202020312E3837323020202020332E3435303520202020302E303030302043202020302020302020302020302020302020302020302020302020302020302020302020300A20202020332E3235323320202020332E3038303720202020302E303030302043202020302020302020302020302020302020302020302020302020302020302020302020300A20202020322E3632313820202020302E3634383020202020302E303030302043202020302020302020302020302020302020302020302020302020302020302020302020300A20202020302E373735322020202D302E3536333020202020302E303030302043202020302020302020302020302020302020302020302020302020302020302020302020300A20202020302E3737353220202020302E3236323020202020302E303030302043202020302020302020302020302020302020302020302020302020302020302020302020300A20202020302E303630382020202D302E3135303520202020302E303030302043202020302020302020302020302020302020302020302020302020302020302020302020300A2020202D302E363533372020202D302E3536333020202020302E303030302043202020302020302020302020302020302020302020302020302020302020302020302020300A2020202D302E363533372020202D312E3338383020202020302E303030302043202020302020302020302020302020302020302020302020302020302020302020302020300A2020202D312E333638322020202D312E3830303520202020302E303030302043202020302020302020302020302020302020302020302020302020302020302020302020300A2020202D302E373834382020202D322E3338333920202020302E303030302043202020302020302020302020302020302020302020302020302020302020302020302020300A2020202D332E323039362020202D332E3334303020202020302E30303030204F202020302020302020302020302020302020302020302020302020302020302020302020300A2020202D312E333638322020202D332E3435303520202020302E303030302048202020302020302020302020302020302020302020302020302020302020302020302020300A2020202D312E333638322020202D302E3937353520202020302E303030302048202020302020302020302020302020302020302020302020302020302020302020302020300A20202020302E373735322020202D322E3231333020202020302E303030302048202020302020302020302020302020302020302020302020302020302020302020302020300A2020202D332E363232312020202D322E3632353520202020302E303030302048202020302020302020302020302020302020302020302020302020302020302020302020300A20202020322E333536382020202D302E3039343620202020302E303030302048202020302020302020302020302020302020302020302020302020302020302020302020300A2020312020322020312020302020202020200A2020322020332020312020302020202020200A2020312020342020312020302020202020200A2020342020352020312020302020202020200A2020352020362020312020302020202020200A2020362020372020312020302020202020200A2020372020382020322020302020202020200A2020382020392020312020302020202020200A2020392031302020312020302020202020200A2031302031312020312020302020202020200A2031312031322020312020302020202020200A2031322031332020312020302020202020200A2031332031342020312020302020202020200A2031342031352020312020302020202020200A2031352031362020312020302020202020200A2031362031372020312020312020202020200A2031372031382020312020302020202020200A2031362031392020312020302020202020200A2031392032302020312020302020202020200A2031392032312020312020302020202020200A2031332032322020312020302020202020200A2031322032332020312020302020202020200A2020392032332020312020302020202020200A2032332032342020312020312020202020200A2032332032352020312020302020202020200A2032352032362020312020302020202020200A2032362032372020312020302020202020200A2020382032372020312020302020202020200A2032372032382020312020302020202020200A2020332032382020312020302020202020200A2020352032382020312020302020202020200A2032382032392020312020312020202020200A2020312033302020312020312020202020200A2020352033312020312020362020202020200A2032372033322020312020362020202020200A2020392033332020312020362020202020200A2020312033342020312020362020202020200A2031322033352020312020362020202020200A4D2020454E44
Contributor: NARA WOMEN'S UNIVERSITY
InstType: EI
InstName: HITACHI M-80
IoniMethod: _ENERGY 70 eV
IonPolarity: pos
Date: 2010-10-09 19:48:36+02:00
Num Peaks: 93
29 14 41 38 43 100 55 51 56 46 67 21 69 44 70 10 71 26 79 27 
81 47 82 15 83 29 84 13 85 28 91 33 93 32 94 21 95 51 96 13 
97 25 105 42 106 15 107 65 108 17 109 29 110 11 111 19 117 15 119 40 
120 20 121 34 122 17 123 23 124 11 129 10 131 24 133 40 134 28 135 43 
136 16 137 16 143 11 145 30 146 11 147 47 148 14 149 20 151 13 157 12 
159 26 160 11 161 41 163 12 171 11 173 18 175 10 178 15 185 10 187 12 
199 11 201 16 213 49 214 12 215 13 218 18 219 12 228 13 229 62 230 14 
231 70 232 31 233 12 246 44 247 24 255 299 256 67 257 21 271 12 272 19 
273 123 274 30 275 14 381 13 396 12 399 160 400 50 401 9 412 13 413 9 
414 999 415 320 416 54 
