Name: 4-METHYL-2-PROPYLTHIAZOLE
MW: 141
Formula: C7H11NS
Synonym: MassBank: JP007796
Synonym: 4-METHYL-2-PROPYLTHIAZOLE
Structure: 310A32330A342D4D455448594C2D322D50524F50594C544849415A4F4C452E6D6F6C0A20204368656D447261773034323131303032303232440A2020392020392020302020302020302020302020302020302020302020303939392056323030300A2020202D302E3039343820202020302E3533303720202020302E303030302053202020302020302020302020302020302020302020302020302020302020302020302020300A2020202D302E303038362020202D302E3238393820202020302E303030302043202020302020302020302020302020302020302020302020302020302020302020302020300A2020202D302E373632332020202D302E3632353320202020302E30303030204E202020302020302020302020302020302020302020302020302020302020302020302020300A2020202D312E333134332020202D302E3031323220202020302E303030302043202020302020302020302020302020302020302020302020302020302020302020302020300A2020202D302E3930313820202020302E3730323320202020302E303030302043202020302020302020302020302020302020302020302020302020302020302020302020300A20202020302E373035392020202D302E3730323320202020302E303030302043202020302020302020302020302020302020302020302020302020302020302020302020300A20202020312E343230332020202D302E3238393820202020302E303030302043202020302020302020302020302020302020302020302020302020302020302020302020300A20202020322E313334382020202D302E3730323320202020302E303030302043202020302020302020302020302020302020302020302020302020302020302020302020300A2020202D322E313334382020202D302E3039383520202020302E303030302043202020302020302020302020302020302020302020302020302020302020302020302020300A2020312020322020312020302020202020200A2020322020332020322020302020202020200A2020332020342020312020302020202020200A2020342020352020322020302020202020200A2020312020352020312020302020202020200A2020362020372020312020302020202020200A2020372020382020312020302020202020200A2020322020362020312020302020202020200A2020342020392020312020302020202020200A4D2020454E44
Contributor: HASHIMOTO K, KYOTO COLLEGE OF PHARMACY
InstType: EI
InstName: HITACHI M-80
IoniMethod: _ENERGY 20 eV
IonPolarity: pos
Date: 2010-10-09 19:48:36+02:00
Num Peaks: 19
26 198 27 19 39 96 40 489 41 364 42 401 52 10 53 39 54 37 66 73 
67 999 68 161 80 18 81 25 93 84 107 40 108 718 109 192 141 10 
