Name: PARA-CHLOROPHENOL
MW: 128
Formula: C6H5ClO
Synonym: MassBank: JP008336
Synonym: PARA-CHLOROPHENOL
Structure: 310A32310A504152412D43484C4F524F5048454E4F4C2E6D6F6C0A20204368656D447261773038313231303034313832440A2020382020382020302020302020302020302020302020302020302020303939392056323030300A2020202D302E383235302020202D302E3030303020202020302E303030302043202020302020302020302020302020302020302020302020302020302020302020302020300A2020202D302E3431323520202020302E3731343520202020302E303030302043202020302020302020302020302020302020302020302020302020302020302020302020300A20202020302E3431323520202020302E3731343520202020302E303030302043202020302020302020302020302020302020302020302020302020302020302020302020300A20202020302E383235302020202D302E3030303020202020302E303030302043202020302020302020302020302020302020302020302020302020302020302020302020300A20202020302E343132352020202D302E3731343520202020302E303030302043202020302020302020302020302020302020302020302020302020302020302020302020300A2020202D302E343132352020202D302E3731343520202020302E303030302043202020302020302020302020302020302020302020302020302020302020302020302020300A20202020312E363530302020202D302E3030303020202020302E3030303020436C2020302020302020302020302020302020302020302020302020302020302020302020300A2020202D312E363530302020202D302E3030303020202020302E30303030204F202020302020302020302020302020302020302020302020302020302020302020302020300A2020312020322020312020302020202020200A2020322020332020322020302020202020200A2020332020342020312020302020202020200A2020342020352020322020302020202020200A2020352020362020312020302020202020200A2020312020362020322020302020202020200A2020342020372020312020302020202020200A2020312020382020312020302020202020200A4D2020454E44
Contributor: UBE SCIENTIFIC ANALYSIS LABORATORY
InstType: EI
InstName: HITACHI M-60
IoniMethod: _ENERGY 70 eV
IonPolarity: pos
Date: 2010-10-09 19:48:36+02:00
Num Peaks: 77
14 6 17 7 18 22 26 13 27 16 29 16 31 22 32 23 36 9 37 60 
38 77 39 155 40 12 41 4 42 10 43 5 45 2 46 44 47 7 49 25 
50 53 51 26 52 7 53 48 55 20 57 4 60 12 61 48 62 66 63 124 
64 174 65 331 66 35 67 6 68 6 72 14 73 76 74 31 75 47 76 5 
77 7 79 3 80 3 82 4 84 6 85 4 86 3 87 3 89 6 91 7 
92 28 93 42 94 5 97 4 99 61 100 103 101 30 102 42 103 1 104 2 
105 3 108 3 109 2 110 8 113 3 115 2 117 1 119 2 127 15 128 999 
129 73 130 342 131 23 133 2 141 1 168 1 175 2 
