Name: MassBank: JP003047
MW: 140
Formula: C5H10Cl2
Synonym: MassBank: JP003047
Synonym: 2,2-DICHLOROPENTANE
Structure: 310A31380A322C322D444943484C4F524F50454E54414E452E6D6F6C0A20204368656D447261773132323030393036333232440A2020372020362020302020302020302020302020302020302020302020303939392056323030300A20202020312E3432383920202020302E3431323520202020302E303030302043202020302020302020302020302020302020302020302020302020302020302020302020300A20202020302E373134352020202D302E3030303020202020302E303030302043202020302020302020302020302020302020302020302020302020302020302020302020300A2020202D302E303030302020202D302E3431323520202020302E303030302043202020302020302020302020302020302020302020302020302020302020302020302020300A2020202D302E373134352020202D302E3030303020202020302E303030302043202020302020302020302020302020302020302020302020302020302020302020302020300A2020202D312E343238392020202D302E3431323520202020302E303030302043202020302020302020302020302020302020302020302020302020302020302020302020300A20202020302E3330323020202020302E3731343520202020302E3030303020436C2020302020302020302020302020302020302020302020302020302020302020302020300A20202020312E313237302020202D302E3731343520202020302E3030303020436C2020302020302020302020302020302020302020302020302020302020302020302020300A2020312020322020312020302020202020200A2020322020332020312020302020202020200A2020332020342020312020302020202020200A2020342020352020312020302020202020200A2020322020362020312020312020202020200A2020322020372020312020312020202020200A4D2020454E44
Contributor: SASAKI S, TOYOHASHI UNIV. OF TECH.
InstType: EI
InstName: Unknown
IoniMethod: EI
IonPolarity: pos
Date: 2010-10-09 19:48:36+02:00
Num Peaks: 85
25 4 26 61 27 418 28 9 29 183 30 5 31 14 32 2 33 3 34 1 
35 13 36 5 37 29 38 62 39 331 40 7 41 753 42 117 43 866 44 3 
47 4 48 2 49 49 50 0 51 63 52 17 53 217 54 2 55 56 56 3 
57 5 58 1 59 2 60 8 61 67 62 3 63 160 64 10 65 54 66 1 
67 46 68 12 69 999 70 6 71 4 72 2 73 10 74 0 75 48 76 341 
77 33 78 11 79 6 83 10 84 2 85 1 86 3 87 5 88 2 89 1 
90 6 91 45 92 9 93 0 94 2 96 19 97 87 98 1 99 53 100 4 
101 9 102 0 103 9 104 115 105 272 106 5 107 87 108 4 109 2 110 0 
111 8 112 3 113 4 114 0 115 1 
