Name: 4-TERT-BUTYLCYCLOHEXYL ACETATE(EQUATORIAL-AXIAL)
MW: 198
Formula: C12H22O2
Synonym: MassBank: JP006616
Synonym: 4-TERT-BUTYLCYCLOHEXYL ACETATE(EQUATORIAL-AXIAL)
Structure: 342D544552542D425554594C4359434C4F484558594C20414345544154452845515541544F5249414C2D415849414C292E6D6F6C0A20204368656D447261773034323231303231323132440A2031362031362020302020302020302020302020302020302020302020303939392056323030300A20202020312E3338353420202020302E3938373420202020302E303030302043202020302020302020302020302020302020302020302020302020302020302020302020300A20202020322E3031373320202020312E3531373720202020302E303030302043202020302020302020302020302020302020302020302020302020302020302020302020300A20202020302E3631303120202020312E3236393520202020302E30303030204F202020302020302020302020302020302020302020302020302020302020302020302020300A20202020312E3532383620202020302E3137343920202020302E30303030204F202020302020302020302020302020302020302020302020302020302020302020302020300A20202020302E383936362020202D302E3335353420202020302E303030302043202020302020302020302020302020302020302020302020302020302020302020302020300A20202020302E343834312020202D312E3036393920202020302E303030302043202020302020302020302020302020302020302020302020302020302020302020302020300A2020202D302E333430392020202D312E3036393920202020302E303030302043202020302020302020302020302020302020302020302020302020302020302020302020300A2020202D302E373533342020202D302E3335353420202020302E303030302043202020302020302020302020302020302020302020302020302020302020302020302020300A2020202D302E3334303920202020302E3335393120202020302E303030302043202020302020302020302020302020302020302020302020302020302020302020302020300A20202020302E3438343120202020302E3335393120202020302E303030302043202020302020302020302020302020302020302020302020302020302020302020302020300A2020202D312E333835342020202D302E3838353720202020302E303030302043202020302020302020302020302020302020302020302020302020302020302020302020300A2020202D302E383535312020202D312E3531373720202020302E303030302043202020302020302020302020302020302020302020302020302020302020302020302020300A2020202D322E303137332020202D312E3431363020202020302E303030302043202020302020302020302020302020302020302020302020302020302020302020302020300A2020202D312E393135372020202D302E3235333720202020302E303030302043202020302020302020302020302020302020302020302020302020302020302020302020300A20202020312E353238362020202D302E3838353720202020302E303030302048202020302020302020302020302020302020302020302020302020302020302020302020300A2020202D312E3338353420202020302E3137343920202020302E303030302048202020302020302020302020302020302020302020302020302020302020302020302020300A2020312020322020312020302020202020200A2020312020332020322020302020202020200A2020312020342020312020302020202020200A2020352020362020312020302020202020200A2020362020372020312020302020202020200A2020372020382020312020302020202020200A2020382020392020312020302020202020200A2020392031302020312020302020202020200A2020352031302020312020302020202020200A2031312031322020312020302020202020200A2031312031342020312020302020202020200A2031312031332020312020302020202020200A2020382031312020312020312020202020200A2020352020342020312020362020202020200A2020352031352020312020312020202020200A2020382031362020312020362020202020200A4D2020454E44
Contributor: HISAHIRO HAGIWARA, CHEMICAL RESEARCH INSTITUTE OF NON-AQUEOUSSOLUTIONS TOHOKU UNIV.
InstType: EI
InstName: HITACHI RMU-6M
IoniMethod: _ENERGY 20 eV
IonPolarity: pos
Date: 2010-10-09 19:48:36+02:00
Num Peaks: 30
29 10 41 30 43 109 54 4 55 34 56 334 57 999 58 5 61 338 67 317 
68 25 69 3 70 18 80 512 81 251 82 65 83 295 84 27 95 39 96 3 
99 21 109 13 110 19 117 3 123 178 124 31 138 235 139 4 142 32 143 58 
