Name: 2-NORBORNANEACETIC ACID
MW: 154
Formula: C9H14O2
Synonym: MassBank: JP002597
Synonym: 2-NORBORNANEACETIC ACID
Synonym: BICYCLO(2.2.1)HEPT-2-YLACETIC ACID
Structure: 322D4E4F52424F524E414E4541434554494320414349442E6D6F6C0A20204368656D447261773032323131303132303832440A2031312031322020302020302020302020302020302020302020302020303939392056323030300A2020202D302E333537322020202D302E3631383820202020302E303030302043202020302020302020302020302020302020302020302020302020302020302020302020300A2020202D302E333537322020202D312E3434333820202020302E303030302043202020302020302020302020302020302020302020302020302020302020302020302020300A20202020302E333537322020202D312E3835363320202020302E303030302043202020302020302020302020302020302020302020302020302020302020302020302020300A20202020312E303731372020202D312E3434333820202020302E303030302043202020302020302020302020302020302020302020302020302020302020302020302020300A20202020312E303731372020202D302E3631383820202020302E303030302043202020302020302020302020302020302020302020302020302020302020302020302020300A20202020302E333537322020202D302E3230363220202020302E303030302043202020302020302020302020302020302020302020302020302020302020302020302020300A20202020302E323236312020202D302E3836303420202020302E303030302043202020302020302020302020302020302020302020302020302020302020302020302020300A20202020302E3335373220202020302E3631383820202020302E303030302043202020302020302020302020302020302020302020302020302020302020302020302020300A2020202D302E3335373220202020312E3033313320202020302E303030302043202020302020302020302020302020302020302020302020302020302020302020302020300A2020202D302E3335373220202020312E3835363320202020302E30303030204F202020302020302020302020302020302020302020302020302020302020302020302020300A2020202D312E3037313720202020302E3631383820202020302E30303030204F202020302020302020302020302020302020302020302020302020302020302020302020300A2020312020322020312020302020202020200A2020322020332020312020302020202020200A2020332020342020312020302020202020200A2020342020352020312020302020202020200A2020352020362020312020302020202020200A2020362020312020312020302020202020200A2020322020372020312020302020202020200A2020372020352020312020302020202020200A2020362020382020312020302020202020200A2020382020392020312020302020202020200A2020392031302020322020302020202020200A2020392031312020312020302020202020200A4D2020454E44
Contributor: YAMAMOTO M, DEP. CHEMISTRY, FAC. SCIENCE, NARA WOMEN'S UNIV.
InstType: EI
InstName: HITACHI M-80
IoniMethod: _ENERGY 20 eV
IonPolarity: pos
Date: 2010-10-09 19:48:36+02:00
Num Peaks: 32
43 11 54 90 55 61 60 29 66 161 67 661 68 422 69 40 71 60 79 151 
80 61 81 61 82 71 83 40 84 50 85 943 87 271 92 81 93 71 94 999 
95 593 96 40 108 230 109 61 112 50 113 30 125 152 126 110 136 412 137 40 
154 360 155 41 
