Name: METHACRYLIC ACID ETHYL ESTER
MW: 114
Formula: C6H10O2
Synonym: MassBank: JP001679
Synonym: METHACRYLIC ACID ETHYL ESTER
Synonym: ETHYL METHACRYLATE
Structure: 310A32300A4D455448414352594C4943204143494420455448594C2045535445522E6D6F6C0A20204368656D447261773038313131303232353832440A2020382020372020302020302020302020302020302020302020302020303939392056323030300A20202020302E3335373220202020302E3230363220202020302E303030302043202020302020302020302020302020302020302020302020302020302020302020302020300A20202020312E303731372020202D302E3230363320202020302E303030302043202020302020302020302020302020302020302020302020302020302020302020302020300A20202020312E303731372020202D312E3033313320202020302E303030302043202020302020302020302020302020302020302020302020302020302020302020302020300A20202020312E3738363220202020302E3230363220202020302E303030302043202020302020302020302020302020302020302020302020302020302020302020302020300A20202020302E3335373220202020312E3033313320202020302E30303030204F202020302020302020302020302020302020302020302020302020302020302020302020300A2020202D302E333537322020202D302E3230363320202020302E30303030204F202020302020302020302020302020302020302020302020302020302020302020302020300A2020202D312E3037313720202020302E3230363220202020302E303030302043202020302020302020302020302020302020302020302020302020302020302020302020300A2020202D312E373836322020202D302E3230363320202020302E303030302043202020302020302020302020302020302020302020302020302020302020302020302020300A2020312020322020312020302020202020200A2020322020332020312020302020202020200A2020322020342020322020302020202020200A2020312020352020322020302020202020200A2020312020362020312020302020202020200A2020372020382020312020302020202020200A2020362020372020312020302020202020200A4D2020454E44
Contributor: TAJIMA S, GUNMA COLLEGE OF TECHNOLOGY
InstType: EI
InstName: HITACHI RMU-7M
IoniMethod: _ENERGY 70 eV
IonPolarity: pos
Date: 2010-10-09 19:48:36+02:00
Num Peaks: 26
15 31 26 28 27 123 28 37 29 332 38 31 39 297 40 86 41 918 42 84 
43 37 45 96 55 29 58 28 68 52 69 999 70 84 71 25 85 16 86 175 
87 24 96 22 99 114 113 15 114 61 115 8 
