Name: MassBank: JP001614
CAS: 606-20-2
MW: 182
Formula: C7H6N2O4
Synonym: MassBank: JP001614
Synonym: 2-METHYL-1,3-DINITROBENZENE
Synonym: 2,6-DINITROTOLUENE
Structure: 322D4D455448594C2D312C332D44494E4954524F42454E5A454E452E6D6F6C0A20204368656D447261773132323130393034353032440A2031332031332020302020302020302020302020302020302020302020303939392056323030300A20202020302E3030303020202020302E3731343520202020302E303030302043202020302020302020302020302020302020302020302020302020302020302020302020300A20202020302E343132352020202D302E3030303020202020302E303030302043202020302020302020302020302020302020302020302020302020302020302020302020300A20202020302E303030302020202D302E3731343520202020302E303030302043202020302020302020302020302020302020302020302020302020302020302020302020300A2020202D302E383235302020202D302E3731343520202020302E303030302043202020302020302020302020302020302020302020302020302020302020302020302020300A2020202D312E3233373520202020302E3030303020202020302E303030302043202020302020302020302020302020302020302020302020302020302020302020302020300A2020202D302E3832353020202020302E3731343520202020302E303030302043202020302020302020302020302020302020302020302020302020302020302020302020300A20202020302E343132352020202D312E3432383920202020302E30303030204E202020302020332020302020302020302020302020302020302020302020302020302020300A20202020312E323337352020202D312E3432383920202020302E30303030204F202020302020302020302020302020302020302020302020302020302020302020302020300A20202020302E303030302020202D322E3134333420202020302E30303030204F202020302020352020302020302020302020302020302020302020302020302020302020300A20202020302E3431323520202020312E3432383920202020302E30303030204E202020302020332020302020302020302020302020302020302020302020302020302020300A20202020312E3233373520202020312E3432383920202020302E30303030204F202020302020302020302020302020302020302020302020302020302020302020302020300A20202020302E3030303020202020322E3134333420202020302E30303030204F202020302020352020302020302020302020302020302020302020302020302020302020300A20202020312E323337352020202D302E3030303020202020302E303030302043202020302020302020302020302020302020302020302020302020302020302020302020300A2020312020322020312020302020202020200A2020322020332020322020302020202020200A2020332020342020312020302020202020200A2020342020352020322020302020202020200A2020352020362020312020302020202020200A2020312020362020322020302020202020200A2020372020382020322020302020202020200A2020372020392020312020302020202020200A2020332020372020312020302020202020200A2031302031312020322020302020202020200A2031302031322020312020302020202020200A2020312031302020312020302020202020200A2020322031332020312020302020202020200A4D202043484720203420202037202020312020203920202D3120203130202020312020313220202D310A4D2020454E44
Contributor: KOGA M, UNIV. OF OCCUPATIONAL AND ENVIRONMENTAL HEALTH
InstType: EI
InstName: VARIAN MAT-44
IoniMethod: _ENERGY 70 eV
IonPolarity: pos
Date: 2010-10-09 19:48:36+02:00
Num Peaks: 56
40 113 41 34 42 47 43 460 44 21 45 13 46 204 49 46 50 403 51 722 
52 425 53 143 54 25 55 20 60 17 61 99 62 328 63 999 64 419 65 105 
66 70 67 16 73 17 74 111 75 224 76 141 77 340 78 277 79 94 80 24 
85 16 86 41 87 39 88 30 89 476 90 317 91 174 92 39 93 13 104 44 
105 25 106 31 107 39 108 53 117 11 118 24 119 31 121 101 134 25 135 66 
148 83 164 22 165 343 166 33 182 9 183 1 
