Name: CHLORANIL
MW: 243
Formula: C6Cl4O2
Synonym: MassBank: JP009706
Synonym: CHLORANIL
Synonym: 2,3,5,6-TETRACHLORO-1,4-BENZOQUINONE
Structure: 43484C4F52414E494C2E6D6F6C0A20204368656D447261773132323030393037353832440A2031322031322020302020302020302020302020302020302020302020303939392056323030300A20202020302E303030302020202D302E3832353020202020302E303030302043202020302020302020302020302020302020302020302020302020302020302020302020300A2020202D302E373134352020202D302E3431323520202020302E303030302043202020302020302020302020302020302020302020302020302020302020302020302020300A2020202D302E3731343520202020302E3431323520202020302E303030302043202020302020302020302020302020302020302020302020302020302020302020302020300A20202020302E3030303020202020302E3832353020202020302E303030302043202020302020302020302020302020302020302020302020302020302020302020302020300A20202020302E3731343520202020302E3431323520202020302E303030302043202020302020302020302020302020302020302020302020302020302020302020302020300A20202020302E373134352020202D302E3431323520202020302E303030302043202020302020302020302020302020302020302020302020302020302020302020302020300A20202020302E3030303020202020312E3635303020202020302E30303030204F202020302020302020302020302020302020302020302020302020302020302020302020300A20202020302E303030302020202D312E3635303020202020302E30303030204F202020302020302020302020302020302020302020302020302020302020302020302020300A20202020312E343238392020202D302E3832353020202020302E3030303020436C2020302020302020302020302020302020302020302020302020302020302020302020300A20202020312E3432383920202020302E3832353020202020302E3030303020436C2020302020302020302020302020302020302020302020302020302020302020302020300A2020202D312E3432383920202020302E3832353020202020302E3030303020436C2020302020302020302020302020302020302020302020302020302020302020302020300A2020202D312E343238392020202D302E3832353020202020302E3030303020436C2020302020302020302020302020302020302020302020302020302020302020302020300A2020312020322020312020302020202020200A2020322020332020322020302020202020200A2020332020342020312020302020202020200A2020342020352020312020302020202020200A2020352020362020322020302020202020200A2020312020362020312020302020202020200A2020342020372020322020302020202020200A2020312020382020322020302020202020200A2020362020392020312020302020202020200A2020352031302020312020302020202020200A2020332031312020312020302020202020200A2020322031322020312020302020202020200A4D2020454E44
Contributor: HASHIMOTO K, KYOTO COLLEGE OF PHARMACY
InstType: EI
InstName: HITACHI M-80
IoniMethod: _ENERGY 20 eV
IonPolarity: pos
Date: 2010-10-09 19:48:36+02:00
Num Peaks: 58
28 29 36 20 63 15 84 55 87 863 88 33 89 286 94 141 96 68 118 131 
120 84 122 103 124 53 126 11 147 14 149 12 153 174 154 20 155 163 156 16 
157 68 175 14 181 251 182 26 183 244 184 24 185 74 186 10 187 10 188 294 
189 23 190 387 191 18 192 192 194 42 209 652 210 46 211 643 212 57 213 208 
214 18 215 23 216 305 217 19 218 383 219 21 220 185 221 13 222 38 244 717 
245 53 246 999 247 65 248 548 249 39 250 139 251 12 252 17 
