Name: 2-CYCLODODECENOL
MW: 182
Formula: C12H22O
Synonym: MassBank: JP002406
Synonym: 2-CYCLODODECENOL
Structure: 322D4359434C4F444F444543454E4F4C2E6D6F6C0A20204368656D447261773031303331303132303832440A2031332031332020302020302020302020302020302020302020302020303939392056323030300A2020202D312E3731303320202020302E3038353420202020302E303030302043202020302020302020302020302020302020302020302020302020302020302020302020300A2020202D312E373130332020202D302E3733393620202020302E303030302043202020302020302020302020302020302020302020302020302020302020302020302020300A2020202D302E393935392020202D312E3135323120202020302E303030302043202020302020302020302020302020302020302020302020302020302020302020302020300A2020202D302E323831342020202D302E3733393620202020302E303030302043202020302020302020302020302020302020302020302020302020302020302020302020300A2020202D302E3238313420202020302E3038353420202020302E303030302043202020302020302020302020302020302020302020302020302020302020302020302020300A2020202D302E3939353920202020302E3439373920202020302E303030302043202020302020302020302020302020302020302020302020302020302020302020302020300A20202020302E333032302020202D312E3332323920202020302E303030302043202020302020302020302020302020302020302020302020302020302020302020302020300A20202020312E313237302020202D312E3332323920202020302E303030302043202020302020302020302020302020302020302020302020302020302020302020302020300A20202020312E373130332020202D302E3733393620202020302E303030302043202020302020302020302020302020302020302020302020302020302020302020302020300A20202020312E3731303320202020302E3038353420202020302E303030302043202020302020302020302020302020302020302020302020302020302020302020302020300A20202020312E3132373020202020302E3636383820202020302E303030302043202020302020302020302020302020302020302020302020302020302020302020302020300A20202020302E3330323020202020302E3636383820202020302E303030302043202020302020302020302020302020302020302020302020302020302020302020302020300A2020202D302E3939353920202020312E3332323920202020302E30303030204F202020302020302020302020302020302020302020302020302020302020302020302020300A2020312020322020312020302020202020200A2020322020332020312020302020202020200A2020332020342020312020302020202020200A2020352020362020312020302020202020200A2020362020312020312020302020202020200A2020342020372020312020302020202020200A2020372020382020312020302020202020200A2020382020392020312020302020202020200A2020392031302020312020302020202020200A2031302031312020312020302020202020200A2031312031322020312020302020202020200A2031322020352020322020302020202020200A2020362031332020312020302020202020200A4D2020454E44
Contributor: MASS SPECTROSCOPY SOC. OF JAPAN (MSSJ)
InstType: EI
InstName: JEOL JMS-D-3000
IoniMethod: _ENERGY 70 eV
IonPolarity: pos
Date: 2010-10-09 19:48:36+02:00
Num Peaks: 46
40 29 42 834 43 157 53 107 54 340 55 999 56 216 57 281 58 93 67 755 
68 466 69 419 70 209 71 165 72 25 77 64 78 26 79 336 80 334 81 548 
82 591 83 380 84 105 85 56 91 45 93 198 94 169 95 294 96 323 97 281 
98 141 107 112 108 69 109 114 110 61 111 218 112 36 121 157 122 57 123 41 
125 41 135 86 136 44 139 23 164 105 182 24 
