Name: (1R)-(+)-ALPHA-PINENE
CAS: 7785-70-8
MW: 136
Formula: C10H16
Synonym: MassBank: JP005733
Synonym: (1R)-(+)-ALPHA-PINENE
Structure: 283152292D282B292D414C5048412D50494E454E452E6D6F6C0A20204368656D447261773130313930393132313232440A2031332031342020302020302020302020302020302020302020302020303939392056323030300A2020202D302E3731343420202020302E3431323520202020302E303030302043202020302020302020302020302020302020302020302020302020302020302020302020300A2020202D302E373134342020202D302E3431323520202020302E303030302043202020302020302020302020302020302020302020302020302020302020302020302020300A20202020302E303030312020202D302E3832353020202020302E303030302043202020302020302020302020302020302020302020302020302020302020302020302020300A20202020302E373134352020202D302E3431323520202020302E303030302043202020302020302020302020302020302020302020302020302020302020302020302020300A20202020302E3731343520202020302E3431323520202020302E303030302043202020302020302020302020302020302020302020302020302020302020302020302020300A20202020302E3030303120202020302E3832353020202020302E303030302043202020302020302020302020302020302020302020302020302020302020302020302020300A20202020312E3432393920202020302E3832353020202020302E303030302048202020302020302020302020302020302020302020302020302020302020302020302020300A2020202D312E3432353720202020302E3832353020202020302E303030302048202020302020302020302020302020302020302020302020302020302020302020302020300A20202020302E303030312020202D312E3635303020202020302E303030302048202020302020302020302020302020302020302020302020302020302020302020302020300A20202020302E3030303120202020302E3030303020202020302E303030302043202020302020302020302020302020302020302020302020302020302020302020302020300A2020202D302E373134392020202D312E3233373520202020302E303030302043202020302020302020302020302020302020302020302020302020302020302020302020300A20202020302E3030303120202020312E3635303020202020302E303030302043202020302020302020302020302020302020302020302020302020302020302020302020300A2020202D312E343239392020202D302E3832353020202020302E303030302043202020302020302020302020302020302020302020302020302020302020302020302020300A2020312020322020312020302020202020200A2020322020332020312020302020202020200A2020332020342020312020302020202020200A2020342020352020312020302020202020200A2020352020362020322020302020202020200A2020362020312020312020302020202020200A2020352020372020312020302020202020200A2020312020382020312020312020202020200A2020332020392020312020312020202020200A2020312031302020312020362020202020200A2020332031302020312020362020202020200A2020322031312020312020362020202020200A2020362031322020312020302020202020200A2020322031332020312020312020202020200A4D202053545920203120202031205355500A4D2020534C4220203120202031202020310A4D202053414C20202031202031202031310A4D202053424C20202031202031202031320A4D2020534D5420202031204D650A4D2020534256202020312031322020202D362E3830363720202020342E393931330A4D202053545920203120202032205355500A4D2020534C4220203120202032202020320A4D202053414C20202032202031202031320A4D202053424C20202032202031202031330A4D2020534D5420202032204D650A4D2020534256202020322031332020202D362E3830363220202020362E363431330A4D202053545920203120202033205355500A4D2020534C4220203120202033202020330A4D202053414C20202033202031202031330A4D202053424C20202033202031202031340A4D2020534D5420202033204D650A4D2020534256202020332031342020202D372E3532313720202020352E343033370A4D2020454E44
Contributor: MASS SPECTROSCOPY SOC. OF JAPAN (MSSJ)
InstType: EI
InstName: HITACHI M-80
IoniMethod: _ENERGY 70 eV
IonPolarity: pos
Date: 2010-10-09 19:48:36+02:00
Num Peaks: 46
41 67 42 15 43 186 45 18 53 18 55 99 56 23 57 36 58 30 59 40 
67 120 68 90 69 119 70 42 71 28 77 83 78 19 79 192 80 117 81 80 
82 84 83 68 84 44 85 14 91 128 92 406 93 999 94 152 96 24 97 33 
98 16 105 50 106 17 107 82 108 33 109 125 110 21 111 10 119 42 120 8 
121 133 122 14 134 14 135 18 136 74 137 35 
