Name: 4-ETHYL-1-METHYL-2-PYRAZOLINE
MW: 112
Formula: C6H12N2
Synonym: MassBank: JP000898
Synonym: 4-ETHYL-1-METHYL-2-PYRAZOLINE
Structure: 310A32310A342D455448594C2D312D4D455448594C2D322D505952415A4F4C494E452E6D6F6C0A20204368656D447261773033323531303231353132440A2020382020382020302020302020302020302020302020302020302020303939392056323030300A2020202D302E3933323820202020302E3131353020202020302E30303030204E202020302020302020302020302020302020302020302020302020302020302020302020300A2020202D302E3434373920202020302E3738323420202020302E30303030204E202020302020302020302020302020302020302020302020302020302020302020302020300A20202020302E3333363720202020302E3532373520202020302E303030302043202020302020302020302020302020302020302020302020302020302020302020302020300A20202020302E333336372020202D302E3239373520202020302E303030302043202020302020302020302020302020302020302020302020302020302020302020302020300A2020202D302E343437392020202D302E3535323420202020302E303030302043202020302020302020302020302020302020302020302020302020302020302020302020300A2020202D312E3735373820202020302E3131353020202020302E303030302043202020302020302020302020302020302020302020302020302020302020302020302020300A20202020312E303034322020202D302E3738323420202020302E303030302043202020302020302020302020302020302020302020302020302020302020302020302020300A20202020312E373537382020202D302E3434363920202020302E303030302043202020302020302020302020302020302020302020302020302020302020302020302020300A2020312020322020312020302020202020200A2020322020332020322020302020202020200A2020332020342020312020302020202020200A2020342020352020312020302020202020200A2020312020352020312020302020202020200A2020312020362020312020302020202020200A2020372020382020312020302020202020200A2020342020372020312020302020202020200A4D2020454E44
Contributor: SASAKI S, TOYOHASHI UNIV. OF TECH.
InstType: EI
InstName: SHIMADZU LKB-2091
IoniMethod: _ENERGY 70 eV
IonPolarity: pos
Date: 2010-10-09 19:48:36+02:00
Num Peaks: 34
26 13 27 80 28 178 29 6 30 26 38 10 39 72 40 2 41 93 42 470 
43 103 44 3 51 6 52 8 53 12 54 2 55 25 56 215 57 16 66 1 
67 7 68 24 69 11 70 1 81 16 82 21 83 999 84 6 95 13 96 6 
97 12 111 3 112 286 113 26 
