Name: 3-METHYL-2-PROPYLCYCLOPENT-2-EN-1-ONE
MW: 138
Formula: C9H14O
Synonym: MassBank: JP001127
Synonym: 3-METHYL-2-PROPYLCYCLOPENT-2-EN-1-ONE
Structure: 332D4D455448594C2D322D50524F50594C4359434C4F50454E542D322D454E2D312D4F4E452E6D6F6C0A20204368656D447261773033323031303030323332440A2031302031302020302020302020302020302020302020302020302020303939392056323030300A20202020302E3838313420202020302E3636373420202020302E303030302043202020302020302020302020302020302020302020302020302020302020302020302020300A20202020302E3339363520202020302E3030303020202020302E303030302043202020302020302020302020302020302020302020302020302020302020302020302020300A20202020302E383831342020202D302E3636373420202020302E303030302043202020302020302020302020302020302020302020302020302020302020302020302020300A20202020312E363636302020202D302E3431323520202020302E303030302043202020302020302020302020302020302020302020302020302020302020302020302020300A20202020312E3636363020202020302E3431323520202020302E303030302043202020302020302020302020302020302020302020302020302020302020302020302020300A20202020302E3632363520202020312E3435323120202020302E30303030204F202020302020302020302020302020302020302020302020302020302020302020302020300A2020202D302E3432383520202020302E3030303020202020302E303030302043202020302020302020302020302020302020302020302020302020302020302020302020300A2020202D302E3834313020202020302E3731343520202020302E303030302043202020302020302020302020302020302020302020302020302020302020302020302020300A2020202D312E3636363020202020302E3731343520202020302E303030302043202020302020302020302020302020302020302020302020302020302020302020302020300A20202020302E363236352020202D312E3435323120202020302E303030302043202020302020302020302020302020302020302020302020302020302020302020302020300A2020312020322020312020302020202020200A2020322020332020322020302020202020200A2020332020342020312020302020202020200A2020342020352020312020302020202020200A2020312020352020312020302020202020200A2020312020362020322020302020202020200A2020372020382020312020302020202020200A2020382020392020312020302020202020200A2020322020372020312020302020202020200A2020332031302020312020302020202020200A4D2020454E44
Contributor: NAKAYAMA M, MASS SPECTROSCOPY SOC. OF JAPAN (MSSJ)
InstType: EI
InstName: HITACHI RMU-7L
IoniMethod: _ENERGY 80 eV
IonPolarity: pos
Date: 2010-10-09 19:48:36+02:00
Num Peaks: 70
26 110 27 999 28 570 29 300 30 30 31 30 32 140 37 50 38 110 39 940 
40 200 41 880 42 100 43 120 44 20 45 20 49 20 50 160 51 390 52 280 
53 610 54 120 55 250 56 40 57 30 61 30 62 60 63 130 64 50 65 260 
66 160 67 350 68 90 69 50 70 20 71 30 74 40 75 40 76 30 77 250 
78 90 79 360 80 90 81 340 82 170 83 30 89 30 90 30 91 90 92 40 
93 60 94 40 95 200 96 60 97 30 99 20 102 20 103 30 105 40 107 40 
108 40 109 90 110 310 111 50 123 180 124 40 137 30 138 100 139 60 140 20 
