Name: L-MENTHOL
MW: 156
Formula: C10H20O
Synonym: MassBank: JP002472
Synonym: L-MENTHOL
Structure: 303432335F4C2D4D454E54484F4C2E6D6F6C0A20204368656D447261773039303631303136353032440A2031312031312020302020302020302020302020302020302020302020303939392056323030300A2020202D302E3335373220202020302E3832353020202020302E303030302043202020302020302020302020302020302020302020302020302020302020302020302020300A2020202D302E3335373220202020302E3030303020202020302E303030302043202020302020302020302020302020302020302020302020302020302020302020302020300A20202020302E333537332020202D302E3431323520202020302E303030302043202020302020302020302020302020302020302020302020302020302020302020302020300A20202020312E3037313720202020302E3030303020202020302E303030302043202020302020302020302020302020302020302020302020302020302020302020302020300A20202020312E3037313720202020302E3832353020202020302E303030302043202020302020302020302020302020302020302020302020302020302020302020302020300A20202020302E3335373320202020312E3233373520202020302E303030302043202020302020302020302020302020302020302020302020302020302020302020302020300A20202020312E3738363220202020312E3233373520202020302E303030302043202020302020302020302020302020302020302020302020302020302020302020302020300A2020202D312E303731372020202D302E3431323520202020302E303030302043202020302020302020302020302020302020302020302020302020302020302020302020300A2020202D312E303731382020202D312E3233373520202020302E303030302043202020302020302020302020302020302020302020302020302020302020302020302020300A2020202D312E373836322020202D302E3030303120202020302E303030302043202020302020302020302020302020302020302020302020302020302020302020302020300A2020202D312E3037313720202020312E3233373520202020302E30303030204F202020302020302020302020302020302020302020302020302020302020302020302020300A2020312020322020312020302020202020200A2020322020332020312020302020202020200A2020332020342020312020302020202020200A2020342020352020312020302020202020200A2020352020362020312020302020202020200A2020312020362020312020302020202020200A2020352020372020312020362020202020200A2020382020392020312020302020202020200A2020382031302020312020302020202020200A2020322020382020312020312020202020200A2020312031312020312020362020202020200A4D2020454E44
Contributor: MASS SPECTROSCOPY SOC. OF JAPAN (MSSJ)
InstType: EI
InstName: JEOL JMS-D-3000
IoniMethod: _ENERGY 70 eV
IonPolarity: pos
Date: 2010-10-09 19:48:36+02:00
Num Peaks: 46
40 182 42 61 43 222 44 19 45 19 51 11 53 65 54 42 55 371 56 191 
57 205 58 28 59 17 65 13 67 232 68 130 69 317 70 113 71 999 72 56 
73 14 77 19 79 29 80 87 81 705 82 374 83 140 84 32 85 90 86 41 
93 24 94 43 95 703 96 288 97 50 99 44 109 115 110 65 111 17 112 18 
113 17 123 313 124 33 138 220 139 29 156 1 
