Name: VITAMIN K1
CAS: 84-80-0
MW: 450
Formula: C31H46O2
Synonym: MassBank: JP006239
Synonym: VITAMIN K1
Synonym: PHYLLOQUINONE
Structure: 303030395F5048594C4C4F5155494E4F4E452E6D6F6C0A20204368656D447261773038313931303232313732440A2033352033362020302020302020302020302020302020302020302020303939392056323030300A2020202D362E3336323120202020302E3134383720202020302E303030302043202020302020302020302020302020302020302020302020302020302020302020302020300A2020202D362E333632312020202D302E3637363320202020302E303030302043202020302020302020302020302020302020302020302020302020302020302020302020300A2020202D352E363437372020202D312E3038383820202020302E303030302043202020302020302020302020302020302020302020302020302020302020302020302020300A2020202D342E393333322020202D302E3637363320202020302E303030302043202020302020302020302020302020302020302020302020302020302020302020302020300A2020202D342E3933333220202020302E3134383720202020302E303030302043202020302020302020302020302020302020302020302020302020302020302020302020300A2020202D352E3634373720202020302E3536313220202020302E303030302043202020302020302020302020302020302020302020302020302020302020302020302020300A2020202D342E323138372020202D312E3038383820202020302E303030302043202020302020302020302020302020302020302020302020302020302020302020302020300A2020202D332E353034322020202D302E3637363320202020302E303030302043202020302020302020302020302020302020302020302020302020302020302020302020300A2020202D332E3530343220202020302E3134383720202020302E303030302043202020302020302020302020302020302020302020302020302020302020302020302020300A2020202D342E3231383720202020302E3536313220202020302E303030302043202020302020302020302020302020302020302020302020302020302020302020302020300A2020202D342E3231383720202020312E3338363220202020302E30303030204F202020302020302020302020302020302020302020302020302020302020302020302020300A2020202D342E323138372020202D312E3931333820202020302E30303030204F202020302020302020302020302020302020302020302020302020302020302020302020300A2020202D322E3738393820202020302E3536313220202020302E303030302043202020302020302020302020302020302020302020302020302020302020302020302020300A2020202D322E373839382020202D312E3038383820202020302E303030302043202020302020302020302020302020302020302020302020302020302020302020302020300A2020202D322E303735332020202D302E3637363320202020302E303030302043202020302020302020302020302020302020302020302020302020302020302020302020300A2020202D312E333630382020202D312E3038383820202020302E303030302043202020302020302020302020302020302020302020302020302020302020302020302020300A2020202D302E363436342020202D302E3637363320202020302E303030302043202020302020302020302020302020302020302020302020302020302020302020302020300A2020202D312E333630382020202D312E3931333820202020302E303030302043202020302020302020302020302020302020302020302020302020302020302020302020300A2020202D302E3634363420202020302E3134383720202020302E303030302043202020302020302020302020302020302020302020302020302020302020302020302020300A20202020302E3036383120202020302E3536313220202020302E303030302043202020302020302020302020302020302020302020302020302020302020302020302020300A20202020302E3738323620202020302E3134383720202020302E303030302043202020302020302020302020302020302020302020302020302020302020302020302020300A20202020302E303638312020202D302E3236333820202020302E303030302048202020302020302020302020302020302020302020302020302020302020302020302020300A20202020302E3939363120202020302E3934353620202020302E303030302043202020302020302020302020302020302020302020302020302020302020302020302020300A20202020312E343337312020202D302E3335333520202020302E303030302043202020302020302020302020302020302020302020302020302020302020302020302020300A20202020322E313939332020202D302E3033373820202020302E303030302043202020302020302020302020302020302020302020302020302020302020302020302020300A20202020322E3330373020202020302E3738303120202020302E303030302043202020302020302020302020302020302020302020302020302020302020302020302020300A20202020332E3036393220202020312E3039353820202020302E303030302043202020302020302020302020302020302020302020302020302020302020302020302020300A20202020332E3137363920202020312E3931333820202020302E303030302043202020302020302020302020302020302020302020302020302020302020302020302020300A20202020332E3036393220202020302E3237303820202020302E303030302048202020302020302020302020302020302020302020302020302020302020302020302020300A20202020332E3839323420202020312E3034313920202020302E303030302043202020302020302020302020302020302020302020302020302020302020302020302020300A20202020342E3235373320202020302E3330323020202020302E303030302043202020302020302020302020302020302020302020302020302020302020302020302020300A20202020352E3038303520202020302E3234383020202020302E303030302043202020302020302020302020302020302020302020302020302020302020302020302020300A20202020352E3533383920202020302E3933343020202020302E303030302043202020302020302020302020302020302020302020302020302020302020302020302020300A20202020352E3137343020202020312E3637333920202020302E303030302043202020302020302020302020302020302020302020302020302020302020302020302020300A20202020362E3336323120202020302E3838303020202020302E303030302043202020302020302020302020302020302020302020302020302020302020302020302020300A2020312020322020322020302020202020200A2020322020332020312020302020202020200A2020332020342020322020302020202020200A2020342020352020312020302020202020200A2020352020362020322020302020202020200A2020362020312020312020302020202020200A2020342020372020312020302020202020200A2020372020382020312020302020202020200A2020382020392020322020302020202020200A2020392031302020312020302020202020200A2031302020352020312020302020202020200A2031302031312020322020302020202020200A2020372031322020322020302020202020200A2020392031332020312020302020202020200A2020382031342020312020302020202020200A2031342031352020312020302020202020200A2031352031362020322020302020202020200A2031362031372020312020302020202020200A2031362031382020312020302020202020200A2031372031392020312020302020202020200A2031392032302020312020302020202020200A2032302032312020312020302020202020200A2032312032322020312020312020202020200A2032312032332020312020312020202020200A2032312032342020312020302020202020200A2032342032352020312020302020202020200A2032352032362020312020302020202020200A2032362032372020312020302020202020200A2032372032382020312020312020202020200A2032372032392020312020312020202020200A2032372033302020312020302020202020200A2033302033312020312020302020202020200A2033312033322020312020302020202020200A2033322033332020312020302020202020200A2033332033342020312020302020202020200A2033332033352020312020302020202020200A4D2020454E44
Contributor: MASS SPECTROSCOPY SOC. OF JAPAN (MSSJ)
InstType: EI
InstName: HITACHI M-80
IoniMethod: _ENERGY 12 eV
IonPolarity: pos
Date: 2010-10-09 19:48:36+02:00
Num Peaks: 81
41 7 42 4 43 18 44 2 55 11 56 15 57 51 58 12 59 7 69 32 
70 12 71 38 81 14 82 8 83 26 84 7 85 21 94 5 95 16 96 6 
97 22 98 4 99 5 109 17 110 7 111 16 112 5 113 5 123 9 124 5 
125 8 126 6 137 5 141 5 158 7 173 5 174 13 186 203 187 112 188 22 
189 3 197 39 198 313 199 67 200 27 201 6 209 6 210 6 211 23 212 16 
213 9 214 15 215 3 216 6 222 5 223 8 224 14 225 295 226 146 227 50 
228 9 238 6 239 25 240 12 241 35 242 13 253 6 254 7 267 8 268 5 
432 4 433 5 434 5 435 25 436 11 448 27 449 18 450 999 451 345 452 72 
453 11 
