Name: PROPIONYL CHLORIDE
MW: 92
Formula: C3H5ClO
Synonym: MassBank: JP005879
Synonym: PROPIONYL CHLORIDE
Structure: 310A31340A50524F50494F4E594C2043484C4F524944452E6D6F6C0A20204368656D447261773038313231303036303732440A2020352020342020302020302020302020302020302020302020302020303939392056323030300A20202020302E333537322020202D302E3230363220202020302E303030302043202020302020302020302020302020302020302020302020302020302020302020302020300A20202020302E3335373220202020302E3631383820202020302E30303030204F202020302020302020302020302020302020302020302020302020302020302020302020300A2020202D302E333537322020202D302E3631383820202020302E303030302043202020302020302020302020302020302020302020302020302020302020302020302020300A2020202D312E303731372020202D302E3230363220202020302E303030302043202020302020302020302020302020302020302020302020302020302020302020302020300A20202020312E303731372020202D302E3631383820202020302E3030303020436C2020302020302020302020302020302020302020302020302020302020302020302020300A2020312020322020322020302020202020200A2020312020332020312020302020202020200A2020332020342020312020302020202020200A2020312020352020312020302020202020200A4D2020454E44
Contributor: YAMAMOTO M, DEP. CHEMISTRY, FAC. SCIENCE, NARA WOMEN'S UNIV.
InstType: EI
InstName: HITACHI RMU-6M
IoniMethod: _ENERGY 70 eV
IonPolarity: pos
Date: 2010-10-09 19:48:36+02:00
Num Peaks: 22
25 38 26 190 27 603 28 151 29 999 30 25 35 20 36 10 37 14 38 11 
39 13 41 10 42 38 44 21 49 17 53 11 55 20 56 18 57 802 58 28 
63 80 65 27 
