Name: 3-METHYLINDOLE
CAS: 83-34-1
MW: 131
Formula: C9H9N
Synonym: MassBank: JP007832
Synonym: 3-METHYLINDOLE
Structure: 332D4D455448594C494E444F4C452E6D6F6C0A20204368656D447261773033323031303137313832440A2031302031312020302020302020302020302020302020302020302020303939392056323030300A2020202D302E323534352020202D312E3032313020202020302E30303030204E202020302020302020302020302020302020302020302020302020302020302020302020300A2020202D312E303038322020202D302E3638353520202020302E303030302043202020302020302020302020302020302020302020302020302020302020302020302020300A2020202D302E3932313920202020302E3133353020202020302E303030302043202020302020302020302020302020302020302020302020302020302020302020302020300A2020202D302E3131353020202020302E3330363520202020302E303030302043202020302020302020302020302020302020302020302020302020302020302020302020300A20202020302E3239373520202020312E3032313020202020302E303030302043202020302020302020302020302020302020302020302020302020302020302020302020300A20202020312E3132323520202020312E3032313020202020302E303030302043202020302020302020302020302020302020302020302020302020302020302020302020300A20202020312E3533353020202020302E3330363520202020302E303030302043202020302020302020302020302020302020302020302020302020302020302020302020300A20202020312E313232352020202D302E3430373920202020302E303030302043202020302020302020302020302020302020302020302020302020302020302020302020300A20202020302E323937352020202D302E3430373920202020302E303030302043202020302020302020302020302020302020302020302020302020302020302020302020300A2020202D312E3533353020202020302E3638373120202020302E303030302043202020302020302020302020302020302020302020302020302020302020302020302020300A2020312020322020312020302020202020200A2020322020332020322020302020202020200A2020332020342020312020302020202020200A2020342020352020312020302020202020200A2020352020362020322020302020202020200A2020362020372020312020302020202020200A2020372020382020322020302020202020200A2020382020392020312020302020202020200A2020312020392020312020302020202020200A2020342020392020322020302020202020200A2020332031302020312020302020202020200A4D2020454E44
Contributor: HASHIMOTO K, KYOTO COLLEGE OF PHARMACY
InstType: EI
InstName: HITACHI M-80
IoniMethod: _ENERGY 20 eV
IonPolarity: pos
Date: 2010-10-09 19:48:36+02:00
Num Peaks: 14
27 43 28 57 38 29 39 58 50 65 51 116 65 105 65.5 65 76 40 77 174 
102 63 103 100 104 21 132 53 
