Name: PINANE (2-D1)
MW: 138
Formula: C10H18
Synonym: MassBank: JP007399
Synonym: PINANE (2-D1)
Synonym: 2,6,6-TRIMETHYLBICYCLO(3.1.1)HEPTANE (2-D1)
Structure: 50494E414E452028322D4431292E6D6F6C0A20204368656D447261773132323130393032343632440A2031312031322020302020302020302020302020302020302020302020303939392056323030300A20202020302E373337392020202D302E3137343620202020302E303030302043202020302020302020302020302020302020302020302020302020302020302020302020300A20202020312E343936322020202D302E3438313420202020302E303030302048202020312020302020302020302020302020302020302020302020302020302020302020300A20202020302E353435312020202D302E3934363920202020302E303030302043202020302020302020302020302020302020302020302020302020302020302020302020300A2020202D302E323336372020202D312E3132313920202020302E303030302043202020302020302020302020302020302020302020302020302020302020302020302020300A2020202D302E383133312020202D302E3534353420202020302E303030302043202020302020302020302020302020302020302020302020302020302020302020302020300A20202020302E303831342020202D302E3534353420202020302E303030302043202020302020302020302020302020302020302020302020302020302020302020302020300A2020202D302E3636333420202020302E3239373220202020302E303030302043202020302020302020302020302020302020302020302020302020302020302020302020300A2020202D312E3439363220202020302E3337303220202020302E303030302043202020302020302020302020302020302020302020302020302020302020302020302020300A2020202D302E3636333420202020312E3132313920202020302E303030302043202020302020302020302020302020302020302020302020302020302020302020302020300A20202020302E3134333820202020302E3239373220202020302E303030302043202020302020302020302020302020302020302020302020302020302020302020302020300A20202020312E3135303420202020302E3533393920202020302E303030302043202020302020302020302020302020302020302020302020302020302020302020302020300A2020312020322020312020302020202020200A2020312020332020312020302020202020200A2020332020342020312020302020202020200A2020342020352020312020302020202020200A2020352020362020312020302020202020200A2020352020372020312020302020202020200A2020372020382020312020362020202020200A2020372020392020312020312020202020200A2020372031302020312020302020202020200A2020362031302020312020302020202020200A2020312031302020312020302020202020200A2020312031312020312020302020202020200A4D202049534F20203120202032202020320A4D2020454E44
Contributor: YAMAMOTO M, DEP. CHEMISTRY, FAC. SCIENCE, NARA WOMEN'S UNIV.
InstType: EI
InstName: HITACHI RMU-6M
IoniMethod: _ENERGY 70 eV
IonPolarity: pos
Date: 2010-10-09 19:48:36+02:00
Num Peaks: 59
15 10 26 8 27 204 28 64 29 146 30 58 38 9 39 245 40 86 41 663 
42 197 43 129 44 39 50 11 51 43 52 30 53 130 54 89 55 610 56 412 
57 79 58 16 63 12 65 32 66 33 67 294 68 516 69 607 70 247 71 44 
77 52 78 36 79 61 80 99 81 312 82 831 83 684 84 504 85 61 91 26 
92 26 93 36 94 114 95 244 96 999 97 298 98 64 108 7 109 42 110 77 
111 39 122 6 123 16 124 269 125 29 137 10 138 5 139 146 140 16 
