Name: MassBank: JP000401
MW: 116
Formula: C6H16N2
Synonym: MassBank: JP000401
Synonym: 1,2-DIISOPROPYLHYDRAZINE
Structure: 310A32300A312C322D444949534F50524F50594C48594452415A494E452E6D6F6C0A20204368656D447261773131303530393133303132440A2020382020372020302020302020302020302020302020302020302020303939392056323030300A2020202D302E3335373220202020302E3230363320202020302E30303030204E202020302020302020302020302020302020302020302020302020302020302020302020300A20202020302E333537322020202D302E3230363320202020302E30303030204E202020302020302020302020302020302020302020302020302020302020302020302020300A20202020312E3037313720202020302E3230363320202020302E303030302043202020302020302020302020302020302020302020302020302020302020302020302020300A20202020312E3037313720202020312E3033313320202020302E303030302043202020302020302020302020302020302020302020302020302020302020302020302020300A20202020312E373836322020202D302E3230363220202020302E303030302043202020302020302020302020302020302020302020302020302020302020302020302020300A2020202D312E303731372020202D302E3230363320202020302E303030302043202020302020302020302020302020302020302020302020302020302020302020302020300A2020202D312E303731372020202D312E3033313320202020302E303030302043202020302020302020302020302020302020302020302020302020302020302020302020300A2020202D312E3738363220202020302E3230363220202020302E303030302043202020302020302020302020302020302020302020302020302020302020302020302020300A2020312020322020312020302020202020200A2020332020342020312020302020202020200A2020332020352020312020302020202020200A2020322020332020312020302020202020200A2020362020372020312020302020202020200A2020362020382020312020302020202020200A2020312020362020312020302020202020200A4D2020454E44
Contributor: SASAKI S, TOYOHASHI UNIV. OF TECH.
InstType: EI
InstName: SHIMADZU LKB-2091
IoniMethod: _ENERGY 70 eV
IonPolarity: pos
Date: 2010-10-09 19:48:36+02:00
Num Peaks: 28
27 175 28 56 29 46 30 15 31 999 32 107 39 73 40 2 41 252 42 179 
43 764 44 23 45 13 56 93 57 35 58 47 59 444 60 18 72 12 73 51 
74 38 85 12 99 11 101 64 102 48 115 14 116 640 117 75 
