Name: MassBank: JP004762
MW: 196
Formula: C11H16O3
Synonym: MassBank: JP004762
Synonym: 3,5,5-TRIMETHYL-6-METHOXYCARBONYL-2-CYCLOHEXENONE
Structure: 332C352C352D5452494D455448594C2D362D4D4554484F5859434152424F4E594C2D322D4359434C4F484558454E4F4E452E6D6F6C0A20204368656D447261773032323231303030323632440A2031342031342020302020302020302020302020302020302020302020303939392056323030300A20202020302E3335373220202020302E3539333920202020302E303030302043202020302020302020302020302020302020302020302020302020302020302020302020300A20202020312E3037313720202020302E3138313420202020302E303030302043202020302020302020302020302020302020302020302020302020302020302020302020300A20202020312E303731372020202D302E3634333620202020302E303030302043202020302020302020302020302020302020302020302020302020302020302020302020300A20202020302E333537322020202D312E3035363120202020302E303030302043202020302020302020302020302020302020302020302020302020302020302020302020300A2020202D302E333537322020202D302E3634333620202020302E303030302043202020302020302020302020302020302020302020302020302020302020302020302020300A2020202D302E3335373220202020302E3138313420202020302E303030302043202020302020302020302020302020302020302020302020302020302020302020302020300A2020202D312E3037313720202020302E3539333920202020302E303030302043202020302020302020302020302020302020302020302020302020302020302020302020300A2020202D312E3037313720202020312E3431383920202020302E30303030204F202020302020302020302020302020302020302020302020302020302020302020302020300A2020202D312E3738363220202020302E3138313420202020302E30303030204F202020302020302020302020302020302020302020302020302020302020302020302020300A2020202D312E373836322020202D302E3634333620202020302E303030302043202020302020302020302020302020302020302020302020302020302020302020302020300A2020202D302E363339342020202D312E3431383920202020302E303030302043202020302020302020302020302020302020302020302020302020302020302020302020300A2020202D312E313639372020202D302E3530303420202020302E303030302043202020302020302020302020302020302020302020302020302020302020302020302020300A20202020312E373836322020202D312E3035363120202020302E303030302043202020302020302020302020302020302020302020302020302020302020302020302020300A20202020302E3335373220202020312E3431383920202020302E30303030204F202020302020302020302020302020302020302020302020302020302020302020302020300A2020312020322020312020302020202020200A2020322020332020322020302020202020200A2020332020342020312020302020202020200A2020342020352020312020302020202020200A2020352020362020312020302020202020200A2020312020362020312020302020202020200A2020372020382020322020302020202020200A2020392031302020312020302020202020200A2020372020392020312020302020202020200A2020362020372020312020302020202020200A2020352031312020312020362020202020200A2020352031322020312020312020202020200A2020332031332020312020302020202020200A2020312031342020322020302020202020200A4D2020454E44
Contributor: MASS SPECTROSCOPY SOC. OF JAPAN (MSSJ)
InstType: EI
InstName: JEOL JMS-D-3000
IoniMethod: _ENERGY 70 eV
IonPolarity: pos
Date: 2010-10-09 19:48:36+02:00
Num Peaks: 27
41 23 44 54 51 16 53 55 54 123 55 26 59 21 67 14 77 25 79 22 
82 999 83 143 93 34 108 29 109 25 122 37 123 16 136 31 137 70 138 71 
149 173 150 19 164 63 165 50 181 49 196 140 197 17 
