Name: MassBank: JP002436
MW: 236
Formula: C16H28O
Synonym: MassBank: JP002436
Synonym: 4-METHOXY-4,7,7,11BETA-TETRAMETHYL-5BETA,8ALPHA-TRICYCLO(6.3.0.0(1,5))UNDECANE
Structure: 342D4D4554484F58592D342C372C372C3131424554412D54455452414D455448594C2D35424554412C38414C5048412D5452494359434C4F28362E332E302E3028312C352929554E444543414E452E6D6F6C0A20204368656D447261773034323031303137303332440A2031392032312020302020302020302020302020302020302020302020303939392056323030300A20202020302E3239343420202020302E3530363520202020302E303030302043202020302020302020302020302020302020302020302020302020302020302020302020300A20202020302E3936313920202020302E3032313620202020302E303030302043202020302020302020302020302020302020302020302020302020302020302020302020300A20202020302E373036392020202D302E3736333020202020302E303030302043202020302020302020302020302020302020302020302020302020302020302020302020300A2020202D302E313138312020202D302E3736333020202020302E303030302043202020302020302020302020302020302020302020302020302020302020302020302020300A2020202D302E3337333020202020302E3032313620202020302E303030302043202020302020302020302020302020302020302020302020302020302020302020302020300A2020202D312E3034303420202020302E3530363520202020302E303030302043202020302020302020302020302020302020302020302020302020302020302020302020300A2020202D302E3738353520202020312E3239313120202020302E303030302043202020302020302020302020302020302020302020302020302020302020302020302020300A20202020302E3033393520202020312E3239313120202020302E303030302043202020302020302020302020302020302020302020302020302020302020302020302020300A20202020302E3730363920202020312E3737363120202020302E303030302043202020302020302020302020302020302020302020302020302020302020302020302020300A20202020312E3337343420202020312E3239313120202020302E303030302043202020302020302020302020302020302020302020302020302020302020302020302020300A20202020312E3131393420202020302E3530363520202020302E303030302043202020302020302020302020302020302020302020302020302020302020302020302020300A20202020312E363034342020202D302E3136303920202020302E303030302043202020302020302020302020302020302020302020302020302020302020302020302020300A2020202D312E3630343420202020312E3339313720202020302E303030302043202020302020302020302020302020302020302020302020302020302020302020302020300A2020202D302E3834333120202020322E3131343120202020302E303030302043202020302020302020302020302020302020302020302020302020302020302020302020300A2020202D302E383833302020202D312E3037323120202020302E303030302043202020302020302020302020302020302020302020302020302020302020302020302020300A20202020302E303339342020202D312E3537323920202020302E30303030204F202020302020302020302020302020302020302020302020302020302020302020302020300A2020202D302E353833332020202D322E3131343120202020302E303030302043202020302020302020302020302020302020302020302020302020302020302020302020300A2020202D312E303430342020202D302E3436333320202020302E303030302048202020302020302020302020302020302020302020302020302020302020302020302020300A2020202D302E3231353420202020322E3037353820202020302E303030302048202020302020302020302020302020302020302020302020302020302020302020302020300A2020312020322020312020302020202020200A2020322020332020312020302020202020200A2020332020342020312020302020202020200A2020342020352020312020302020202020200A2020352020362020312020302020202020200A2020362020372020312020302020202020200A2020372020382020312020302020202020200A2020382020392020312020302020202020200A2020392031302020312020302020202020200A2031302031312020312020302020202020200A2020312031312020312020302020202020200A2020312020382020312020302020202020200A2020312020352020312020302020202020200A2031312031322020312020312020202020200A2020372031332020312020362020202020200A2020372031342020312020312020202020200A2020342031352020312020302020202020200A2031362031372020312020302020202020200A2020342031362020312020302020202020200A2020352031382020312020362020202020200A2020382031392020312020362020202020200A4D2020454E44
Contributor: ITO S, DEPT. OF CHEM., TOHOKU UNIV.
InstType: EI
InstName: HITACHI M-52
IoniMethod: _ENERGY 13.5 eV
IonPolarity: pos
Date: 2010-10-09 19:48:36+02:00
Num Peaks: 23
72 26 73 68 85 547 86 60 87 161 95 43 135 302 148 10 149 148 150 665 
151 162 162 5 176 26 177 58 178 30 188 4 204 999 205 123 215 31 221 15 
222 41 236 385 237 43 
