Name: 3-ETHYL-1-ISOPROPYL-2-PYRAZOLINE
MW: 140
Formula: C8H16N2
Synonym: MassBank: JP000407
Synonym: 3-ETHYL-1-ISOPROPYL-2-PYRAZOLINE
Structure: 332D455448594C2D312D49534F50524F50594C2D322D505952415A4F4C494E452E6D6F6C0A20204368656D447261773032323231303137343332440A2031302031302020302020302020302020302020302020302020302020303939392056323030300A20202020302E3732363620202020302E3039313520202020302E30303030204E202020302020302020302020302020302020302020302020302020302020302020302020300A20202020302E323431372020202D302E3537363020202020302E30303030204E202020302020302020302020302020302020302020302020302020302020302020302020300A2020202D302E353433302020202D302E3332313020202020302E303030302043202020302020302020302020302020302020302020302020302020302020302020302020300A2020202D302E3534333020202020302E3530343020202020302E303030302043202020302020302020302020302020302020302020302020302020302020302020302020300A20202020302E3234313720202020302E3735383920202020302E303030302043202020302020302020302020302020302020302020302020302020302020302020302020300A20202020312E3535313620202020302E3039313520202020302E303030302043202020302020302020302020302020302020302020302020302020302020302020302020300A20202020312E393634312020202D302E3632333020202020302E303030302043202020302020302020302020302020302020302020302020302020302020302020302020300A20202020312E3936343120202020302E3830353920202020302E303030302043202020302020302020302020302020302020302020302020302020302020302020302020300A2020202D312E323130342020202D302E3830353920202020302E303030302043202020302020302020302020302020302020302020302020302020302020302020302020300A2020202D312E393634312020202D302E3437303420202020302E303030302043202020302020302020302020302020302020302020302020302020302020302020302020300A2020312020322020312020302020202020200A2020322020332020322020302020202020200A2020332020342020312020302020202020200A2020342020352020312020302020202020200A2020312020352020312020302020202020200A2020362020372020312020302020202020200A2020362020382020312020302020202020200A2020312020362020312020302020202020200A2020392031302020312020302020202020200A2020332020392020312020302020202020200A4D2020454E44
Contributor: SASAKI S, TOYOHASHI UNIV. OF TECH.
InstType: EI
InstName: SHIMADZU LKB-2091
IoniMethod: _ENERGY 70 eV
IonPolarity: pos
Date: 2010-10-09 19:48:36+02:00
Num Peaks: 35
26 7 27 64 29 33 30 1 39 38 41 81 42 121 43 3 52 4 53 10 
54 43 55 2 56 310 57 11 67 4 68 2 69 36 70 27 81 6 82 1 
83 40 84 4 95 6 96 0 97 76 98 8 110 5 111 1 123 6 124 6 
125 999 126 8 139 12 140 133 141 13 
