Name: METHANOL (D4)
MW: 32
Formula: CH4O
Synonym: MassBank: JP009391
Synonym: METHANOL (D4)
Synonym: METHYL ALCOHOL (D4)
Structure: 310A31370A4D455448594C20414C434F484F4C20284434292E6D6F6C0A20204368656D447261773038313231303030303932440A2020362020352020302020302020302020302020302020302020302020303939392056323030300A2020202D302E3335373220202020302E3030303020202020302E303030302043202020302020302020302020302020302020302020302020302020302020302020302020300A20202020302E3335373220202020302E3431323520202020302E30303030204F202020302020302020302020302020302020302020302020302020302020302020302020300A20202020302E303535332020202D302E3731343520202020302E303030302048202020312020302020302020302020302020302020302020302020302020302020302020300A2020202D312E303731372020202D302E3431323520202020302E303030302048202020312020302020302020302020302020302020302020302020302020302020302020300A2020202D302E3736393720202020302E3731343520202020302E303030302048202020312020302020302020302020302020302020302020302020302020302020302020300A20202020312E3037313720202020302E3030303020202020302E303030302048202020312020302020302020302020302020302020302020302020302020302020302020300A2020312020322020312020302020202020200A2020312020332020312020302020202020200A2020312020342020312020302020202020200A2020312020352020312020302020202020200A2020322020362020312020302020202020200A4D202049534F20203420202033202020322020203420202032202020352020203220202036202020320A4D2020454E44
Contributor: GUNMA COLLEGE OF TECHNOLOGY
InstType: EI
InstName: HITACHI M-80A
IoniMethod: _ENERGY 70 eV
IonPolarity: pos
Date: 2010-10-09 19:48:36+02:00
Num Peaks: 12
2 13 4 14 18 390 20 14 28 10 30 531 33 70 34 999 35 61 36 645 
37 17 38 81 
