Name: 2-(4-HYDROXYPHENYL)ETHANOIC ACID
MW: 152
Formula: C8H8O3
Synonym: MassBank: JP007234
Synonym: 2-(4-HYDROXYPHENYL)ETHANOIC ACID
Synonym: P-HYDROXYPHENYLACETIC ACID
Structure: 322D28342D485944524F58595048454E594C29455448414E4F494320414349442E6D6F6C0A20204368656D447261773132323130393230323732440A2031312031312020302020302020302020302020302020302020302020303939392056323030300A2020202D312E343238392020202D302E3431323520202020302E303030302043202020302020302020302020302020302020302020302020302020302020302020302020300A2020202D302E373134352020202D302E3832353020202020302E303030302043202020302020302020302020302020302020302020302020302020302020302020302020300A2020202D312E3432383920202020302E3431323520202020302E30303030204F202020302020302020302020302020302020302020302020302020302020302020302020300A2020202D322E313433342020202D302E3832353020202020302E30303030204F202020302020302020302020302020302020302020302020302020302020302020302020300A20202020302E303030302020202D302E3431323520202020302E303030302043202020302020302020302020302020302020302020302020302020302020302020302020300A20202020302E3030303020202020302E3431323520202020302E303030302043202020302020302020302020302020302020302020302020302020302020302020302020300A20202020302E3731343520202020302E3832353020202020302E303030302043202020302020302020302020302020302020302020302020302020302020302020302020300A20202020312E3432383920202020302E3431323520202020302E303030302043202020302020302020302020302020302020302020302020302020302020302020302020300A20202020312E343238392020202D302E3431323520202020302E303030302043202020302020302020302020302020302020302020302020302020302020302020302020300A20202020302E373134352020202D302E3832353020202020302E303030302043202020302020302020302020302020302020302020302020302020302020302020302020300A20202020322E3134333420202020302E3832353020202020302E30303030204F202020302020302020302020302020302020302020302020302020302020302020302020300A2020312020322020312020302020202020200A2020312020332020322020302020202020200A2020312020342020312020302020202020200A2020352020362020312020302020202020200A2020362020372020322020302020202020200A2020372020382020312020302020202020200A2020382020392020322020302020202020200A2020392031302020312020302020202020200A2020352031302020322020302020202020200A2020382031312020312020302020202020200A2020322020352020312020302020202020200A4D2020454E44
Contributor: ENDO K, PHARMACEUTICAL INST., TOHOKU UNIV.
InstType: EI
InstName: HITACHI M-52
IoniMethod: _ENERGY 70 eV
IonPolarity: pos
Date: 2010-10-09 19:48:36+02:00
Num Peaks: 54
39 48 40 12 41 56 42 2 43 60 44 12 45 20 49 1 50 40 51 56 
52 36 53 3 54 12 55 60 56 12 57 9 58 12 67 28 68 16 69 52 
70 1 71 40 73 32 74 16 77 16 78 40 79 56 81 24 82 2 83 28 
84 12 85 24 91 3 95 16 96 16 97 16 98 1 99 12 101 12 105 16 
107 999 108 108 109 28 111 12 119 2 121 12 123 12 127 12 129 2 135 12 
147 12 149 28 152 32 153 28 
