Name: N-(PARA-CHLOROPHENYLCARBAMOYL)-2-PYRROLIDONE
MW: 238
Formula: C11H11ClN2O2
Synonym: MassBank: JP004179
Synonym: N-(PARA-CHLOROPHENYLCARBAMOYL)-2-PYRROLIDONE
Structure: 4E2D28504152412D43484C4F524F5048454E594C43415242414D4F594C292D322D505952524F4C49444F4E452E6D6F6C0A20204368656D447261773038313231303031323332440A2031362031372020302020302020302020302020302020302020302020303939392056323030300A2020202D312E3439303620202020302E3332393020202020302E30303030204E202020302020302020302020302020302020302020302020302020302020302020302020300A2020202D322E323434322020202D302E3030363620202020302E303030302043202020302020302020302020302020302020302020302020302020302020302020302020300A2020202D322E3739363320202020302E3630363520202020302E303030302043202020302020302020302020302020302020302020302020302020302020302020302020300A2020202D322E3338333820202020312E3332313020202020302E303030302043202020302020302020302020302020302020302020302020302020302020302020302020300A2020202D312E3537363820202020312E3134393520202020302E303030302043202020302020302020302020302020302020302020302020302020302020302020302020300A2020202D322E343135382020202D302E3831333520202020302E30303030204F202020302020302020302020302020302020302020302020302020302020302020302020300A2020202D302E373736312020202D302E3038333520202020302E303030302043202020302020302020302020302020302020302020302020302020302020302020302020300A2020202D302E3036313620202020302E3332393020202020302E30303030204E202020302020302020302020302020302020302020302020302020302020302020302020300A2020202D302E373736312020202D302E3930383520202020302E30303030204F202020302020302020302020302020302020302020302020302020302020302020302020300A20202020302E363532392020202D302E3038333520202020302E303030302043202020302020302020302020302020302020302020302020302020302020302020302020300A20202020312E3336373320202020302E3332393020202020302E303030302043202020302020302020302020302020302020302020302020302020302020302020302020300A20202020322E303831382020202D302E3038333520202020302E303030302043202020302020302020302020302020302020302020302020302020302020302020302020300A20202020322E303831382020202D302E3930383520202020302E303030302043202020302020302020302020302020302020302020302020302020302020302020302020300A20202020312E333637332020202D312E3332313020202020302E303030302043202020302020302020302020302020302020302020302020302020302020302020302020300A20202020302E363532392020202D302E3930383520202020302E303030302043202020302020302020302020302020302020302020302020302020302020302020302020300A20202020322E373936332020202D312E3332313020202020302E3030303020436C2020302020302020302020302020302020302020302020302020302020302020302020300A2020312020322020312020302020202020200A2020322020332020312020302020202020200A2020332020342020312020302020202020200A2020342020352020312020302020202020200A2020312020352020312020302020202020200A2020322020362020322020302020202020200A2020372020382020312020302020202020200A2020372020392020322020302020202020200A2031302031312020312020302020202020200A2031312031322020322020302020202020200A2031322031332020312020302020202020200A2031332031342020322020302020202020200A2031342031352020312020302020202020200A2031302031352020322020302020202020200A2020382031302020312020302020202020200A2031332031362020312020302020202020200A2020312020372020312020302020202020200A4D2020454E44
Contributor: MASS SPECTROSCOPY SOC. OF JAPAN (MSSJ)
InstType: EI
InstName: HITACHI RMU-6E
IoniMethod: _ENERGY 70 eV
IonPolarity: pos
Date: 2010-10-09 19:48:36+02:00
Num Peaks: 136
25 4 26 33 27 98 28 25 29 60 30 122 31 6 32 0 35 2 36 8 
37 36 38 5 39 124 40 41 41 300 42 13 43 15 44 19 45 5 46 0 
47 5 48 2 49 14 50 5 51 26 52 25 53 6 54 2 55 38 56 264 
57 54 58 1 59 2 60 5 61 23 62 5 63 146 64 68 65 26 66 1 
67 3 68 5 69 122 70 3 71 3 72 9 73 52 74 2 75 70 76 16 
77 7 78 1 79 1 80 1 81 1 82 0 83 3 84 74 85 110 86 4 
87 8 88 13 89 32 90 18 91 34 92 14 93 2 97 1 98 17 99 88 
100 15 101 3 102 5 103 2 104 2 105 0 106 3 107 2 108 1 109 0 
110 1 111 29 112 50 113 1 114 1 117 1 118 3 119 1 120 2 124 9 
125 212 126 7 127 230 128 33 129 54 130 1 131 1 132 2 133 3 134 0 
135 1 138 2 139 1 140 1 141 1 142 2 147 5 148 0 152 3 153 999 
154 110 155 34 156 32 157 2 167 1 168 0 169 5 170 1 171 2 180 0 
181 2 182 1 195 3 196 0 197 1 198 1 202 8 203 7 204 8 205 1 
237 3 238 33 239 60 240 74 241 16 242 2 
