Name: ALLYL CHLORIDE
MW: 76
Formula: C3H5Cl
Synonym: MassBank: JP005284
Synonym: ALLYL CHLORIDE
Structure: 310A31320A414C4C594C2043484C4F524944452E6D6F6C0A20204368656D447261773038303631303034313732440A2020342020332020302020302020302020302020302020302020302020303939392056323030300A2020202D302E333537322020202D302E3230363220202020302E303030302043202020302020302020302020302020302020302020302020302020302020302020302020300A20202020302E3335373220202020302E3230363220202020302E303030302043202020302020302020302020302020302020302020302020302020302020302020302020300A20202020312E303731372020202D302E3230363220202020302E303030302043202020302020302020302020302020302020302020302020302020302020302020302020300A2020202D312E3037313720202020302E3230363220202020302E3030303020436C2020302020302020302020302020302020302020302020302020302020302020302020300A2020312020322020312020302020202020200A2020322020332020322020302020202020200A2020312020342020312020302020202020200A4D2020454E44
Contributor: YAMAMOTO M, DEP. CHEMISTRY, FAC. SCIENCE, NARA WOMEN'S UNIV.
InstType: EI
InstName: HITACHI RMU-6M
IoniMethod: _ENERGY 70 eV
IonPolarity: pos
Date: 2010-10-09 19:48:36+02:00
Num Peaks: 17
15 18 26 28 27 64 28 31 36 11 37 53 38 73 39 459 40 79 41 999 
42 38 49 34 51 11 75 36 76 294 77 20 78 95 
