Name: TERT-BUTYL ALCOHOL
CAS: 75-65-0
MW: 74
Formula: C4H10O
Synonym: MassBank: JP007112
Synonym: TERT-BUTYL ALCOHOL
Synonym: 2-METHYL-2-PROPANOL
Structure: 310A31340A544552542D425554594C20414C434F484F4C2E6D6F6C0A20204368656D447261773031323231303033313732440A2020352020342020302020302020302020302020302020302020302020303939392056323030300A20202020302E3030303020202020302E3030303020202020302E303030302043202020302020302020302020302020302020302020302020302020302020302020302020300A20202020302E303030302020202D302E3832353020202020302E303030302043202020302020302020302020302020302020302020302020302020302020302020302020300A2020202D302E3832353020202020302E3030303020202020302E303030302043202020302020302020302020302020302020302020302020302020302020302020302020300A20202020302E3030303020202020302E3832353020202020302E303030302043202020302020302020302020302020302020302020302020302020302020302020302020300A20202020302E3832353020202020302E3030303020202020302E30303030204F202020302020302020302020302020302020302020302020302020302020302020302020300A2020312020322020312020302020202020200A2020312020342020312020302020202020200A2020312020332020312020302020202020200A2020312020352020312020302020202020200A4D2020454E44
Contributor: SODA AROMATIC CO., LTD.
InstType: EI
InstName: HITACHI M-80B
IoniMethod: _ENERGY 70 eV
IonPolarity: pos
Date: 2010-10-09 19:48:36+02:00
Num Peaks: 15
15 30 27 38 28 12 29 56 31 177 39 52 41 141 42 27 43 113 44 13 
55 16 56 14 57 85 59 999 60 38 
