Name: METHYL 8-HYDROXY-5-METHYL-4-DECENOATE
MW: 214
Formula: C12H22O3
Synonym: MassBank: JP009891
Synonym: METHYL 8-HYDROXY-5-METHYL-4-DECENOATE
Structure: 4D455448594C20382D485944524F58592D352D4D455448594C2D342D444543454E4F4154452E6D6F6C0A20204368656D447261773038313231303030303532440A2031352031342020302020302020302020302020302020302020302020303939392056323030300A2020202D322E3134333420202020302E3832353020202020302E303030302043202020302020302020302020302020302020302020302020302020302020302020302020300A2020202D312E3432383920202020302E3431323520202020302E303030302043202020302020302020302020302020302020302020302020302020302020302020302020300A2020202D312E343238392020202D302E3431323520202020302E303030302043202020302020302020302020302020302020302020302020302020302020302020302020300A2020202D302E373134352020202D302E3832353020202020302E303030302043202020302020302020302020302020302020302020302020302020302020302020302020300A20202020302E303030302020202D302E3431323520202020302E303030302043202020302020302020302020302020302020302020302020302020302020302020302020300A20202020302E373134352020202D302E3832353020202020302E303030302043202020302020302020302020302020302020302020302020302020302020302020302020300A20202020312E343238392020202D302E3431323520202020302E303030302043202020302020302020302020302020302020302020302020302020302020302020302020300A20202020322E313433342020202D302E3832353020202020302E303030302043202020302020302020302020302020302020302020302020302020302020302020302020300A20202020322E383537392020202D302E3431323520202020302E303030302043202020302020302020302020302020302020302020302020302020302020302020302020300A20202020322E3835373920202020302E3431323520202020302E303030302043202020302020302020302020302020302020302020302020302020302020302020302020300A2020202D322E3134333420202020312E3635303020202020302E30303030204F202020302020302020302020302020302020302020302020302020302020302020302020300A2020202D322E3835373920202020302E3431323520202020302E30303030204F202020302020302020302020302020302020302020302020302020302020302020302020300A20202020302E3030303020202020302E3431323520202020302E303030302043202020302020302020302020302020302020302020302020302020302020302020302020300A20202020322E313433342020202D312E3635303020202020302E30303030204F202020302020302020302020302020302020302020302020302020302020302020302020300A2020202D322E383537392020202D302E3431323520202020302E303030302043202020302020302020302020302020302020302020302020302020302020302020302020300A2020312020322020312020302020202020200A2020322020332020312020302020202020200A2020332020342020312020302020202020200A2020342020352020322020302020202020200A2020352020362020312020302020202020200A2020362020372020312020302020202020200A2020372020382020312020302020202020200A2020382020392020312020302020202020200A2020392031302020312020302020202020200A2020312031312020322020302020202020200A2020312031322020312020302020202020200A2020352031332020312020302020202020200A2020382031342020312020302020202020200A2031322031352020312020302020202020200A4D2020454E44
Contributor: KURARAY CO., LTD.
InstType: EI
InstName: JEOL JMS-D-300
IoniMethod: _ENERGY 70 eV
IonPolarity: pos
Date: 2010-10-09 19:48:36+02:00
Num Peaks: 62
27 108 29 132 31 300 39 134 41 358 42 47 43 320 44 43 45 82 53 148 
54 40 55 452 56 50 57 128 59 320 65 37 67 358 68 140 69 325 70 88 
71 53 72 210 73 47 74 256 77 73 79 267 80 172 81 999 82 446 83 310 
85 147 87 135 91 57 93 720 94 210 95 286 96 147 97 82 98 165 99 153 
107 240 108 182 109 196 110 57 111 348 112 53 122 83 123 266 124 208 125 235 
127 38 135 186 136 56 140 302 141 60 142 87 143 236 147 40 153 90 156 178 
165 45 167 52 
