Name: CYANURIC ACID
CAS: 108-80-5
MW: 129
Formula: C3H3N3O3
Synonym: MassBank: JP005743
Synonym: CYANURIC ACID
Synonym: 1,3,5-TRIAZINE-2,4,6(1H,3H,5H)-TRIONE
Structure: 310A32330A4359414E5552494320414349442E6D6F6C0A20204368656D447261773131313130393138303832440A2020392020392020302020302020302020302020302020302020302020303939392056323030300A20202020302E303030302020202D312E3233373520202020302E30303030204E202020302020302020302020302020302020302020302020302020302020302020302020300A2020202D302E373134352020202D302E3832353020202020302E303030302043202020302020302020302020302020302020302020302020302020302020302020302020300A2020202D312E343238392020202D312E3233373520202020302E30303030204F202020302020302020302020302020302020302020302020302020302020302020302020300A2020202D302E3731343520202020302E3030303020202020302E30303030204E202020302020302020302020302020302020302020302020302020302020302020302020300A2020202D302E3030303020202020302E3431323520202020302E303030302043202020302020302020302020302020302020302020302020302020302020302020302020300A2020202D302E3030303020202020312E3233373520202020302E30303030204F202020302020302020302020302020302020302020302020302020302020302020302020300A20202020302E3731343520202020302E3030303020202020302E30303030204E202020302020302020302020302020302020302020302020302020302020302020302020300A20202020302E373134352020202D302E3832353020202020302E303030302043202020302020302020302020302020302020302020302020302020302020302020302020300A20202020312E343238392020202D312E3233373520202020302E30303030204F202020302020302020302020302020302020302020302020302020302020302020302020300A2020312020322020312020302020202020200A2020322020332020312020302020202020200A2020322020342020322020302020202020200A2020342020352020312020302020202020200A2020352020362020312020302020202020200A2020352020372020322020302020202020200A2020372020382020312020302020202020200A2020382020392020312020302020202020200A2020312020382020322020302020202020200A4D2020454E44
Contributor: MASS SPECTROSCOPY SOC. OF JAPAN (MSSJ)
InstType: EI
InstName: HITACHI M-80
IoniMethod: _ENERGY 70 eV
IonPolarity: pos
Date: 2010-10-09 19:48:36+02:00
Num Peaks: 9
28 31 41 16 43 330 70 72 86 120 87 13 129 999 130 63 131 15 
