Name: MassBank: JP003052
MW: 197
Formula: C4HClF6
Synonym: MassBank: JP003052
Synonym: 2-CHLORO-1,1,1,4,4,4-HEXAFLUORO-2-BUTENE
Structure: 322D43484C4F524F2D312C312C312C342C342C342D48455841464C554F524F2D322D425554454E452E6D6F6C0A20204368656D447261773031303331303130323432440A2031312031302020302020302020302020302020302020302020302020303939392056323030300A2020202D312E303731372020202D302E3236313520202020302E303030302043202020302020302020302020302020302020302020302020302020302020302020302020300A2020202D302E3335373220202020302E3135313020202020302E303030302043202020302020302020302020302020302020302020302020302020302020302020302020300A20202020302E333537322020202D302E3236313520202020302E303030302043202020302020302020302020302020302020302020302020302020302020302020302020300A20202020312E3037313720202020302E3135313020202020302E303030302043202020302020302020302020302020302020302020302020302020302020302020302020300A20202020302E3635393220202020302E3836353520202020302E303030302046202020302020302020302020302020302020302020302020302020302020302020302020300A20202020312E343834322020202D302E3536333520202020302E303030302046202020302020302020302020302020302020302020302020302020302020302020302020300A20202020312E3738363220202020302E3536333520202020302E303030302046202020302020302020302020302020302020302020302020302020302020302020302020300A2020202D312E3438343220202020302E3435333020202020302E303030302046202020302020302020302020302020302020302020302020302020302020302020302020300A2020202D312E373836322020202D302E3637343020202020302E303030302046202020302020302020302020302020302020302020302020302020302020302020302020300A2020202D302E363539322020202D302E3937363020202020302E303030302046202020302020302020302020302020302020302020302020302020302020302020302020300A2020202D302E3335373220202020302E3937363020202020302E3030303020436C2020302020302020302020302020302020302020302020302020302020302020302020300A2020312020322020312020302020202020200A2020322020332020322020302020202020200A2020332020342020312020302020202020200A2020342020352020312020312020202020200A2020342020362020312020312020202020200A2020342020372020312020302020202020200A2020312020382020312020312020202020200A2020312020392020312020302020202020200A2020312031302020312020312020202020200A2020322031312020312020302020202020200A4D2020454E44
Contributor: SASAKI S, TOYOHASHI UNIV. OF TECH.
InstType: EI
InstName: Unknown
IoniMethod: EI
IonPolarity: pos
Date: 2010-10-09 19:48:36+02:00
Num Peaks: 71
31 275 35 17 36 11 37 2 38 2 47 14 48 1 49 0 50 37 51 47 
55 39 56 5 57 2 59 3 60 33 61 0 62 20 63 5 66 9 67 0 
68 4 69 977 70 12 71 0 72 2 74 42 75 337 76 1 78 2 79 6 
80 19 81 1 82 3 85 56 87 19 90 0 91 10 92 2 93 91 94 3 
97 2 98 14 109 37 110 1 111 12 112 10 113 248 114 1 116 4 118 1 
124 7 125 0 129 999 130 30 131 333 132 1 143 6 144 5 147 24 148 10 
149 10 150 31 151 1 163 10 164 4 179 211 180 8 181 7 182 3 198 340 
200 113 
