Name: MassBank: JP001990
MW: 220
Formula: C11H12N2O3
Synonym: MassBank: JP001990
Synonym: 6-METHOXY-2,3-DIMETHYL-5-NITROINDOLE
Structure: 362D4D4554484F58592D322C332D44494D455448594C2D352D4E4954524F494E444F4C452E6D6F6C0A20204368656D447261773035313731303139303532440A2031362031372020302020302020302020302020302020302020302020303939392056323030300A2020202D312E313636332020202D302E3636373420202020302E30303030204E202020302020302020302020302020302020302020302020302020302020302020302020300A2020202D312E363531322020202D302E3030303020202020302E303030302043202020302020302020302020302020302020302020302020302020302020302020302020300A2020202D312E3136363320202020302E3636373420202020302E303030302043202020302020302020302020302020302020302020302020302020302020302020302020300A2020202D302E3338313720202020302E3431323520202020302E303030302043202020302020302020302020302020302020302020302020302020302020302020302020300A20202020302E3333323820202020302E3832353020202020302E303030302043202020302020302020302020302020302020302020302020302020302020302020302020300A20202020312E3034373320202020302E3431323520202020302E303030302043202020302020302020302020302020302020302020302020302020302020302020302020300A20202020312E303437332020202D302E3431323520202020302E303030302043202020302020302020302020302020302020302020302020302020302020302020302020300A20202020302E333332382020202D302E3832353020202020302E303030302043202020302020302020302020302020302020302020302020302020302020302020302020300A2020202D302E333831372020202D302E3431323520202020302E303030302043202020302020302020302020302020302020302020302020302020302020302020302020300A20202020312E3736313720202020302E3832353020202020302E30303030204E202020302020332020302020302020302020302020302020302020302020302020302020300A20202020312E3736313720202020312E3635303020202020302E30303030204F202020302020302020302020302020302020302020302020302020302020302020302020300A20202020322E3437363220202020302E3431323520202020302E30303030204F202020302020352020302020302020302020302020302020302020302020302020302020300A2020202D312E3432313220202020312E3435323120202020302E303030302043202020302020302020302020302020302020302020302020302020302020302020302020300A2020202D322E343736322020202D302E3030303020202020302E303030302043202020302020302020302020302020302020302020302020302020302020302020302020300A20202020312E373631372020202D302E3832353020202020302E30303030204F202020302020302020302020302020302020302020302020302020302020302020302020300A20202020312E373631372020202D312E3635303020202020302E303030302043202020302020302020302020302020302020302020302020302020302020302020302020300A2020312020322020312020302020202020200A2020322020332020322020302020202020200A2020332020342020312020302020202020200A2020342020352020312020302020202020200A2020352020362020322020302020202020200A2020362020372020312020302020202020200A2020372020382020322020302020202020200A2020382020392020312020302020202020200A2020312020392020312020302020202020200A2020342020392020322020302020202020200A2031302031312020322020302020202020200A2031302031322020312020302020202020200A2020362031302020312020302020202020200A2020332031332020312020302020202020200A2020322031342020312020302020202020200A2031352031362020312020302020202020200A2020372031352020312020302020202020200A4D202043484720203220203130202020312020313220202D310A4D2020454E44
Contributor: SASAKI S, TOYOHASHI UNIV. OF TECH.
InstType: EI
InstName: MX-1303
IoniMethod: _ENERGY 50 eV
IonPolarity: pos
Date: 2010-10-09 19:48:36+02:00
Num Peaks: 54
39 40 41 41 42 88 43 5 45 14 51 36 52 16 53 2 55 34 57 50 
60 15 63 4 65 19 69 34 71 25 73 2 75 13 76 20 77 99 78 2 
81 12 83 159 85 88 89 3 91 26 97 14 102 35 103 5 104 18 110 24 
115 71 116 3 117 30 118 17 128 34 129 4 130 82 131 346 132 26 142 3 
143 218 144 487 145 47 146 9 147 148 159 88 160 37 173 2 174 20 205 335 
206 17 219 3 220 999 221 117 
