Name: MassBank: JP005145
MW: 353
Formula: C21H23NO2S
Synonym: MassBank: JP005145
Synonym: 3-(2-BENZOYLAMINOPHENYLTHIO)-5,5-DIMETHYL-1-CYCLOHEXANONE
Structure: 332D28322D42454E5A4F594C414D494E4F5048454E594C5448494F292D352C352D44494D455448594C2D312D4359434C4F484558414E4F4E452E6D6F6C0A20204368656D447261773032323231303039343532440A2032352032372020302020302020302020302020302020302020302020303939392056323030300A2020202D322E373036312020202D302E3731343520202020302E303030302043202020302020302020302020302020302020302020302020302020302020302020302020300A2020202D312E383831312020202D302E3731343520202020302E303030302043202020302020302020302020302020302020302020302020302020302020302020302020300A2020202D312E3436383620202020302E3030303020202020302E303030302043202020302020302020302020302020302020302020302020302020302020302020302020300A2020202D312E3838313120202020302E3731343520202020302E303030302043202020302020302020302020302020302020302020302020302020302020302020302020300A2020202D322E3730363120202020302E3731343520202020302E303030302043202020302020302020302020302020302020302020302020302020302020302020302020300A2020202D332E3131383620202020302E3030303020202020302E303030302043202020302020302020302020302020302020302020302020302020302020302020302020300A2020202D332E313138362020202D312E3432383920202020302E30303030204F202020302020302020302020302020302020302020302020302020302020302020302020300A2020202D332E3438313420202020302E3939363620202020302E303030302043202020302020302020302020302020302020302020302020302020302020302020302020300A2020202D322E3536323920202020312E3532363920202020302E303030302043202020302020302020302020302020302020302020302020302020302020302020302020300A2020202D302E3634333620202020302E3030303020202020302E303030302053202020302020302020302020302020302020302020302020302020302020302020302020300A2020202D302E3233313120202020302E3731343520202020302E303030302043202020302020302020302020302020302020302020302020302020302020302020302020300A20202020302E3539333920202020302E3731343520202020302E303030302043202020302020302020302020302020302020302020302020302020302020302020302020300A20202020312E3030363420202020312E3432383920202020302E303030302043202020302020302020302020302020302020302020302020302020302020302020302020300A20202020302E3539333920202020322E3134333420202020302E303030302043202020302020302020302020302020302020302020302020302020302020302020302020300A2020202D302E3233313120202020322E3134333420202020302E303030302043202020302020302020302020302020302020302020302020302020302020302020302020300A2020202D302E3634333620202020312E3432383920202020302E303030302043202020302020302020302020302020302020302020302020302020302020302020302020300A20202020312E303036342020202D302E3030303020202020302E30303030204E202020302020302020302020302020302020302020302020302020302020302020302020300A20202020312E383331342020202D302E3030303020202020302E303030302043202020302020302020302020302020302020302020302020302020302020302020302020300A20202020322E323433392020202D302E3731343520202020302E303030302043202020302020302020302020302020302020302020302020302020302020302020302020300A20202020312E383331342020202D312E3432383920202020302E303030302043202020302020302020302020302020302020302020302020302020302020302020302020300A20202020322E323433392020202D322E3134333420202020302E303030302043202020302020302020302020302020302020302020302020302020302020302020302020300A20202020332E303638392020202D322E3134333420202020302E303030302043202020302020302020302020302020302020302020302020302020302020302020302020300A20202020332E343831342020202D312E3432383920202020302E303030302043202020302020302020302020302020302020302020302020302020302020302020302020300A20202020332E303638392020202D302E3731343520202020302E303030302043202020302020302020302020302020302020302020302020302020302020302020302020300A20202020322E3234333920202020302E3731343520202020302E30303030204F202020302020302020302020302020302020302020302020302020302020302020302020300A2020312020322020312020302020202020200A2020322020332020312020302020202020200A2020332020342020312020302020202020200A2020342020352020312020302020202020200A2020352020362020312020302020202020200A2020312020362020312020302020202020200A2020312020372020322020302020202020200A2020352020382020312020362020202020200A2020352020392020312020312020202020200A2031312031322020312020302020202020200A2031322031332020322020302020202020200A2031332031342020312020302020202020200A2031342031352020322020302020202020200A2031352031362020312020302020202020200A2031312031362020322020302020202020200A2031302031312020312020302020202020200A2031382031392020312020302020202020200A2031392032302020312020302020202020200A2032302032312020322020302020202020200A2032312032322020312020302020202020200A2032322032332020322020302020202020200A2032332032342020312020302020202020200A2031392032342020322020302020202020200A2031382032352020322020302020202020200A2031372031382020312020302020202020200A2031322031372020312020302020202020200A2020332031302020312020302020202020200A4D2020454E44
Contributor: HAYASHI A, FAC. OF SCIENCE AND TECHNOLOGY, KINKI UNIV.
InstType: EI
InstName: JEOL JMS-HX-100
IoniMethod: _ENERGY 70 eV
IonPolarity: pos
Date: 2010-10-09 19:48:36+02:00
Num Peaks: 70
39 33 40 10 41 161 42 11 43 48 44 19 45 6 50 7 51 40 52 6 
53 17 54 5 55 250 56 25 57 34 60 8 63 5 65 12 67 19 68 50 
69 197 70 12 71 17 73 9 76 9 77 305 78 26 79 12 80 12 81 28 
82 8 83 102 84 11 85 9 91 7 93 8 95 13 96 8 97 19 99 13 
104 5 105 999 106 89 107 11 108 5 109 11 111 6 123 7 124 14 125 70 
126 8 149 19 150 37 151 5 167 9 196 78 197 15 198 5 211 27 212 10 
228 10 229 401 230 79 231 26 232 4 248 29 249 5 353 50 354 14 355 4 
