Name: BENZO(A)PYRENE
CAS: 50-32-8
MW: 252
Formula: C20H12
Synonym: MassBank: JP001606
Synonym: BENZO(A)PYRENE
Structure: 42454E5A4F284129505952454E452E6D6F6C0A20204368656D447261773038313431303038343032440A2032302032342020302020302020302020302020302020302020302020303939392056323030300A20202020312E3033313120202020302E3731343020202020302E303030302043202020302020302020302020302020302020302020302020302020302020302020302020300A20202020312E343433362020202D302E3030303520202020302E303030302043202020302020302020302020302020302020302020302020302020302020302020302020300A20202020312E303331312020202D302E3731353020202020302E303030302043202020302020302020302020302020302020302020302020302020302020302020302020300A20202020302E323036312020202D302E3731353020202020302E303030302043202020302020302020302020302020302020302020302020302020302020302020302020300A2020202D302E323035382020202D312E3432383420202020302E303030302043202020302020302020302020302020302020302020302020302020302020302020302020300A2020202D312E303330332020202D312E3432383420202020302E303030302043202020302020302020302020302020302020302020302020302020302020302020302020300A2020202D312E343432362020202D302E3731343220202020302E303030302043202020302020302020302020302020302020302020302020302020302020302020302020300A2020202D322E323638392020202D302E3731343220202020302E303030302043202020302020302020302020302020302020302020302020302020302020302020302020300A2020202D322E363831312020202D302E3030303320202020302E303030302043202020302020302020302020302020302020302020302020302020302020302020302020300A2020202D322E3236383820202020302E3731333920202020302E303030302043202020302020302020302020302020302020302020302020302020302020302020302020300A2020202D312E3434333920202020302E3731333920202020302E303030302043202020302020302020302020302020302020302020302020302020302020302020302020300A2020202D312E3033313420202020312E3432383420202020302E303030302043202020302020302020302020302020302020302020302020302020302020302020302020300A2020202D302E3230363420202020312E3432383420202020302E303030302043202020302020302020302020302020302020302020302020302020302020302020302020300A20202020302E3230363120202020302E3731343020202020302E303030302043202020302020302020302020302020302020302020302020302020302020302020302020300A2020202D302E323036342020202D302E3030303520202020302E303030302043202020302020302020302020302020302020302020302020302020302020302020302020300A2020202D312E303331342020202D302E3030303520202020302E303030302043202020302020302020302020302020302020302020302020302020302020302020302020300A20202020322E323638362020202D302E3030303520202020302E303030302043202020302020302020302020302020302020302020302020302020302020302020302020300A20202020322E3638313120202020302E3731343020202020302E303030302043202020302020302020302020302020302020302020302020302020302020302020302020300A20202020322E3236383620202020312E3432383420202020302E303030302043202020302020302020302020302020302020302020302020302020302020302020302020300A20202020312E3434333620202020312E3432383420202020302E303030302043202020302020302020302020302020302020302020302020302020302020302020302020300A2020312020322020312020302020202020200A2020322020332020312020302020202020200A2020332020342020322020302020202020200A2020342020352020312020302020202020200A2020352020362020322020302020202020200A2020362020372020312020302020202020200A2020372020382020322020302020202020200A2020382020392020312020302020202020200A2020392031302020322020302020202020200A2031302031312020312020302020202020200A2031312031322020322020302020202020200A2031322031332020312020302020202020200A2031332031342020322020302020202020200A2020312031342020312020302020202020200A2031342031352020312020302020202020200A2020342031352020312020302020202020200A2031352031362020322020302020202020200A2020372031362020312020302020202020200A2031312031362020312020302020202020200A2031372031382020312020302020202020200A2031382031392020322020302020202020200A2031392032302020312020302020202020200A2020312032302020322020302020202020200A2020322031372020322020302020202020200A4D2020454E44
Contributor: KOGA M, UNIV. OF OCCUPATIONAL AND ENVIRONMENTAL HEALTH
InstType: EI
InstName: VARIAN MAT-44
IoniMethod: _ENERGY 70 eV
IonPolarity: pos
Date: 2010-10-09 19:48:36+02:00
Num Peaks: 32
63 13 74 13 84 18 87 16 99 26 100 37 101 10 111 45 112 157 113 255 
123 26 124 176 125 270 126 307 127 18 198 13 200 18 222 18 223 16 224 52 
225 34 226 37 227 13 228 10 247 16 248 58 249 50 250 241 251 134 252 999 
253 244 254 34 
