Name: 3-PHENYLACETYL-5-PENTYL-2-ISOXAZOLINE
MW: 259
Formula: C16H21NO2
Synonym: MassBank: JP009362
Synonym: 3-PHENYLACETYL-5-PENTYL-2-ISOXAZOLINE
Structure: 332D5048454E594C41434554594C2D352D50454E54594C2D322D49534F58415A4F4C494E452E6D6F6C0A20204368656D447261773033323331303132323032440A2031392032302020302020302020302020302020302020302020302020303939392056323030300A20202020312E333137342020202D302E3134363720202020302E30303030204F202020302020302020302020302020302020302020302020302020302020302020302020300A20202020302E353332382020202D302E3430313720202020302E30303030204E202020302020302020302020302020302020302020302020302020302020302020302020300A20202020302E3034373820202020302E3236353820202020302E303030302043202020302020302020302020302020302020302020302020302020302020302020302020300A20202020302E3533323820202020302E3933333220202020302E303030302043202020302020302020302020302020302020302020302020302020302020302020302020300A20202020312E3331373420202020302E3637383320202020302E303030302043202020302020302020302020302020302020302020302020302020302020302020302020300A20202020312E3938343820202020312E3136333220202020302E303030302043202020302020302020302020302020302020302020302020302020302020302020302020300A20202020322E3733383520202020302E3832373620202020302E303030302043202020302020302020302020302020302020302020302020302020302020302020302020300A20202020322E3832343720202020302E3030373120202020302E303030302043202020302020302020302020302020302020302020302020302020302020302020302020300A20202020332E353738342020202D302E3332383420202020302E303030302043202020302020302020302020302020302020302020302020302020302020302020302020300A20202020332E363634372020202D312E3134383920202020302E303030302043202020302020302020302020302020302020302020302020302020302020302020302020300A2020202D302E3737373220202020302E3236353820202020302E303030302043202020302020302020302020302020302020302020302020302020302020302020302020300A2020202D312E3138393720202020302E3938303220202020302E30303030204F202020302020302020302020302020302020302020302020302020302020302020302020300A2020202D312E313839372020202D302E3434383720202020302E303030302043202020302020302020302020302020302020302020302020302020302020302020302020300A2020202D322E303134372020202D302E3434383720202020302E303030302043202020302020302020302020302020302020302020302020302020302020302020302020300A2020202D322E343237322020202D312E3136333220202020302E303030302043202020302020302020302020302020302020302020302020302020302020302020302020300A2020202D332E323532322020202D312E3136333220202020302E303030302043202020302020302020302020302020302020302020302020302020302020302020302020300A2020202D332E363634372020202D302E3434383720202020302E303030302043202020302020302020302020302020302020302020302020302020302020302020302020300A2020202D332E3235323220202020302E3236353820202020302E303030302043202020302020302020302020302020302020302020302020302020302020302020302020300A2020202D322E3432373220202020302E3236353820202020302E303030302043202020302020302020302020302020302020302020302020302020302020302020302020300A2020312020322020312020302020202020200A2020322020332020322020302020202020200A2020332020342020312020302020202020200A2020342020352020312020302020202020200A2020312020352020312020302020202020200A2020362020372020312020302020202020200A2020372020382020312020302020202020200A2020382020392020312020302020202020200A2020392031302020312020302020202020200A2020352020362020312020302020202020200A2031312031322020322020302020202020200A2031312031332020312020302020202020200A2031342031352020312020302020202020200A2031352031362020322020302020202020200A2031362031372020312020302020202020200A2031372031382020322020302020202020200A2031382031392020312020302020202020200A2031342031392020322020302020202020200A2031332031342020312020302020202020200A2020332031312020312020302020202020200A4D2020454E44
Contributor: KANEMASA S, INST. OF ADVANCED MATERIAL STUDY KYUSHU UNIV.
InstType: EI
InstName: JEOL JMS-01-SG-2
IoniMethod: _ENERGY 75 eV
IonPolarity: pos
Date: 2010-10-09 19:48:36+02:00
Num Peaks: 30
38 66 40 107 41 34 42 77 43 28 51 25 55 111 56 24 57 33 63 27 
65 118 67 33 69 27 80 51 89 33 90 33 91 890 92 81 114 39 118 26 
131 27 159 39 160 36 168 376 169 43 188 24 230 90 258 999 259 709 260 124 
