Name: MassBank: JP001877
MW: 734
Formula: C31H38F12O6
Synonym: MassBank: JP001877
Synonym: HEXAFLUOROISOPROPYL 3ALPHA,6ALPHA-BIS(TRIFLUOROACETOXY)-5BETA-CHOLAN-24-OATE
Synonym: HEXAFLUOROISOPROPYL 3,6-BIS(O-TRIFLUOROACETYL)HYODEOXYCHOLATE
Structure: 303335305F48455841464C554F524F49534F50524F50594C2033414C5048412C36414C5048412D42495328545249464C554F524F414345544F5859292D35424554412D43484F4C414E2D32342D4F4154452E6D6F6C0A20204368656D447261773039303631303136313832440A2035352035382020302020302020302020302020302020302020302020303939392056323030300A2020202D322E313739312020202D322E3431323520202020302E303030302043202020302020302020302020302020302020302020302020302020302020302020302020300A2020202D322E313739312020202D312E3538373520202020302E303030302043202020302020302020302020302020302020302020302020302020302020302020302020300A2020202D312E343634362020202D312E3137353020202020302E303030302043202020302020302020302020302020302020302020302020302020302020302020302020300A2020202D312E343634362020202D322E3832353020202020302E303030302043202020302020302020302020302020302020302020302020302020302020302020302020300A2020202D302E373530322020202D322E3431323520202020302E303030302043202020302020302020302020302020302020302020302020302020302020302020302020300A2020202D302E303335372020202D322E3832353020202020302E303030302043202020302020302020302020302020302020302020302020302020302020302020302020300A20202020302E363738382020202D322E3431323520202020302E303030302043202020302020302020302020302020302020302020302020302020302020302020302020300A20202020302E363738382020202D312E3538373520202020302E303030302043202020302020302020302020302020302020302020302020302020302020302020302020300A20202020312E333933322020202D312E3137353020202020302E303030302043202020302020302020302020302020302020302020302020302020302020302020302020300A20202020322E313737392020202D312E3433303020202020302E303030302043202020302020302020302020302020302020302020302020302020302020302020302020300A20202020322E363632382020202D302E3736323520202020302E303030302043202020302020302020302020302020302020302020302020302020302020302020302020300A20202020322E313737392020202D302E3039353120202020302E303030302043202020302020302020302020302020302020302020302020302020302020302020302020300A20202020322E3433323820202020302E3638393520202020302E303030302043202020302020302020302020302020302020302020302020302020302020302020302020300A20202020312E3834393420202020312E3237323920202020302E303030302043202020302020302020302020302020302020302020302020302020302020302020302020300A20202020322E3036333020202020322E3036393820202020302E303030302043202020302020302020302020302020302020302020302020302020302020302020302020300A20202020322E3835393920202020322E3238333320202020302E303030302043202020302020302020302020302020302020302020302020302020302020302020302020300A20202020332E3233393820202020302E3836313120202020302E303030302048202020302020302020302020302020302020302020302020302020302020302020302020300A20202020312E333933322020202D302E3335303020202020302E303030302043202020302020302020302020302020302020302020302020302020302020302020302020300A20202020312E3339333220202020302E3437353020202020302E303030302043202020302020302020302020302020302020302020302020302020302020302020302020300A20202020302E3637383820202020302E3036323520202020302E303030302043202020302020302020302020302020302020302020302020302020302020302020302020300A2020202D302E303335372020202D302E3335303020202020302E303030302043202020302020302020302020302020302020302020302020302020302020302020302020300A2020202D302E303335372020202D312E3137353020202020302E303030302043202020302020302020302020302020302020302020302020302020302020302020302020300A2020202D302E373530322020202D312E3538373520202020302E303030302043202020302020302020302020302020302020302020302020302020302020302020302020300A2020202D302E373530322020202D302E3736323520202020302E303030302043202020302020302020302020302020302020302020302020302020302020302020302020300A20202020332E3434333220202020312E3730303020202020302E30303030204F202020302020302020302020302020302020302020302020302020302020302020302020300A20202020332E3037333420202020332E3038303220202020302E30303030204F202020302020302020302020302020302020302020302020302020302020302020302020300A2020202D302E303335372020202D332E3635303020202020302E30303030204F202020302020302020302020302020302020302020302020302020302020302020302020300A20202020302E363738382020202D342E3036323520202020302E303030302043202020302020302020302020302020302020302020302020302020302020302020302020300A20202020302E363738382020202D342E3838373520202020302E30303030204F202020302020302020302020302020302020302020302020302020302020302020302020300A20202020312E333933322020202D332E3635303020202020302E303030302043202020302020302020302020302020302020302020302020302020302020302020302020300A20202020322E313037372020202D332E3233373520202020302E303030302046202020302020302020302020302020302020302020302020302020302020302020302020300A20202020312E383035372020202D342E3336343520202020302E303030302046202020302020302020302020302020302020302020302020302020302020302020302020300A20202020302E393830372020202D322E3933353520202020302E303030302046202020302020302020302020302020302020302020302020302020302020302020302020300A2020202D322E383933362020202D322E3832353020202020302E30303030204F202020302020302020302020302020302020302020302020302020302020302020302020300A2020202D332E363038312020202D322E3431323520202020302E303030302043202020302020302020302020302020302020302020302020302020302020302020302020300A2020202D332E363038312020202D312E3538373520202020302E30303030204F202020302020302020302020302020302020302020302020302020302020302020302020300A2020202D342E333232352020202D322E3832353020202020302E303030302043202020302020302020302020302020302020302020302020302020302020302020302020300A2020202D342E373335302020202D322E3131303520202020302E303030302046202020302020302020302020302020302020302020302020302020302020302020302020300A2020202D332E393130302020202D332E3533393520202020302E303030302046202020302020302020302020302020302020302020302020302020302020302020302020300A2020202D352E303337302020202D332E3233373520202020302E303030302046202020302020302020302020302020302020302020302020302020302020302020302020300A20202020332E3837303320202020332E3239333720202020302E303030302043202020302020302020302020302020302020302020302020302020302020302020302020300A20202020342E3435333620202020322E3731303420202020302E303030302043202020302020302020302020302020302020302020302020302020302020302020302020300A20202020352E3033373020202020322E3132373020202020302E303030302046202020302020302020302020302020302020302020302020302020302020302020302020300A20202020332E3837303320202020322E3132373020202020302E303030302046202020302020302020302020302020302020302020302020302020302020302020302020300A20202020352E3033373020202020332E3239333720202020302E303030302046202020302020302020302020302020302020302020302020302020302020302020302020300A20202020342E3038333820202020342E3039303620202020302E303030302043202020302020302020302020302020302020302020302020302020302020302020302020300A20202020332E3238363920202020342E3330343220202020302E303030302046202020302020302020302020302020302020302020302020302020302020302020302020300A20202020342E3239373320202020342E3838373520202020302E303030302046202020302020302020302020302020302020302020302020302020302020302020302020300A20202020342E3838303720202020332E3837373120202020302E303030302046202020302020302020302020302020302020302020302020302020302020302020302020300A2020202D302E373530322020202D332E3233373520202020302E303030302048202020302020302020302020302020302020302020302020302020302020302020302020300A2020202D302E303335372020202D322E3030303020202020302E303030302048202020302020302020302020302020302020302020302020302020302020302020302020300A20202020302E363738382020202D302E3736323520202020302E303030302048202020302020302020302020302020302020302020302020302020302020302020302020300A20202020312E333933322020202D322E3030303020202020302E303030302048202020302020302020302020302020302020302020302020302020302020302020302020300A20202020322E393939372020202D302E3032333120202020302E303030302048202020302020302020302020302020302020302020302020302020302020302020302020300A20202020312E3632383120202020302E3837313420202020302E303030302043202020302020302020302020302020302020302020302020302020302020302020302020300A2020312020322020312020302020202020200A2020322020332020312020302020202020200A2020312020342020312020302020202020200A2020342020352020312020302020202020200A2020352020362020312020302020202020200A2020362020372020312020302020202020200A2020372020382020312020302020202020200A2020382020392020312020302020202020200A2020392031302020312020302020202020200A2031302031312020312020302020202020200A2031322031312020312020302020202020200A2031322031332020312020302020202020200A2031332031342020312020302020202020200A2031342031352020312020302020202020200A2031352031362020312020302020202020200A2031332031372020312020312020202020200A2031322031382020312020302020202020200A2020392031382020312020302020202020200A2031382031392020312020312020202020200A2031382032302020312020302020202020200A2032302032312020312020302020202020200A2032312032322020312020302020202020200A2020382032322020312020302020202020200A2032322032332020312020302020202020200A2020332032332020312020302020202020200A2020352032332020312020302020202020200A2032332032342020312020312020202020200A2031362032352020322020302020202020200A2031362032362020312020302020202020200A2032382032392020322020302020202020200A2032382033302020312020302020202020200A2032372032382020312020302020202020200A2033302033312020312020302020202020200A2033302033322020312020302020202020200A2033302033332020312020302020202020200A2020362032372020312020362020202020200A2033352033362020322020302020202020200A2033352033372020312020302020202020200A2033342033352020312020302020202020200A2033372033382020312020302020202020200A2033372033392020312020302020202020200A2033372034302020312020302020202020200A2020312033342020312020362020202020200A2034312034322020312020302020202020200A2034322034332020312020302020202020200A2034322034342020312020302020202020200A2034322034352020312020302020202020200A2034312034362020312020302020202020200A2034362034372020312020302020202020200A2034362034382020312020302020202020200A2034362034392020312020302020202020200A2032362034312020312020302020202020200A2020352035302020312020312020202020200A2032322035312020312020362020202020200A2020382035322020312020312020202020200A2020392035332020312020362020202020200A2031322035342020312020362020202020200A2031332035352020312020302020202020200A4D2020454E44
Contributor: SEYAMA Y, DEPT. OF PHYSIOL. CHEMISTRY AND NUTRITION, FAC. OF MEDICINE, UNIV. OF TOKYO
InstType: EI
InstName: SHIMADZU LKB-9000B
IoniMethod: _ENERGY 70 eV
IonPolarity: pos
Date: 2010-10-09 19:48:36+02:00
Num Peaks: 168
39 17 41 211 42 23 43 138 45 16 50 18 51 26 53 64 54 42 55 776 
56 47 57 67 59 26 65 32 66 27 67 379 68 999 69 415 70 24 77 83 
78 31 79 146 80 47 81 353 82 227 83 181 84 14 85 60 91 243 92 62 
93 415 94 124 95 465 96 21 97 63 98 12 99 15 100 17 103 15 104 19 
105 294 106 97 107 330 108 107 109 163 110 27 111 19 113 17 114 20 115 22 
117 85 118 61 119 172 120 142 121 159 122 56 123 77 124 12 125 12 127 25 
128 18 129 42 130 21 131 134 132 39 133 151 134 89 135 112 136 22 137 41 
138 10 141 12 142 16 143 102 144 34 145 158 146 40 147 128 148 76 149 39 
151 12 153 10 156 11 157 68 158 43 159 131 160 54 161 63 162 24 169 12 
171 66 172 41 173 73 174 22 175 22 177 11 181 16 183 12 185 47 186 31 
187 43 189 13 195 16 197 11 199 104 200 25 201 33 203 14 207 10 209 35 
210 37 212 11 213 336 214 196 215 62 216 51 217 12 221 20 223 11 227 31 
228 117 229 44 233 12 235 24 241 11 247 17 251 18 255 56 256 11 277 14 
286 21 290 101 291 18 300 16 301 10 313 18 314 13 315 27 327 390 328 395 
329 116 330 106 331 30 339 41 341 14 342 223 343 61 344 16 345 26 355 15 
356 19 369 43 385 14 435 15 456 24 487 26 491 59 492 12 505 15 506 72 
507 114 508 34 549 54 550 13 605 21 620 314 621 100 622 18 
