Name: MassBank: JP006364
MW: 336
Formula: C23H28O2
Synonym: MassBank: JP006364
Synonym: (1R,2S,5R)-5-METHYL-2-(1-METHYL-1-(2'-NAPHTHYL)ETHYL)-CYCLOHEXANE-1-YL ACRYLATE
Structure: 2831522C32532C3552292D352D4D455448594C2D322D28312D4D455448594C2D312D2832272D4E4150485448594C29455448594C292D4359434C4F484558414E452D312D594C20414352594C4154452E6D6F6C0A20204368656D447261773130313930393133333032440A2032382033302020302020302020302020302020302020302020302020303939392056323030300A2020202D322E3839393120202020302E3637363320202020302E303030302043202020302020302020302020302020302020302020302020302020302020302020302020300A2020202D322E393939362020202D302E3134323520202020302E303030302043202020302020302020302020302020302020302020302020302020302020302020302020300A2020202D322E333430382020202D302E3633393020202020302E303030302043202020302020302020302020302020302020302020302020302020302020302020302020300A2020202D312E353831332020202D302E3331363720202020302E303030302043202020302020302020302020302020302020302020302020302020302020302020302020300A2020202D312E3438303820202020302E3530323220202020302E303030302043202020302020302020302020302020302020302020302020302020302020302020302020300A2020202D322E3133393720202020302E3939383720202020302E303030302043202020302020302020302020302020302020302020302020302020302020302020302020300A2020202D332E3738373520202020302E3039383720202020302E303030302048202020302020302020302020302020302020302020302020302020302020302020302020300A20202020302E3037353020202020302E3331313720202020302E303030302043202020302020302020302020302020302020302020302020302020302020302020302020300A2020202D312E333934312020202D312E3132323220202020302E303030302048202020302020302020302020302020302020302020302020302020302020302020302020300A20202020302E3132373820202020312E3133343420202020302E303030302043202020302020302020302020302020302020302020302020302020302020302020302020300A20202020302E3930303020202020302E3331313720202020302E303030302043202020302020302020302020302020302020302020302020302020302020302020302020300A20202020302E313138322020202D302E3531323720202020302E303030302043202020302020302020302020302020302020302020302020302020302020302020302020300A2020202D302E373536382020202D302E3237333520202020302E30303030204F202020302020302020302020302020302020302020302020302020302020302020302020300A2020202D302E333035382020202D302E3936353420202020302E303030302043202020302020302020302020302020302020302020302020302020302020302020302020300A2020202D302E363830342020202D312E3730303520202020302E303030302043202020302020302020302020302020302020302020302020302020302020302020302020300A20202020302E353137302020202D302E3932323220202020302E30303030204F202020302020302020302020302020302020302020302020302020302020302020302020300A2020202D312E353035392020202D312E3734333720202020302E303030302043202020302020302020302020302020302020302020302020302020302020302020302020300A20202020312E333132352020202D302E3339393720202020302E303030302043202020302020302020302020302020302020302020302020302020302020302020302020300A20202020322E313337352020202D302E3339393720202020302E303030302043202020302020302020302020302020302020302020302020302020302020302020302020300A20202020322E3535303020202020302E3331343720202020302E303030302043202020302020302020302020302020302020302020302020302020302020302020302020300A20202020322E3133373520202020312E3032393220202020302E303030302043202020302020302020302020302020302020302020302020302020302020302020302020300A20202020312E3331323520202020312E3032393220202020302E303030302043202020302020302020302020302020302020302020302020302020302020302020302020300A20202020332E3337353020202020302E3331343720202020302E303030302043202020302020302020302020302020302020302020302020302020302020302020302020300A20202020332E3738373520202020312E3032393220202020302E303030302043202020302020302020302020302020302020302020302020302020302020302020302020300A20202020332E3337353020202020312E3734333720202020302E303030302043202020302020302020302020302020302020302020302020302020302020302020302020300A20202020322E3535303020202020312E3734333720202020302E303030302043202020302020302020302020302020302020302020302020302020302020302020302020300A2020202D312E3137303120202020312E3236373120202020302E303030302048202020302020302020302020302020302020302020302020302020302020302020302020300A2020202D332E333734322020202D302E3837373620202020302E303030302043202020302020302020302020302020302020302020302020302020302020302020302020300A2020312020322020312020302020202020200A2020322020332020312020302020202020200A2020332020342020312020302020202020200A2020342020352020312020302020202020200A2020352020362020312020302020202020200A2020362020312020312020302020202020200A2020322020372020312020312020202020200A2020352020382020312020312020202020200A2020342020392020312020312020202020200A2020382031302020312020302020202020200A2020382031312020312020302020202020200A2020382031322020312020302020202020200A2020342031332020312020362020202020200A2031332031342020312020302020202020200A2031342031352020312020302020202020200A2031342031362020322020302020202020200A2031352031372020322020302020202020200A2031312031382020322020302020202020200A2031382031392020312020302020202020200A2031392032302020322020302020202020200A2032302032312020312020302020202020200A2032312032322020322020302020202020200A2032322031312020312020302020202020200A2032302032332020312020302020202020200A2032332032342020322020302020202020200A2032342032352020312020302020202020200A2032352032362020322020302020202020200A2032362032312020312020302020202020200A2020352032372020312020362020202020200A2020322032382020312020362020202020200A4D2020454E44
Contributor: HISAHIRO HAGIWARA, CHEMICAL RESEARCH INSTITUTE OF NON-AQUEOUSSOLUTIONS TOHOKU UNIV.
InstType: EI
InstName: JEOL JMS-DX-300
IoniMethod: _ENERGY 70 eV
IonPolarity: pos
Date: 2010-10-09 19:48:36+02:00
Num Peaks: 29
32 40 41 40 55 91 69 11 81 14 95 27 115 12 127 0 128 37 129 45 
141 139 142 15 149 23 152 22 153 25 154 18 155 43 165 16 167 41 168 90 
169 999 170 162 171 11 178 16 179 12 264 18 265 10 336 7 337 17 
