Name: MassBank: JP009872
CAS: 21632-06-4
MW: 208
Formula: C14H24O
Synonym: MassBank: JP009872
Synonym: 2-METHYL-4-(2,6,6-TRIMETHYL-2-CYCLOHEXEN-2-YL)BUTANAL
Structure: 322D4D455448594C2D342D28322C362C362D5452494D455448594C2D322D4359434C4F484558454E2D322D594C29425554414E414C2E6D6F6C0A20204368656D447261773031323231303036343932440A2031352031352020302020302020302020302020302020302020302020303939392056323030300A2020202D302E363733332020202D302E3832353020202020302E303030302043202020302020302020302020302020302020302020302020302020302020302020302020300A2020202D302E363733332020202D312E3635303020202020302E303030302043202020302020302020302020302020302020302020302020302020302020302020302020300A20202020302E303431322020202D322E3036323520202020302E303030302043202020302020302020302020302020302020302020302020302020302020302020302020300A20202020302E373535372020202D312E3635303020202020302E303030302043202020302020302020302020302020302020302020302020302020302020302020302020300A20202020302E373535372020202D302E3832353020202020302E303030302043202020302020302020302020302020302020302020302020302020302020302020302020300A20202020302E303431322020202D302E3431323520202020302E303030302043202020302020302020302020302020302020302020302020302020302020302020302020300A20202020312E343730322020202D302E3431323520202020302E303030302043202020302020302020302020302020302020302020302020302020302020302020302020300A20202020302E3034313220202020302E3431323520202020302E303030302043202020302020302020302020302020302020302020302020302020302020302020302020300A2020202D302E3637333320202020302E3832353020202020302E303030302043202020302020302020302020302020302020302020302020302020302020302020302020300A2020202D302E3637333320202020312E3635303020202020302E303030302043202020302020302020302020302020302020302020302020302020302020302020302020300A2020202D312E3338373720202020322E3036323520202020302E303030302043202020302020302020302020302020302020302020302020302020302020302020302020300A20202020302E3034313220202020322E3036323520202020302E303030302043202020302020302020302020302020302020302020302020302020302020302020302020300A20202020302E3735353720202020312E3635303020202020302E30303030204F202020302020302020302020302020302020302020302020302020302020302020302020300A2020202D312E303835382020202D302E3131303520202020302E303030302043202020302020302020302020302020302020302020302020302020302020302020302020300A2020202D312E343730322020202D312E3033383520202020302E303030302043202020302020302020302020302020302020302020302020302020302020302020302020300A2020312020322020312020302020202020200A2020322020332020312020302020202020200A2020332020342020312020302020202020200A2020342020352020312020302020202020200A2020352020362020322020302020202020200A2020362020312020312020302020202020200A2020352020372020312020302020202020200A2020362020382020312020302020202020200A2020382020392020312020302020202020200A2020392031302020312020302020202020200A2031302031312020312020302020202020200A2031302031322020312020302020202020200A2031322031332020322020302020202020200A2020312031342020312020312020202020200A2020312031352020312020362020202020200A4D2020454E44
Contributor: KURARAY CO., LTD.
InstType: EI
InstName: JEOL JMS-D-300
IoniMethod: _ENERGY 70 eV
IonPolarity: pos
Date: 2010-10-09 19:48:36+02:00
Num Peaks: 35
29 190 39 127 41 478 43 130 53 146 55 266 67 264 69 406 77 157 79 275 
81 658 82 170 83 155 91 210 93 280 94 252 95 827 96 115 105 206 107 410 
109 397 119 212 121 68 123 999 124 148 125 158 133 110 135 590 136 100 151 382 
152 102 175 260 177 20 193 275 208 278 
