Name: 2-HYDROXY-6-METHOXYACETHPHENONE
MW: 166
Formula: C9H10O3
Synonym: MassBank: JP006339
Synonym: 2-HYDROXY-6-METHOXYACETHPHENONE
Structure: 322D485944524F58592D362D4D4554484F585941434554485048454E4F4E452E6D6F6C0A20204368656D447261773031323131303231333632440A2031322031322020302020302020302020302020302020302020302020303939392056323030300A2020202D312E303731372020202D302E3230363220202020302E303030302043202020302020302020302020302020302020302020302020302020302020302020302020300A2020202D312E303731372020202D312E3033313320202020302E303030302043202020302020302020302020302020302020302020302020302020302020302020302020300A2020202D302E333537322020202D312E3434333820202020302E303030302043202020302020302020302020302020302020302020302020302020302020302020302020300A20202020302E333537322020202D312E3033313320202020302E303030302043202020302020302020302020302020302020302020302020302020302020302020302020300A20202020302E333537322020202D302E3230363220202020302E303030302043202020302020302020302020302020302020302020302020302020302020302020302020300A2020202D302E3335373220202020302E3230363220202020302E303030302043202020302020302020302020302020302020302020302020302020302020302020302020300A2020202D302E3335373220202020312E3033313320202020302E303030302043202020302020302020302020302020302020302020302020302020302020302020302020300A2020202D312E3037313720202020312E3434333820202020302E30303030204F202020302020302020302020302020302020302020302020302020302020302020302020300A20202020302E3335373220202020312E3434333820202020302E303030302043202020302020302020302020302020302020302020302020302020302020302020302020300A20202020312E3037313720202020302E3230363220202020302E30303030204F202020302020302020302020302020302020302020302020302020302020302020302020300A2020202D312E3738363220202020302E3230363220202020302E30303030204F202020302020302020302020302020302020302020302020302020302020302020302020300A20202020312E373836322020202D302E3230363220202020302E303030302043202020302020302020302020302020302020302020302020302020302020302020302020300A2020312020322020322020302020202020200A2020322020332020312020302020202020200A2020332020342020322020302020202020200A2020342020352020312020302020202020200A2020352020362020322020302020202020200A2020362020312020312020302020202020200A2020362020372020312020302020202020200A2020372020382020322020302020202020200A2020372020392020312020302020202020200A2020352031302020312020302020202020200A2020312031312020312020302020202020200A2031302031322020312020302020202020200A4D2020454E44
Contributor: EGUCHI S, FAC. OF SCIENCE, HIROSHIMA UNIV.
InstType: EI
InstName: HITACHI RMU-7L
IoniMethod: _ENERGY 70 eV
IonPolarity: pos
Date: 2010-10-09 19:48:36+02:00
Num Peaks: 56
40 65 41 70 42 69 43 74 50 140 51 260 52 228 53 21 54 98 55 130 
61 20 62 9 63 170 64 82 65 295 66 9 67 70 68 18 69 70 74 4 
75 35 76 35 77 170 78 4 79 85 80 85 81 70 90 2 91 55 92 55 
93 155 94 6 95 50 105 55 106 15 107 6 108 208 109 25 119 35 120 4 
121 49 122 35 123 37 124 2 133 15 136 145 137 45 157 5 158 72 159 32 
160 20 161 999 162 100 163 25 166 395 167 50 
