Name: N-ACETYL-ALANYL-ALANYL-ALANINE METHYL ESTER
MW: 287
Formula: C12H21N3O5
Synonym: MassBank: JP000301
Synonym: N-ACETYL-ALANYL-ALANYL-ALANINE METHYL ESTER
Structure: 303132365F4E2D41434554594C2D414C414E594C2D414C414E594C2D414C414E494E45204D455448594C2045535445522E6D6F6C0A20204368656D447261773039303331303138303332440A2032332032322020302020302020302020302020302020302020302020303939392056323030300A2020202D322E383537392020202D302E3832353020202020302E303030302043202020302020302020302020302020302020302020302020302020302020302020302020300A2020202D312E343238392020202D302E3832353020202020302E30303030204E202020302020302020302020302020302020302020302020302020302020302020302020300A2020202D322E313433342020202D302E3431323520202020302E303030302043202020302020302020302020302020302020302020302020302020302020302020302020300A2020202D322E3134333420202020302E3431323520202020302E303030302043202020302020302020302020302020302020302020302020302020302020302020302020300A2020202D322E383537392020202D312E3635303020202020302E30303030204F202020302020302020302020302020302020302020302020302020302020302020302020300A2020202D332E353732342020202D302E3431323520202020302E30303030204F202020302020302020302020302020302020302020302020302020302020302020302020300A2020202D302E373134352020202D302E3431323520202020302E303030302043202020302020302020302020302020302020302020302020302020302020302020302020300A20202020302E373134352020202D302E3431323520202020302E30303030204E202020302020302020302020302020302020302020302020302020302020302020302020300A20202020302E303030302020202D302E3832353020202020302E303030302043202020302020302020302020302020302020302020302020302020302020302020302020300A20202020302E303030302020202D312E3635303020202020302E303030302043202020302020302020302020302020302020302020302020302020302020302020302020300A2020202D302E3731343520202020302E3431323520202020302E30303030204F202020302020302020302020302020302020302020302020302020302020302020302020300A20202020312E343238392020202D302E3832353020202020302E303030302043202020302020302020302020302020302020302020302020302020302020302020302020300A20202020322E3134333420202020302E3431323520202020302E30303030204E202020302020302020302020302020302020302020302020302020302020302020302020300A20202020322E313433342020202D302E3431323520202020302E303030302043202020302020302020302020302020302020302020302020302020302020302020302020300A20202020322E383537392020202D302E3832353020202020302E303030302043202020302020302020302020302020302020302020302020302020302020302020302020300A20202020312E343238392020202D312E3635303020202020302E30303030204F202020302020302020302020302020302020302020302020302020302020302020302020300A20202020322E3835373920202020302E3832353020202020302E303030302043202020302020302020302020302020302020302020302020302020302020302020302020300A20202020322E3835373920202020312E3635303020202020302E30303030204F202020302020302020302020302020302020302020302020302020302020302020302020300A20202020332E3537323420202020302E3431323520202020302E303030302043202020302020302020302020302020302020302020302020302020302020302020302020300A2020202D332E3537323420202020302E3431323520202020302E303030302043202020302020302020302020302020302020302020302020302020302020302020302020300A2020202D322E313433342020202D312E3233373520202020302E303030302048202020302020302020302020302020302020302020302020302020302020302020302020300A2020202D302E363838332020202D312E3237393820202020302E303030302048202020302020302020302020302020302020302020302020302020302020302020302020300A20202020322E313032322020202D312E3233363520202020302E303030302048202020302020302020302020302020302020302020302020302020302020302020302020300A2020322020332020312020302020202020200A2020312020332020312020302020202020200A2020332020342020312020312020202020200A2020312020352020322020302020202020200A2020312020362020312020302020202020200A2020392020382020312020312020202020200A2020372020392020312020302020202020200A2020392031302020312020302020202020200A2020372031312020322020302020202020200A2031342031332020312020312020202020200A2031322031342020312020302020202020200A2031342031352020312020302020202020200A2031322031362020322020302020202020200A2020382031322020312020302020202020200A2020322020372020312020302020202020200A2031372031382020322020302020202020200A2031372031392020312020302020202020200A2031332031372020312020302020202020200A2020362032302020312020302020202020200A2020332032312020312020312020202020200A2020392032322020312020312020202020200A2031342032332020312020312020202020200A4D2020454E44
Contributor: YAMAMOTO M, DEP. CHEMISTRY, FAC. SCIENCE, NARA WOMEN'S UNIV.
InstType: EI
InstName: HITACHI RMU-6M
IoniMethod: _ENERGY 70 eV
IonPolarity: pos
Date: 2010-10-09 19:48:36+02:00
Num Peaks: 30
15 44 27 17 28 98 30 2 32 20 41 12 42 56 43 8 44 999 45 36 
55 19 56 2 59 15 70 40 71 26 72 3 86 163 87 112 99 34 102 2 
104 20 113 13 114 114 141 3 157 91 158 85 159 32 185 4 201 26 228 16 
