Name: MassBank: JP000769
MW: 281
Formula: C16H15N3O2
Synonym: MassBank: JP000769
Synonym: 2-AMINO-1,3-DICYANO-4,8-BIS(METHOXYMETHYL)AZULENE
Structure: 322D414D494E4F2D312C332D44494359414E4F2D342C382D424953284D4554484F58594D455448594C29415A554C454E452E6D6F6C0A20204368656D447261773132323130393232313032440A2032312032322020302020302020302020302020302020302020302020303939392056323030300A2020202D302E3636373420202020302E3634313020202020302E303030302043202020302020302020302020302020302020302020302020302020302020302020302020300A2020202D302E3030303020202020312E3132353920202020302E303030302043202020302020302020302020302020302020302020302020302020302020302020302020300A20202020302E3636373420202020302E3634313020202020302E303030302043202020302020302020302020302020302020302020302020302020302020302020302020300A20202020302E343132352020202D302E3134333620202020302E303030302043202020302020302020302020302020302020302020302020302020302020302020302020300A20202020302E393236392020202D302E3738383620202020302E303030302043202020302020302020302020302020302020302020302020302020302020302020302020300A20202020302E373433332020202D312E3539333020202020302E303030302043202020302020302020302020302020302020302020302020302020302020302020302020300A20202020302E303030302020202D312E3935303920202020302E303030302043202020302020302020302020302020302020302020302020302020302020302020302020300A2020202D302E373433332020202D312E3539333020202020302E303030302043202020302020302020302020302020302020302020302020302020302020302020302020300A2020202D302E393236392020202D302E3738383620202020302E303030302043202020302020302020302020302020302020302020302020302020302020302020302020300A2020202D302E343132352020202D302E3134333620202020302E303030302043202020302020302020302020302020302020302020302020302020302020302020302020300A2020202D312E373331322020202D302E3630353120202020302E303030302043202020302020302020302020302020302020302020302020302020302020302020302020300A2020202D322E333134362020202D312E3138383420202020302E30303030204F202020302020302020302020302020302020302020302020302020302020302020302020300A2020202D332E313131342020202D302E3937343920202020302E303030302043202020302020302020302020302020302020302020302020302020302020302020302020300A20202020312E373331322020202D302E3630353120202020302E303030302043202020302020302020302020302020302020302020302020302020302020302020302020300A20202020322E333134362020202D312E3138383420202020302E30303030204F202020302020302020302020302020302020302020302020302020302020302020302020300A20202020332E313131342020202D302E3937343920202020302E303030302043202020302020302020302020302020302020302020302020302020302020302020302020300A20202020312E3435323120202020302E3839353920202020302E303030302043202020302020302020302020302020302020302020302020302020302020302020302020300A20202020322E3233363720202020312E3135303920202020302E30303030204E202020302020302020302020302020302020302020302020302020302020302020302020300A2020202D312E3435323120202020302E3839353920202020302E303030302043202020302020302020302020302020302020302020302020302020302020302020302020300A2020202D322E3233363720202020312E3135303920202020302E30303030204E202020302020302020302020302020302020302020302020302020302020302020302020300A2020202D302E3030303020202020312E3935303920202020302E30303030204E202020302020302020302020302020302020302020302020302020302020302020302020300A2020312020322020312020302020202020200A2020322020332020322020302020202020200A2020332020342020312020302020202020200A2020342020352020322020302020202020200A2020352020362020312020302020202020200A2020362020372020322020302020202020200A2020372020382020312020302020202020200A2020382020392020322020302020202020200A2020392031302020312020302020202020200A2020312031302020322020302020202020200A2020342031302020312020302020202020200A2031322031332020312020302020202020200A2031312031322020312020302020202020200A2020392031312020312020302020202020200A2031352031362020312020302020202020200A2031342031352020312020302020202020200A2020352031342020312020302020202020200A2031372031382020332020302020202020200A2020332031372020312020302020202020200A2031392032302020332020302020202020200A2020312031392020312020302020202020200A2020322032312020312020302020202020200A4D2020454E44
Contributor: ITO S, DEPT. OF CHEM., TOHOKU UNIV.
InstType: EI
InstName: Unknown
IoniMethod: _ENERGY 25 eV
IonPolarity: pos
Date: 2010-10-09 19:48:36+02:00
Num Peaks: 52
45 530 75 215 139 40 140 7 141 35 151 30 152 100 153 7 154 35 155 35 
164 75 165 8 166 77 167 45 168 30 177 4 178 60 179 155 180 85 181 6 
190 30 191 115 192 90 193 17 194 75 195 35 204 40 205 4 206 260 207 170 
208 90 209 4 211 40 217 60 218 300 219 15 220 370 221 260 222 100 223 7 
234 220 235 105 236 895 237 16 238 30 248 45 249 135 250 24 251 190 252 35 
281 999 282 190 
