Name: 17BETA-ACETOXY-1ALPHA-HYDROXY-5ALPHA-ANDROST-2-ENE
MW: 332
Formula: C21H32O3
Synonym: MassBank: JP008148
Synonym: 17BETA-ACETOXY-1ALPHA-HYDROXY-5ALPHA-ANDROST-2-ENE
Structure: 3137424554412D414345544F58592D31414C5048412D485944524F58592D35414C5048412D414E44524F53542D322D454E452E6D6F6C0A20204368656D447261773132313130393031303232440A2033322033352020302020302020302020302020302020302020302020303939392056323030300A2020202D322E363433392020202D312E3632323720202020302E303030302043202020302020302020302020302020302020302020302020302020302020302020302020300A2020202D322E363433392020202D302E3739373720202020302E303030302043202020302020302020302020302020302020302020302020302020302020302020302020300A2020202D312E393239342020202D302E3338353220202020302E303030302043202020302020302020302020302020302020302020302020302020302020302020302020300A2020202D312E393239342020202D322E3033353220202020302E303030302043202020302020302020302020302020302020302020302020302020302020302020302020300A2020202D312E323134392020202D312E3632323720202020302E303030302043202020302020302020302020302020302020302020302020302020302020302020302020300A2020202D302E353030352020202D322E3033353220202020302E303030302043202020302020302020302020302020302020302020302020302020302020302020302020300A20202020302E323134302020202D312E3632323720202020302E303030302043202020302020302020302020302020302020302020302020302020302020302020302020300A20202020302E323134302020202D302E3739373720202020302E303030302043202020302020302020302020302020302020302020302020302020302020302020302020300A20202020302E393238352020202D302E3338353220202020302E303030302043202020302020302020302020302020302020302020302020302020302020302020302020300A20202020312E373133312020202D302E3634303220202020302E303030302043202020302020302020302020302020302020302020302020302020302020302020302020300A20202020322E3139383020202020302E3032373320202020302E303030302043202020302020302020302020302020302020302020302020302020302020302020302020300A20202020312E3731333120202020302E3639343720202020302E303030302043202020302020302020302020302020302020302020302020302020302020302020302020300A20202020302E3932383520202020302E3433393820202020302E303030302043202020302020302020302020302020302020302020302020302020302020302020302020300A20202020302E3932383520202020312E3236343820202020302E303030302043202020302020302020302020302020302020302020302020302020302020302020302020300A20202020302E3231343020202020302E3835323320202020302E303030302043202020302020302020302020302020302020302020302020302020302020302020302020300A2020202D302E3530303520202020302E3433393820202020302E303030302043202020302020302020302020302020302020302020302020302020302020302020302020300A2020202D302E353030352020202D302E3338353220202020302E303030302043202020302020302020302020302020302020302020302020302020302020302020302020300A2020202D312E323134392020202D302E3739373720202020302E303030302043202020302020302020302020302020302020302020302020302020302020302020302020300A2020202D312E3231343920202020302E3032373320202020302E303030302043202020302020302020302020302020302020302020302020302020302020302020302020300A2020202D322E3134323920202020302E3431313720202020302E30303030204F202020302020302020302020302020302020302020302020302020302020302020302020300A20202020312E3936383020202020312E3437393320202020302E30303030204F202020302020302020302020302020302020302020302020302020302020302020302020300A20202020322E3737353020202020312E3635303820202020302E303030302043202020302020302020302020302020302020302020302020302020302020302020302020300A20202020332E3335383420202020312E3036373520202020302E30303030204F202020302020302020302020302020302020302020302020302020302020302020302020300A20202020322E3938383520202020322E3434373720202020302E303030302043202020302020302020302020302020302020302020302020302020302020302020302020300A2020202D312E323134392020202D322E3434373720202020302E303030302048202020302020302020302020302020302020302020302020302020302020302020302020300A2020202D302E353030352020202D312E3231303220202020302E303030302048202020302020302020302020302020302020302020302020302020302020302020302020300A20202020302E3231343020202020302E3032373320202020302E303030302048202020302020302020302020302020302020302020302020302020302020302020302020300A20202020302E393238352020202D312E3231303220202020302E303030302048202020302020302020302020302020302020302020302020302020302020302020302020300A2020202D312E3531363920202020302E3332393220202020302E303030302048202020302020302020302020302020302020302020302020302020302020302020302020300A20202020322E3532373920202020302E3832333820202020302E303030302048202020302020302020302020302020302020302020302020302020302020302020302020300A2020202D332E333538342020202D302E3338353220202020302E303030302048202020302020302020302020302020302020302020302020302020302020302020302020300A2020202D332E333538342020202D322E3033353220202020302E303030302048202020302020302020302020302020302020302020302020302020302020302020302020300A2020312020322020322020302020202020200A2020322020332020312020302020202020200A2020312020342020312020302020202020200A2020342020352020312020302020202020200A2020352020362020312020302020202020200A2020362020372020312020302020202020200A2020372020382020312020302020202020200A2020382020392020312020302020202020200A2020392031302020312020302020202020200A2031302031312020312020302020202020200A2031312031322020312020302020202020200A2031322031332020312020302020202020200A2020392031332020312020302020202020200A2031332031342020312020312020202020200A2031332031352020312020302020202020200A2031352031362020312020302020202020200A2031362031372020312020302020202020200A2020382031372020312020302020202020200A2031372031382020312020302020202020200A2020332031382020312020302020202020200A2020352031382020312020302020202020200A2031382031392020312020312020202020200A2020332032302020312020362020202020200A2032322032332020322020302020202020200A2032322032342020312020302020202020200A2032312032322020312020302020202020200A2031322032312020312020312020202020200A2020352032352020312020362020202020200A2031372032362020312020362020202020200A2020382032372020312020312020202020200A2020392032382020312020362020202020200A2020332032392020312020312020202020200A2031322033302020312020362020202020200A2020322033312020312020302020202020200A2020312033322020312020302020202020200A4D2020454E44
Contributor: NARA WOMEN'S UNIVERSITY
InstType: EI
InstName: HITACHI M-80
IoniMethod: _ENERGY 70 eV
IonPolarity: pos
Date: 2010-10-09 19:48:36+02:00
Num Peaks: 80
29 13 39 11 41 44 43 201 53 13 55 42 57 9 67 31 69 19 70 137 
71 10 77 28 79 59 80 13 81 76 91 65 92 19 93 80 94 40 95 56 
105 73 106 35 107 87 108 29 109 36 117 18 118 12 119 33 120 22 121 54 
122 15 123 13 124 19 131 51 132 13 133 40 134 20 135 22 143 11 145 43 
146 42 147 65 148 19 149 20 150 10 157 12 159 42 160 26 161 59 162 14 
163 18 173 49 174 22 175 13 187 117 188 21 199 17 201 51 202 304 203 999 
204 160 205 16 220 10 221 51 239 21 254 28 255 34 257 22 260 12 261 38 
262 401 263 205 264 33 272 88 273 19 314 58 315 32 332 362 333 85 334 12 
