Name: 3-PARA-MENTHEN-5-YL ACETATE
MW: 196
Formula: C12H20O2
Synonym: MassBank: JP001220
Synonym: 3-PARA-MENTHEN-5-YL ACETATE
Structure: 332D504152412D4D454E5448454E2D352D594C20414345544154452E6D6F6C0A20204368656D447261773033323331303037303532440A2031342031342020302020302020302020302020302020302020302020303939392056323030300A20202020312E303331332020202D312E3037313720202020302E303030302043202020302020302020302020302020302020302020302020302020302020302020302020300A20202020312E383536332020202D312E3037313720202020302E303030302043202020302020302020302020302020302020302020302020302020302020302020302020300A20202020302E363138372020202D312E3738363220202020302E30303030204F202020302020302020302020302020302020302020302020302020302020302020302020300A20202020302E363138372020202D302E3335373220202020302E30303030204F202020302020302020302020302020302020302020302020302020302020302020302020300A2020202D312E3434333720202020302E3335373220202020302E303030302043202020302020302020302020302020302020302020302020302020302020302020302020300A2020202D302E3631383720202020302E3335373220202020302E303030302043202020302020302020302020302020302020302020302020302020302020302020302020300A2020202D302E323036322020202D302E3335373220202020302E303030302043202020302020302020302020302020302020302020302020302020302020302020302020300A2020202D302E363138382020202D312E3037313720202020302E303030302043202020302020302020302020302020302020302020302020302020302020302020302020300A2020202D312E343433372020202D312E3037313720202020302E303030302043202020302020302020302020302020302020302020302020302020302020302020302020300A2020202D312E383536332020202D302E3335373220202020302E303030302043202020302020302020302020302020302020302020302020302020302020302020302020300A2020202D312E383536322020202D312E3738363220202020302E303030302043202020302020302020302020302020302020302020302020302020302020302020302020300A2020202D302E3230363220202020312E3037313720202020302E303030302043202020302020302020302020302020302020302020302020302020302020302020302020300A2020202D302E3631383720202020312E3738363220202020302E303030302043202020302020302020302020302020302020302020302020302020302020302020302020300A20202020302E3631383820202020312E3037313720202020302E303030302043202020302020302020302020302020302020302020302020302020302020302020302020300A2020312020322020312020302020202020200A2020312020332020322020302020202020200A2020312020342020312020302020202020200A2020352020362020322020302020202020200A2020362020372020312020302020202020200A2020372020382020312020302020202020200A2020382020392020312020302020202020200A2020392031302020312020302020202020200A2020352031302020312020302020202020200A2020392031312020312020302020202020200A2031322031332020312020302020202020200A2031322031342020312020302020202020200A2020362031322020312020302020202020200A2020342020372020312020302020202020200A4D2020454E44
Contributor: SASAKI S, TOYOHASHI UNIV. OF TECH.
InstType: EI
InstName: HITACHI RMU-6D
IoniMethod: _ENERGY 70 eV
IonPolarity: pos
Date: 2010-10-09 19:48:36+02:00
Num Peaks: 58
15 60 17 160 18 450 27 18 28 220 29 140 39 140 40 2 41 420 42 50 
43 999 44 3 53 100 54 20 55 190 56 6 57 80 64 40 65 10 67 20 
68 80 69 210 70 40 71 20 78 110 79 20 80 175 81 4 82 400 83 160 
84 80 85 1 86 20 87 5 91 110 92 8 93 530 94 120 95 550 96 14 
97 60 105 50 107 365 108 8 109 100 110 20 111 230 112 5 121 630 122 70 
123 200 137 58 138 100 139 330 140 115 153 1 154 20 196 15 
