Name: 3-METHOXY-4-(TRIMETHYLSILYL)OXYBENZOIC ACID TRIMETHYLSILYL ESTER
MW: 312
Formula: C14H24O4Si2
Synonym: MassBank: JP001027
Synonym: 3-METHOXY-4-(TRIMETHYLSILYL)OXYBENZOIC ACID TRIMETHYLSILYL ESTER
Synonym: TRIMETHYLSILYL 3-METHOXY-4-TRIMETHYLSILOXYBENZOATE
Structure: 332D4D4554484F58592D342D285452494D455448594C53494C594C294F585942454E5A4F49432041434944205452494D455448594C53494C594C2045535445522E6D6F6C0A20204368656D447261773032323231303233303332440A2032302032302020302020302020302020302020302020302020302020303939392056323030300A2020202D312E313832322020202D302E3330323020202020302E303030302043202020302020302020302020302020302020302020302020302020302020302020302020300A2020202D302E333537322020202D302E3330323020202020302E303030302043202020302020302020302020302020302020302020302020302020302020302020302020300A20202020302E3035353320202020302E3431323520202020302E303030302043202020302020302020302020302020302020302020302020302020302020302020302020300A20202020302E3838303320202020302E3431323520202020302E303030302043202020302020302020302020302020302020302020302020302020302020302020302020300A20202020312E323932382020202D302E3330323020202020302E303030302043202020302020302020302020302020302020302020302020302020302020302020302020300A20202020302E383830332020202D312E3031363420202020302E303030302043202020302020302020302020302020302020302020302020302020302020302020302020300A20202020302E303535332020202D312E3031363420202020302E303030302043202020302020302020302020302020302020302020302020302020302020302020302020300A2020202D312E3539343720202020302E3431323520202020302E30303030204F202020302020302020302020302020302020302020302020302020302020302020302020300A2020202D312E353934372020202D312E3031363420202020302E30303030204F202020302020302020302020302020302020302020302020302020302020302020302020300A20202020322E313137382020202D302E3330323020202020302E30303030204F202020302020302020302020302020302020302020302020302020302020302020302020300A20202020322E353330332020202D312E3031363420202020302E303030302053692020302020302020302020302020302020302020302020302020302020302020302020300A20202020322E393432382020202D312E3733303920202020302E303030302043202020302020302020302020302020302020302020302020302020302020302020302020300A20202020312E383135382020202D312E3432383920202020302E303030302043202020302020302020302020302020302020302020302020302020302020302020302020300A20202020332E323434372020202D302E3630333920202020302E303030302043202020302020302020302020302020302020302020302020302020302020302020302020300A20202020312E3239323820202020312E3132373020202020302E30303030204F202020302020302020302020302020302020302020302020302020302020302020302020300A20202020302E3838303320202020312E3834313420202020302E303030302043202020302020302020302020302020302020302020302020302020302020302020302020300A2020202D322E343139372020202D312E3031363420202020302E303030302053692020302020302020302020302020302020302020302020302020302020302020302020300A2020202D322E343139372020202D312E3834313420202020302E303030302043202020302020302020302020302020302020302020302020302020302020302020302020300A2020202D332E323434372020202D312E3031363420202020302E303030302043202020302020302020302020302020302020302020302020302020302020302020302020300A2020202D322E343139372020202D302E3139313420202020302E303030302043202020302020302020302020302020302020302020302020302020302020302020302020300A2020312020322020312020302020202020200A2020322020332020312020302020202020200A2020332020342020322020302020202020200A2020342020352020312020302020202020200A2020352020362020322020302020202020200A2020362020372020312020302020202020200A2020322020372020322020302020202020200A2020312020382020322020302020202020200A2020312020392020312020302020202020200A2031312031322020312020302020202020200A2031312031332020312020302020202020200A2031312031342020312020302020202020200A2031302031312020312020302020202020200A2020352031302020312020302020202020200A2031352031362020312020302020202020200A2020342031352020312020302020202020200A2031372031382020312020312020202020200A2031372031392020312020302020202020200A2031372032302020312020312020202020200A2020392031372020312020302020202020200A4D2020454E44
Contributor: KOGA M, UNIV. OF OCCUPATIONAL AND ENVIRONMENTAL HEALTH
InstType: EI
InstName: JEOL JMS-01-SG
IoniMethod: _ENERGY 70 eV
IonPolarity: pos
Date: 2010-10-09 19:48:36+02:00
Num Peaks: 29
45 129 59 95 73 584 75 10 77 134 89 50 126 269 134 8 141 73 147 134 
148 78 149 6 165 78 193 157 223 511 224 8 253 410 254 84 267 612 268 12 
269 56 282 398 283 89 297 999 298 219 299 95 312 629 313 15 314 56 
