Name: 3-AMINO-1-PROPANOL
MW: 75
Formula: C3H9NO
Synonym: MassBank: JP001798
Synonym: 3-AMINO-1-PROPANOL
Structure: 310A31340A332D414D494E4F2D312D50524F50414E4F4C2E6D6F6C0A20204368656D447261773032323231303133343432440A2020352020342020302020302020302020302020302020302020302020303939392056323030300A2020202D302E3731343520202020302E3230363220202020302E303030302043202020302020302020302020302020302020302020302020302020302020302020302020300A20202020302E303030302020202D302E3230363220202020302E303030302043202020302020302020302020302020302020302020302020302020302020302020302020300A20202020302E3731343520202020302E3230363220202020302E303030302043202020302020302020302020302020302020302020302020302020302020302020302020300A2020202D312E343238392020202D302E3230363220202020302E30303030204F202020302020302020302020302020302020302020302020302020302020302020302020300A20202020312E343238392020202D302E3230363220202020302E30303030204E202020302020302020302020302020302020302020302020302020302020302020302020300A2020312020322020312020302020202020200A2020322020332020312020302020202020200A2020312020342020312020302020202020200A2020332020352020312020302020202020200A4D2020454E44
Contributor: TAJIMA S, GUNMA COLLEGE OF TECHNOLOGY
InstType: EI
InstName: HITACHI RMU-7M
IoniMethod: _ENERGY 70 eV
IonPolarity: pos
Date: 2010-10-09 19:48:36+02:00
Num Peaks: 19
15 14 17 21 18 218 26 14 27 39 28 107 29 41 30 999 31 63 41 22 
42 34 43 23 44 71 45 32 55 13 56 35 57 28 58 18 75 24 
