Name: 2-PHENYLETHYL ISOTHIOCYANATE
MW: 163
Formula: C9H9NS
Synonym: MassBank: JP000925
Synonym: 2-PHENYLETHYL ISOTHIOCYANATE
Structure: 322D5048454E594C455448594C2049534F5448494F4359414E4154452E6D6F6C0A20204368656D447261773032323131303134323632440A2031312031312020302020302020302020302020302020302020302020303939392056323030300A2020202D302E333537322020202D302E3431323520202020302E303030302043202020302020302020302020302020302020302020302020302020302020302020302020300A20202020302E333537322020202D302E3832353020202020302E303030302043202020302020302020302020302020302020302020302020302020302020302020302020300A20202020312E303731372020202D302E3431323520202020302E303030302043202020302020302020302020302020302020302020302020302020302020302020302020300A20202020312E3037313720202020302E3431323520202020302E303030302043202020302020302020302020302020302020302020302020302020302020302020302020300A20202020312E3738363220202020302E3832353020202020302E303030302043202020302020302020302020302020302020302020302020302020302020302020302020300A20202020322E3530303620202020302E3431323520202020302E303030302043202020302020302020302020302020302020302020302020302020302020302020302020300A20202020322E353030362020202D302E3431323520202020302E303030302043202020302020302020302020302020302020302020302020302020302020302020302020300A20202020312E373836322020202D302E3832353020202020302E303030302043202020302020302020302020302020302020302020302020302020302020302020302020300A2020202D312E303731372020202D302E3832353020202020302E30303030204E202020302020302020302020302020302020302020302020302020302020302020302020300A2020202D312E373836322020202D302E3431323520202020302E303030302043202020302020302020302020302020302020302020302020302020302020302020302020300A2020202D322E3530303620202020302E3030303020202020302E303030302053202020302020302020302020302020302020302020302020302020302020302020302020300A2020312020322020312020302020202020200A2020332020342020312020302020202020200A2020342020352020322020302020202020200A2020352020362020312020302020202020200A2020362020372020322020302020202020200A2020372020382020312020302020202020200A2020332020382020322020302020202020200A2020322020332020312020302020202020200A2020392031302020322020302020202020200A2031302031312020322020302020202020200A2020312020392020312020302020202020200A4D2020454E44
Contributor: KAMEOKA H, DEPT. OF APPLIED CHEMISTRY, FAC. OF SCI. AND ENGINEERING, KINKI UNIV.
InstType: EI
InstName: SHIMADZU LKB-9000B
IoniMethod: _ENERGY 70 eV
IonPolarity: pos
Date: 2010-10-09 19:48:36+02:00
Num Peaks: 25
39 91 50 141 51 293 58 6 63 273 65 455 72 475 77 53 78 303 79 404 
89 222 90 9 91 919 92 546 101 30 102 10 103 444 104 232 105 758 106 14 
128 61 135 91 163 999 164 33 165 152 
