Name: PIVALOYL CHLORIDE
MW: 120
Formula: C5H9ClO
Synonym: MassBank: JP005881
Synonym: PIVALOYL CHLORIDE
Synonym: TRIMETHYLACETYL CHLORIDE
Structure: 310A31380A5452494D455448594C41434554594C2043484C4F524944452E6D6F6C0A20204368656D447261773038313231303038343332440A2020372020362020302020302020302020302020302020302020302020303939392056323030300A20202020302E3030303020202020302E3631383720202020302E303030302043202020302020302020302020302020302020302020302020302020302020302020302020300A2020202D302E3731343520202020312E3033313320202020302E30303030204F202020302020302020302020302020302020302020302020302020302020302020302020300A20202020302E303030302020202D302E3230363220202020302E303030302043202020302020302020302020302020302020302020302020302020302020302020302020300A20202020302E383235302020202D302E3230363220202020302E303030302043202020302020302020302020302020302020302020302020302020302020302020302020300A20202020302E303030302020202D312E3033313320202020302E303030302043202020302020302020302020302020302020302020302020302020302020302020302020300A2020202D302E383235302020202D302E3230363220202020302E303030302043202020302020302020302020302020302020302020302020302020302020302020302020300A20202020302E3731343520202020312E3033313320202020302E3030303020436C2020302020302020302020302020302020302020302020302020302020302020302020300A2020312020322020322020302020202020200A2020312020332020312020302020202020200A2020332020342020312020302020202020200A2020332020352020312020302020202020200A2020332020362020312020302020202020200A2020312020372020312020302020202020200A4D2020454E44
Contributor: YAMAMOTO M, DEP. CHEMISTRY, FAC. SCIENCE, NARA WOMEN'S UNIV.
InstType: EI
InstName: HITACHI RMU-6M
IoniMethod: _ENERGY 70 eV
IonPolarity: pos
Date: 2010-10-09 19:48:36+02:00
Num Peaks: 21
15 21 26 15 27 78 28 32 29 300 37 11 38 23 39 140 40 23 41 480 
42 42 50 11 53 11 55 32 56 23 57 999 58 42 63 14 77 38 79 11 
85 23 
