Name: PHENOXYACETYL CHLORIDE
MW: 170
Formula: C8H7ClO2
Synonym: MassBank: JP009390
Synonym: PHENOXYACETYL CHLORIDE
Structure: 5048454E4F585941434554594C2043484C4F524944452E6D6F6C0A20204368656D447261773038313231303035313832440A2031312031312020302020302020302020302020302020302020302020303939392056323030300A2020202D312E3635303020202020302E3335373220202020302E303030302043202020302020302020302020302020302020302020302020302020302020302020302020300A2020202D322E303632352020202D302E3335373220202020302E30303030204F202020302020302020302020302020302020302020302020302020302020302020302020300A2020202D302E3832353020202020302E3335373220202020302E303030302043202020302020302020302020302020302020302020302020302020302020302020302020300A2020202D302E343132352020202D302E3335373220202020302E30303030204F202020302020302020302020302020302020302020302020302020302020302020302020300A20202020302E343132352020202D302E3335373220202020302E303030302043202020302020302020302020302020302020302020302020302020302020302020302020300A20202020302E3832353020202020302E3335373220202020302E303030302043202020302020302020302020302020302020302020302020302020302020302020302020300A20202020312E3635303020202020302E3335373220202020302E303030302043202020302020302020302020302020302020302020302020302020302020302020302020300A20202020322E303632352020202D302E3335373220202020302E303030302043202020302020302020302020302020302020302020302020302020302020302020302020300A20202020312E363530302020202D312E3037313720202020302E303030302043202020302020302020302020302020302020302020302020302020302020302020302020300A20202020302E383235302020202D312E3037313720202020302E303030302043202020302020302020302020302020302020302020302020302020302020302020302020300A2020202D322E3036323520202020312E3037313720202020302E3030303020436C2020302020302020302020302020302020302020302020302020302020302020302020300A2020312020322020322020302020202020200A2020312020332020312020302020202020200A2020352020362020312020302020202020200A2020362020372020322020302020202020200A2020372020382020312020302020202020200A2020382020392020322020302020202020200A2020392031302020312020302020202020200A2020352031302020322020302020202020200A2020342020352020312020302020202020200A2020332020342020312020302020202020200A2020312031312020312020302020202020200A4D2020454E44
Contributor: GUNMA COLLEGE OF TECHNOLOGY
InstType: EI
InstName: HITACHI M-80A
IoniMethod: _ENERGY 70 eV
IonPolarity: pos
Date: 2010-10-09 19:48:36+02:00
Num Peaks: 46
26 32 27 52 28 353 29 75 30 33 35 117 36 606 37 39 38 195 39 310 
40 40 41 10 42 66 43 23 48 10 49 66 50 139 51 324 52 28 53 15 
54 25 55 20 61 17 62 34 63 78 64 34 65 253 66 89 74 36 75 25 
76 30 77 843 78 79 79 182 80 12 93 25 94 276 95 19 105 15 107 999 
108 79 142 85 144 28 170 264 171 24 172 87 
