Name: ISOPROPYL CELLOSOLVE
MW: 104
Formula: C5H12O2
Synonym: MassBank: JP006157
Synonym: ISOPROPYL CELLOSOLVE
Synonym: 2-ISOPROPOXYETHANOL
Structure: 310A31380A49534F50524F50594C2043454C4C4F534F4C56452E6D6F6C0A20204368656D447261773031323231303030313232440A2020372020362020302020302020302020302020302020302020302020303939392056323030300A20202020312E3037313720202020302E3631383820202020302E303030302043202020302020302020302020302020302020302020302020302020302020302020302020300A20202020302E3335373220202020302E3230363220202020302E303030302043202020302020302020302020302020302020302020302020302020302020302020302020300A2020202D302E3335373220202020302E3631383820202020302E30303030204F202020302020302020302020302020302020302020302020302020302020302020302020300A20202020312E3738363220202020302E3230363220202020302E30303030204F202020302020302020302020302020302020302020302020302020302020302020302020300A2020202D312E3037313720202020302E3230363220202020302E303030302043202020302020302020302020302020302020302020302020302020302020302020302020300A2020202D312E303731372020202D302E3631383820202020302E303030302043202020302020302020302020302020302020302020302020302020302020302020302020300A2020202D312E3738363220202020302E3631383820202020302E303030302043202020302020302020302020302020302020302020302020302020302020302020302020300A2020312020322020312020302020202020200A2020322020332020312020302020202020200A2020312020342020312020302020202020200A2020352020362020312020302020202020200A2020352020372020312020302020202020200A2020332020352020312020302020202020200A4D2020454E44
Contributor: HASHIMOTO K, KYOTO COLLEGE OF PHARMACY
InstType: EI
InstName: HITACHI M-80
IoniMethod: _ENERGY 20 eV
IonPolarity: pos
Date: 2010-10-09 19:48:36+02:00
Num Peaks: 19
18 24 27 120 29 20 31 140 33 57 41 177 42 99 43 999 44 36 45 648 
46 13 55 19 58 15 59 83 61 29 63 33 73 170 89 112 104 3 
