Name: HEXACHLOROBENZENE
MW: 281
Formula: C6Cl6
Synonym: MassBank: JP003627
Synonym: HEXACHLOROBENZENE
Structure: 4845584143484C4F524F42454E5A454E452E6D6F6C0A20204368656D447261773038313131303230313532440A2031322031322020302020302020302020302020302020302020302020303939392056323030300A2020202D302E383235302020202D302E3030303020202020302E303030302043202020302020302020302020302020302020302020302020302020302020302020302020300A2020202D302E3431323520202020302E3731343520202020302E303030302043202020302020302020302020302020302020302020302020302020302020302020302020300A20202020302E3431323520202020302E3731343520202020302E303030302043202020302020302020302020302020302020302020302020302020302020302020302020300A20202020302E383235302020202D302E3030303020202020302E303030302043202020302020302020302020302020302020302020302020302020302020302020302020300A20202020302E343132352020202D302E3731343520202020302E303030302043202020302020302020302020302020302020302020302020302020302020302020302020300A2020202D302E343132352020202D302E3731343520202020302E303030302043202020302020302020302020302020302020302020302020302020302020302020302020300A2020202D312E363530302020202D302E3030303020202020302E3030303020436C2020302020302020302020302020302020302020302020302020302020302020302020300A2020202D302E3832353020202020312E3432383920202020302E3030303020436C2020302020302020302020302020302020302020302020302020302020302020302020300A20202020302E3832353020202020312E3432383920202020302E3030303020436C2020302020302020302020302020302020302020302020302020302020302020302020300A20202020312E363530302020202D302E3030303020202020302E3030303020436C2020302020302020302020302020302020302020302020302020302020302020302020300A20202020302E383235302020202D312E3432383920202020302E3030303020436C2020302020302020302020302020302020302020302020302020302020302020302020300A2020202D302E383235302020202D312E3432383920202020302E3030303020436C2020302020302020302020302020302020302020302020302020302020302020302020300A2020312020322020312020302020202020200A2020322020332020322020302020202020200A2020332020342020312020302020202020200A2020342020352020322020302020202020200A2020352020362020312020302020202020200A2020312020362020322020302020202020200A2020312020372020312020302020202020200A2020322020382020312020302020202020200A2020332020392020312020302020202020200A2020342031302020312020302020202020200A2020352031312020312020302020202020200A2020362031322020312020302020202020200A4D2020454E44
Contributor: MASS SPECTROSCOPY SOC. OF JAPAN (MSSJ)
InstType: EI
InstName: Unknown
IoniMethod: EI
IonPolarity: pos
Date: 2010-10-09 19:48:36+02:00
Num Peaks: 44
35 125 36 142 37 40 47 13 48 20 49 43 60 65 71 16 72 92 73 50 
83 30 95 6 106 93 107 200 108 70 109 5 118 72 120 49 141 60 142 30 
143 90 144 163 145 25 146 2 177 80 179 80 181 25 214 11 216 150 218 86 
220 20 247 15 249 237 251 150 253 50 282 42 284 999 285 88 286 796 287 6 
288 340 289 30 290 80 250 30 
