Name: 2-OXAZOLINONE
MW: 87
Formula: C3H5NO2
Synonym: MassBank: JP004157
Synonym: 2-OXAZOLINONE
Structure: 310A31370A322D4F58415A4F4C494E4F4E452E6D6F6C0A20204368656D447261773032323131303132333332440A2020362020362020302020302020302020302020302020302020302020303939392056323030300A2020202D302E3236323720202020302E3636373420202020302E30303030204F202020302020302020302020302020302020302020302020302020302020302020302020300A20202020302E3232323320202020302E3030303020202020302E303030302043202020302020302020302020302020302020302020302020302020302020302020302020300A2020202D302E323632372020202D302E3636373420202020302E30303030204E202020302020302020302020302020302020302020302020302020302020302020302020300A2020202D312E303437332020202D302E3431323520202020302E303030302043202020302020302020302020302020302020302020302020302020302020302020302020300A2020202D312E3034373320202020302E3431323520202020302E303030302043202020302020302020302020302020302020302020302020302020302020302020302020300A20202020312E3034373320202020302E3030303020202020302E30303030204F202020302020302020302020302020302020302020302020302020302020302020302020300A2020312020322020312020302020202020200A2020322020332020312020302020202020200A2020332020342020322020302020202020200A2020342020352020312020302020202020200A2020312020352020312020302020202020200A2020322020362020322020302020202020200A4D2020454E44
Contributor: MASS SPECTROSCOPY SOC. OF JAPAN (MSSJ)
InstType: EI
InstName: HITACHI RMU-6E
IoniMethod: _ENERGY 70 eV
IonPolarity: pos
Date: 2010-10-09 19:48:36+02:00
Num Peaks: 57
12 11 13 9 14 40 15 22 16 18 17 25 18 80 19 0 24 2 25 6 
26 56 27 12 28 999 29 628 30 452 31 12 32 4 33 2 38 15 39 2 
40 54 41 80 42 394 43 13 44 170 45 16 46 1 51 0 52 1 53 2 
54 5 55 1 56 42 57 40 58 34 59 47 60 22 61 20 62 1 67 0 
68 1 69 2 70 2 71 0 72 1 77 2 78 1 79 0 83 5 84 2 
85 12 86 8 87 896 88 62 89 6 90 0 91 1 
