Name: 2-(3-TRIMETHYLSILYLOXYBUTOXY)-4-QUINOLINECARBOXYLIC ACID TRIMETHYLSILYL ESTER
MW: 405
Formula: C20H31NO4Si2
Synonym: MassBank: JP003442
Synonym: 2-(3-TRIMETHYLSILYLOXYBUTOXY)-4-QUINOLINECARBOXYLIC ACID TRIMETHYLSILYL ESTER
Structure: 322D28332D5452494D455448594C53494C594C4F58594255544F5859292D342D5155494E4F4C494E45434152424F58594C49432041434944205452494D455448594C53494C594C2045535445522E6D6F6C0A20204368656D447261773132323130393139323232440A2032372032382020302020302020302020302020302020302020302020303939392056323030300A20202020302E3330323020202020302E3230363220202020302E30303030204E202020302020302020302020302020302020302020302020302020302020302020302020300A20202020312E303136342020202D302E3230363320202020302E303030302043202020302020302020302020302020302020302020302020302020302020302020302020300A20202020312E303136342020202D312E3033313320202020302E303030302043202020302020302020302020302020302020302020302020302020302020302020302020300A20202020302E333032302020202D312E3434333820202020302E303030302043202020302020302020302020302020302020302020302020302020302020302020302020300A2020202D302E343132352020202D312E3033313320202020302E303030302043202020302020302020302020302020302020302020302020302020302020302020302020300A2020202D312E313237302020202D312E3434333820202020302E303030302043202020302020302020302020302020302020302020302020302020302020302020302020300A2020202D312E383431342020202D312E3033313320202020302E303030302043202020302020302020302020302020302020302020302020302020302020302020302020300A2020202D312E383431342020202D302E3230363320202020302E303030302043202020302020302020302020302020302020302020302020302020302020302020302020300A2020202D312E3132373020202020302E3230363220202020302E303030302043202020302020302020302020302020302020302020302020302020302020302020302020300A2020202D302E343132352020202D302E3230363320202020302E303030302043202020302020302020302020302020302020302020302020302020302020302020302020300A20202020302E333032302020202D322E3236383820202020302E303030302043202020302020302020302020302020302020302020302020302020302020302020302020300A2020202D302E343132352020202D322E3638313320202020302E30303030204F202020302020302020302020302020302020302020302020302020302020302020302020300A20202020312E303136342020202D322E3638313320202020302E30303030204F202020302020302020302020302020302020302020302020302020302020302020302020300A20202020312E3733303920202020302E3230363220202020302E30303030204F202020302020302020302020302020302020302020302020302020302020302020302020300A20202020312E3733303920202020312E3033313320202020302E303030302043202020302020302020302020302020302020302020302020302020302020302020302020300A20202020312E3031363420202020312E3434333820202020302E303030302043202020302020302020302020302020302020302020302020302020302020302020302020300A20202020312E3031363420202020322E3236383820202020302E303030302043202020302020302020302020302020302020302020302020302020302020302020302020300A20202020312E3733303920202020322E3638313320202020302E303030302043202020302020302020302020302020302020302020302020302020302020302020302020300A20202020302E3330323020202020322E3638313320202020302E30303030204F202020302020302020302020302020302020302020302020302020302020302020302020300A20202020302E3330323020202020332E3530363320202020302E303030302053692020302020302020302020302020302020302020302020302020302020302020302020300A20202020312E3132373020202020332E3530363320202020302E303030302043202020302020302020302020302020302020302020302020302020302020302020302020300A2020202D302E3532333020202020332E3530363320202020302E303030302043202020302020302020302020302020302020302020302020302020302020302020302020300A20202020302E3330323020202020342E3333313320202020302E303030302043202020302020302020302020302020302020302020302020302020302020302020302020300A20202020312E303136342020202D332E3530363320202020302E303030302053692020302020302020302020302020302020302020302020302020302020302020302020300A20202020312E383431342020202D332E3530363320202020302E303030302043202020302020302020302020302020302020302020302020302020302020302020302020300A20202020312E303136342020202D342E3333313320202020302E303030302043202020302020302020302020302020302020302020302020302020302020302020302020300A20202020302E313931342020202D332E3530363320202020302E303030302043202020302020302020302020302020302020302020302020302020302020302020302020300A2020312020322020312020302020202020200A2020322020332020322020302020202020200A2020332020342020312020302020202020200A2020342020352020322020302020202020200A2020352020362020312020302020202020200A2020362020372020322020302020202020200A2020372020382020312020302020202020200A2020382020392020322020302020202020200A2020392031302020312020302020202020200A2020312031302020322020302020202020200A2020352031302020312020302020202020200A2031312031322020322020302020202020200A2031312031332020312020302020202020200A2020342031312020312020302020202020200A2031352031362020312020302020202020200A2031362031372020312020302020202020200A2031372031382020312020302020202020200A2031342031352020312020302020202020200A2032302032312020312020312020202020200A2032302032322020312020312020202020200A2032302032332020312020302020202020200A2031392032302020312020302020202020200A2031372031392020312020302020202020200A2020322031342020312020302020202020200A2032342032352020312020302020202020200A2032342032362020312020302020202020200A2032342032372020312020302020202020200A2031332032342020312020302020202020200A4D2020454E44
Contributor: MASS SPECTROSCOPY SOC. OF JAPAN (MSSJ)
InstType: EI
InstName: HITACHI M-60
IoniMethod: _ENERGY 20 eV
IonPolarity: pos
Date: 2010-10-09 19:48:36+02:00
Num Peaks: 56
41 11 42 27 55 66 70 6 73 517 74 38 75 176 77 19 82 20 83 5 
98 15 99 4 103 191 111 9 113 11 117 4 119 14 129 635 130 75 131 35 
135 11 141 6 143 24 144 514 145 83 146 21 147 5 172 30 202 12 215 27 
216 32 218 6 245 117 246 417 247 89 248 23 260 8 261 285 262 999 263 209 
264 54 288 43 289 13 302 39 315 24 318 253 319 66 320 28 332 25 333 7 
334 290 335 77 336 32 348 14 390 44 391 12 
