Name: 2-METHYLTHIOPROPIONIC ACID METHYL ESTER
MW: 134
Formula: C5H10O2S
Synonym: MassBank: JP004216
Synonym: 2-METHYLTHIOPROPIONIC ACID METHYL ESTER
Structure: 310A32300A322D4D455448594C5448494F50524F50494F4E49432041434944204D455448594C2045535445522E6D6F6C0A20204368656D447261773032323131303036323132440A2020382020372020302020302020302020302020302020302020302020303939392056323030300A2020202D302E343132352020202D302E3335373220202020302E303030302043202020302020302020302020302020302020302020302020302020302020302020302020300A20202020302E3030303020202020302E3335373220202020302E303030302043202020302020302020302020302020302020302020302020302020302020302020302020300A2020202D302E3431323520202020312E3037313720202020302E303030302043202020302020302020302020302020302020302020302020302020302020302020302020300A20202020302E303030302020202D312E3037313720202020302E30303030204F202020302020302020302020302020302020302020302020302020302020302020302020300A2020202D312E323337352020202D302E3335373220202020302E30303030204F202020302020302020302020302020302020302020302020302020302020302020302020300A20202020302E3832353020202020302E3335373220202020302E303030302053202020302020302020302020302020302020302020302020302020302020302020302020300A20202020302E383235302020202D312E3037313720202020302E303030302043202020302020302020302020302020302020302020302020302020302020302020302020300A20202020312E3233373520202020312E3037313720202020302E303030302043202020302020302020302020302020302020302020302020302020302020302020302020300A2020312020322020312020302020202020200A2020322020332020312020302020202020200A2020312020342020312020302020202020200A2020312020352020322020302020202020200A2020322020362020312020302020202020200A2020342020372020312020302020202020200A2020362020382020312020302020202020200A4D2020454E44
Contributor: KOGA M, UNIV. OF OCCUPATIONAL AND ENVIRONMENTAL HEALTH
InstType: EI
InstName: JEOL JMS-01-SG
IoniMethod: _ENERGY 70 eV
IonPolarity: pos
Date: 2010-10-09 19:48:36+02:00
Num Peaks: 16
40 227 44 17 46 17 47 21 49 35 55 59 56 41 57 5 60 17 75 999 
76 47 77 5 87 17 88 257 134 329 135 11 
