Name: 2-ETHYLTHIOPHENE
CAS: 872-55-9
MW: 112
Formula: C6H8S
Synonym: MassBank: JP007774
Synonym: 2-ETHYLTHIOPHENE
Structure: 310A31390A322D455448594C5448494F5048454E452E6D6F6C0A20204368656D447261773031303331303133313032440A2020372020372020302020302020302020302020302020302020302020303939392056323030300A2020202D302E3036313620202020302E3238393820202020302E303030302043202020302020302020302020302020302020302020302020302020302020302020302020300A2020202D302E313437392020202D302E3533303720202020302E303030302043202020302020302020302020302020302020302020302020302020302020302020302020300A2020202D302E393534382020202D302E3730323320202020302E303030302043202020302020302020302020302020302020302020302020302020302020302020302020300A2020202D312E3336373320202020302E3031323220202020302E303030302043202020302020302020302020302020302020302020302020302020302020302020302020300A2020202D302E3831353320202020302E3632353320202020302E303030302053202020302020302020302020302020302020302020302020302020302020302020302020300A20202020302E3635323920202020302E3730323320202020302E303030302043202020302020302020302020302020302020302020302020302020302020302020302020300A20202020312E3336373320202020302E3238393820202020302E303030302043202020302020302020302020302020302020302020302020302020302020302020302020300A2020312020322020322020302020202020200A2020322020332020312020302020202020200A2020332020342020322020302020202020200A2020342020352020312020302020202020200A2020312020352020312020302020202020200A2020362020372020312020302020202020200A2020312020362020312020302020202020200A4D2020454E44
Contributor: HASHIMOTO K, KYOTO COLLEGE OF PHARMACY
InstType: EI
InstName: HITACHI M-80
IoniMethod: _ENERGY 20 eV
IonPolarity: pos
Date: 2010-10-09 19:48:36+02:00
Num Peaks: 32
27 20 29 18 39 110 41 70 45 470 46 10 47 39 51 29 52 20 53 448 
54 10 58 60 59 18 65 31 66 20 67 150 69 51 70 20 71 70 84 169 
85 88 86 20 96 20 97 999 98 338 99 349 100 20 109 20 110 40 111 428 
112 809 113 200 
