Name: 3-(DIETHOXYPHOSPHORYL)METHYL-5-N-PENTYL-2-ISOXAZOLINE
MW: 291
Formula: C13H26NO4P
Synonym: MassBank: JP009365
Synonym: 3-(DIETHOXYPHOSPHORYL)METHYL-5-N-PENTYL-2-ISOXAZOLINE
Structure: 332D2844494554484F585950484F5350484F52594C294D455448594C2D352D4E2D50454E54594C2D322D49534F58415A4F4C494E452E6D6F6C0A20204368656D447261773032323231303130353532440A2031392031392020302020302020302020302020302020302020302020303939392056323030300A2020202D302E3739393420202020302E3236373120202020302E303030302043202020302020302020302020302020302020302020302020302020302020302020302020300A2020202D302E373939342020202D302E3535373920202020302E303030302043202020302020302020302020302020302020302020302020302020302020302020302020300A2020202D302E303134372020202D302E3831323920202020302E303030302043202020302020302020302020302020302020302020302020302020302020302020302020300A20202020302E343730322020202D302E3134353420202020302E30303030204E202020302020302020302020302020302020302020302020302020302020302020302020300A2020202D302E3031343720202020302E3532323020202020302E30303030204F202020302020302020302020302020302020302020302020302020302020302020302020300A20202020302E323430322020202D312E3539373520202020302E303030302043202020302020302020302020302020302020302020302020302020302020302020302020300A20202020312E303437322020202D312E3736393020202020302E303030302050202020302020302020302020302020302020302020302020302020302020302020302020300A20202020312E383434312020202D312E3938323520202020302E30303030204F202020302020302020302020302020302020302020302020302020302020302020302020300A20202020312E323339382020202D302E3936363820202020302E30303030204F202020302020302020302020302020302020302020302020302020302020302020302020300A20202020302E383534362020202D322E3537313220202020302E30303030204F202020302020302020302020302020302020302020302020302020302020302020302020300A20202020322E303330382020202D302E3733323520202020302E303030302043202020302020302020302020302020302020302020302020302020302020302020302020300A20202020322E363239322020202D312E3330303420202020302E303030302043202020302020302020302020302020302020302020302020302020302020302020302020300A20202020322E303537362020202D322E3737393420202020302E303030302043202020302020302020302020302020302020302020302020302020302020302020302020300A20202020312E343734322020202D332E3336323820202020302E303030302043202020302020302020302020302020302020302020302020302020302020302020302020300A2020202D312E3436363820202020302E3735323020202020302E303030302043202020302020302020302020302020302020302020302020302020302020302020302020300A2020202D312E3338303620202020312E3537323520202020302E303030302043202020302020302020302020302020302020302020302020302020302020302020302020300A2020202D322E3034383020202020322E3035373420202020302E303030302043202020302020302020302020302020302020302020302020302020302020302020302020300A2020202D312E3936313820202020322E3837373920202020302E303030302043202020302020302020302020302020302020302020302020302020302020302020302020300A2020202D322E3632393220202020332E3336323820202020302E303030302043202020302020302020302020302020302020302020302020302020302020302020302020300A2020312020322020312020302020202020200A2020322020332020312020302020202020200A2020332020342020322020302020202020200A2020342020352020312020302020202020200A2020352020312020312020302020202020200A2020332020362020312020302020202020200A2020362020372020312020302020202020200A2020372020382020312020302020202020200A2020372020392020312020302020202020200A2020372031302020322020302020202020200A2020392031312020312020302020202020200A2031312031322020312020302020202020200A2020382031332020312020302020202020200A2031332031342020312020302020202020200A2020312031352020312020302020202020200A2031352031362020312020302020202020200A2031362031372020312020302020202020200A2031372031382020312020302020202020200A2031382031392020312020302020202020200A4D2020454E44
Contributor: KANEMASA S, INST. OF ADVANCED MATERIAL STUDY KYUSHU UNIV.
InstType: EI
InstName: JEOL JMS-01-SG-2
IoniMethod: _ENERGY 75 eV
IonPolarity: pos
Date: 2010-10-09 19:48:36+02:00
Num Peaks: 61
40 121 41 41 42 289 43 88 44 286 45 37 46 87 47 43 53 71 54 133 
55 129 56 47 57 50 58 43 64 147 66 62 69 36 80 44 81 170 82 39 
91 58 97 45 104 44 109 137 122 91 123 41 125 47 134 16 135 13 136 15 
137 43 138 15 139 12 146 101 149 19 150 16 151 33 152 33 153 43 163 16 
164 432 165 28 169 17 178 14 179 33 181 24 182 12 192 279 193 28 197 26 
218 12 220 999 221 100 222 17 224 14 234 20 246 25 276 13 290 18 291 77 
292 11 
