Name: META-AMINOPHENOL-DI-TMS
MW: 253
Formula: C12H23NOSi2
Synonym: MassBank: JP002721
Synonym: META-AMINOPHENOL-DI-TMS
Structure: 303439325F4D4554412D414D494E4F5048454E4F4C2D44492D544D532E6D6F6C0A20204368656D447261773039303631303137353632440A2031362031362020302020302020302020302020302020302020302020303939392056323030300A2020202D312E3438343420202020302E3236313520202020302E303030302043202020302020302020302020302020302020302020302020302020302020302020302020300A2020202D312E343834342020202D302E3536333520202020302E303030302043202020302020302020302020302020302020302020302020302020302020302020302020300A2020202D302E373639392020202D302E3937363020202020302E303030302043202020302020302020302020302020302020302020302020302020302020302020302020300A2020202D302E303535342020202D302E3536333520202020302E303030302043202020302020302020302020302020302020302020302020302020302020302020302020300A2020202D302E3035353420202020302E3236313520202020302E303030302043202020302020302020302020302020302020302020302020302020302020302020302020300A2020202D302E3736393920202020302E3637343020202020302E303030302043202020302020302020302020302020302020302020302020302020302020302020302020300A2020202D302E3736393920202020312E3439393020202020302E30303030204F202020302020302020302020302020302020302020302020302020302020302020302020300A2020202D302E3035343920202020312E3931313520202020302E303030302053692020302020302020302020302020302020302020302020302020302020302020302020300A2020202D302E3436373920202020322E3632363020202020302E303030302043202020302020302020302020302020302020302020302020302020302020302020302020300A20202020302E3635393020202020322E3332343020202020302E303030302043202020302020302020302020302020302020302020302020302020302020302020302020300A20202020302E3335373120202020312E3139373020202020302E303030302043202020302020302020302020302020302020302020302020302020302020302020302020300A20202020302E363539342020202D302E3937363020202020302E30303030204E202020302020302020302020302020302020302020302020302020302020302020302020300A20202020302E363539342020202D312E3830313020202020302E303030302053692020302020302020302020302020302020302020302020302020302020302020302020300A20202020312E343834342020202D312E3830313020202020302E303030302043202020302020302020302020302020302020302020302020302020302020302020302020300A20202020302E363539342020202D322E3632363020202020302E303030302043202020302020302020302020302020302020302020302020302020302020302020302020300A2020202D302E313635362020202D312E3830313020202020302E303030302043202020302020302020302020302020302020302020302020302020302020302020302020300A2020312020322020322020302020202020200A2020322020332020312020302020202020200A2020332020342020322020302020202020200A2020342020352020312020302020202020200A2020352020362020322020302020202020200A2020362020312020312020302020202020200A2020362020372020312020302020202020200A2020372020382020312020302020202020200A2020382020392020312020302020202020200A2020382031302020312020302020202020200A2020382031312020312020302020202020200A2020342031322020312020302020202020200A2031322031332020312020302020202020200A2031332031342020312020302020202020200A2031332031352020312020302020202020200A2031332031362020312020302020202020200A4D2020454E44
Contributor: HAYASHI A, DEPT. OF CHEMISTRY, FAC. OF SCI. AND TECHNOLOGY, KINKI UNIV.
InstType: EI
InstName: SHIMADZU LKB-9000B
IoniMethod: _ENERGY 70 eV
IonPolarity: pos
Date: 2010-10-09 19:48:36+02:00
Num Peaks: 115
56 60 41 51 43 79 44 79 45 150 46 14 47 39 51 2 52 19 54 5 
55 7 57 2 58 10 59 74 60 28 61 3 63 13 64 13 65 38 66 1 
67 12 68 14 70 11 72 1 73 363 74 81 75 227 76 2 78 7 80 17 
82 14 84 1 91 7 92 29 93 9 95 3 98 43 99 6 103 11 104 1 
105 9 106 25 108 2 109 1 110 9 111 12 112 112 113 1 115 9 116 21 
117 7 118 1 119 14 120 13 121 11 122 1 123 10 124 4 125 1 126 1 
127 1 128 11 129 13 131 2 132 12 133 19 134 13 135 1 136 19 137 13 
139 9 141 1 143 11 147 77 148 65 149 6 150 37 151 17 152 20 153 1 
162 15 163 19 164 25 165 3 166 434 167 55 168 27 169 1 178 18 179 20 
180 23 181 28 182 46 183 7 192 11 205 1 207 22 208 10 217 10 218 1 
219 6 220 13 222 33 223 1 224 31 236 18 237 34 238 999 239 209 240 85 
249 10 252 3 253 597 254 149 255 63 
