Name: 1-(4-PHENOXYPHENYL)ETHYL ALCOHOL
MW: 214
Formula: C14H14O2
Synonym: MassBank: JP009623
Synonym: 1-(4-PHENOXYPHENYL)ETHYL ALCOHOL
Structure: 312D28342D5048454E4F58595048454E594C29455448594C20414C434F484F4C2E6D6F6C0A20204368656D447261773131313730393137353132440A2031362031372020302020302020302020302020302020302020302020303939392056323030300A2020202D322E313433342020202D302E3431323520202020302E303030302043202020302020302020302020302020302020302020302020302020302020302020302020300A2020202D322E383537392020202D302E3030303020202020302E303030302043202020302020302020302020302020302020302020302020302020302020302020302020300A2020202D312E343238392020202D302E3030303020202020302E303030302043202020302020302020302020302020302020302020302020302020302020302020302020300A2020202D302E373134352020202D302E3431323520202020302E303030302043202020302020302020302020302020302020302020302020302020302020302020302020300A20202020302E303030302020202D302E3030303020202020302E303030302043202020302020302020302020302020302020302020302020302020302020302020302020300A20202020302E3030303020202020302E3832353020202020302E303030302043202020302020302020302020302020302020302020302020302020302020302020302020300A2020202D302E3731343520202020312E3233373520202020302E303030302043202020302020302020302020302020302020302020302020302020302020302020302020300A2020202D312E3432383920202020302E3832353020202020302E303030302043202020302020302020302020302020302020302020302020302020302020302020302020300A20202020302E3731343520202020312E3233373520202020302E30303030204F202020302020302020302020302020302020302020302020302020302020302020302020300A20202020312E3432383920202020302E3832353020202020302E303030302043202020302020302020302020302020302020302020302020302020302020302020302020300A20202020312E343238392020202D302E3030303020202020302E303030302043202020302020302020302020302020302020302020302020302020302020302020302020300A20202020322E313433342020202D302E3431323520202020302E303030302043202020302020302020302020302020302020302020302020302020302020302020302020300A20202020322E383537392020202D302E3030303020202020302E303030302043202020302020302020302020302020302020302020302020302020302020302020302020300A20202020322E3835373920202020302E3832353020202020302E303030302043202020302020302020302020302020302020302020302020302020302020302020302020300A20202020322E3134333420202020312E3233373520202020302E303030302043202020302020302020302020302020302020302020302020302020302020302020302020300A2020202D322E313433342020202D312E3233373520202020302E30303030204F202020302020302020302020302020302020302020302020302020302020302020302020300A2020312020322020312020302020202020200A2020332020342020312020302020202020200A2020342020352020322020302020202020200A2020352020362020312020302020202020200A2020362020372020322020302020202020200A2020372020382020312020302020202020200A2020332020382020322020302020202020200A2031302031312020312020302020202020200A2031312031322020322020302020202020200A2031322031332020312020302020202020200A2031332031342020322020302020202020200A2031342031352020312020302020202020200A2031302031352020322020302020202020200A2020392031302020312020302020202020200A2020362020392020312020302020202020200A2020312020332020312020302020202020200A2020312031362020312020302020202020200A4D2020454E44
Contributor: THE INSTITUTE OF SCIENTIFIC AND INDUSTRIALRESEARCH
InstType: EI
InstName: JEOL JMS-DX-300
IoniMethod: _ENERGY 70 eV
IonPolarity: pos
Date: 2010-10-09 19:48:36+02:00
Num Peaks: 84
27 72 29 80 38 28 39 20 40 29 41 68 42 15 43 47 44 34 45 70 
50 96 51 38 52 42 53 28 55 57 56 2 57 61 62 18 63 79 64 4 
65 456 66 103 67 24 68 1 69 25 70 11 71 33 74 2 75 29 76 40 
77 575 78 11 79 27 81 18 83 18 85 2 89 23 91 80 92 22 93 37 
94 115 95 53 97 16 99 1 100 48 102 13 103 28 104 2 105 28 106 12 
107 18 115 12 116 14 119 13 120 13 121 4 122 34 123 12 127 12 128 4 
139 32 141 98 142 27 143 1 151 12 152 60 153 162 154 2 165 10 168 14 
169 28 170 3 171 160 172 21 181 18 196 1 197 87 198 28 199 999 200 14 
201 14 213 18 214 512 215 80 
