Name: MassBank: JP004832
MW: 270
Formula: C10H24Cl2Si2
Synonym: MassBank: JP004832
Synonym: 1,2-DI-TERT-BUTYL-1,2-DICHLORO-1,2-DIMETHYLDISILANE
Structure: 2C322D44492D544552542D425554594C2D312C322D444943484C4F524F2D312C322D44494D455448594C444953494C414E452E6D6F6C0A20204368656D447261773131303330393232353332440A2031342031332020302020302020302020302020302020302020302020303939392056323030300A2020202D322E3036323520202020302E3030303020202020302E303030302043202020302020302020302020302020302020302020302020302020302020302020302020300A2020202D312E3233373520202020302E3030303020202020302E303030302043202020302020302020302020302020302020302020302020302020302020302020302020300A2020202D302E3431323520202020302E3030303020202020302E303030302053692020302020302020302020302020302020302020302020302020302020302020302020300A20202020302E3431323520202020302E3030303020202020302E303030302053692020302020302020302020302020302020302020302020302020302020302020302020300A20202020312E3233373520202020302E3030303020202020302E303030302043202020302020302020302020302020302020302020302020302020302020302020302020300A20202020322E3036323520202020302E3030303020202020302E303030302043202020302020302020302020302020302020302020302020302020302020302020302020300A2020202D312E3233373520202020302E3832353020202020302E303030302043202020302020302020302020302020302020302020302020302020302020302020302020300A2020202D312E323337352020202D302E3832353020202020302E303030302043202020302020302020302020302020302020302020302020302020302020302020302020300A2020202D302E3431323520202020302E3832353020202020302E3030303020436C2020302020302020302020302020302020302020302020302020302020302020302020300A2020202D302E343132352020202D302E3832353020202020302E303030302043202020302020302020302020302020302020302020302020302020302020302020302020300A20202020302E3431323520202020302E3832353020202020302E3030303020436C2020302020302020302020302020302020302020302020302020302020302020302020300A20202020302E343132352020202D302E3832353020202020302E303030302043202020302020302020302020302020302020302020302020302020302020302020302020300A20202020312E3233373520202020302E3832353020202020302E303030302043202020302020302020302020302020302020302020302020302020302020302020302020300A20202020312E323337352020202D302E3832353020202020302E303030302043202020302020302020302020302020302020302020302020302020302020302020302020300A2020312020322020312020302020202020200A2020322020332020312020302020202020200A2020332020342020312020302020202020200A2020342020352020312020302020202020200A2020352020362020312020302020202020200A2020322020372020312020312020202020200A2020322020382020312020312020202020200A2020332020392020312020302020202020200A2020332031302020312020302020202020200A2020342031312020312020302020202020200A2020342031322020312020302020202020200A2020352031332020312020312020202020200A2020352031342020312020312020202020200A4D2020454E44
Contributor: MASS SPECTROSCOPY SOC. OF JAPAN (MSSJ)
InstType: EI
InstName: JEOL JMS-D-3000
IoniMethod: _ENERGY 70 eV
IonPolarity: pos
Date: 2010-10-09 19:48:36+02:00
Num Peaks: 64
43 150 44 19 45 38 55 18 56 45 57 365 58 158 59 321 60 29 61 13 
63 66 65 59 67 16 72 105 73 862 74 79 75 61 78 22 79 63 80 15 
81 21 83 11 85 999 86 102 87 39 92 15 93 834 94 67 95 303 96 21 
97 11 99 34 100 482 101 66 102 20 105 83 106 12 107 30 113 16 115 11 
119 101 120 53 121 41 122 20 134 65 135 102 136 36 137 42 153 12 157 21 
158 11 159 14 167 14 169 19 171 17 195 17 211 10 213 77 214 39 215 56 
216 27 217 14 270 25 272 17 
