Name: MassBank: JP000391
MW: 114
Formula: C6H14N2
Synonym: MassBank: JP000391
Synonym: 1,1-HEXAMETHYLENEHYDRAZINE
Synonym: 1-AMINOPERHYDROAZEPINE
Structure: 310A32310A312C312D484558414D455448594C454E4548594452415A494E452E6D6F6C0A20204368656D447261773130323330393131323432440A2020382020382020302020302020302020302020302020302020302020303939392056323030300A2020202D302E3030303020202020302E3439313120202020302E30303030204E202020302020302020302020302020302020302020302020302020302020302020302020300A2020202D302E3030303020202020312E3331363120202020302E30303030204E202020302020302020302020302020302020302020302020302020302020302020302020300A20202020302E3734333320202020302E3133333220202020302E303030302043202020302020302020302020302020302020302020302020302020302020302020302020300A20202020302E393236392020202D302E3637313120202020302E303030302043202020302020302020302020302020302020302020302020302020302020302020302020300A20202020302E343132352020202D312E3331363120202020302E303030302043202020302020302020302020302020302020302020302020302020302020302020302020300A2020202D302E343132352020202D312E3331363120202020302E303030302043202020302020302020302020302020302020302020302020302020302020302020302020300A2020202D302E393236392020202D302E3637313120202020302E303030302043202020302020302020302020302020302020302020302020302020302020302020302020300A2020202D302E3734333320202020302E3133333220202020302E303030302043202020302020302020302020302020302020302020302020302020302020302020302020300A2020312020322020312020302020202020200A2020332020342020312020302020202020200A2020342020352020312020302020202020200A2020352020362020312020302020202020200A2020362020372020312020302020202020200A2020372020382020312020302020202020200A2020312020332020312020302020202020200A2020312020382020312020302020202020200A4D2020454E44
Contributor: SASAKI S, TOYOHASHI UNIV. OF TECH.
InstType: EI
InstName: SHIMADZU LKB-2091
IoniMethod: _ENERGY 70 eV
IonPolarity: pos
Date: 2010-10-09 19:48:36+02:00
Num Peaks: 40
27 161 29 100 30 122 31 3 39 139 40 28 41 389 42 56 43 228 44 550 
45 300 46 5 53 25 54 27 55 111 56 7 57 89 58 289 59 228 60 2 
67 22 68 44 69 106 70 4 71 189 72 283 73 64 82 2 84 14 85 500 
86 106 87 1 96 20 97 14 98 999 99 64 100 9 113 233 114 721 115 111 
