Name: N-(2-ADAMANTYL)-2-METHYLCYCLOHEXANIMINE
MW: 245
Formula: C17H27N
Synonym: MassBank: JP002385
Synonym: N-(2-ADAMANTYL)-2-METHYLCYCLOHEXANIMINE
Structure: 303430355F4E2D28322D4144414D414E54594C292D322D4D455448594C4359434C4F484558414E494D494E452E6D6F6C0A20204368656D447261773039303631303136333832440A2032322032352020302020302020302020302020302020302020302020303939392056323030300A20202020302E333332392020202D312E3239323720202020302E303030302043202020302020302020302020302020302020302020302020302020302020302020302020300A2020202D302E303739372020202D322E3030373220202020302E303030302043202020302020302020302020302020302020302020302020302020302020302020302020300A20202020302E333332382020202D322E3732313720202020302E303030302043202020302020302020302020302020302020302020302020302020302020302020302020300A20202020312E313537392020202D322E3732313720202020302E303030302043202020302020302020302020302020302020302020302020302020302020302020302020300A20202020312E353730342020202D322E3030373220202020302E303030302043202020302020302020302020302020302020302020302020302020302020302020302020300A20202020312E313537392020202D312E3239323720202020302E303030302043202020302020302020302020302020302020302020302020302020302020302020302020300A2020202D302E393034372020202D322E3030373220202020302E303030302043202020302020302020302020302020302020302020302020302020302020302020302020300A2020202D302E303739372020202D302E3537383220202020302E30303030204E202020302020302020302020302020302020302020302020302020302020302020302020300A2020202D302E3132363520202020302E3339323320202020302E303030302043202020302020302020302020302020302020302020302020302020302020302020302020300A20202020302E3633343820202020302E3635393320202020302E303030302043202020302020302020302020302020302020302020302020302020302020302020302020300A2020202D302E3739343220202020302E3635393320202020302E303030302043202020302020302020302020302020302020302020302020302020302020302020302020300A20202020302E3633343820202020312E3438343320202020302E303030302043202020302020302020302020302020302020302020302020302020302020302020302020300A2020202D302E3037393720202020312E3839363820202020302E303030302043202020302020302020302020302020302020302020302020302020302020302020302020300A2020202D302E3739343220202020312E3438343320202020302E303030302043202020302020302020302020302020302020302020302020302020302020302020302020300A2020202D312E3231393620202020302E3134343820202020302E303030302043202020302020302020302020302020302020302020302020302020302020302020302020300A2020202D302E3437373120202020302E3232373320202020302E303030302043202020302020302020302020302020302020302020302020302020302020302020302020300A20202020302E323234312020202D302E3038323120202020302E303030302043202020302020302020302020302020302020302020302020302020302020302020302020300A20202020312E3433333520202020302E3435323920202020302E303030302048202020302020302020302020302020302020302020302020302020302020302020302020300A2020202D312E3537303420202020302E3933383720202020302E303030302048202020302020302020302020302020302020302020302020302020302020302020302020300A2020202D302E383231362020202D302E3532323420202020302E303030302048202020302020302020302020302020302020302020302020302020302020302020302020300A2020202D302E3037393720202020322E3732313720202020302E303030302048202020302020302020302020302020302020302020302020302020302020302020302020300A2020202D302E3439373720202020312E3039333520202020302E303030302043202020302020302020302020302020302020302020302020302020302020302020302020300A2020312020322020312020302020202020200A2020322020332020312020302020202020200A2020332020342020312020302020202020200A2020342020352020312020302020202020200A2020352020362020312020302020202020200A2020312020362020312020302020202020200A2020322020372020312020302020202020200A2020312020382020322020302020202020200A2020382020392020312020302020202020200A2020392031302020312020302020202020200A2020392031312020312020302020202020200A2031302031322020312020302020202020200A2031322031332020312020302020202020200A2031332031342020312020302020202020200A2031342031312020312020302020202020200A2031312031352020312020302020202020200A2031352031362020312020302020202020200A2031362031372020312020302020202020200A2031372031302020312020302020202020200A2031302031382020312020312020202020200A2031312031392020312020312020202020200A2031362032302020312020362020202020200A2031332032312020312020362020202020200A2031332032322020312020302020202020200A2032322031362020312020302020202020200A4D2020454E44
Contributor: MASS SPECTROSCOPY SOC. OF JAPAN (MSSJ)
InstType: EI
InstName: JEOL JMS-D-3000
IoniMethod: _ENERGY 70 eV
IonPolarity: pos
Date: 2010-10-09 19:48:36+02:00
Num Peaks: 24
44 81 53 90 55 189 67 480 77 132 79 333 81 185 91 174 92 87 93 294 
107 123 110 83 112 118 135 999 136 121 150 330 188 78 202 92 230 196 241 86 
243 151 244 93 245 611 246 117 
