Name: MassBank: JP000461
MW: 113
Formula: C5H7NS
Synonym: MassBank: JP000461
Synonym: 4,5-DIMETHYLTHIAZOLE
Structure: 310A31390A342C352D44494D455448594C544849415A4F4C452E6D6F6C0A20204368656D447261773130313831303136333132440A2020372020372020302020302020302020302020302020302020302020303939392056323030300A20202020312E3034373320202020302E3032303220202020302E303030302053202020302020302020302020302020302020302020302020302020302020302020302020300A20202020312E303437332020202D302E3830343820202020302E303030302043202020302020302020302020302020302020302020302020302020302020302020302020300A20202020302E323632372020202D312E3035393720202020302E30303030204E202020302020302020302020302020302020302020302020302020302020302020302020300A2020202D302E323232332020202D302E3339323320202020302E303030302043202020302020302020302020302020302020302020302020302020302020302020302020300A20202020302E3236323720202020302E3237353120202020302E303030302043202020302020302020302020302020302020302020302020302020302020302020302020300A20202020302E3030373720202020312E3035393720202020302E303030302043202020302020302020302020302020302020302020302020302020302020302020302020300A2020202D312E303437332020202D302E3339323320202020302E303030302043202020302020302020302020302020302020302020302020302020302020302020302020300A2020312020322020312020302020202020200A2020322020332020322020302020202020200A2020332020342020312020302020202020200A2020342020352020322020302020202020200A2020312020352020312020302020202020200A2020352020362020312020302020202020200A2020342020372020312020302020202020200A4D2020454E44
Contributor: SASAKI S, TOYOHASHI UNIV. OF TECH.
InstType: EI
InstName: MX-1303
IoniMethod: _ENERGY 50 eV
IonPolarity: pos
Date: 2010-10-09 19:48:36+02:00
Num Peaks: 43
26 38 27 100 29 28 30 1 31 25 37 13 38 20 39 8 40 19 41 61 
42 40 43 3 45 232 46 28 47 16 50 4 51 55 52 33 53 88 54 3 
55 28 57 24 58 80 59 13 60 23 68 16 69 62 70 2 71 709 72 71 
73 37 80 2 84 13 85 234 86 238 87 3 88 13 98 93 99 10 112 13 
113 999 114 73 115 44 
