Name: ETHYL PHENYLACETATE
CAS: 101-97-3
MW: 164
Formula: C10H12O2
Synonym: MassBank: JP006293
Synonym: ETHYL PHENYLACETATE
Structure: 455448594C205048454E594C414345544154452E6D6F6C0A20204368656D447261773038313131303138353932440A2031322031322020302020302020302020302020302020302020302020303939392056323030300A2020202D302E333537322020202D302E3431323520202020302E303030302043202020302020302020302020302020302020302020302020302020302020302020302020300A20202020302E333537322020202D302E3832353020202020302E303030302043202020302020302020302020302020302020302020302020302020302020302020302020300A2020202D302E3335373220202020302E3431323520202020302E30303030204F202020302020302020302020302020302020302020302020302020302020302020302020300A2020202D312E303731372020202D302E3832353020202020302E30303030204F202020302020302020302020302020302020302020302020302020302020302020302020300A20202020312E303731372020202D302E3431323520202020302E303030302043202020302020302020302020302020302020302020302020302020302020302020302020300A20202020312E3037313720202020302E3431323520202020302E303030302043202020302020302020302020302020302020302020302020302020302020302020302020300A20202020312E3738363220202020302E3832353020202020302E303030302043202020302020302020302020302020302020302020302020302020302020302020302020300A20202020322E3530303620202020302E3431323520202020302E303030302043202020302020302020302020302020302020302020302020302020302020302020302020300A20202020322E353030362020202D302E3431323520202020302E303030302043202020302020302020302020302020302020302020302020302020302020302020302020300A20202020312E373836322020202D302E3832353020202020302E303030302043202020302020302020302020302020302020302020302020302020302020302020302020300A2020202D312E373836322020202D302E3431323520202020302E303030302043202020302020302020302020302020302020302020302020302020302020302020302020300A2020202D322E353030362020202D302E3832353020202020302E303030302043202020302020302020302020302020302020302020302020302020302020302020302020300A2020312020322020312020302020202020200A2020312020332020322020302020202020200A2020312020342020312020302020202020200A2020352020362020312020302020202020200A2020362020372020322020302020202020200A2020372020382020312020302020202020200A2020382020392020322020302020202020200A2020392031302020312020302020202020200A2020352031302020322020302020202020200A2020322020352020312020302020202020200A2031312031322020312020302020202020200A2020342031312020312020302020202020200A4D2020454E44
Contributor: MASS SPECTROSCOPY SOC. OF JAPAN (MSSJ)
InstType: EI
InstName: HITACHI M-80
IoniMethod: _ENERGY 70 eV
IonPolarity: pos
Date: 2010-10-09 19:48:36+02:00
Num Peaks: 37
15 33 26 39 27 155 28 35 29 338 30 26 38 21 39 127 40 10 41 25 
42 10 43 24 45 12 46 9 50 28 51 57 52 19 53 5 61 7 62 27 
63 82 64 26 65 184 66 10 74 6 77 14 78 7 79 8 89 64 90 43 
91 999 92 111 105 18 118 8 119 17 164 116 165 13 
