Name: NITROMETHANE
CAS: 75-52-5
MW: 61
Formula: CH3NO2
Synonym: MassBank: JP004288
Synonym: NITROMETHANE
Structure: 310A31330A4E4954524F4D455448414E452E6D6F6C0A20204368656D447261773038313231303032353232440A2020342020332020302020302020302020302020302020302020302020303939392056323030300A20202020302E3631383820202020302E3731343520202020302E303030302043202020302020302020302020302020302020302020302020302020302020302020302020300A20202020302E3230363220202020302E3030303020202020302E30303030204E202020302020332020302020302020302020302020302020302020302020302020302020300A20202020302E363138382020202D302E3731343520202020302E30303030204F202020302020302020302020302020302020302020302020302020302020302020302020300A2020202D302E3631383820202020302E3030303020202020302E30303030204F202020302020352020302020302020302020302020302020302020302020302020302020300A2020322020332020322020302020202020200A2020322020342020312020302020202020200A2020312020322020312020302020202020200A4D202043484720203220202032202020312020203420202D310A4D2020454E44
Contributor: TAJIMA S, GUNMA COLLEGE OF TECHNOLOGY
InstType: EI
InstName: HITACHI RMU-7M
IoniMethod: _ENERGY 70 eV
IonPolarity: pos
Date: 2010-10-09 19:48:36+02:00
Num Peaks: 22
14 37 15 272 16 69 17 193 18 687 26 73 27 346 28 174 29 138 30 999 
31 14 38 18 39 28 40 73 41 147 42 36 43 69 44 453 45 102 46 351 
60 45 61 483 
