Name: 2-BENZOYL-1-METHYL(3-2H1)INDOLE
MW: 235
Formula: C16H13NO
Synonym: MassBank: JP004433
Synonym: 2-BENZOYL-1-METHYL(3-2H1)INDOLE
Structure: 322D42454E5A4F594C2D312D4D455448594C28332D32483129494E444F4C452E6D6F6C0A20204368656D447261773132323130393232333932440A2031392032312020302020302020302020302020302020302020302020303939392056323030300A2020202D322E3730303520202020302E3233343520202020302E303030302043202020302020302020302020302020302020302020302020302020302020302020302020300A2020202D322E373030352020202D302E3539303520202020302E303030302043202020302020302020302020302020302020302020302020302020302020302020302020300A2020202D312E393836312020202D312E3030333020202020302E303030302043202020302020302020302020302020302020302020302020302020302020302020302020300A2020202D312E323731362020202D302E3539303520202020302E303030302043202020302020302020302020302020302020302020302020302020302020302020302020300A2020202D312E3237313620202020302E3233343520202020302E303030302043202020302020302020302020302020302020302020302020302020302020302020302020300A2020202D312E3938363120202020302E3634373020202020302E303030302043202020302020302020302020302020302020302020302020302020302020302020302020300A2020202D302E3535373120202020302E3634373020202020302E303030302043202020302020302020302020302020302020302020302020302020302020302020302020300A20202020302E3135373320202020302E3233343520202020302E303030302043202020302020302020302020302020302020302020302020302020302020302020302020300A2020202D302E3535373120202020312E3437323020202020302E30303030204F202020302020302020302020302020302020302020302020302020302020302020302020300A20202020302E323433362020202D302E3538363020202020302E303030302043202020302020302020302020302020302020302020302020302020302020302020302020300A20202020312E303530352020202D302E3735373520202020302E303030302043202020302020302020302020302020302020302020302020302020302020302020302020300A20202020312E343633302020202D302E3034333020202020302E303030302043202020302020302020302020302020302020302020302020302020302020302020302020300A20202020302E3931313020202020302E3537303020202020302E30303030204E202020302020302020302020302020302020302020302020302020302020302020302020300A20202020312E343633302020202D312E3437323020202020302E303030302043202020302020302020302020302020302020302020302020302020302020302020302020300A20202020322E323838302020202D312E3437323020202020302E303030302043202020302020302020302020302020302020302020302020302020302020302020302020300A20202020322E373030352020202D302E3735373520202020302E303030302043202020302020302020302020302020302020302020302020302020302020302020302020300A20202020322E323838302020202D302E3034333020202020302E303030302043202020302020302020302020302020302020302020302020302020302020302020302020300A2020202D302E333639352020202D312E3133383020202020302E303030302048202020312020302020302020302020302020302020302020302020302020302020302020300A20202020312E3038323520202020312E3337373020202020302E303030302043202020302020302020302020302020302020302020302020302020302020302020302020300A2020312020322020322020302020202020200A2020322020332020312020302020202020200A2020332020342020322020302020202020200A2020342020352020312020302020202020200A2020352020362020322020302020202020200A2020362020312020312020302020202020200A2020352020372020312020302020202020200A2020372020382020312020302020202020200A2020372020392020322020302020202020200A2020382031302020322020302020202020200A2031302031312020312020302020202020200A2031312031322020322020302020202020200A2031322031332020312020302020202020200A2031332020382020312020302020202020200A2031312031342020312020302020202020200A2031342031352020322020302020202020200A2031352031362020312020302020202020200A2031362031372020322020302020202020200A2031372031322020312020302020202020200A2031302031382020312020302020202020200A2031332031392020312020302020202020200A4D202049534F20203120203138202020320A4D2020454E44
Contributor: SASAKI S, TOYOHASHI UNIV. OF TECH.
InstType: EI
InstName: MX-1303
IoniMethod: _ENERGY 50 eV
IonPolarity: pos
Date: 2010-10-09 19:48:36+02:00
Num Peaks: 37
41 14 43 14 51 95 57 1 63 39 69 23 76 18 77 52 78 116 89 339 
90 184 91 6 102 18 103 26 104 13 105 15 115 19 128 33 129 26 130 9 
131 44 158 89 159 14 165 1 204 18 205 13 206 46 207 3 217 23 218 40 
219 34 220 1 233 41 234 661 235 999 236 42 237 40 
