Name: MassBank: JP005146
MW: 360
Formula: C24H28N2O
Synonym: MassBank: JP005146
Synonym: 10-ISOPROPYL-3,3-DIMETHYL-11-PHENYL-2,3,4,5,10,11-HEXAHYDRO-1H-DIBENZO(B,E)(1,4)-DIAZEPIN-1-ONE
Structure: 31302D49534F50524F50594C2D332C332D44494D455448594C2D31312D5048454E594C2D322C332C342C352C31302C31312D48455841485944524F2D31482D444942454E5A4F28422C452928312C34292D4449415A4550494E2D312D4F4E452E6D6F6C0A20204368656D447261773132313030393131323532440A2032372033302020302020302020302020302020302020302020302020303939392056323030300A20202020312E3230353320202020302E3234363320202020302E30303030204E202020302020302020302020302020302020302020302020302020302020302020302020300A20202020312E3338383820202020312E3035303720202020302E303030302043202020302020302020302020302020302020302020302020302020302020302020302020300A20202020302E3837343520202020312E3639353720202020302E303030302043202020302020302020302020302020302020302020302020302020302020302020302020300A20202020302E3034393520202020312E3639353720202020302E30303030204E202020302020302020302020302020302020302020302020302020302020302020302020300A2020202D302E3436343920202020312E3035303720202020302E303030302043202020302020302020302020302020302020302020302020302020302020302020302020300A2020202D302E3239323020202020302E3235373520202020302E303030302043202020302020302020302020302020302020302020302020302020302020302020302020300A20202020302E343632302020202D302E3131313620202020302E303030302043202020302020302020302020302020302020302020302020302020302020302020302020300A20202020312E3137353920202020322E3436333620202020302E303030302043202020302020302020302020302020302020302020302020302020302020302020302020300A20202020312E3939313720202020322E3538363620202020302E303030302043202020302020302020302020302020302020302020302020302020302020302020302020300A20202020322E3530363020202020312E3934313620202020302E303030302043202020302020302020302020302020302020302020302020302020302020302020302020300A20202020322E3230343620202020312E3137333620202020302E303030302043202020302020302020302020302020302020302020302020302020302020302020302020300A2020202D302E383735342020202D302E3332353920202020302E303030302043202020302020302020302020302020302020302020302020302020302020302020302020300A2020202D312E363734342020202D302E3037313620202020302E303030302043202020302020302020302020302020302020302020302020302020302020302020302020300A2020202D312E3834373320202020302E3732313620202020302E303030302043202020302020302020302020302020302020302020302020302020302020302020302020300A2020202D312E3236343020202020312E3330343920202020302E303030302043202020302020302020302020302020302020302020302020302020302020302020302020300A2020202D302E373032352020202D312E3131393120202020302E30303030204F202020302020302020302020302020302020302020302020302020302020302020302020300A20202020302E343632302020202D302E3933363620202020302E303030302043202020302020302020302020302020302020302020302020302020302020302020302020300A2020202D302E323532352020202D312E3334393120202020302E303030302043202020302020302020302020302020302020302020302020302020302020302020302020300A2020202D302E323532352020202D322E3137343120202020302E303030302043202020302020302020302020302020302020302020302020302020302020302020302020300A20202020302E343632302020202D322E3538363620202020302E303030302043202020302020302020302020302020302020302020302020302020302020302020302020300A20202020312E313736342020202D322E3137343120202020302E303030302043202020302020302020302020302020302020302020302020302020302020302020302020300A20202020312E313736342020202D312E3334393120202020302E303030302043202020302020302020302020302020302020302020302020302020302020302020302020300A2020202D322E3631383220202020302E3431323220202020302E303030302043202020302020302020302020302020302020302020302020302020302020302020302020300A2020202D322E3330353620202020312E3432353720202020302E303030302043202020302020302020302020302020302020302020302020302020302020302020302020300A20202020312E383530332020202D302E3236383020202020302E303030302043202020302020302020302020302020302020302020302020302020302020302020302020300A20202020312E373237332020202D312E3038333820202020302E303030302043202020302020302020302020302020302020302020302020302020302020302020302020300A20202020322E3631383220202020302E3033333420202020302E303030302043202020302020302020302020302020302020302020302020302020302020302020302020300A2020312020322020312020302020202020200A2020322020332020312020302020202020200A2020332020342020312020302020202020200A2020342020352020312020302020202020200A2020352020362020322020302020202020200A2020362020372020312020302020202020200A2020312020372020312020302020202020200A2020382020392020312020302020202020200A2020392031302020322020302020202020200A2031302031312020312020302020202020200A2020322031312020322020302020202020200A2020332020382020322020302020202020200A2031322031332020312020302020202020200A2031332031342020312020302020202020200A2031342031352020312020302020202020200A2020352031352020312020302020202020200A2020362031322020312020302020202020200A2031322031362020322020302020202020200A2031372031382020312020302020202020200A2031382031392020322020302020202020200A2031392032302020312020302020202020200A2032302032312020322020302020202020200A2032312032322020312020302020202020200A2031372032322020322020302020202020200A2020372031372020312020302020202020200A2031342032332020312020362020202020200A2031342032342020312020312020202020200A2032352032362020312020302020202020200A2032352032372020312020302020202020200A2020312032352020312020302020202020200A4D2020454E44
Contributor: HAYASHI A, FAC. OF SCIENCE AND TECHNOLOGY, KINKI UNIV.
InstType: EI
InstName: JEOL JMS-HX-100
IoniMethod: _ENERGY 70 eV
IonPolarity: pos
Date: 2010-10-09 19:48:36+02:00
Num Peaks: 110
39 56 40 23 41 129 42 35 43 134 44 25 51 40 53 24 55 91 65 80 
76 25 77 132 78 36 83 164 89 31 90 27 91 134 92 85 93 32 102 56 
103 44 104 34 105 24 115 76 116 46 117 39 118 35 119 102 127 48 128 74 
129 92 130 66 131 65 132 84 133 144 134 21 141 26 142 33 143 46 144 29 
145 24 152 26 155 35 156 25 157 37 158 121 159 64 165 34 167 22 168 22 
169 33 172 26 173 32 180 23 181 25 182 22 183 33 184 27 185 53 194 22 
195 42 197 23 199 22 204 21 206 20 215 63 216 22 217 39 218 59 219 99 
220 50 226 170 227 49 231 62 232 61 233 65 234 26 239 61 241 155 242 34 
245 56 246 102 247 29 259 26 261 178 262 41 267 47 269 33 273 21 275 45 
276 74 283 312 284 74 287 24 289 49 301 30 302 999 303 371 304 94 315 55 
317 589 318 157 319 21 330 45 345 330 346 92 359 112 360 638 361 187 362 29 
