Name: HYOSCYAMINE
MW: 289
Formula: C17H23NO3
Synonym: MassBank: JP002782
Synonym: HYOSCYAMINE
Structure: 303530385F48594F534359414D494E452E6D6F6C0A20204368656D447261773039303631303138303432440A2032352032372020302020302020302020302020302020302020302020303939392056323030300A20202020302E3935323620202020302E3030303020202020302E303030302043202020302020302020302020302020302020302020302020302020302020302020302020300A20202020302E3132373720202020302E3030303020202020302E30303030204F202020302020302020302020302020302020302020302020302020302020302020302020300A2020202D302E323834392020202D302E3731343520202020302E303030302043202020302020302020302020302020302020302020302020302020302020302020302020300A2020202D312E313039382020202D302E3731343520202020302E303030302043202020302020302020302020302020302020302020302020302020302020302020302020300A2020202D312E3532323420202020302E3030303020202020302E303030302043202020302020302020302020302020302020302020302020302020302020302020302020300A2020202D312E3130393920202020302E3731343520202020302E303030302043202020302020302020302020302020302020302020302020302020302020302020302020300A2020202D312E3532323320202020312E3432383920202020302E303030302043202020302020302020302020302020302020302020302020302020302020302020302020300A2020202D322E3334373320202020312E3432383920202020302E303030302043202020302020302020302020302020302020302020302020302020302020302020302020300A2020202D322E3735393920202020302E3731343520202020302E303030302043202020302020302020302020302020302020302020302020302020302020302020302020300A2020202D322E3334373320202020302E3030303020202020302E303030302043202020302020302020302020302020302020302020302020302020302020302020302020300A2020202D312E353232332020202D312E3432383920202020302E303030302043202020302020302020302020302020302020302020302020302020302020302020302020300A2020202D322E333437332020202D312E3432383920202020302E30303030204F202020302020302020302020302020302020302020302020302020302020302020302020300A20202020302E313237362020202D312E3432383920202020302E30303030204F202020302020302020302020302020302020302020302020302020302020302020302020300A2020202D302E363937332020202D312E3432393020202020302E303030302048202020302020302020302020302020302020302020302020302020302020302020302020300A20202020312E3331303620202020302E3734333320202020302E303030302043202020302020302020302020302020302020302020302020302020302020302020302020300A20202020322E3131343920202020302E3932363920202020302E303030302043202020302020302020302020302020302020302020302020302020302020302020302020300A20202020322E3735393920202020302E3431323520202020302E303030302043202020302020302020302020302020302020302020302020302020302020302020302020300A20202020322E373539392020202D302E3431323520202020302E303030302043202020302020302020302020302020302020302020302020302020302020302020302020300A20202020322E313134392020202D302E3932363920202020302E303030302043202020302020302020302020302020302020302020302020302020302020302020302020300A20202020312E333130362020202D302E3734333320202020302E303030302043202020302020302020302020302020302020302020302020302020302020302020302020300A20202020322E3239383520202020312E3733313220202020302E303030302048202020302020302020302020302020302020302020302020302020302020302020302020300A20202020322E323938352020202D312E3733313220202020302E303030302048202020302020302020302020302020302020302020302020302020302020302020302020300A20202020312E3637343220202020302E3033313420202020302E303030302043202020302020302020302020302020302020302020302020302020302020302020302020300A20202020302E3336323720202020302E3537363720202020302E303030302048202020302020302020302020302020302020302020302020302020302020302020302020300A20202020312E3034353920202020302E3536363120202020302E303030302043202020302020302020302020302020302020302020302020302020302020302020302020300A2020312020322020312020362020202020200A2020322020332020312020302020202020200A2020332020342020312020302020202020200A2020342020352020312020312020202020200A2020352020362020312020302020202020200A2020362020372020322020302020202020200A2020372020382020312020302020202020200A2020382020392020322020302020202020200A2020392031302020312020302020202020200A2020352031302020322020302020202020200A2020342031312020312020302020202020200A2031312031322020312020302020202020200A2020332031332020322020302020202020200A2020342031342020312020312020202020200A2020312031352020312020302020202020200A2031352031362020312020302020202020200A2031362031372020312020302020202020200A2031372031382020312020302020202020200A2031382031392020312020302020202020200A2031392032302020312020302020202020200A2032302020312020312020302020202020200A2031362032312020312020362020202020200A2031392032322020312020362020202020200A2031392032332020312020312020202020200A2031362032332020312020312020202020200A2020312032342020312020312020202020200A2032332032352020312020302020202020200A4D2020454E44
Contributor: SASAKI S, TOYOHASHI UNIV. OF TECH.
InstType: EI
InstName: Unknown
IoniMethod: EI
IonPolarity: pos
Date: 2010-10-09 19:48:36+02:00
Num Peaks: 91
26 5 27 29 28 48 29 2 30 28 31 11 32 8 38 0 39 28 40 5 
41 53 42 13 43 18 44 27 50 5 51 2 52 4 53 14 54 14 55 3 
56 24 57 21 58 9 62 0 63 10 64 5 65 24 66 0 67 103 68 34 
69 10 70 2 71 3 75 2 76 1 77 5 78 16 79 28 80 13 81 3 
82 228 83 243 84 28 86 1 89 28 90 31 91 59 92 1 93 23 94 201 
95 96 96 12 97 27 98 12 99 2 103 1 104 55 105 14 106 3 107 0 
108 8 109 15 110 7 111 0 113 3 114 3 117 1 118 3 119 3 120 3 
121 21 122 2 123 43 124 999 125 105 126 1 140 91 141 15 142 1 200 0 
258 2 259 5 260 1 261 0 271 13 272 21 273 3 274 0 289 172 290 41 
291 8 
