Name: MassBank: JP009856
MW: 204
Formula: C10H17ClO2
Synonym: MassBank: JP009856
Synonym: 1-CHLORO-5-(1-ETHOXY)ETHOXY-3-METHYL-1,3-PENTADIENE
Structure: 312D43484C4F524F2D352D28312D4554484F5859294554484F58592D332D4D455448594C2D312C332D50454E54414449454E452E6D6F6C0A20204368656D447261773131313830393030343832440A2031332031322020302020302020302020302020302020302020302020303939392056323030300A2020202D322E3236383720202020312E3037313720202020302E303030302043202020302020302020302020302020302020302020302020302020302020302020302020300A2020202D312E3835363320202020302E3335373220202020302E303030302043202020302020302020302020302020302020302020302020302020302020302020302020300A2020202D312E3033313220202020302E3335373220202020302E303030302043202020302020302020302020302020302020302020302020302020302020302020302020300A2020202D302E363138372020202D302E3335373220202020302E303030302043202020302020302020302020302020302020302020302020302020302020302020302020300A20202020302E323036332020202D302E3335373220202020302E303030302043202020302020302020302020302020302020302020302020302020302020302020302020300A2020202D302E3631383720202020312E3037313720202020302E303030302043202020302020302020302020302020302020302020302020302020302020302020302020300A2020202D332E3039333820202020312E3037313720202020302E3030303020436C2020302020302020302020302020302020302020302020302020302020302020302020300A20202020302E3631383820202020302E3335373220202020302E30303030204F202020302020302020302020302020302020302020302020302020302020302020302020300A20202020312E3434333820202020302E3335373220202020302E303030302043202020302020302020302020302020302020302020302020302020302020302020302020300A20202020312E3835363320202020312E3037313720202020302E303030302043202020302020302020302020302020302020302020302020302020302020302020302020300A20202020312E383536332020202D302E3335373220202020302E30303030204F202020302020302020302020302020302020302020302020302020302020302020302020300A20202020322E363831332020202D302E3335373220202020302E303030302043202020302020302020302020302020302020302020302020302020302020302020302020300A20202020332E303933382020202D312E3037313720202020302E303030302043202020302020302020302020302020302020302020302020302020302020302020302020300A2020312020322020322020302020202020200A2020322020332020312020302020202020200A2020332020342020322020302020202020200A2020342020352020312020302020202020200A2020332020362020312020302020202020200A2020312020372020312020302020202020200A2020352020382020312020302020202020200A2020382020392020312020302020202020200A2020392031302020312020302020202020200A2020392031312020312020302020202020200A2031312031322020312020302020202020200A2031322031332020312020302020202020200A4D2020454E44
Contributor: KURARAY CO., LTD.
InstType: EI
InstName: JEOL JMS-D-300
IoniMethod: _ENERGY 70 eV
IonPolarity: pos
Date: 2010-10-09 19:48:36+02:00
Num Peaks: 44
27 65 28 15 29 73 31 3 36 11 39 58 41 53 42 1 43 100 44 65 
45 999 46 3 50 12 51 49 52 18 53 6 63 13 65 35 67 28 69 1 
72 32 73 970 74 49 75 4 77 117 78 19 79 197 80 4 81 56 95 25 
96 37 97 12 115 427 116 74 117 144 118 2 123 46 125 137 126 11 143 1 
145 11 158 14 160 32 162 10 
