Name: MassBank: JP004831
MW: 254
Formula: C10H24ClFSi2
Synonym: MassBank: JP004831
Synonym: 1,2-DI-TERT-BUTYL-1-CHLORO-2-FLUORO-1,2-DIMETHYLDISILANE
Structure: 312C322D44492D544552542D425554594C2D312D43484C4F524F2D322D464C554F524F2D312C322D44494D455448594C444953494C414E452E6D6F6C0A20204368656D447261773131303330393232353832440A2031342031332020302020302020302020302020302020302020302020303939392056323030300A2020202D322E3036323520202020302E3030303020202020302E303030302043202020302020302020302020302020302020302020302020302020302020302020302020300A2020202D312E3233373520202020302E3030303020202020302E303030302043202020302020302020302020302020302020302020302020302020302020302020302020300A2020202D302E3431323520202020302E3030303020202020302E303030302053692020302020302020302020302020302020302020302020302020302020302020302020300A20202020302E3431323520202020302E3030303020202020302E303030302053692020302020302020302020302020302020302020302020302020302020302020302020300A20202020312E3233373520202020302E3030303020202020302E303030302043202020302020302020302020302020302020302020302020302020302020302020302020300A20202020322E3036323520202020302E3030303020202020302E303030302043202020302020302020302020302020302020302020302020302020302020302020302020300A2020202D312E3233373520202020302E3832353020202020302E303030302043202020302020302020302020302020302020302020302020302020302020302020302020300A2020202D312E323337352020202D302E3832353020202020302E303030302043202020302020302020302020302020302020302020302020302020302020302020302020300A2020202D302E3431323520202020302E3832353020202020302E3030303020436C2020302020302020302020302020302020302020302020302020302020302020302020300A2020202D302E343132352020202D302E3832353020202020302E303030302043202020302020302020302020302020302020302020302020302020302020302020302020300A20202020302E3431323520202020302E3832353020202020302E303030302046202020302020302020302020302020302020302020302020302020302020302020302020300A20202020302E343132352020202D302E3832353020202020302E303030302043202020302020302020302020302020302020302020302020302020302020302020302020300A20202020312E3233373520202020302E3832353020202020302E303030302043202020302020302020302020302020302020302020302020302020302020302020302020300A20202020312E323337352020202D302E3832353020202020302E303030302043202020302020302020302020302020302020302020302020302020302020302020302020300A2020312020322020312020302020202020200A2020322020332020312020302020202020200A2020332020342020312020302020202020200A2020342020352020312020302020202020200A2020352020362020312020302020202020200A2020322020372020312020312020202020200A2020322020382020312020312020202020200A2020332020392020312020302020202020200A2020332031302020312020302020202020200A2020342031312020312020302020202020200A2020342031322020312020302020202020200A2020352031332020312020312020202020200A2020352031342020312020312020202020200A4D2020454E44
Contributor: MASS SPECTROSCOPY SOC. OF JAPAN (MSSJ)
InstType: EI
InstName: JEOL JMS-D-3000
IoniMethod: _ENERGY 70 eV
IonPolarity: pos
Date: 2010-10-09 19:48:36+02:00
Num Peaks: 56
43 116 44 15 45 35 47 31 49 29 55 15 56 50 57 189 58 211 59 357 
60 33 61 16 63 35 65 21 72 141 73 764 74 72 75 78 77 401 78 35 
79 41 81 11 85 999 86 97 87 44 89 13 93 242 94 20 95 91 97 11 
99 33 100 698 101 94 102 30 103 41 105 14 118 24 119 82 120 11 121 28 
123 14 134 39 135 17 136 17 137 25 141 17 153 11 155 12 169 17 171 13 
179 28 197 42 198 15 199 20 254 40 256 15 
