Name: MassBank: JP004508
MW: 322
Formula: C14H26O8
Synonym: MassBank: JP004508
Synonym: 1,5-DI-O-ACETYL-2,3,4,6-TETRA-O-METHYLHEXITOL (1-D)
Synonym: 1,5-DIACETOXY-2,3,4,6-TETRAMETHOXYHEXANE (1-D)
Structure: 312C352D44492D4F2D41434554594C2D322C332C342C362D54455452412D4F2D4D455448594C48455849544F4C2028312D44292E6D6F6C0A20204368656D447261773131313630393132323832440A2032342032332020302020302020302020302020302020302020302020303939392056323030300A2020202D312E343239302020202D302E3631383820202020302E303030302043202020302020302020302020302020302020302020302020302020302020302020302020300A2020202D312E3432393020202020302E3230363220202020302E303030302043202020302020302020302020302020302020302020302020302020302020302020302020300A2020202D302E3731343520202020302E3631383820202020302E303030302043202020302020302020302020302020302020302020302020302020302020302020302020300A2020202D302E3030303020202020302E3230363220202020302E303030302043202020302020302020302020302020302020302020302020302020302020302020302020300A20202020302E3731343420202020302E3631383820202020302E303030302043202020302020302020302020302020302020302020302020302020302020302020302020300A20202020312E3432383920202020302E3230363220202020302E303030302043202020302020302020302020302020302020302020302020302020302020302020302020300A2020202D302E303030302020202D302E3631383820202020302E30303030204F202020302020302020302020302020302020302020302020302020302020302020302020300A20202020302E373134342020202D312E3033313320202020302E303030302043202020302020302020302020302020302020302020302020302020302020302020302020300A2020202D302E3731343520202020312E3434333820202020302E30303030204F202020302020302020302020302020302020302020302020302020302020302020302020300A2020202D312E3432393020202020312E3835363320202020302E303030302043202020302020302020302020302020302020302020302020302020302020302020302020300A2020202D322E3134333420202020302E3631383820202020302E30303030204F202020302020302020302020302020302020302020302020302020302020302020302020300A2020202D322E3835373920202020302E3230363220202020302E303030302043202020302020302020302020302020302020302020302020302020302020302020302020300A20202020322E3134333420202020302E3631383820202020302E30303030204F202020302020302020302020302020302020302020302020302020302020302020302020300A20202020302E3731343420202020312E3434333820202020302E30303030204F202020302020302020302020302020302020302020302020302020302020302020302020300A20202020312E3432383920202020312E3835363320202020302E303030302043202020302020302020302020302020302020302020302020302020302020302020302020300A20202020312E3432383920202020322E3638313220202020302E30303030204F202020302020302020302020302020302020302020302020302020302020302020302020300A20202020322E3134333420202020312E3434333820202020302E303030302043202020302020302020302020302020302020302020302020302020302020302020302020300A2020202D312E343239302020202D312E3434333820202020302E30303030204F202020302020302020302020302020302020302020302020302020302020302020302020300A2020202D302E363034302020202D302E3631383820202020302E303030302048202020302020302020302020302020302020302020302020302020302020302020302020300A2020202D322E323534302020202D302E3631383820202020302E303030302048202020312020302020302020302020302020302020302020302020302020302020302020300A2020202D302E373134352020202D312E3835363320202020302E303030302043202020302020302020302020302020302020302020302020302020302020302020302020300A2020202D302E373134352020202D322E3638313220202020302E303030302043202020302020302020302020302020302020302020302020302020302020302020302020300A2020202D302E303030302020202D312E3434333820202020302E30303030204F202020302020302020302020302020302020302020302020302020302020302020302020300A20202020322E3835373920202020302E3230363420202020302E303030302043202020302020302020302020302020302020302020302020302020302020302020302020300A2020312020322020312020302020202020200A2020322020332020312020302020202020200A2020332020342020312020302020202020200A2020342020352020312020302020202020200A2020352020362020312020302020202020200A2020372020382020312020302020202020200A2020342020372020312020302020202020200A2020392031302020312020302020202020200A2020332020392020312020302020202020200A2031312031322020312020302020202020200A2020322031312020312020302020202020200A2020362031332020312020302020202020200A2031352031362020322020302020202020200A2031352031372020312020302020202020200A2031342031352020312020302020202020200A2020352031342020312020302020202020200A2020312031382020312020302020202020200A2020312031392020312020302020202020200A2020312032302020312020302020202020200A2031382032312020312020302020202020200A2032312032322020312020302020202020200A2032312032332020322020302020202020200A2031332032342020312020302020202020200A4D202049534F20203120203230202020320A4D2020454E44
Contributor: SEYAMA Y, DEPT. OF PHYSIOL. CHEMISTRY AND NUTRITION, FAC. OF MEDICINE, UNIV. OF TOKYO
InstType: EI
InstName: SHIMADZU LKB-9000B
IoniMethod: _ENERGY 70 eV
IonPolarity: pos
Date: 2010-10-09 19:48:36+02:00
Num Peaks: 53
41 19 42 22 43 999 44 3 45 312 46 20 55 15 57 1 59 46 60 11 
70 11 71 12 72 38 73 33 74 36 75 7 76 16 81 13 85 43 86 1 
87 197 88 103 89 79 90 1 98 28 99 40 100 28 101 22 102 581 103 40 
113 115 114 2 115 20 117 105 118 682 119 7 120 10 129 554 130 53 131 6 
132 34 142 13 143 13 145 62 146 56 157 13 161 321 162 21 163 20 173 14 
174 16 205 28 206 29 
