Name: 7-METHOXY(TRANS)FLAVAN-4ALPHA-OL
MW: 256
Formula: C16H16O3
Synonym: MassBank: JP001254
Synonym: 7-METHOXY(TRANS)FLAVAN-4ALPHA-OL
Synonym: 7-METHOXY-TRANS-2-PHENYLCHROMAN-4(S)-OL
Structure: 372D4D4554484F5859285452414E5329464C4156414E2D34414C5048412D4F4C2E6D6F6C0A20204368656D447261773035323131303035343632440A2032312032332020302020302020302020302020302020302020302020303939392056323030300A2020202D302E3932343620202020302E3534373020202020302E303030302043202020302020302020302020302020302020302020302020302020302020302020302020300A2020202D302E393234362020202D302E3237383020202020302E303030302043202020302020302020302020302020302020302020302020302020302020302020302020300A2020202D302E323130322020202D302E3639303520202020302E303030302043202020302020302020302020302020302020302020302020302020302020302020302020300A20202020302E353034332020202D302E3237383020202020302E303030302043202020302020302020302020302020302020302020302020302020302020302020302020300A20202020312E323138382020202D302E3639303520202020302E303030302043202020302020302020302020302020302020302020302020302020302020302020302020300A20202020312E393333322020202D302E3237383020202020302E303030302043202020302020302020302020302020302020302020302020302020302020302020302020300A20202020312E3933333220202020302E3534373020202020302E303030302043202020302020302020302020302020302020302020302020302020302020302020302020300A20202020312E3231383820202020302E3935393520202020302E303030302043202020302020302020302020302020302020302020302020302020302020302020302020300A20202020302E3530343320202020302E3534373020202020302E303030302043202020302020302020302020302020302020302020302020302020302020302020302020300A2020202D302E3230393920202020302E3935383820202020302E30303030204F202020302020302020302020302020302020302020302020302020302020302020302020300A2020202D312E3733373220202020302E3430343020202020302E303030302043202020302020302020302020302020302020302020302020302020302020302020302020300A2020202D322E3236373320202020312E3033363220202020302E303030302043202020302020302020302020302020302020302020302020302020302020302020302020300A2020202D332E3037393820202020302E3839333120202020302E303030302043202020302020302020302020302020302020302020302020302020302020302020302020300A2020202D332E3336323220202020302E3131383020202020302E303030302043202020302020302020302020302020302020302020302020302020302020302020302020300A2020202D322E383332312020202D302E3531343220202020302E303030302043202020302020302020302020302020302020302020302020302020302020302020302020300A2020202D322E303139362020202D302E3337313120202020302E303030302043202020302020302020302020302020302020302020302020302020302020302020302020300A20202020302E333230312020202D312E3332323420202020302E30303030204F202020302020302020302020302020302020302020302020302020302020302020302020300A20202020322E3634373720202020302E3935393520202020302E30303030204F202020302020302020302020302020302020302020302020302020302020302020302020300A20202020332E3336323220202020302E3534373020202020302E303030302043202020302020302020302020302020302020302020302020302020302020302020302020300A2020202D312E3230363420202020312E3332323420202020302E303030302048202020302020302020302020302020302020302020302020302020302020302020302020300A2020202D302E373430352020202D312E3332323420202020302E303030302048202020302020302020302020302020302020302020302020302020302020302020302020300A2020312020322020312020302020202020200A2020322020332020312020302020202020200A2020332020342020312020302020202020200A2020342020352020312020302020202020200A2020352020362020322020302020202020200A2020362020372020312020302020202020200A2020372020382020322020302020202020200A2020382020392020312020302020202020200A2020342020392020322020302020202020200A2020392031302020312020302020202020200A2020312031302020312020302020202020200A2020312031312020312020362020202020200A2031312031322020312020302020202020200A2031322031332020322020302020202020200A2031332031342020312020302020202020200A2031342031352020322020302020202020200A2031352031362020312020302020202020200A2031312031362020322020302020202020200A2020332031372020312020312020202020200A2031382031392020312020302020202020200A2020372031382020312020302020202020200A2020312032302020312020312020202020200A2020332032312020312020362020202020200A4D2020454E44
Contributor: SASAKI S, TOYOHASHI UNIV. OF TECH.
InstType: EI
InstName: HITACHI RMU-6D
IoniMethod: _ENERGY 70 eV
IonPolarity: pos
Date: 2010-10-09 19:48:36+02:00
Num Peaks: 54
28 80 39 40 43 30 44 2 50 20 51 60 52 10 63 5 64 13 65 30 
69 40 75 2 76 60 77 107 78 20 79 1 88 13 89 60 91 23 102 2 
105 60 115 53 118 50 119 8 128 10 139 30 140 10 141 1 146 20 151 20 
152 60 153 2 160 20 161 600 162 60 163 1 164 10 165 160 166 40 167 2 
176 20 177 30 178 40 179 1 194 120 195 40 207 50 222 4 223 100 224 13 
237 999 238 88 239 140 240 13 
