Name: ETHYLHYDRAZINE
MW: 60
Formula: C2H8N2
Synonym: MassBank: JP000365
Synonym: ETHYLHYDRAZINE
Structure: 310A31320A455448594C48594452415A494E452E6D6F6C0A20204368656D447261773038313131303139313432440A2020342020332020302020302020302020302020302020302020302020303939392056323030300A2020202D302E333537322020202D302E3230363220202020302E30303030204E202020302020302020302020302020302020302020302020302020302020302020302020300A2020202D312E3037313720202020302E3230363220202020302E30303030204E202020302020302020302020302020302020302020302020302020302020302020302020300A20202020302E3335373220202020302E3230363220202020302E303030302043202020302020302020302020302020302020302020302020302020302020302020302020300A20202020312E303731372020202D302E3230363220202020302E303030302043202020302020302020302020302020302020302020302020302020302020302020302020300A2020312020322020312020302020202020200A2020332020342020312020302020202020200A2020312020332020312020302020202020200A4D2020454E44
Contributor: SASAKI S, TOYOHASHI UNIV. OF TECH.
InstType: EI
InstName: SHIMADZU LKB-2091
IoniMethod: _ENERGY 70 eV
IonPolarity: pos
Date: 2010-10-09 19:48:36+02:00
Num Peaks: 20
26 31 27 126 28 119 29 11 30 105 31 310 32 114 39 1 40 29 41 50 
42 259 43 5 44 24 45 999 46 22 57 1 58 14 59 56 60 428 61 19 
