Name: N-DECYL-5-METHYL-2-PYRROLIDONE
MW: 239
Formula: C15H29NO
Synonym: MassBank: JP004132
Synonym: N-DECYL-5-METHYL-2-PYRROLIDONE
Structure: 4E2D444543594C2D352D4D455448594C2D322D505952524F4C49444F4E452E6D6F6C0A20204368656D447261773038313231303031353932440A2031372031372020302020302020302020302020302020302020302020303939392056323030300A20202020322E343839312020202D302E3031363020202020302E30303030204E202020302020302020302020302020302020302020302020302020302020302020302020300A20202020312E3832313720202020302E3436383920202020302E303030302043202020302020302020302020302020302020302020302020302020302020302020302020300A20202020322E3037363620202020312E3235333520202020302E303030302043202020302020302020302020302020302020302020302020302020302020302020302020300A20202020322E3930313620202020312E3235333520202020302E303030302043202020302020302020302020302020302020302020302020302020302020302020302020300A20202020332E3135363520202020302E3436383920202020302E303030302043202020302020302020302020302020302020302020302020302020302020302020302020300A20202020312E3033373020202020302E3231343020202020302E30303030204F202020302020302020302020302020302020302020302020302020302020302020302020300A20202020332E3934313120202020302E3231343020202020302E303030302043202020302020302020302020302020302020302020302020302020302020302020302020300A20202020322E343839312020202D302E3834313020202020302E303030302043202020302020302020302020302020302020302020302020302020302020302020302020300A20202020312E373734362020202D312E3235333520202020302E303030302043202020302020302020302020302020302020302020302020302020302020302020302020300A20202020312E303630312020202D302E3834313020202020302E303030302043202020302020302020302020302020302020302020302020302020302020302020302020300A20202020302E333435372020202D312E3235333520202020302E303030302043202020302020302020302020302020302020302020302020302020302020302020302020300A2020202D302E333638382020202D302E3834313020202020302E303030302043202020302020302020302020302020302020302020302020302020302020302020302020300A2020202D312E303833332020202D312E3235333520202020302E303030302043202020302020302020302020302020302020302020302020302020302020302020302020300A2020202D312E373937372020202D302E3834313020202020302E303030302043202020302020302020302020302020302020302020302020302020302020302020302020300A2020202D322E353132322020202D312E3235333520202020302E303030302043202020302020302020302020302020302020302020302020302020302020302020302020300A2020202D332E323236372020202D302E3834313020202020302E303030302043202020302020302020302020302020302020302020302020302020302020302020302020300A2020202D332E393431312020202D312E3235333520202020302E303030302043202020302020302020302020302020302020302020302020302020302020302020302020300A2020312020322020312020302020202020200A2020322020332020312020302020202020200A2020332020342020312020302020202020200A2020342020352020312020302020202020200A2020312020352020312020302020202020200A2020322020362020322020302020202020200A2020352020372020312020302020202020200A2020382020392020312020302020202020200A2020392031302020312020302020202020200A2031302031312020312020302020202020200A2031312031322020312020302020202020200A2031322031332020312020302020202020200A2031332031342020312020302020202020200A2031342031352020312020302020202020200A2031352031362020312020302020202020200A2031362031372020312020302020202020200A2020312020382020312020302020202020200A4D2020454E44
Contributor: MASS SPECTROSCOPY SOC. OF JAPAN (MSSJ)
InstType: EI
InstName: HITACHI RMU-6E
IoniMethod: _ENERGY 70 eV
IonPolarity: pos
Date: 2010-10-09 19:48:36+02:00
Num Peaks: 84
26 3 27 30 28 40 29 8 30 140 31 3 32 3 39 2 40 6 41 160 
42 38 43 9 44 30 45 8 53 10 54 1 55 180 56 78 57 46 58 1 
59 3 67 18 68 10 69 3 70 20 71 16 72 6 73 0 81 4 82 26 
83 92 84 15 85 28 86 10 87 2 94 0 95 2 96 3 97 10 98 14 
99 16 100 40 101 4 110 1 111 6 112 999 113 596 114 3 115 2 124 4 
126 118 127 3 128 5 138 6 140 146 141 3 142 4 152 2 154 50 155 2 
156 2 157 2 168 60 169 1 170 6 182 25 183 17 184 2 196 25 197 17 
198 1 199 0 210 24 211 6 212 2 223 1 224 1 225 148 226 1 238 1 
239 240 240 32 241 3 242 2 
