Name: 2-METHYL-1-(2-(6-METHYL-3-PYRIDYL)ETHYL)-3-PHENYLINDOLE
MW: 326
Formula: C23H22N2
Synonym: MassBank: JP006656
Synonym: 2-METHYL-1-(2-(6-METHYL-3-PYRIDYL)ETHYL)-3-PHENYLINDOLE
Structure: 322D4D455448594C2D312D28322D28362D4D455448594C2D332D5059524944594C29455448594C292D332D5048454E594C494E444F4C452E6D6F6C0A20204368656D447261773031323231303032353232440A2032352032382020302020302020302020302020302020302020302020303939392056323030300A2020202D302E343438342020202D302E3433333420202020302E30303030204E202020302020302020302020302020302020302020302020302020302020302020302020300A2020202D302E393333332020202D312E3130303820202020302E303030302043202020302020302020302020302020302020302020302020302020302020302020302020300A2020202D302E343438342020202D312E3736383320202020302E303030302043202020302020302020302020302020302020302020302020302020302020302020302020300A20202020302E333336332020202D312E3531333320202020302E303030302043202020302020302020302020302020302020302020302020302020302020302020302020300A20202020312E303530372020202D312E3932353820202020302E303030302043202020302020302020302020302020302020302020302020302020302020302020302020300A20202020312E373635322020202D312E3531333320202020302E303030302043202020302020302020302020302020302020302020302020302020302020302020302020300A20202020312E373635322020202D302E3638383320202020302E303030302043202020302020302020302020302020302020302020302020302020302020302020302020300A20202020312E303530372020202D302E3237353820202020302E303030302043202020302020302020302020302020302020302020302020302020302020302020302020300A20202020302E333336332020202D302E3638383320202020302E303030302043202020302020302020302020302020302020302020302020302020302020302020302020300A2020202D302E373033332020202D322E3535323920202020302E303030302043202020302020302020302020302020302020302020302020302020302020302020302020300A2020202D312E353130332020202D322E3732343420202020302E303030302043202020302020302020302020302020302020302020302020302020302020302020302020300A2020202D312E373635322020202D332E3530393020202020302E303030302043202020302020302020302020302020302020302020302020302020302020302020302020300A2020202D312E323133322020202D342E3132323120202020302E303030302043202020302020302020302020302020302020302020302020302020302020302020302020300A2020202D302E343036322020202D332E3935303620202020302E303030302043202020302020302020302020302020302020302020302020302020302020302020302020300A2020202D302E313531332020202D332E3136363020202020302E303030302043202020302020302020302020302020302020302020302020302020302020302020302020300A2020202D302E3730333320202020302E3335313220202020302E303030302043202020302020302020302020302020302020302020302020302020302020302020302020300A2020202D302E3131393920202020302E3933343620202020302E303030302043202020302020302020302020302020302020302020302020302020302020302020302020300A2020202D312E3133303320202020312E3934353020202020302E303030302043202020302020302020302020302020302020302020302020302020302020302020302020300A2020202D302E3333333520202020312E3733313520202020302E303030302043202020302020302020302020302020302020302020302020302020302020302020302020300A20202020302E3234393920202020322E3331343820202020302E303030302043202020302020302020302020302020302020302020302020302020302020302020302020300A20202020302E3033363420202020332E3131313720202020302E303030302043202020302020302020302020302020302020302020302020302020302020302020302020300A2020202D302E3736303520202020332E3332353320202020302E303030302043202020302020302020302020302020302020302020302020302020302020302020302020300A2020202D312E3334333920202020322E3734313920202020302E30303030204E202020302020302020302020302020302020302020302020302020302020302020302020300A2020202D302E3937343020202020342E3132323120202020302E303030302043202020302020302020302020302020302020302020302020302020302020302020302020300A2020202D312E373538332020202D312E3130303820202020302E303030302043202020302020302020302020302020302020302020302020302020302020302020302020300A2020312020322020312020302020202020200A2020322020332020322020302020202020200A2020332020342020312020302020202020200A2020342020352020312020302020202020200A2020352020362020322020302020202020200A2020362020372020312020302020202020200A2020372020382020322020302020202020200A2020382020392020312020302020202020200A2020312020392020312020302020202020200A2020342020392020322020302020202020200A2031302031312020312020302020202020200A2031312031322020322020302020202020200A2031322031332020312020302020202020200A2031332031342020322020302020202020200A2031342031352020312020302020202020200A2031302031352020322020302020202020200A2020332031302020312020302020202020200A2031362031372020312020302020202020200A2031382031392020312020302020202020200A2031392032302020322020302020202020200A2032302032312020312020302020202020200A2032312032322020322020302020202020200A2032322032332020312020302020202020200A2031382032332020322020302020202020200A2032322032342020312020302020202020200A2031372031392020312020302020202020200A2020312031362020312020302020202020200A2020322032352020312020302020202020200A4D2020454E44
Contributor: SASAKI S, TOYOHASHI UNIV. OF TECH.
InstType: EI
InstName: JEOL JMS-01-SG-2
IoniMethod: _ENERGY 75 eV
IonPolarity: pos
Date: 2010-10-09 19:48:36+02:00
Num Peaks: 16
57 13 77 10 105 17 106 2 115 21 128 10 130 11 142 1 143 11 178 26 
205 28 218 3 219 21 220 999 221 147 326 250 
