Name: MassBank: JP004432
MW: 244
Formula: C15H20N2O
Synonym: MassBank: JP004432
Synonym: 6-HYDROXY-2,2,4,4-TETRAMETHYL-1,2,3,4-TETRAHYDRO-GAMMA-CARBOLINE
Structure: 362D485944524F58592D322C322C342C342D54455452414D455448594C2D312C322C332C342D5445545241485944524F2D47414D4D412D434152424F4C494E452E6D6F6C0A20204368656D447261773035313731303133323732440A2031382032302020302020302020302020302020302020302020302020303939392056323030300A2020202D312E353238382020202D302E3130323820202020302E30303030204E202020302020302020302020302020302020302020302020302020302020302020302020300A2020202D312E353238382020202D302E3932373820202020302E303030302043202020302020302020302020302020302020302020302020302020302020302020302020300A2020202D302E383134332020202D312E3334303320202020302E303030302043202020302020302020302020302020302020302020302020302020302020302020302020300A2020202D302E303939392020202D302E3932373820202020302E303030302043202020302020302020302020302020302020302020302020302020302020302020302020300A2020202D302E303939392020202D302E3130323820202020302E303030302043202020302020302020302020302020302020302020302020302020302020302020302020300A2020202D302E3831343320202020302E3330393720202020302E303030302043202020302020302020302020302020302020302020302020302020302020302020302020300A20202020302E363834372020202D312E3138323720202020302E30303030204E202020302020302020302020302020302020302020302020302020302020302020302020300A20202020312E313639372020202D302E3531353320202020302E303030302043202020302020302020302020302020302020302020302020302020302020302020302020300A20202020302E3638343720202020302E3135323120202020302E303030302043202020302020302020302020302020302020302020302020302020302020302020302020300A20202020312E393930312020202D302E3432393120202020302E303030302043202020302020302020302020302020302020302020302020302020302020302020302020300A20202020322E3332353720202020302E3332343620202020302E303030302043202020302020302020302020302020302020302020302020302020302020302020302020300A20202020312E3834303820202020302E3939323120202020302E303030302043202020302020302020302020302020302020302020302020302020302020302020302020300A20202020312E3032303320202020302E3930353820202020302E303030302043202020302020302020302020302020302020302020302020302020302020302020302020300A20202020322E3137363320202020312E3734353720202020302E30303030204F202020302020302020302020302020302020302020302020302020302020302020302020300A2020202D302E3430313820202020312E3032343220202020302E303030302043202020302020302020302020302020302020302020302020302020302020302020302020300A2020202D322E333235372020202D312E3134313320202020302E303030302043202020302020302020302020302020302020302020302020302020302020302020302020300A2020202D312E363336352020202D312E3734353720202020302E303030302043202020302020302020302020302020302020302020302020302020302020302020302020300A2020202D312E3339373720202020302E3839333120202020302E303030302043202020302020302020302020302020302020302020302020302020302020302020302020300A2020312020322020312020302020202020200A2020322020332020312020302020202020200A2020332020342020312020302020202020200A2020342020352020322020302020202020200A2020352020362020312020302020202020200A2020362020312020312020302020202020200A2020342020372020312020302020202020200A2020372020382020312020302020202020200A2020382020392020322020302020202020200A2020392020352020312020302020202020200A2020382031302020312020302020202020200A2031302031312020322020302020202020200A2031312031322020312020302020202020200A2031322031332020322020302020202020200A2031332020392020312020302020202020200A2031322031342020312020302020202020200A2020362031352020312020312020202020200A2020322031362020312020312020202020200A2020322031372020312020362020202020200A2020362031382020312020362020202020200A4D2020454E44
Contributor: SASAKI S, TOYOHASHI UNIV. OF TECH.
InstType: EI
InstName: JEOL JMS-01-SG-2
IoniMethod: _ENERGY 75 eV
IonPolarity: pos
Date: 2010-10-09 19:48:36+02:00
Num Peaks: 18
42 18 51 10 77 21 91 2 92 10 115 20 128 15 159 2 172 80 186 20 
187 260 188 2 212 10 213 18 228 19 229 999 230 102 244 44 
