Name: 1-ACETYL-1-METHYL-4-METHYLENECYCLOHEXANE
MW: 152
Formula: C10H16O
Synonym: MassBank: JP001942
Synonym: 1-ACETYL-1-METHYL-4-METHYLENECYCLOHEXANE
Structure: 312D41434554594C2D312D4D455448594C2D342D4D455448594C454E454359434C4F484558414E452E6D6F6C0A20204368656D447261773131313730393230353932440A2031312031312020302020302020302020302020302020302020302020303939392056323030300A2020202D302E3430303320202020302E3233313120202020302E303030302043202020302020302020302020302020302020302020302020302020302020302020302020300A20202020302E3331343120202020302E3634333620202020302E303030302043202020302020302020302020302020302020302020302020302020302020302020302020300A20202020312E3032383620202020302E3233313120202020302E303030302043202020302020302020302020302020302020302020302020302020302020302020302020300A20202020312E303238362020202D302E3539333920202020302E303030302043202020302020302020302020302020302020302020302020302020302020302020302020300A20202020302E333134312020202D312E3030363420202020302E303030302043202020302020302020302020302020302020302020302020302020302020302020302020300A2020202D302E343030332020202D302E3539333920202020302E303030302043202020302020302020302020302020302020302020302020302020302020302020302020300A20202020312E373433312020202D312E3030363420202020302E303030302043202020302020302020302020302020302020302020302020302020302020302020302020300A2020202D302E3638323520202020312E3030363420202020302E303030302043202020302020302020302020302020302020302020302020302020302020302020302020300A2020202D312E3231323820202020302E3038373920202020302E303030302043202020302020302020302020302020302020302020302020302020302020302020302020300A2020202D312E343935302020202D302E3638373420202020302E30303030204F202020302020302020302020302020302020302020302020302020302020302020302020300A2020202D312E3734333120202020302E3731393920202020302E303030302043202020302020302020302020302020302020302020302020302020302020302020302020300A2020312020322020312020302020202020200A2020322020332020312020302020202020200A2020332020342020312020302020202020200A2020342020352020312020302020202020200A2020352020362020312020302020202020200A2020312020362020312020302020202020200A2020342020372020322020302020202020200A2020312020382020312020302020202020200A2020392031302020322020302020202020200A2020392031312020312020302020202020200A2020312020392020312020302020202020200A4D2020454E44
Contributor: MASS SPECTROSCOPY SOC. OF JAPAN (MSSJ)
InstType: EI
InstName: JEOL JMS-D-3000
IoniMethod: _ENERGY 70 eV
IonPolarity: pos
Date: 2010-10-09 19:48:36+02:00
Num Peaks: 27
41 399 43 546 51 40 53 134 55 288 57 167 59 45 65 66 67 752 68 346 
69 77 77 93 79 146 80 49 81 256 85 791 86 44 91 71 93 101 94 82 
107 43 108 72 109 999 110 96 137 216 152 310 153 35 
