Name: 2-ETHYLTHIAZOLE
CAS: 15679-09-1
MW: 113
Formula: C5H7NS
Synonym: MassBank: JP007788
Synonym: 2-ETHYLTHIAZOLE
Structure: 310A31390A322D455448594C544849415A4F4C452E6D6F6C0A20204368656D447261773031303331303133303932440A2020372020372020302020302020302020302020302020302020302020303939392056323030300A2020202D302E3831353320202020302E3632353320202020302E303030302053202020302020302020302020302020302020302020302020302020302020302020302020300A2020202D302E3036313620202020302E3238393820202020302E303030302043202020302020302020302020302020302020302020302020302020302020302020302020300A2020202D302E313437392020202D302E3533303720202020302E30303030204E202020302020302020302020302020302020302020302020302020302020302020302020300A2020202D302E393534382020202D302E3730323320202020302E303030302043202020302020302020302020302020302020302020302020302020302020302020302020300A2020202D312E3336373320202020302E3031323220202020302E303030302043202020302020302020302020302020302020302020302020302020302020302020302020300A20202020302E3635323920202020302E3730323320202020302E303030302043202020302020302020302020302020302020302020302020302020302020302020302020300A20202020312E3336373320202020302E3238393820202020302E303030302043202020302020302020302020302020302020302020302020302020302020302020302020300A2020312020322020312020302020202020200A2020322020332020322020302020202020200A2020332020342020312020302020202020200A2020342020352020322020302020202020200A2020312020352020312020302020202020200A2020362020372020312020302020202020200A2020322020362020312020302020202020200A4D2020454E44
Contributor: HASHIMOTO K, KYOTO COLLEGE OF PHARMACY
InstType: EI
InstName: HITACHI M-80
IoniMethod: _ENERGY 20 eV
IonPolarity: pos
Date: 2010-10-09 19:48:36+02:00
Num Peaks: 19
27 19 28 22 29 25 39 19 41 50 45 48 54 39 56 38 58 999 59 130 
60 47 68 31 85 31 86 20 98 168 111 20 112 469 113 557 114 51 
