Name: 3-(4-HYDROXYPHENYL)PROP-2-ENOIC ACID
CAS: 7400-08-0
MW: 164
Formula: C9H8O3
Synonym: MassBank: JP007236
Synonym: 3-(4-HYDROXYPHENYL)PROP-2-ENOIC ACID
Synonym: P-COUMARIC ACID
Structure: 332D28342D485944524F58595048454E594C2950524F502D322D454E4F494320414349442E6D6F6C0A20204368656D447261773032323231303130313332440A2031322031322020302020302020302020302020302020302020302020303939392056323030300A2020202D322E3036323520202020302E3335373220202020302E303030302043202020302020302020302020302020302020302020302020302020302020302020302020300A2020202D312E3233373520202020302E3335373220202020302E303030302043202020302020302020302020302020302020302020302020302020302020302020302020300A2020202D302E383235302020202D302E3335373220202020302E303030302043202020302020302020302020302020302020302020302020302020302020302020302020300A2020202D322E343735302020202D302E3335373220202020302E30303030204F202020302020302020302020302020302020302020302020302020302020302020302020300A2020202D322E3437353020202020312E3037313720202020302E30303030204F202020302020302020302020302020302020302020302020302020302020302020302020300A20202020302E303030302020202D302E3335373220202020302E303030302043202020302020302020302020302020302020302020302020302020302020302020302020300A20202020302E3431323520202020302E3335373220202020302E303030302043202020302020302020302020302020302020302020302020302020302020302020302020300A20202020312E3233373520202020302E3335373220202020302E303030302043202020302020302020302020302020302020302020302020302020302020302020302020300A20202020312E363530302020202D302E3335373220202020302E303030302043202020302020302020302020302020302020302020302020302020302020302020302020300A20202020312E323337352020202D312E3037313720202020302E303030302043202020302020302020302020302020302020302020302020302020302020302020302020300A20202020302E343132352020202D312E3037313720202020302E303030302043202020302020302020302020302020302020302020302020302020302020302020302020300A20202020322E343735302020202D302E3335373220202020302E30303030204F202020302020302020302020302020302020302020302020302020302020302020302020300A2020312020322020312020302020202020200A2020322020332020322020302020202020200A2020312020342020322020302020202020200A2020312020352020312020302020202020200A2020362020372020312020302020202020200A2020372020382020322020302020202020200A2020382020392020312020302020202020200A2020392031302020322020302020202020200A2031302031312020312020302020202020200A2020362031312020322020302020202020200A2020392031322020312020302020202020200A2020332020362020312020302020202020200A4D2020454E44
Contributor: ENDO K, PHARMACEUTICAL INST., TOHOKU UNIV.
InstType: EI
InstName: HITACHI M-52
IoniMethod: _ENERGY 70 eV
IonPolarity: pos
Date: 2010-10-09 19:48:36+02:00
Num Peaks: 97
39 136 40 16 41 136 42 3 43 176 44 32 45 48 50 3 51 80 52 16 
53 48 55 13 56 64 57 128 58 24 59 6 60 56 61 24 62 32 63 13 
64 40 65 176 66 24 67 5 68 40 69 88 70 32 71 6 72 24 73 88 
74 40 75 3 76 16 77 64 78 16 79 3 81 56 82 64 83 88 84 2 
85 72 86 16 87 40 89 9 90 48 91 272 92 24 93 2 94 48 95 48 
96 40 97 4 98 16 99 24 101 24 105 2 107 120 108 32 109 24 110 2 
111 32 112 16 113 24 114 2 115 24 117 16 118 24 119 32 120 56 121 32 
122 32 123 6 125 24 127 24 129 32 130 2 131 16 135 56 136 64 137 3 
139 16 141 24 143 16 145 2 146 40 147 440 148 48 149 6 154 24 155 16 
156 16 157 2 161 16 163 376 164 999 165 10 166 24 
