Name: 1-(4-IODOPHENYL)ETHYL ALCOHOL
MW: 247
Formula: C8H9IO
Synonym: MassBank: JP009624
Synonym: 1-(4-IODOPHENYL)ETHYL ALCOHOL
Structure: 312D28342D494F444F5048454E594C29455448594C20414C434F484F4C2E6D6F6C0A20204368656D447261773131313730393137343432440A2031302031302020302020302020302020302020302020302020302020303939392056323030300A2020202D312E3434333720202020302E3030303020202020302E303030302043202020302020302020302020302020302020302020302020302020302020302020302020300A2020202D312E383536332020202D302E3731343520202020302E303030302043202020302020302020302020302020302020302020302020302020302020302020302020300A2020202D302E3631383820202020302E3030303020202020302E303030302043202020302020302020302020302020302020302020302020302020302020302020302020300A2020202D302E3230363220202020302E3731343520202020302E303030302043202020302020302020302020302020302020302020302020302020302020302020302020300A20202020302E3631383820202020302E3731343520202020302E303030302043202020302020302020302020302020302020302020302020302020302020302020302020300A20202020312E303331332020202D302E3030303020202020302E303030302043202020302020302020302020302020302020302020302020302020302020302020302020300A20202020302E363138382020202D302E3731343520202020302E303030302043202020302020302020302020302020302020302020302020302020302020302020302020300A2020202D302E323036322020202D302E3731343520202020302E303030302043202020302020302020302020302020302020302020302020302020302020302020302020300A20202020312E383536332020202D302E3030303020202020302E303030302049202020302020302020302020302020302020302020302020302020302020302020302020300A2020202D312E3835363320202020302E3731343520202020302E30303030204F202020302020302020302020302020302020302020302020302020302020302020302020300A2020312020322020312020302020202020200A2020332020342020312020302020202020200A2020342020352020322020302020202020200A2020352020362020312020302020202020200A2020362020372020322020302020202020200A2020372020382020312020302020202020200A2020332020382020322020302020202020200A2020362020392020312020302020202020200A2020312020332020312020302020202020200A2020312031302020312020302020202020200A4D2020454E44
Contributor: THE INSTITUTE OF SCIENTIFIC AND INDUSTRIALRESEARCH
InstType: EI
InstName: JEOL JMS-DX-300
IoniMethod: _ENERGY 70 eV
IonPolarity: pos
Date: 2010-10-09 19:48:36+02:00
Num Peaks: 54
26 11 27 72 29 76 37 2 38 36 39 106 40 11 41 1 42 10 43 766 
44 48 45 11 49 14 50 297 51 323 52 9 53 28 55 12 61 12 62 4 
63 75 64 12 65 46 73 2 74 123 75 101 76 210 77 43 78 999 79 97 
89 22 91 9 92 20 93 10 102 20 103 4 104 62 105 160 106 127 107 2 
117 26 120 12 121 392 122 4 127 178 128 42 203 42 204 4 205 42 231 56 
233 553 234 4 248 394 249 38 
