Name: MassBank: JP005386
MW: 182
Formula: C12H22O
Synonym: MassBank: JP005386
Synonym: (Z,Z)-3,6-DODECADIEN-1-OL
Structure: 285A2C5A292D332C362D444F444543414449454E2D312D4F4C2E6D6F6C0A20204368656D447261773130323230393231353532440A2031372031362020302020302020302020302020302020302020302020303939392056323030300A2020202D302E333537322020202D302E3832353020202020302E303030302043202020302020302020302020302020302020302020302020302020302020302020302020300A20202020302E333537322020202D302E3431323520202020302E303030302043202020302020302020302020302020302020302020302020302020302020302020302020300A20202020302E3335373220202020302E3431323520202020302E303030302043202020302020302020302020302020302020302020302020302020302020302020302020300A20202020312E303731372020202D302E3832353020202020302E303030302048202020302020302020302020302020302020302020302020302020302020302020302020300A2020202D302E333537322020202D312E3635303020202020302E303030302048202020302020302020302020302020302020302020302020302020302020302020302020300A2020202D312E303731372020202D302E3431323520202020302E303030302043202020302020302020302020302020302020302020302020302020302020302020302020300A2020202D312E373836322020202D302E3832353020202020302E303030302043202020302020302020302020302020302020302020302020302020302020302020302020300A2020202D312E373836322020202D312E3635303020202020302E303030302048202020302020302020302020302020302020302020302020302020302020302020302020300A2020202D322E353030362020202D302E3431323520202020302E303030302043202020302020302020302020302020302020302020302020302020302020302020302020300A2020202D332E323135312020202D302E3832353020202020302E303030302048202020302020302020302020302020302020302020302020302020302020302020302020300A2020202D322E3530303620202020302E3431323520202020302E303030302043202020302020302020302020302020302020302020302020302020302020302020302020300A20202020312E3037313720202020302E3832353020202020302E303030302043202020302020302020302020302020302020302020302020302020302020302020302020300A2020202D332E3231353120202020302E3832353020202020302E303030302043202020302020302020302020302020302020302020302020302020302020302020302020300A2020202D332E3231353120202020312E3635303020202020302E30303030204F202020302020302020302020302020302020302020302020302020302020302020302020300A20202020312E3738363220202020302E3431323520202020302E303030302043202020302020302020302020302020302020302020302020302020302020302020302020300A20202020322E3530303620202020302E3832353020202020302E303030302043202020302020302020302020302020302020302020302020302020302020302020302020300A20202020332E3231353120202020302E3431323520202020302E303030302043202020302020302020302020302020302020302020302020302020302020302020302020300A2020312020322020322020302020202020200A2020322020332020312020302020202020200A2020322020342020312020302020202020200A2020312020352020312020302020202020200A2020312020362020312020302020202020200A2020362020372020312020302020202020200A2020372020382020312020302020202020200A2020372020392020322020302020202020200A2020392031302020312020302020202020200A2020392031312020312020302020202020200A2020332031322020312020302020202020200A2031312031332020312020302020202020200A2031332031342020312020302020202020200A2031322031352020312020302020202020200A2031352031362020312020302020202020200A2031362031372020312020302020202020200A4D2020454E44
Contributor: YAMAOKA R, KYOTO INSTITUTE OF TECHNOLOGY
InstType: EI
InstName: SHIMADZU QP-1000
IoniMethod: _ENERGY 70 eV
IonPolarity: pos
Date: 2010-10-09 19:48:36+02:00
Num Peaks: 94
40 11 41 356 42 60 43 999 44 516 45 189 46 908 47 2 51 12 52 47 
53 30 54 32 55 870 56 116 57 181 58 10 59 151 64 10 65 112 66 11 
67 975 68 356 69 231 70 17 71 84 72 54 73 109 74 1 75 20 77 228 
78 62 79 97 80 318 81 454 82 172 83 14 84 89 85 18 86 37 87 13 
88 44 89 216 90 31 91 25 92 59 93 426 94 168 95 22 96 163 97 154 
98 128 99 2 100 17 101 40 102 32 103 10 104 11 105 67 106 25 107 20 
108 60 109 108 110 53 111 7 112 63 113 11 114 19 115 2 116 11 117 40 
119 18 120 2 121 146 122 39 123 26 125 2 126 11 131 40 132 16 133 12 
134 12 135 76 136 22 137 1 138 60 139 19 147 32 149 2 151 13 163 10 
164 39 175 2 177 25 182 12 
