Name: ISOPULEGYL ACETATE(EQUATORIAL)
MW: 196
Formula: C12H20O2
Synonym: MassBank: JP006017
Synonym: ISOPULEGYL ACETATE(EQUATORIAL)
Structure: 313036335F49534F50554C4547594C20414345544154452845515541544F5249414C292E6D6F6C0A20204368656D447261773039303631303232313832440A2031342031342020302020302020302020302020302020302020302020303939392056323030300A2020202D302E3335373220202020302E3230363220202020302E303030302043202020302020302020302020302020302020302020302020302020302020302020302020300A2020202D302E333537322020202D302E3631383820202020302E303030302043202020302020302020302020302020302020302020302020302020302020302020302020300A20202020302E333537322020202D312E3033313320202020302E303030302043202020302020302020302020302020302020302020302020302020302020302020302020300A20202020312E303731372020202D302E3631383820202020302E303030302043202020302020302020302020302020302020302020302020302020302020302020302020300A20202020312E3037313720202020302E3230363220202020302E303030302043202020302020302020302020302020302020302020302020302020302020302020302020300A20202020302E3335373220202020302E3631383720202020302E303030302043202020302020302020302020302020302020302020302020302020302020302020302020300A20202020312E3738363220202020302E3631383820202020302E303030302043202020302020302020302020302020302020302020302020302020302020302020302020300A2020202D312E3037303620202020302E3631383720202020302E30303030204F202020302020302020302020302020302020302020302020302020302020302020302020300A2020202D312E303731372020202D312E3033313320202020302E303030302043202020302020302020302020302020302020302020302020302020302020302020302020300A2020202D312E3738353120202020312E3835363220202020302E30303030204F202020302020302020302020302020302020302020302020302020302020302020302020300A2020202D312E3037303620202020312E3434333720202020302E303030302043202020302020302020302020302020302020302020302020302020302020302020302020300A2020202D302E3335363220202020312E3835363320202020302E303030302043202020302020302020302020302020302020302020302020302020302020302020302020300A2020202D312E373836322020202D302E3631383820202020302E303030302043202020302020302020302020302020302020302020302020302020302020302020302020300A2020202D312E303731372020202D312E3835363320202020302E303030302043202020302020302020302020302020302020302020302020302020302020302020302020300A2020312020322020312020302020202020200A2020322020332020312020302020202020200A2020332020342020312020302020202020200A2020342020352020312020302020202020200A2020352020362020312020302020202020200A2020362020312020312020302020202020200A2020352020372020312020362020202020200A2020312020382020312020362020202020200A2020322020392020312020312020202020200A2020382031312020312020302020202020200A2031302031312020322020302020202020200A2031312031322020312020302020202020200A2020392031332020312020302020202020200A2020392031342020322020302020202020200A4D2020454E44
Contributor: YAMAMOTO M, DEP. CHEMISTRY, FAC. SCIENCE, NARA WOMEN'S UNIV.
InstType: EI
InstName: HITACHI RMU-6M
IoniMethod: _ENERGY 20 eV
IonPolarity: pos
Date: 2010-10-09 19:48:36+02:00
Num Peaks: 67
42 2 43 774 44 18 53 4 54 2 55 56 56 20 57 12 58 5 59 6 
61 4 67 38 68 92 69 122 70 15 71 51 72 10 77 2 78 4 79 85 
80 167 81 460 82 69 83 29 84 47 85 34 86 4 91 6 92 99 93 407 
94 261 95 126 96 21 97 60 98 30 99 8 100 2 101 9 105 4 106 4 
107 354 108 146 109 126 110 36 111 45 112 27 113 7 120 18 121 460 122 46 
123 21 124 6 125 8 134 9 135 52 136 999 137 122 138 31 139 40 140 4 
145 9 152 8 153 15 154 19 163 11 196 48 197 7 
