Name: 4A-METHYLDECAHYDRO-2-NAPHTHOL-2-D
MW: 168
Formula: C11H20O
Synonym: MassBank: JP009333
Synonym: 4A-METHYLDECAHYDRO-2-NAPHTHOL-2-D
Structure: 34412D4D455448594C44454341485944524F2D322D4E41504854484F4C2D322D442E6D6F6C0A20204368656D447261773034323331303030353532440A2031332031342020302020302020302020302020302020302020302020303939392056323030300A20202020302E3731353320202020302E3335373220202020302E303030302043202020302020302020302020302020302020302020302020302020302020302020302020300A20202020312E313237382020202D302E3335373220202020302E303030302043202020302020302020302020302020302020302020302020302020302020302020302020300A20202020302E373135332020202D312E3037313720202020302E303030302043202020302020302020302020302020302020302020302020302020302020302020302020300A2020202D302E313039372020202D312E3037313720202020302E303030302043202020302020302020302020302020302020302020302020302020302020302020302020300A2020202D302E353232322020202D302E3335373220202020302E303030302043202020302020302020302020302020302020302020302020302020302020302020302020300A2020202D312E333437322020202D302E3335373220202020302E303030302043202020302020302020302020302020302020302020302020302020302020302020302020300A2020202D312E3735393720202020302E3335373220202020302E303030302043202020302020302020302020302020302020302020302020302020302020302020302020300A2020202D312E3334373220202020312E3037313720202020302E303030302043202020302020302020302020302020302020302020302020302020302020302020302020300A2020202D302E3532323220202020312E3037313720202020302E303030302043202020302020302020302020302020302020302020302020302020302020302020302020300A2020202D302E3130393720202020302E3335373220202020302E303030302043202020302020302020302020302020302020302020302020302020302020302020302020300A20202020312E373539372020202D302E3838373520202020302E30303030204F202020302020302020302020302020302020302020302020302020302020302020302020300A20202020312E3735393720202020302E3137333120202020302E303030302048202020312020302020302020302020302020302020302020302020302020302020302020300A2020202D302E393334372020202D312E3037313720202020302E303030302043202020302020302020302020302020302020302020302020302020302020302020302020300A2020312020322020312020302020202020200A2020322020332020312020302020202020200A2020332020342020312020302020202020200A2020342020352020312020302020202020200A2020352020362020312020302020202020200A2020362020372020312020302020202020200A2020372020382020312020302020202020200A2020382020392020312020302020202020200A2020392031302020312020302020202020200A2020312031302020312020302020202020200A2020352031302020312020302020202020200A2020322031312020312020302020202020200A2020322031322020312020302020202020200A2020352031332020312020302020202020200A4D202049534F20203120203132202020320A4D2020454E44
Contributor: YAMAMOTO M, DEP. CHEMISTRY, FAC. SCIENCE, NARA WOMEN'S UNIV.
InstType: EI
InstName: HITACHI M-80
IoniMethod: _ENERGY 70 eV
IonPolarity: pos
Date: 2010-10-09 19:48:36+02:00
Num Peaks: 67
38 14 39 496 40 134 41 999 42 198 43 170 44 104 45 185 46 25 51 56 
52 33 53 259 54 146 55 483 56 146 57 64 58 158 59 35 60 25 63 19 
64 12 65 72 66 70 67 496 68 274 69 215 70 64 71 54 72 21 77 91 
78 53 79 146 80 135 81 271 82 223 83 79 84 50 85 13 91 68 92 39 
93 137 94 224 95 300 96 135 97 31 98 13 99 14 105 14 106 16 107 40 
108 179 109 222 110 113 111 33 112 42 113 12 121 18 122 91 123 47 124 11 
135 14 136 356 137 43 140 12 151 227 152 33 169 20 
