Name: MassBank: JP003234
MW: 209
Formula: C11H15NO3
Synonym: MassBank: JP003234
Synonym: 3,5-DIMETHYL-4-(3'-ACETYLACETONYL)METHYL-ISOXAZOLE
Structure: 332C352D44494D455448594C2D342D2833272D41434554594C414345544F4E594C294D455448594C2D49534F58415A4F4C452E6D6F6C0A20204368656D447261773032323231303031323532440A2031352031352020302020302020302020302020302020302020302020303939392056323030300A20202020322E3136323020202020312E3331323120202020302E30303030204F202020302020302020302020302020302020302020302020302020302020302020302020300A20202020312E3434373520202020312E3732343620202020302E30303030204E202020302020302020302020302020302020302020302020302020302020302020302020300A20202020302E3833343420202020312E3137323520202020302E303030302043202020302020302020302020302020302020302020302020302020302020302020302020300A20202020312E3137303020202020302E3431383920202020302E303030302043202020302020302020302020302020302020302020302020302020302020302020302020300A20202020312E3939303520202020302E3530353120202020302E303030302043202020302020302020302020302020302020302020302020302020302020302020302020300A20202020322E353432352020202D302E3130383020202020302E303030302043202020302020302020302020302020302020302020302020302020302020302020302020300A20202020302E3032373520202020312E3334343120202020302E303030302043202020302020302020302020302020302020302020302020302020302020302020302020300A20202020302E373537352020202D302E3239353620202020302E303030302043202020302020302020302020302020302020302020302020302020302020302020302020300A2020202D302E303637352020202D302E3239353620202020302E303030302043202020302020302020302020302020302020302020302020302020302020302020302020300A2020202D302E343830302020202D312E3031303120202020302E303030302043202020302020302020302020302020302020302020302020302020302020302020302020300A2020202D312E333035302020202D312E3031303120202020302E303030302043202020302020302020302020302020302020302020302020302020302020302020302020300A2020202D302E303637352020202D312E3732343620202020302E30303030204F202020302020302020302020302020302020302020302020302020302020302020302020300A2020202D312E373137352020202D302E3239353620202020302E303030302043202020302020302020302020302020302020302020302020302020302020302020302020300A2020202D312E3330353020202020302E3431383920202020302E303030302043202020302020302020302020302020302020302020302020302020302020302020302020300A2020202D322E353432352020202D302E3239353620202020302E30303030204F202020302020302020302020302020302020302020302020302020302020302020302020300A2020312020322020312020302020202020200A2020322020332020322020302020202020200A2020332020342020312020302020202020200A2020342020352020322020302020202020200A2020312020352020312020302020202020200A2020352020362020312020302020202020200A2020332020372020312020302020202020200A2020342020382020312020302020202020200A2020382020392020312020302020202020200A2020392031302020312020302020202020200A2031302031312020312020302020202020200A2031302031322020322020302020202020200A2031312031332020312020302020202020200A2031332031342020312020302020202020200A2031332031352020322020302020202020200A4D2020454E44
Contributor: MASS SPECTROSCOPY SOC. OF JAPAN (MSSJ)
InstType: EI
InstName: HITACHI RMU-6E
IoniMethod: _ENERGY 70 eV
IonPolarity: pos
Date: 2010-10-09 19:48:36+02:00
Num Peaks: 8
209 30 166 730 124 240 110 410 68 450 43 999 42 90 41 90 
