Name: 2-PHENYL-1-PYRROLINE
MW: 145
Formula: C10H11N
Synonym: MassBank: JP002026
Synonym: 2-PHENYL-1-PYRROLINE
Structure: 322D5048454E594C2D312D505952524F4C494E452E6D6F6C0A20204368656D447261773032323131303134303932440A2031312031322020302020302020302020302020302020302020302020303939392056323030300A20202020312E3137303020202020302E3239323320202020302E30303030204E202020302020302020302020302020302020302020302020302020302020302020302020300A20202020302E353238382020202D302E3232363920202020302E303030302043202020302020302020302020302020302020302020302020302020302020302020302020300A20202020302E383234352020202D302E3939373120202020302E303030302043202020302020302020302020302020302020302020302020302020302020302020302020300A20202020312E363438332020202D302E3935333920202020302E303030302043202020302020302020302020302020302020302020302020302020302020302020302020300A20202020312E383631392020202D302E3135373020202020302E303030302043202020302020302020302020302020302020302020302020302020302020302020302020300A2020202D302E323638312020202D302E3031333320202020302E303030302043202020302020302020302020302020302020302020302020302020302020302020302020300A2020202D302E3438313620202020302E3738333520202020302E303030302043202020302020302020302020302020302020302020302020302020302020302020302020300A2020202D312E3237383520202020302E3939373120202020302E303030302043202020302020302020302020302020302020302020302020302020302020302020302020300A2020202D312E3836313920202020302E3431333720202020302E303030302043202020302020302020302020302020302020302020302020302020302020302020302020300A2020202D312E363438332020202D302E3338333220202020302E303030302043202020302020302020302020302020302020302020302020302020302020302020302020300A2020202D302E383531342020202D302E3539363720202020302E303030302043202020302020302020302020302020302020302020302020302020302020302020302020300A2020312020322020322020302020202020200A2020322020332020312020302020202020200A2020332020342020312020302020202020200A2020342020352020312020302020202020200A2020312020352020312020302020202020200A2020362020372020312020302020202020200A2020372020382020322020302020202020200A2020382020392020312020302020202020200A2020392031302020322020302020202020200A2031302031312020312020302020202020200A2020362031312020322020302020202020200A2020322020362020312020302020202020200A4D2020454E44
Contributor: SASAKI S, TOYOHASHI UNIV. OF TECH.
InstType: EI
InstName: MX-1303
IoniMethod: _ENERGY 50 eV
IonPolarity: pos
Date: 2010-10-09 19:48:36+02:00
Num Peaks: 50
25 46 26 24 27 598 29 61 30 155 38 11 39 43 40 2 41 69 42 125 
43 433 45 999 46 480 47 51 50 14 51 3 55 29 56 14 57 23 60 2 
63 14 65 14 66 10 67 1 69 16 70 10 71 13 73 1 76 16 77 51 
79 11 81 1 83 13 89 16 90 14 91 2 94 23 95 10 97 10 103 2 
104 30 105 14 115 23 116 1 117 189 118 19 143 16 144 5 145 91 146 12 
