Name: GAMMA-DODECALACTONE
MW: 198
Formula: C12H22O2
Synonym: MassBank: JP008732
Synonym: GAMMA-DODECALACTONE
Structure: 47414D4D412D444F444543414C4143544F4E452E6D6F6C0A20204368656D447261773038313131303139343132440A2031342031342020302020302020302020302020302020302020302020303939392056323030300A2020202D332E313030352020202D302E3031323220202020302E303030302043202020302020302020302020302020302020302020302020302020302020302020302020300A2020202D322E3638383020202020302E3730323320202020302E303030302043202020302020302020302020302020302020302020302020302020302020302020302020300A2020202D312E3838313020202020302E3533303720202020302E303030302043202020302020302020302020302020302020302020302020302020302020302020302020300A2020202D312E373934382020202D302E3238393820202020302E303030302043202020302020302020302020302020302020302020302020302020302020302020302020300A2020202D312E303830332020202D302E3730323320202020302E303030302043202020302020302020302020302020302020302020302020302020302020302020302020300A2020202D302E333635382020202D302E3238393820202020302E303030302043202020302020302020302020302020302020302020302020302020302020302020302020300A20202020302E333438362020202D302E3730323320202020302E303030302043202020302020302020302020302020302020302020302020302020302020302020302020300A20202020312E303633312020202D302E3238393820202020302E303030302043202020302020302020302020302020302020302020302020302020302020302020302020300A20202020312E373737362020202D302E3730323320202020302E303030302043202020302020302020302020302020302020302020302020302020302020302020302020300A20202020322E343932302020202D302E3238393820202020302E303030302043202020302020302020302020302020302020302020302020302020302020302020302020300A20202020332E323036352020202D302E3730323320202020302E303030302043202020302020302020302020302020302020302020302020302020302020302020302020300A20202020332E393231302020202D302E3238393820202020302E303030302043202020302020302020302020302020302020302020302020302020302020302020302020300A2020202D332E393231302020202D302E3039383520202020302E30303030204F202020302020302020302020302020302020302020302020302020302020302020302020300A2020202D322E353438352020202D302E3632353320202020302E30303030204F202020302020302020302020302020302020302020302020302020302020302020302020300A2020312020322020312020302020202020200A2020322020332020312020302020202020200A2020332020342020312020302020202020200A2020342020352020312020302020202020200A2020352020362020312020302020202020200A2020362020372020312020302020202020200A2020372020382020312020302020202020200A2020382020392020312020302020202020200A2020392031302020312020302020202020200A2031302031312020312020302020202020200A2031312031322020312020302020202020200A2020312031332020322020302020202020200A2020312031342020312020302020202020200A2020342031342020312020302020202020200A4D2020454E44
Contributor: SODA AROMATIC CO., LTD.
InstType: EI
InstName: HITACHI M-80B
IoniMethod: _ENERGY 70 eV
IonPolarity: pos
Date: 2010-10-09 19:48:36+02:00
Num Peaks: 43
27 96 28 50 29 275 39 53 41 231 42 49 43 141 53 16 54 31 55 167 
56 116 57 82 58 14 60 14 67 25 68 29 69 73 70 47 71 26 72 21 
73 17 81 25 82 18 83 48 84 43 85 999 86 38 87 13 95 19 96 33 
97 28 98 30 100 43 110 21 111 13 114 24 123 11 128 66 136 21 138 17 
139 12 141 13 180 11 
