Name: 2-METHYLBUTANETHIOL
MW: 104
Formula: C5H12S
Synonym: MassBank: JP008743
Synonym: 2-METHYLBUTANETHIOL
Structure: 310A31360A322D4D455448594C425554414E455448494F4C2E6D6F6C0A20204368656D447261773031323231303037343132440A2020362020352020302020302020302020302020302020302020302020303939392056323030300A20202020302E343132352020202D302E3731343520202020302E303030302043202020302020302020302020302020302020302020302020302020302020302020302020300A2020202D302E3030303020202020302E3030303020202020302E303030302043202020302020302020302020302020302020302020302020302020302020302020302020300A2020202D302E3832353020202020302E3030303020202020302E303030302043202020302020302020302020302020302020302020302020302020302020302020302020300A2020202D312E323337352020202D302E3731343520202020302E303030302043202020302020302020302020302020302020302020302020302020302020302020302020300A20202020302E3431323520202020302E3731343520202020302E303030302043202020302020302020302020302020302020302020302020302020302020302020302020300A20202020312E323337352020202D302E3731343520202020302E303030302053202020302020302020302020302020302020302020302020302020302020302020302020300A2020312020322020312020302020202020200A2020322020332020312020302020202020200A2020332020342020312020302020202020200A2020322020352020312020302020202020200A2020312020362020312020302020202020200A4D2020454E44
Contributor: SODA AROMATIC CO., LTD.
InstType: EI
InstName: HITACHI M-80B
IoniMethod: _ENERGY 70 eV
IonPolarity: pos
Date: 2010-10-09 19:48:36+02:00
Num Peaks: 39
15 31 26 26 27 326 28 37 29 609 30 12 33 17 34 13 35 12 37 11 
38 22 39 338 40 35 41 999 42 266 43 187 45 163 46 55 47 369 48 53 
49 39 50 14 51 21 53 38 54 16 55 482 56 277 57 511 58 23 59 25 
61 25 69 18 70 556 71 47 74 17 75 105 104 325 105 17 106 12 
