Name: MassBank: JP009690
MW: 212
Formula: C13H12N2O
Synonym: MassBank: JP009690
Synonym: TRANS-(4'METHYL-N,N,O)-AZOXYBENZENE
Structure: 303337375F5452414E532D2834274D455448594C2D4E2C4E2C4F292D415A4F585942454E5A454E452E6D6F6C0A20204368656D447261773038323031303032313932440A2031362031372020302020302020302020302020302020302020302020303939392056323030300A2020202D322E383732372020202D302E3832343920202020302E303030302043202020302020302020302020302020302020302020302020302020302020302020302020300A2020202D322E343630312020202D302E3131303620202020302E303030302043202020302020302020302020302020302020302020302020302020302020302020302020300A2020202D312E363335322020202D302E3131303620202020302E303030302043202020302020302020302020302020302020302020302020302020302020302020302020300A2020202D312E323232362020202D302E3832343920202020302E303030302043202020302020302020302020302020302020302020302020302020302020302020302020300A2020202D312E363335312020202D312E3533393420202020302E303030302043202020302020302020302020302020302020302020302020302020302020302020302020300A2020202D322E343630322020202D312E3533393420202020302E303030302043202020302020302020302020302020302020302020302020302020302020302020302020300A2020202D302E333937382020202D302E3832343920202020302E30303030204E202020302020332020302020302020302020302020302020302020302020302020302020300A20202020302E303134382020202D312E3533393420202020302E30303030204F202020302020352020302020302020302020302020302020302020302020302020302020300A20202020302E303134382020202D302E3131303620202020302E30303030204E202020302020352020302020302020302020302020302020302020302020302020302020300A20202020302E3732393320202020302E3330313920202020302E303030302043202020302020302020302020302020302020302020302020302020302020302020302020300A20202020312E343433382020202D302E3131303620202020302E303030302043202020302020302020302020302020302020302020302020302020302020302020302020300A20202020322E3135383220202020302E3330313920202020302E303030302043202020302020302020302020302020302020302020302020302020302020302020302020300A20202020322E3135383220202020312E3132363920202020302E303030302043202020302020302020302020302020302020302020302020302020302020302020302020300A20202020312E3434333820202020312E3533393420202020302E303030302043202020302020302020302020302020302020302020302020302020302020302020302020300A20202020302E3732393320202020312E3132363920202020302E303030302043202020302020302020302020302020302020302020302020302020302020302020302020300A20202020322E3837323720202020312E3533393420202020302E303030302043202020302020302020302020302020302020302020302020302020302020302020302020300A2020312020322020312020302020202020200A2020322020332020322020302020202020200A2020332020342020312020302020202020200A2020342020352020322020302020202020200A2020352020362020312020302020202020200A2020312020362020322020302020202020200A2020372020382020342020302020202020200A2020372020392020342020302020202020200A2020392031302020312020302020202020200A2020342020372020312020302020202020200A2031302031312020322020302020202020200A2031312031322020312020302020202020200A2031322031332020322020302020202020200A2031332031342020312020302020202020200A2031342031352020322020302020202020200A2031352031302020312020302020202020200A2031332031362020312020302020202020200A4D202043484720203320202037202020312020203820202D312020203920202D310A4D2020454E44
Contributor: THE INSTITUTE OF SCIENTIFIC AND INDUSTRIALRESEARCH
InstType: EI
InstName: JEOL JMS-DX-300
IoniMethod: _ENERGY 70 eV
IonPolarity: pos
Date: 2010-10-09 19:48:36+02:00
Num Peaks: 44
27 36 39 86 40 11 41 3 50 34 51 185 52 60 53 2 63 39 64 34 
65 170 66 2 76 23 77 999 78 214 79 26 80 20 89 26 90 21 91 35 
92 38 104 117 105 178 106 2 107 77 108 10 115 19 119 4 135 22 141 30 
152 13 155 2 165 12 167 11 168 10 169 1 183 64 184 14 196 87 197 2 
210 13 211 23 212 384 213 59 
