Name: DODECYL DODECANOATE
MW: 368
Formula: C24H48O2
Synonym: MassBank: JP008131
Synonym: DODECYL DODECANOATE
Synonym: LAURYL LAURATE
Structure: 444F444543594C20444F444543414E4F4154452E6D6F6C0A20204368656D447261773038313131303137343432440A2032362032352020302020302020302020302020302020302020302020303939392056323030300A20202020302E343132352020202D312E3432383920202020302E303030302043202020302020302020302020302020302020302020302020302020302020302020302020300A20202020312E323337352020202D312E3432383920202020302E303030302043202020302020302020302020302020302020302020302020302020302020302020302020300A20202020312E363530302020202D302E3731343520202020302E303030302043202020302020302020302020302020302020302020302020302020302020302020302020300A20202020322E343735302020202D302E3731343520202020302E303030302043202020302020302020302020302020302020302020302020302020302020302020302020300A20202020322E3838373520202020302E3030303020202020302E303030302043202020302020302020302020302020302020302020302020302020302020302020302020300A20202020332E3731323520202020302E3030303020202020302E303030302043202020302020302020302020302020302020302020302020302020302020302020302020300A20202020342E3132353020202020302E3731343520202020302E303030302043202020302020302020302020302020302020302020302020302020302020302020302020300A20202020342E3935303020202020302E3731343520202020302E303030302043202020302020302020302020302020302020302020302020302020302020302020302020300A20202020352E3336323520202020312E3432383920202020302E303030302043202020302020302020302020302020302020302020302020302020302020302020302020300A20202020362E3138373520202020312E3432383920202020302E303030302043202020302020302020302020302020302020302020302020302020302020302020302020300A20202020362E3630303020202020322E3134333420202020302E303030302043202020302020302020302020302020302020302020302020302020302020302020302020300A20202020372E3432353020202020322E3134333420202020302E303030302043202020302020302020302020302020302020302020302020302020302020302020302020300A2020202D302E303030302020202D302E3731343520202020302E30303030204F202020302020302020302020302020302020302020302020302020302020302020302020300A2020202D302E303030302020202D322E3134333420202020302E30303030204F202020302020302020302020302020302020302020302020302020302020302020302020300A2020202D302E383235302020202D322E3134333420202020302E303030302043202020302020302020302020302020302020302020302020302020302020302020302020300A2020202D312E323337352020202D312E3432383920202020302E303030302043202020302020302020302020302020302020302020302020302020302020302020302020300A2020202D322E303632352020202D312E3432383920202020302E303030302043202020302020302020302020302020302020302020302020302020302020302020302020300A2020202D322E343735302020202D302E3731343520202020302E303030302043202020302020302020302020302020302020302020302020302020302020302020302020300A2020202D332E333030302020202D302E3731343520202020302E303030302043202020302020302020302020302020302020302020302020302020302020302020302020300A2020202D332E3731323520202020302E3030303020202020302E303030302043202020302020302020302020302020302020302020302020302020302020302020302020300A2020202D342E3533373520202020302E3030303020202020302E303030302043202020302020302020302020302020302020302020302020302020302020302020302020300A2020202D342E3935303020202020302E3731343520202020302E303030302043202020302020302020302020302020302020302020302020302020302020302020302020300A2020202D352E3737353020202020302E3731343520202020302E303030302043202020302020302020302020302020302020302020302020302020302020302020302020300A2020202D362E3138373520202020312E3432383920202020302E303030302043202020302020302020302020302020302020302020302020302020302020302020302020300A2020202D372E3031323520202020312E3432383920202020302E303030302043202020302020302020302020302020302020302020302020302020302020302020302020300A2020202D372E3432353020202020322E3134333420202020302E303030302043202020302020302020302020302020302020302020302020302020302020302020302020300A2020312020322020312020302020202020200A2020322020332020312020302020202020200A2020332020342020312020302020202020200A2020342020352020312020302020202020200A2020352020362020312020302020202020200A2020362020372020312020302020202020200A2020372020382020312020302020202020200A2020382020392020312020302020202020200A2020392031302020312020302020202020200A2031302031312020312020302020202020200A2031312031322020312020302020202020200A2020312031332020322020302020202020200A2020312031342020312020302020202020200A2031352031362020312020302020202020200A2031362031372020312020302020202020200A2031372031382020312020302020202020200A2031382031392020312020302020202020200A2031392032302020312020302020202020200A2032302032312020312020302020202020200A2032312032322020312020302020202020200A2032322032332020312020302020202020200A2032332032342020312020302020202020200A2032342032352020312020302020202020200A2032352032362020312020302020202020200A2031342031352020312020302020202020200A4D2020454E44
Contributor: YAMAOKA R, KYOTO INSTITUTE OF TECHNOLOGY
InstType: EI
InstName: HITACHI M-80B
IoniMethod: _ENERGY 70 eV
IonPolarity: pos
Date: 2010-10-09 19:48:36+02:00
Num Peaks: 66
41 439 42 130 43 789 53 24 54 53 55 473 56 260 57 699 58 42 59 11 
60 86 61 168 67 67 68 113 69 387 70 234 71 351 72 21 73 155 74 10 
81 55 82 154 83 368 84 209 85 208 86 10 87 54 89 10 95 50 96 93 
97 288 98 185 99 31 101 41 103 11 109 22 110 42 111 198 112 91 113 18 
115 40 116 33 124 10 125 86 126 53 127 11 129 68 138 14 139 40 140 145 
141 20 143 15 157 60 168 400 169 56 171 21 183 193 184 30 200 174 201 999 
202 146 203 13 213 44 229 11 368 55 369 20 
