Name: ORTHO METHOXYTOLUENE
MW: 122
Formula: C8H10O
Synonym: MassBank: JP000205
Synonym: ORTHO METHOXYTOLUENE
Synonym: ORTHO METHYL ANISOLE
Structure: 310A32330A4F5254484F204D4554484F5859544F4C55454E452E6D6F6C0A20204368656D447261773038313231303033343832440A2020392020392020302020302020302020302020302020302020302020303939392056323030300A2020202D302E3230363220202020302E3335373220202020302E303030302043202020302020302020302020302020302020302020302020302020302020302020302020300A20202020302E323036332020202D302E3335373220202020302E303030302043202020302020302020302020302020302020302020302020302020302020302020302020300A2020202D312E303331322020202D312E3037313720202020302E303030302043202020302020302020302020302020302020302020302020302020302020302020302020300A2020202D312E3033313220202020302E3335373220202020302E303030302043202020302020302020302020302020302020302020302020302020302020302020302020300A2020202D302E323036322020202D312E3037313720202020302E303030302043202020302020302020302020302020302020302020302020302020302020302020302020300A2020202D312E343433382020202D302E3335373220202020302E303030302043202020302020302020302020302020302020302020302020302020302020302020302020300A20202020302E3230363320202020312E3037313720202020302E303030302043202020302020302020302020302020302020302020302020302020302020302020302020300A20202020312E303331332020202D302E3335373220202020302E30303030204F202020302020302020302020302020302020302020302020302020302020302020302020300A20202020312E343433382020202D312E3037313720202020302E303030302043202020302020302020302020302020302020302020302020302020302020302020302020300A2020312020322020312020302020202020200A2020312020342020322020302020202020200A2020322020352020322020302020202020200A2020332020352020312020302020202020200A2020332020362020322020302020202020200A2020342020362020312020302020202020200A2020312020372020312020302020202020200A2020382020392020312020302020202020200A2020322020382020312020302020202020200A4D2020454E44
Contributor: TAJIMA S, GUNMA COLLEGE OF TECHNOLOGY
InstType: EI
InstName: HITACHI RMU-7M
IoniMethod: _ENERGY 70 eV
IonPolarity: pos
Date: 2010-10-09 19:48:36+02:00
Num Peaks: 35
15 24 27 124 29 41 38 49 39 280 41 89 43 138 50 104 51 224 52 120 
53 106 55 67 57 33 61 15 62 41 63 122 64 41 65 245 66 21 70 49 
71 38 77 761 78 177 79 423 89 94 90 91 91 531 92 218 93 66 107 719 
108 75 120 165 121 256 122 999 123 87 
