Name: 2-BUTYRYLTHIOPHENE
MW: 154
Formula: C8H10OS
Synonym: MassBank: JP007781
Synonym: 2-BUTYRYLTHIOPHENE
Structure: 322D4255545952594C5448494F5048454E452E6D6F6C0A20204368656D447261773031303331303130323232440A2031302031302020302020302020302020302020302020302020302020303939392056323030300A2020202D302E3737363120202020302E3132323720202020302E303030302043202020302020302020302020302020302020302020302020302020302020302020302020300A2020202D312E353239382020202D302E3231323820202020302E303030302043202020302020302020302020302020302020302020302020302020302020302020302020300A2020202D322E3038313820202020302E3430303320202020302E303030302043202020302020302020302020302020302020302020302020302020302020302020302020300A2020202D312E3636393320202020312E3131343820202020302E303030302043202020302020302020302020302020302020302020302020302020302020302020302020300A2020202D302E3836323320202020302E3934333220202020302E303030302053202020302020302020302020302020302020302020302020302020302020302020302020300A2020202D302E303631362020202D302E3238393820202020302E303030302043202020302020302020302020302020302020302020302020302020302020302020302020300A2020202D302E303631362020202D312E3131343820202020302E30303030204F202020302020302020302020302020302020302020302020302020302020302020302020300A20202020302E3635323920202020302E3132323720202020302E303030302043202020302020302020302020302020302020302020302020302020302020302020302020300A20202020312E333637332020202D302E3238393820202020302E303030302043202020302020302020302020302020302020302020302020302020302020302020302020300A20202020322E3038313820202020302E3132323720202020302E303030302043202020302020302020302020302020302020302020302020302020302020302020302020300A2020312020322020322020302020202020200A2020322020332020312020302020202020200A2020332020342020322020302020202020200A2020342020352020312020302020202020200A2020312020352020312020302020202020200A2020362020372020322020302020202020200A2020362020382020312020302020202020200A2020382020392020312020302020202020200A2020392031302020312020302020202020200A2020312020362020312020302020202020200A4D2020454E44
Contributor: HASHIMOTO K, KYOTO COLLEGE OF PHARMACY
InstType: EI
InstName: HITACHI M-80
IoniMethod: _ENERGY 20 eV
IonPolarity: pos
Date: 2010-10-09 19:48:36+02:00
Num Peaks: 37
27 261 28 17 29 56 39 840 40 54 41 282 42 76 43 359 44 18 45 105 
53 57 55 179 57 55 58 72 62 59 69 48 70 11 71 48 82 34 83 313 
84 131 85 50 97 106 98 10 111 999 112 254 113 225 114 19 125 10 126 321 
127 54 128 36 139 103 153 10 154 451 155 74 156 34 
