Name: CYCLOHEPTANONE
CAS: 502-42-1
MW: 112
Formula: C7H12O
Synonym: MassBank: JP007658
Synonym: CYCLOHEPTANONE
Structure: 310A32310A4359434C4F48455054414E4F4E452E6D6F6C0A20204368656D447261773039313531303035333232440A2020382020382020302020302020302020302020302020302020302020303939392056323030300A2020202D302E343931312020202D302E3030303020202020302E303030302043202020302020302020302020302020302020302020302020302020302020302020302020300A2020202D302E3133333220202020302E3734333320202020302E303030302043202020302020302020302020302020302020302020302020302020302020302020302020300A20202020302E3637313120202020302E3932363920202020302E303030302043202020302020302020302020302020302020302020302020302020302020302020302020300A20202020312E3331363120202020302E3431323520202020302E303030302043202020302020302020302020302020302020302020302020302020302020302020302020300A20202020312E333136312020202D302E3431323520202020302E303030302043202020302020302020302020302020302020302020302020302020302020302020302020300A20202020302E363731312020202D302E3932363920202020302E303030302043202020302020302020302020302020302020302020302020302020302020302020302020300A2020202D302E313333322020202D302E3734333320202020302E303030302043202020302020302020302020302020302020302020302020302020302020302020302020300A2020202D312E333136312020202D302E3030303020202020302E30303030204F202020302020302020302020302020302020302020302020302020302020302020302020300A2020312020322020312020302020202020200A2020322020332020312020302020202020200A2020332020342020312020302020202020200A2020342020352020312020302020202020200A2020352020362020312020302020202020200A2020362020372020312020302020202020200A2020312020372020312020302020202020200A2020312020382020322020302020202020200A4D2020454E44
Contributor: TAJIMA S, GUNMA COLLEGE OF TECHNOLOGY
InstType: EI
InstName: HITACHI RMU-7M
IoniMethod: _ENERGY 70 eV
IonPolarity: pos
Date: 2010-10-09 19:48:36+02:00
Num Peaks: 28
15 17 26 24 27 232 28 191 29 116 39 220 40 55 41 664 42 411 43 176 
51 13 53 36 54 32 55 999 56 514 57 54 58 21 67 46 68 796 69 364 
70 102 79 23 83 129 84 256 104 31 107 44 112 364 113 23 
