Name: N-(CHLOROMETHYLDIMETHYLSILYL)-N-METHYLANILINE
MW: 213
Formula: C10H16ClNSi
Synonym: MassBank: JP001943
Synonym: N-(CHLOROMETHYLDIMETHYLSILYL)-N-METHYLANILINE
Structure: 4E2D2843484C4F524F4D455448594C44494D455448594C53494C594C292D4E2D4D455448594C414E494C494E452E6D6F6C0A20204368656D447261773038313231303031323232440A2031332031332020302020302020302020302020302020302020302020303939392056323030300A20202020302E363734302020202D302E3631383720202020302E30303030204E202020302020302020302020302020302020302020302020302020302020302020302020300A2020202D302E313531302020202D302E3631383720202020302E303030302043202020302020302020302020302020302020302020302020302020302020302020302020300A2020202D302E353633352020202D312E3333333220202020302E303030302043202020302020302020302020302020302020302020302020302020302020302020302020300A2020202D312E333838352020202D312E3333333220202020302E303030302043202020302020302020302020302020302020302020302020302020302020302020302020300A2020202D312E383031302020202D302E3631383720202020302E303030302043202020302020302020302020302020302020302020302020302020302020302020302020300A2020202D312E3338383520202020302E3039353720202020302E303030302043202020302020302020302020302020302020302020302020302020302020302020302020300A2020202D302E3536333520202020302E3039353720202020302E303030302043202020302020302020302020302020302020302020302020302020302020302020302020300A20202020312E303836352020202D312E3333333220202020302E303030302043202020302020302020302020302020302020302020302020302020302020302020302020300A20202020312E3038363520202020302E3039353720202020302E303030302053692020302020302020302020302020302020302020302020302020302020302020302020300A20202020312E383031302020202D302E3331363820202020302E303030302043202020302020302020302020302020302020302020302020302020302020302020302020300A20202020312E3439393020202020302E3831303220202020302E303030302043202020302020302020302020302020302020302020302020302020302020302020302020300A20202020302E3337323020202020302E3530383220202020302E303030302043202020302020302020302020302020302020302020302020302020302020302020302020300A20202020302E3337323020202020312E3333333220202020302E3030303020436C2020302020302020302020302020302020302020302020302020302020302020302020300A2020312020322020312020302020202020200A2020322020332020312020302020202020200A2020332020342020322020302020202020200A2020342020352020312020302020202020200A2020352020362020322020302020202020200A2020362020372020312020302020202020200A2020322020372020322020302020202020200A2020312020382020312020302020202020200A2020392031302020312020302020202020200A2020392031312020312020302020202020200A2020392031322020312020302020202020200A2031322031332020312020302020202020200A2020312020392020312020302020202020200A4D2020454E44
Contributor: MASS SPECTROSCOPY SOC. OF JAPAN (MSSJ)
InstType: EI
InstName: JEOL JMS-D-3000
IoniMethod: _ENERGY 70 eV
IonPolarity: pos
Date: 2010-10-09 19:48:36+02:00
Num Peaks: 56
43 11 44 57 45 25 46 30 47 20 49 13 50 31 51 90 52 42 53 21 
58 12 59 432 60 36 61 20 63 29 64 16 65 31 73 19 74 21 75 170 
76 27 77 255 78 49 79 105 80 13 81 67 82 49 83 13 84 18 91 31 
92 10 93 35 95 13 103 15 104 173 105 149 106 219 107 144 108 14 109 11 
119 35 120 52 121 12 134 18 135 18 148 16 149 50 162 67 163 14 164 999 
165 158 166 46 213 165 214 28 215 61 216 11 
