Name: PENTACHLOROPHENYL-TRIMETHYLSILANE
MW: 319
Formula: C9H9Cl5Si
Synonym: MassBank: JP003811
Synonym: PENTACHLOROPHENYL-TRIMETHYLSILANE
Structure: 50454E544143484C4F524F5048454E594C2D5452494D455448594C53494C414E452E6D6F6C0A20204368656D447261773038313231303034343832440A2031352031352020302020302020302020302020302020302020302020303939392056323030300A2020202D312E323337352020202D302E3030303020202020302E303030302053692020302020302020302020302020302020302020302020302020302020302020302020300A2020202D322E303632352020202D302E3030303020202020302E303030302043202020302020302020302020302020302020302020302020302020302020302020302020300A2020202D312E3233373520202020302E3832353020202020302E303030302043202020302020302020302020302020302020302020302020302020302020302020302020300A2020202D312E323337352020202D302E3832353020202020302E303030302043202020302020302020302020302020302020302020302020302020302020302020302020300A2020202D302E343132352020202D302E3030303020202020302E303030302043202020302020302020302020302020302020302020302020302020302020302020302020300A20202020302E3030303020202020302E3731343520202020302E303030302043202020302020302020302020302020302020302020302020302020302020302020302020300A20202020302E3832353020202020302E3731343520202020302E303030302043202020302020302020302020302020302020302020302020302020302020302020302020300A20202020312E323337352020202D302E3030303020202020302E303030302043202020302020302020302020302020302020302020302020302020302020302020302020300A20202020302E383235302020202D302E3731343520202020302E303030302043202020302020302020302020302020302020302020302020302020302020302020302020300A20202020302E303030302020202D302E3731343520202020302E303030302043202020302020302020302020302020302020302020302020302020302020302020302020300A2020202D302E3431323520202020312E3432383920202020302E3030303020436C2020302020302020302020302020302020302020302020302020302020302020302020300A20202020312E3233373520202020312E3432383920202020302E3030303020436C2020302020302020302020302020302020302020302020302020302020302020302020300A20202020322E303632352020202D302E3030303020202020302E3030303020436C2020302020302020302020302020302020302020302020302020302020302020302020300A20202020312E323337352020202D312E3432383920202020302E3030303020436C2020302020302020302020302020302020302020302020302020302020302020302020300A2020202D302E343132352020202D312E3432383920202020302E3030303020436C2020302020302020302020302020302020302020302020302020302020302020302020300A2020312020322020312020302020202020200A2020312020332020312020302020202020200A2020312020342020312020302020202020200A2020352020362020312020302020202020200A2020362020372020322020302020202020200A2020372020382020312020302020202020200A2020382020392020322020302020202020200A2020392031302020312020302020202020200A2020352031302020322020302020202020200A2020362031312020312020302020202020200A2020372031322020312020302020202020200A2020382031332020312020302020202020200A2020392031342020312020302020202020200A2031302031352020312020302020202020200A2020312020352020312020302020202020200A4D2020454E44
Contributor: SASAKI S, TOYOHASHI UNIV. OF TECH.
InstType: EI
InstName: Unknown
IoniMethod: _ENERGY 70 eV
IonPolarity: pos
Date: 2010-10-09 19:48:36+02:00
Num Peaks: 61
36 57 38 19 45 40 63 20 65 113 73 145 75 30 79 0 86 27 87 40 
93 240 95 10 97 32 101 71 102 52 107 4 109 23 113 570 114 40 115 4 
116 24 117 75 121 33 133 9 135 85 136 45 137 45 142 7 144 41 157 58 
159 35 207 8 209 75 211 22 212 25 214 3 233 45 235 48 237 21 247 2 
249 40 250 27 251 25 282 9 284 175 286 130 288 62 305 6 306 92 307 999 
308 146 309 7 310 96 311 236 312 33 313 4 320 92 322 151 323 21 324 10 
326 34 
