Name: MYRTENAL
MW: 150
Formula: C10H14O
Synonym: MassBank: JP008694
Synonym: MYRTENAL
Structure: 303535385F4D595254454E414C2E6D6F6C0A20204368656D447261773130313931303231353832440A2031332031342020302020302020302020302020302020302020302020303939392056323030300A20202020302E393337312020202D302E3839343920202020302E303030302043202020302020302020302020302020302020302020302020302020302020302020302020300A20202020302E333533372020202D302E3331313520202020302E303030302043202020302020302020302020302020302020302020302020302020302020302020302020300A20202020302E3533323520202020302E3334363420202020302E303030302043202020302020302020302020302020302020302020302020302020302020302020302020300A20202020302E3035313320202020302E3832373720202020302E303030302043202020302020302020302020302020302020302020302020302020302020302020302020300A2020202D302E3630353520202020302E3634363020202020302E303030302043202020302020302020302020302020302020302020302020302020302020302020302020300A20202020302E3130393020202020302E3233333520202020302E303030302043202020302020302020302020302020302020302020302020302020302020302020302020300A2020202D312E303138302020202D302E3036383520202020302E303030302043202020302020302020302020302020302020302020302020302020302020302020302020300A2020202D312E3733323420202020302E3334343020202020302E303030302043202020302020302020302020302020302020302020302020302020302020302020302020300A2020202D312E343330352020202D302E3738323920202020302E303030302043202020302020302020302020302020302020302020302020302020302020302020302020300A2020202D302E333033352020202D302E3438313020202020302E303030302043202020302020302020302020302020302020302020302020302020302020302020302020300A20202020312E373332342020202D302E3638323820202020302E30303030204F202020302020302020302020302020302020302020302020302020302020302020302020300A2020202D312E3131303420202020312E3239383420202020302E303030302048202020302020302020302020302020302020302020302020302020302020302020302020300A2020202D302E343135302020202D312E3239383420202020302E303030302048202020302020302020302020302020302020302020302020302020302020302020302020300A2020312020322020312020302020202020200A2020322020332020322020302020202020200A2020332020342020312020302020202020200A2020342020352020312020302020202020200A2020352020362020312020362020202020200A2020352020372020312020302020202020200A2020372020382020312020302020202020200A2020372020392020312020302020202020200A2020372031302020312020302020202020200A2031302020362020312020362020202020200A2020322031302020312020302020202020200A2020312031312020322020302020202020200A2020352031322020312020312020202020200A2031302031332020312020312020202020200A4D2020454E44
Contributor: SODA AROMATIC CO., LTD.
InstType: EI
InstName: HITACHI M-80B
IoniMethod: _ENERGY 70 eV
IonPolarity: pos
Date: 2010-10-09 19:48:36+02:00
Num Peaks: 51
15 12 27 208 29 131 38 16 39 309 40 33 41 332 42 18 43 132 50 36 
51 139 52 49 53 181 54 22 55 61 59 22 63 35 65 109 66 138 67 106 
68 29 69 32 77 380 78 96 79 999 80 116 81 64 82 17 83 10 90 14 
91 321 92 55 93 120 94 112 95 46 96 17 103 24 104 11 105 246 106 325 
107 680 108 349 109 60 115 19 117 59 119 17 121 62 122 22 135 136 136 11 
150 25 
