Name: MassBank: JP007456
MW: 480
Formula: C18H40O7Si4
Synonym: MassBank: JP007456
Synonym: 2-TRIMETHYLSILOXY-1,2,3-PROPANETRICARBOXYLIC ACID TRIS(TRIMETHYLSILYL) ESTER
Structure: 322D5452494D455448594C53494C4F58592D312C322C332D50524F50414E45545249434152424F58594C494320414349442054524953285452494D455448594C53494C594C292045535445522E6D6F6C0A20204368656D447261773032323131303136333732440A2032392032382020302020302020302020302020302020302020302020303939392056323030300A20202020302E313635382020202D312E3332303820202020302E303030302043202020302020302020302020302020302020302020302020302020302020302020302020300A20202020302E313635382020202D302E3439353820202020302E303030302043202020302020302020302020302020302020302020302020302020302020302020302020300A2020202D302E363539322020202D302E3439353820202020302E303030302043202020302020302020302020302020302020302020302020302020302020302020302020300A20202020302E383830332020202D312E3733333320202020302E303030302043202020302020302020302020302020302020302020302020302020302020302020302020300A20202020302E383830332020202D322E3535383320202020302E30303030204F202020302020302020302020302020302020302020302020302020302020302020302020300A20202020312E353934372020202D312E3332303820202020302E30303030204F202020302020302020302020302020302020302020302020302020302020302020302020300A20202020302E3136353820202020302E3537363720202020302E303030302043202020302020302020302020302020302020302020302020302020302020302020302020300A20202020302E3838303320202020302E3938393220202020302E30303030204F202020302020302020302020302020302020302020302020302020302020302020302020300A2020202D302E3534383720202020302E3938393220202020302E30303030204F202020302020302020302020302020302020302020302020302020302020302020302020300A2020202D312E303731372020202D312E3231303320202020302E303030302043202020302020302020302020302020302020302020302020302020302020302020302020300A2020202D302E363539322020202D312E3932343720202020302E30303030204F202020302020302020302020302020302020302020302020302020302020302020302020300A2020202D312E383936372020202D312E3231303320202020302E30303030204F202020302020302020302020302020302020302020302020302020302020302020302020300A20202020312E323338332020202D302E3439353820202020302E30303030204F202020302020302020302020302020302020302020302020302020302020302020302020300A20202020312E3635303820202020302E3231383720202020302E303030302053692020302020302020302020302020302020302020302020302020302020302020302020300A20202020302E3933363320202020302E3633313220202020302E303030302043202020302020302020302020302020302020302020302020302020302020302020302020300A20202020322E3036333320202020302E3933333120202020302E303030302043202020302020302020302020302020302020302020302020302020302020302020302020300A20202020322E333635332020202D302E3139333820202020302E303030302043202020302020302020302020302020302020302020302020302020302020302020302020300A20202020322E333039322020202D312E3733333320202020302E303030302053692020302020302020302020302020302020302020302020302020302020302020302020300A20202020332E303233372020202D322E3134353820202020302E303030302043202020302020302020302020302020302020302020302020302020302020302020302020300A20202020312E383936372020202D322E3434373820202020302E303030302043202020302020302020302020302020302020302020302020302020302020302020302020300A20202020322E373231372020202D312E3031383820202020302E303030302043202020302020302020302020302020302020302020302020302020302020302020302020300A2020202D302E3534383720202020312E3831343220202020302E303030302053692020302020302020302020302020302020302020302020302020302020302020302020300A20202020302E3237363320202020312E3831343220202020302E303030302043202020302020302020302020302020302020302020302020302020302020302020302020300A2020202D312E3337333720202020312E3831343220202020302E303030302043202020302020302020302020302020302020302020302020302020302020302020302020300A2020202D302E3534383720202020322E3633393220202020302E303030302043202020302020302020302020302020302020302020302020302020302020302020302020300A2020202D322E333039322020202D312E3932343720202020302E303030302053692020302020302020302020302020302020302020302020302020302020302020302020300A2020202D332E303233372020202D312E3531323220202020302E303030302043202020302020302020302020302020302020302020302020302020302020302020302020300A2020202D322E373231372020202D322E3633393220202020302E303030302043202020302020302020302020302020302020302020302020302020302020302020302020300A2020202D312E353934372020202D322E3333373220202020302E303030302043202020302020302020302020302020302020302020302020302020302020302020302020300A2020312020322020312020302020202020200A2020322020332020312020302020202020200A2020342020352020322020302020202020200A2020342020362020312020302020202020200A2020312020342020312020302020202020200A2020372020382020322020302020202020200A2020372020392020312020302020202020200A2020322020372020312020302020202020200A2031302031312020322020302020202020200A2031302031322020312020302020202020200A2020332031302020312020302020202020200A2031332031342020312020302020202020200A2031342031352020312020312020202020200A2031342031362020312020302020202020200A2031342031372020312020312020202020200A2020322031332020312020302020202020200A2031382031392020312020302020202020200A2031382032302020312020312020202020200A2031382032312020312020312020202020200A2020362031382020312020302020202020200A2032322032332020312020312020202020200A2032322032342020312020312020202020200A2032322032352020312020302020202020200A2020392032322020312020302020202020200A2032362032372020312020312020202020200A2032362032382020312020302020202020200A2032362032392020312020312020202020200A2031322032362020312020302020202020200A4D2020454E44
Contributor: KOGA M, UNIV. OF OCCUPATIONAL AND ENVIRONMENTAL HEALTH
InstType: EI
InstName: JEOL JMS-01-SG
IoniMethod: _ENERGY 70 eV
IonPolarity: pos
Date: 2010-10-09 19:48:36+02:00
Num Peaks: 43
42 27 43 22 44 78 51 2 57 27 67 44 72 22 73 999 74 78 75 111 
77 16 115 3 117 16 129 67 131 22 133 4 147 530 148 78 149 78 183 4 
211 78 217 22 221 39 231 3 257 33 273 675 274 145 275 6 305 55 319 16 
347 162 348 4 349 22 363 206 364 55 365 2 375 184 376 55 377 22 384 5 
465 145 466 50 467 22 
