Name: CHLOROFORM
MW: 117
Formula: CHCl3
Synonym: MassBank: JP002105
Synonym: CHLOROFORM
Structure: 310A31320A43484C4F524F464F524D2E6D6F6C0A20204368656D447261773039303731303034333232440A2020342020332020302020302020302020302020302020302020302020303939392056323030300A20202020302E3230363220202020302E3030303020202020302E303030302043202020302020302020302020302020302020302020302020302020302020302020302020300A20202020302E3631383820202020302E3731343520202020302E3030303020436C2020302020302020302020302020302020302020302020302020302020302020302020300A20202020302E363138382020202D302E3731343520202020302E3030303020436C2020302020302020302020302020302020302020302020302020302020302020302020300A2020202D302E3631383820202020302E3030303020202020302E3030303020436C2020302020302020302020302020302020302020302020302020302020302020302020300A2020312020322020312020302020202020200A2020312020332020312020302020202020200A2020312020342020312020302020202020200A4D2020454E44
Contributor: TAJIMA S, GUNMA COLLEGE OF TECHNOLOGY
InstType: EI
InstName: HITACHI RMU-7M
IoniMethod: _ENERGY 70 eV
IonPolarity: pos
Date: 2010-10-09 19:48:36+02:00
Num Peaks: 17
35 42 36 17 37 15 47 210 48 99 49 71 50 33 82 35 83 999 84 34 
85 643 86 11 87 103 117 11 118 18 119 11 120 15 
