Name: 3-METHOXYPROPIONITRILE
MW: 85
Formula: C4H7NO
Synonym: MassBank: JP008856
Synonym: 3-METHOXYPROPIONITRILE
Synonym: 1-METHOXY-2-CYANOETHANE
Structure: 310A31360A332D4D4554484F585950524F50494F4E495452494C452E6D6F6C0A20204368656D447261773131313930393136303632440A2020362020352020302020302020302020302020302020302020302020303939392056323030300A2020202D312E303731372020202D302E3030303020202020302E303030302043202020302020302020302020302020302020302020302020302020302020302020302020300A2020202D302E333537322020202D302E3431323520202020302E303030302043202020302020302020302020302020302020302020302020302020302020302020302020300A20202020302E333537322020202D302E3030303020202020302E303030302043202020302020302020302020302020302020302020302020302020302020302020302020300A2020202D312E3738363220202020302E3431323520202020302E30303030204E202020302020302020302020302020302020302020302020302020302020302020302020300A20202020312E303731372020202D302E3431323520202020302E30303030204F202020302020302020302020302020302020302020302020302020302020302020302020300A20202020312E373836322020202D302E3030303020202020302E303030302043202020302020302020302020302020302020302020302020302020302020302020302020300A2020312020322020312020302020202020200A2020322020332020312020302020202020200A2020312020342020332020302020202020200A2020352020362020312020302020202020200A2020332020352020312020302020202020200A4D2020454E44
Contributor: TAJIMA S, GUNMA COLLEGE OF TECHNOLOGY
InstType: EI
InstName: HITACHI RMU-7M
IoniMethod: _ENERGY 70 eV
IonPolarity: pos
Date: 2010-10-09 19:48:36+02:00
Num Peaks: 23
15 166 26 43 27 69 28 70 29 172 31 50 39 24 40 27 41 59 43 70 
45 999 46 26 51 24 52 35 53 21 54 77 55 61 56 34 57 60 69 21 
71 28 83 15 85 18 
