Name: MassBank: JP005372
MW: 280
Formula: C18H32O2
Synonym: MassBank: JP005372
Synonym: (Z,Z)-7,11-HEXADECADIENYL ACETATE
Structure: 285A2C5A292D372C31312D48455841444543414449454E594C20414345544154452E6D6F6C0A20204368656D447261773130323230393232303532440A2032342032332020302020302020302020302020302020302020302020303939392056323030300A20202020332E3039333820202020312E3432383920202020302E303030302043202020302020302020302020302020302020302020302020302020302020302020302020300A20202020322E3236383820202020312E3432383920202020302E303030302043202020302020302020302020302020302020302020302020302020302020302020302020300A20202020312E3835363320202020302E3731343520202020302E303030302043202020302020302020302020302020302020302020302020302020302020302020302020300A20202020312E3033313320202020302E3731343520202020302E303030302043202020302020302020302020302020302020302020302020302020302020302020302020300A20202020302E3631383720202020312E3432383920202020302E303030302043202020302020302020302020302020302020302020302020302020302020302020302020300A2020202D302E3230363320202020312E3432383920202020302E303030302043202020302020302020302020302020302020302020302020302020302020302020302020300A20202020312E3033313220202020322E3134333420202020302E303030302048202020302020302020302020302020302020302020302020302020302020302020302020300A20202020312E3835363320202020322E3134333420202020302E303030302048202020302020302020302020302020302020302020302020302020302020302020302020300A20202020332E3530363320202020322E3134333420202020302E303030302048202020302020302020302020302020302020302020302020302020302020302020302020300A20202020332E3530363320202020302E3731343520202020302E303030302043202020302020302020302020302020302020302020302020302020302020302020302020300A2020202D302E3631383820202020302E3731343520202020302E303030302043202020302020302020302020302020302020302020302020302020302020302020302020300A2020202D302E3631383820202020322E3134333420202020302E303030302048202020302020302020302020302020302020302020302020302020302020302020302020300A20202020342E3333313320202020302E3731343520202020302E303030302043202020302020302020302020302020302020302020302020302020302020302020302020300A20202020342E3734333820202020312E3432383920202020302E303030302043202020302020302020302020302020302020302020302020302020302020302020302020300A20202020352E3536383820202020312E3432383920202020302E303030302043202020302020302020302020302020302020302020302020302020302020302020302020300A2020202D312E3434333720202020302E3731343520202020302E303030302043202020302020302020302020302020302020302020302020302020302020302020302020300A2020202D312E383536332020202D302E3030303020202020302E303030302043202020302020302020302020302020302020302020302020302020302020302020302020300A2020202D322E363831332020202D302E3030303020202020302E303030302043202020302020302020302020302020302020302020302020302020302020302020302020300A2020202D332E303933382020202D302E3731343520202020302E303030302043202020302020302020302020302020302020302020302020302020302020302020302020300A2020202D332E393138382020202D302E3731343520202020302E303030302043202020302020302020302020302020302020302020302020302020302020302020302020300A2020202D342E333331332020202D312E3432383920202020302E30303030204F202020302020302020302020302020302020302020302020302020302020302020302020300A2020202D352E313536332020202D312E3432383920202020302E303030302043202020302020302020302020302020302020302020302020302020302020302020302020300A2020202D352E353638382020202D322E3134333420202020302E30303030204F202020302020302020302020302020302020302020302020302020302020302020302020300A2020202D352E353638382020202D302E3731343520202020302E303030302043202020302020302020302020302020302020302020302020302020302020302020302020300A2020312020322020322020302020202020200A2020322020332020312020302020202020200A2020332020342020312020302020202020200A2020342020352020312020302020202020200A2020352020362020322020302020202020200A2020352020372020312020302020202020200A2020322020382020312020302020202020200A2020312020392020312020302020202020200A2020312031302020312020302020202020200A2020362031312020312020302020202020200A2020362031322020312020302020202020200A2031302031332020312020302020202020200A2031332031342020312020302020202020200A2031342031352020312020302020202020200A2031362031312020312020302020202020200A2031372031362020312020302020202020200A2031382031372020312020302020202020200A2031392031382020312020302020202020200A2032302031392020312020302020202020200A2032312032302020312020302020202020200A2032322032312020312020302020202020200A2032332032322020322020302020202020200A2032322032342020312020302020202020200A4D2020454E44
Contributor: YAMAOKA R, KYOTO INSTITUTE OF TECHNOLOGY
InstType: EI
InstName: SHIMADZU QP-1000
IoniMethod: _ENERGY 70 eV
IonPolarity: pos
Date: 2010-10-09 19:48:36+02:00
Num Peaks: 83
41 94 42 20 43 445 44 93 45 167 46 776 47 19 54 30 55 999 56 80 
57 94 58 8 59 115 60 10 61 68 65 2 66 35 67 449 68 186 69 19 
70 42 71 49 72 43 73 11 75 18 77 30 78 13 79 11 80 88 81 457 
82 271 83 11 84 16 85 16 86 33 87 10 88 36 89 156 91 22 92 1 
93 79 94 62 95 200 96 24 97 125 98 15 99 28 101 4 102 32 103 72 
105 11 106 1 107 63 109 80 110 85 111 2 115 12 117 23 119 12 120 2 
121 89 122 65 123 87 124 8 125 14 131 23 132 14 133 7 134 13 135 60 
136 46 137 5 138 38 147 26 148 13 149 6 150 29 151 15 152 13 163 4 
164 18 177 24 220 33 
