Name: TRIMETHYLENEDIAMINE
MW: 74
Formula: C3H10N2
Synonym: MassBank: JP003994
Synonym: TRIMETHYLENEDIAMINE
Structure: 310A31340A5452494D455448594C454E454449414D494E452E6D6F6C0A20204368656D447261773038313231303038343532440A2020352020342020302020302020302020302020302020302020302020303939392056323030300A2020202D302E3731343520202020302E3230363320202020302E303030302043202020302020302020302020302020302020302020302020302020302020302020302020300A20202020302E303030302020202D302E3230363320202020302E303030302043202020302020302020302020302020302020302020302020302020302020302020302020300A20202020302E3731343520202020302E3230363320202020302E303030302043202020302020302020302020302020302020302020302020302020302020302020302020300A2020202D312E343238392020202D302E3230363320202020302E30303030204E202020302020302020302020302020302020302020302020302020302020302020302020300A20202020312E343238392020202D302E3230363220202020302E30303030204E202020302020302020302020302020302020302020302020302020302020302020302020300A2020312020322020312020302020202020200A2020322020332020312020302020202020200A2020312020342020312020302020202020200A2020332020352020312020302020202020200A4D2020454E44
Contributor: MASS SPECTROSCOPY SOC. OF JAPAN (MSSJ)
InstType: EI
InstName: HITACHI RMU-6L
IoniMethod: _ENERGY 70 eV
IonPolarity: pos
Date: 2010-10-09 19:48:36+02:00
Num Peaks: 21
14 20 15 50 16 12 18 24 26 18 27 74 28 32 29 6 30 999 31 35 
32 12 39 2 40 10 41 45 42 83 43 4 44 129 56 185 57 444 58 7 
70 12 
