Name: LINALOOL
MW: 154
Formula: C10H18O
Synonym: MassBank: JP008376
Synonym: LINALOOL
Synonym: 3,7-DIMETHYL-1,6-OCTADIEN-3-OL
Structure: 4C494E414C4F4F4C2E6D6F6C0A20204368656D447261773032323231303033343632440A2031312031302020302020302020302020302020302020302020302020303939392056323030300A2020202D302E3731343520202020302E3637343020202020302E303030302043202020302020302020302020302020302020302020302020302020302020302020302020300A20202020302E3030303020202020312E3038363520202020302E303030302043202020302020302020302020302020302020302020302020302020302020302020302020300A20202020302E3731343520202020302E3637343020202020302E303030302043202020302020302020302020302020302020302020302020302020302020302020302020300A20202020302E373134352020202D302E3135313020202020302E303030302043202020302020302020302020302020302020302020302020302020302020302020302020300A20202020312E343238392020202D302E3536333520202020302E303030302043202020302020302020302020302020302020302020302020302020302020302020302020300A20202020312E343238392020202D312E3338383520202020302E303030302043202020302020302020302020302020302020302020302020302020302020302020302020300A20202020322E313433342020202D302E3135313020202020302E303030302043202020302020302020302020302020302020302020302020302020302020302020302020300A2020202D312E3432383920202020302E3236313520202020302E303030302043202020302020302020302020302020302020302020302020302020302020302020302020300A2020202D322E3134333420202020302E3637343020202020302E303030302043202020302020302020302020302020302020302020302020302020302020302020302020300A2020202D312E3132373020202020312E3338383520202020302E303030302043202020302020302020302020302020302020302020302020302020302020302020302020300A2020202D302E333032302020202D302E3034303520202020302E30303030204F202020302020302020302020302020302020302020302020302020302020302020302020300A2020312020322020312020302020202020200A2020322020332020312020302020202020200A2020332020342020312020302020202020200A2020342020352020322020302020202020200A2020352020362020312020302020202020200A2020352020372020312020302020202020200A2020312020382020312020302020202020200A2020382020392020322020302020202020200A2020312031302020312020302020202020200A2020312031312020312020302020202020200A4D2020454E44
Contributor: SODA AROMATIC CO., LTD.
InstType: EI
InstName: HITACHI M-80B
IoniMethod: _ENERGY 70 eV
IonPolarity: pos
Date: 2010-10-09 19:48:36+02:00
Num Peaks: 57
15 20 18 12 26 10 27 212 28 30 29 102 31 22 39 221 40 50 41 634 
42 59 43 588 44 16 45 16 51 36 52 15 53 134 54 25 55 467 56 90 
57 35 58 25 59 34 65 31 66 12 67 159 68 129 69 406 70 50 71 999 
72 75 77 42 79 81 80 262 81 109 82 57 83 162 84 43 85 14 86 16 
91 48 92 114 93 614 94 88 95 27 96 75 97 20 105 31 107 58 108 13 
109 50 111 30 121 199 122 16 136 88 137 10 139 22 
