Name: PENTYL ALCOHOL
CAS: 71-41-0
MW: 88
Formula: C5H12O
Synonym: MassBank: JP007114
Synonym: PENTYL ALCOHOL
Synonym: 1-PENTANOL
Structure: 310A31360A50454E54594C20414C434F484F4C2E6D6F6C0A20204368656D447261773038313231303034353832440A2020362020352020302020302020302020302020302020302020302020303939392056323030300A2020202D312E3037313720202020302E3230363320202020302E303030302043202020302020302020302020302020302020302020302020302020302020302020302020300A2020202D302E333537322020202D302E3230363320202020302E303030302043202020302020302020302020302020302020302020302020302020302020302020302020300A20202020302E3335373220202020302E3230363320202020302E303030302043202020302020302020302020302020302020302020302020302020302020302020302020300A20202020312E303731372020202D302E3230363220202020302E303030302043202020302020302020302020302020302020302020302020302020302020302020302020300A20202020312E3738363220202020302E3230363320202020302E303030302043202020302020302020302020302020302020302020302020302020302020302020302020300A2020202D312E373836322020202D302E3230363320202020302E30303030204F202020302020302020302020302020302020302020302020302020302020302020302020300A2020312020322020312020302020202020200A2020322020332020312020302020202020200A2020332020342020312020302020202020200A2020342020352020312020302020202020200A2020312020362020312020302020202020200A4D2020454E44
Contributor: SODA AROMATIC CO., LTD.
InstType: EI
InstName: HITACHI M-80B
IoniMethod: _ENERGY 70 eV
IonPolarity: pos
Date: 2010-10-09 19:48:36+02:00
Num Peaks: 27
15 27 26 40 27 317 28 105 29 495 30 19 31 566 38 15 39 199 40 33 
41 631 42 999 43 258 44 37 45 56 50 10 51 14 53 22 54 15 55 712 
56 158 57 227 58 20 60 11 69 57 70 499 71 36 
