Name: 1-ETHYL-1-ISOBUTYLHYDRAZINE
MW: 116
Formula: C6H16N2
Synonym: MassBank: JP000384
Synonym: 1-ETHYL-1-ISOBUTYLHYDRAZINE
Structure: 310A32300A312D455448594C2D312D49534F425554594C48594452415A494E452E6D6F6C0A20204368656D447261773131313830393031343832440A2020382020372020302020302020302020302020302020302020302020303939392056323030300A20202020302E373134352020202D302E3230363220202020302E30303030204E202020302020302020302020302020302020302020302020302020302020302020302020300A20202020302E373134352020202D312E3033313320202020302E30303030204E202020302020302020302020302020302020302020302020302020302020302020302020300A2020202D302E3030303020202020302E3230363320202020302E303030302043202020302020302020302020302020302020302020302020302020302020302020302020300A2020202D302E373134352020202D302E3230363220202020302E303030302043202020302020302020302020302020302020302020302020302020302020302020302020300A2020202D302E373134352020202D312E3033313320202020302E303030302043202020302020302020302020302020302020302020302020302020302020302020302020300A2020202D312E3432383920202020302E3230363220202020302E303030302043202020302020302020302020302020302020302020302020302020302020302020302020300A20202020312E3432383920202020302E3230363320202020302E303030302043202020302020302020302020302020302020302020302020302020302020302020302020300A20202020312E3432383920202020312E3033313320202020302E303030302043202020302020302020302020302020302020302020302020302020302020302020302020300A2020312020322020312020302020202020200A2020332020342020312020302020202020200A2020342020352020312020302020202020200A2020342020362020312020302020202020200A2020312020332020312020302020202020200A2020372020382020312020302020202020200A2020312020372020312020302020202020200A4D2020454E44
Contributor: SASAKI S, TOYOHASHI UNIV. OF TECH.
InstType: EI
InstName: SHIMADZU LKB-2091
IoniMethod: _ENERGY 70 eV
IonPolarity: pos
Date: 2010-10-09 19:48:36+02:00
Num Peaks: 28
27 51 28 67 29 83 30 9 31 26 39 28 41 61 42 4 43 43 44 83 
45 266 46 1 54 5 55 10 56 64 57 4 58 20 59 30 70 3 71 0 
72 4 73 999 74 48 84 1 101 14 115 4 116 142 117 18 
