Name: MassBank: JP009976
MW: 84
Formula: C5H8O
Synonym: MassBank: JP009976
Synonym: 3-METHYL-4,5-DIHYDROFURAN
Structure: 310A31370A332D4D455448594C2D342C352D4449485944524F465552414E2E6D6F6C0A20204368656D447261773033323031303030343032440A2020362020362020302020302020302020302020302020302020302020303939392056323030300A2020202D302E3431323520202020312E3034373320202020302E30303030204F202020302020302020302020302020302020302020302020302020302020302020302020300A2020202D302E3636373420202020302E3236323720202020302E303030302043202020302020302020302020302020302020302020302020302020302020302020302020300A2020202D302E303030302020202D302E3232323320202020302E303030302043202020302020302020302020302020302020302020302020302020302020302020302020300A20202020302E3636373420202020302E3236323720202020302E303030302043202020302020302020302020302020302020302020302020302020302020302020302020300A20202020302E3431323520202020312E3034373320202020302E303030302043202020302020302020302020302020302020302020302020302020302020302020302020300A2020202D302E303030302020202D312E3034373320202020302E303030302043202020302020302020302020302020302020302020302020302020302020302020302020300A2020312020322020312020302020202020200A2020322020332020322020302020202020200A2020332020342020312020302020202020200A2020342020352020312020302020202020200A2020312020352020312020302020202020200A2020332020362020312020302020202020200A4D2020454E44
Contributor: KURARAY CO., LTD.
InstType: EI
InstName: JEOL JMS-D-300
IoniMethod: _ENERGY 70 eV
IonPolarity: pos
Date: 2010-10-09 19:48:36+02:00
Num Peaks: 19
26 47 27 269 28 58 29 38 32 19 39 338 41 321 43 8 44 49 51 49 
53 199 54 12 55 999 56 162 57 62 69 12 83 427 84 867 85 52 
