Name: TRANS-2-DECENOIC ACID
MW: 170
Formula: C10H18O2
Synonym: MassBank: JP009198
Synonym: TRANS-2-DECENOIC ACID
Structure: 5452414E532D322D444543454E4F494320414349442E6D6F6C0A20204368656D447261773038313231303037343732440A2031322031312020302020302020302020302020302020302020302020303939392056323030300A2020202D322E383537392020202D302E3230363220202020302E303030302043202020302020302020302020302020302020302020302020302020302020302020302020300A2020202D322E313433342020202D302E3631383820202020302E303030302043202020302020302020302020302020302020302020302020302020302020302020302020300A2020202D312E343238392020202D302E3230363220202020302E303030302043202020302020302020302020302020302020302020302020302020302020302020302020300A2020202D302E373134352020202D302E3631383820202020302E303030302043202020302020302020302020302020302020302020302020302020302020302020302020300A20202020302E303030302020202D302E3230363220202020302E303030302043202020302020302020302020302020302020302020302020302020302020302020302020300A20202020302E373134352020202D302E3631383820202020302E303030302043202020302020302020302020302020302020302020302020302020302020302020302020300A20202020312E343238392020202D302E3230363220202020302E303030302043202020302020302020302020302020302020302020302020302020302020302020302020300A20202020322E313433342020202D302E3631383820202020302E303030302043202020302020302020302020302020302020302020302020302020302020302020302020300A20202020322E383537392020202D302E3230363220202020302E303030302043202020302020302020302020302020302020302020302020302020302020302020302020300A20202020332E353732342020202D302E3631383820202020302E303030302043202020302020302020302020302020302020302020302020302020302020302020302020300A2020202D322E3835373920202020302E3631383820202020302E30303030204F202020302020302020302020302020302020302020302020302020302020302020302020300A2020202D332E353732342020202D302E3631383820202020302E30303030204F202020302020302020302020302020302020302020302020302020302020302020302020300A2020312020322020312020302020202020200A2020322020332020322020302020202020200A2020332020342020312020302020202020200A2020342020352020312020302020202020200A2020352020362020312020302020202020200A2020362020372020312020302020202020200A2020372020382020312020302020202020200A2020382020392020312020302020202020200A2020392031302020312020302020202020200A2020312031312020322020302020202020200A2020312031322020312020302020202020200A4D2020454E44
Contributor: SODA AROMATIC CO., LTD.
InstType: EI
InstName: HITACHI M-80B
IoniMethod: _ENERGY 70 eV
IonPolarity: pos
Date: 2010-10-09 19:48:36+02:00
Num Peaks: 69
15 15 26 25 27 423 28 29 29 563 31 26 38 17 39 392 40 64 41 811 
42 211 43 999 44 22 45 133 50 11 51 29 52 18 53 113 54 90 55 451 
56 427 57 149 58 20 59 15 60 43 65 21 66 18 67 96 68 159 69 300 
70 158 71 48 73 563 74 26 77 17 79 26 80 12 81 117 82 61 83 66 
84 199 85 38 86 172 87 67 88 13 89 15 94 11 95 51 96 68 97 58 
98 132 99 109 100 59 101 41 102 25 108 40 109 35 110 128 111 39 113 47 
114 55 115 16 123 59 124 22 127 30 134 13 141 11 152 46 153 14 
