Name: SEC-BUTYL ALCOHOL
CAS: 78-92-2
MW: 74
Formula: C4H10O
Synonym: MassBank: JP007111
Synonym: SEC-BUTYL ALCOHOL
Synonym: 2-BUTANOL
Structure: 310A31340A5345432D425554594C20414C434F484F4C2E6D6F6C0A20204368656D447261773132323130393233303132440A2020352020342020302020302020302020302020302020302020302020303939392056323030300A20202020302E333537322020202D302E3230363220202020302E303030302043202020302020302020302020302020302020302020302020302020302020302020302020300A2020202D302E333537322020202D302E3631383820202020302E303030302043202020302020302020302020302020302020302020302020302020302020302020302020300A2020202D312E303731372020202D302E3230363220202020302E303030302043202020302020302020302020302020302020302020302020302020302020302020302020300A20202020312E303731372020202D302E3631383720202020302E303030302043202020302020302020302020302020302020302020302020302020302020302020302020300A20202020302E3335373220202020302E3631383820202020302E30303030204F202020302020302020302020302020302020302020302020302020302020302020302020300A2020312020322020312020302020202020200A2020322020332020312020302020202020200A2020312020342020312020302020202020200A2020312020352020312020302020202020200A4D2020454E44
Contributor: SODA AROMATIC CO., LTD.
InstType: EI
InstName: HITACHI M-80B
IoniMethod: _ENERGY 70 eV
IonPolarity: pos
Date: 2010-10-09 19:48:36+02:00
Num Peaks: 17
15 27 19 20 26 23 27 131 29 109 31 166 39 34 41 105 42 14 43 106 
44 84 45 999 46 23 55 22 57 28 59 218 73 12 
