Name: OCTACOSANE
MW: 394
Formula: C28H58
Synonym: MassBank: JP002659
Synonym: OCTACOSANE
Structure: 4F435441434F53414E452E6D6F6C0A20204368656D447261773038313231303033313632440A2032382032372020302020302020302020302020302020302020302020303939392056323030300A2020202D392E363435342020202D302E3230363320202020302E303030302043202020302020302020302020302020302020302020302020302020302020302020302020300A2020202D382E3933303920202020302E3230363220202020302E303030302043202020302020302020302020302020302020302020302020302020302020302020302020300A2020202D382E323136342020202D302E3230363320202020302E303030302043202020302020302020302020302020302020302020302020302020302020302020302020300A2020202D372E3530313920202020302E3230363220202020302E303030302043202020302020302020302020302020302020302020302020302020302020302020302020300A2020202D362E373837352020202D302E3230363320202020302E303030302043202020302020302020302020302020302020302020302020302020302020302020302020300A2020202D362E3037333020202020302E3230363220202020302E303030302043202020302020302020302020302020302020302020302020302020302020302020302020300A2020202D352E333538352020202D302E3230363320202020302E303030302043202020302020302020302020302020302020302020302020302020302020302020302020300A2020202D342E3634343120202020302E3230363220202020302E303030302043202020302020302020302020302020302020302020302020302020302020302020302020300A2020202D332E393239362020202D302E3230363320202020302E303030302043202020302020302020302020302020302020302020302020302020302020302020302020300A2020202D332E3231353120202020302E3230363220202020302E303030302043202020302020302020302020302020302020302020302020302020302020302020302020300A2020202D322E353030362020202D302E3230363320202020302E303030302043202020302020302020302020302020302020302020302020302020302020302020302020300A2020202D312E3738363220202020302E3230363220202020302E303030302043202020302020302020302020302020302020302020302020302020302020302020302020300A2020202D312E303731372020202D302E3230363320202020302E303030302043202020302020302020302020302020302020302020302020302020302020302020302020300A2020202D302E3335373220202020302E3230363320202020302E303030302043202020302020302020302020302020302020302020302020302020302020302020302020300A20202020302E333537322020202D302E3230363220202020302E303030302043202020302020302020302020302020302020302020302020302020302020302020302020300A20202020312E3037313720202020302E3230363320202020302E303030302043202020302020302020302020302020302020302020302020302020302020302020302020300A20202020312E373836322020202D302E3230363220202020302E303030302043202020302020302020302020302020302020302020302020302020302020302020302020300A20202020322E3530303620202020302E3230363320202020302E303030302043202020302020302020302020302020302020302020302020302020302020302020302020300A20202020332E323135312020202D302E3230363220202020302E303030302043202020302020302020302020302020302020302020302020302020302020302020302020300A20202020332E3932393620202020302E3230363320202020302E303030302043202020302020302020302020302020302020302020302020302020302020302020302020300A20202020342E363434312020202D302E3230363220202020302E303030302043202020302020302020302020302020302020302020302020302020302020302020302020300A20202020352E3335383520202020302E3230363320202020302E303030302043202020302020302020302020302020302020302020302020302020302020302020302020300A20202020362E303733302020202D302E3230363220202020302E303030302043202020302020302020302020302020302020302020302020302020302020302020302020300A20202020362E3738373520202020302E3230363320202020302E303030302043202020302020302020302020302020302020302020302020302020302020302020302020300A20202020372E353031392020202D302E3230363220202020302E303030302043202020302020302020302020302020302020302020302020302020302020302020302020300A20202020382E3231363420202020302E3230363320202020302E303030302043202020302020302020302020302020302020302020302020302020302020302020302020300A20202020382E393330392020202D302E3230363220202020302E303030302043202020302020302020302020302020302020302020302020302020302020302020302020300A20202020392E3634353420202020302E3230363320202020302E303030302043202020302020302020302020302020302020302020302020302020302020302020302020300A2020312020322020312020302020202020200A2020322020332020312020302020202020200A2020332020342020312020302020202020200A2020342020352020312020302020202020200A2020352020362020312020302020202020200A2020362020372020312020302020202020200A2020372020382020312020302020202020200A2020382020392020312020302020202020200A2020392031302020312020302020202020200A2031302031312020312020302020202020200A2031312031322020312020302020202020200A2031322031332020312020302020202020200A2031332031342020312020302020202020200A2031342031352020312020302020202020200A2031352031362020312020302020202020200A2031362031372020312020302020202020200A2031372031382020312020302020202020200A2031382031392020312020302020202020200A2031392032302020312020302020202020200A2032302032312020312020302020202020200A2032312032322020312020302020202020200A2032322032332020312020302020202020200A2032332032342020312020302020202020200A2032342032352020312020302020202020200A2032352032362020312020302020202020200A2032362032372020312020302020202020200A2032372032382020312020302020202020200A4D2020454E44
Contributor: HAYASHI A, DEPT. OF CHEMISTRY, FAC. OF SCI. AND TECHNOLOGY, KINKI UNIV.
InstType: EI
InstName: SHIMADZU LKB-9000B
IoniMethod: _ENERGY 70 eV
IonPolarity: pos
Date: 2010-10-09 19:48:36+02:00
Num Peaks: 171
41 210 42 78 43 684 47 6 51 18 52 6 53 2 54 3 55 242 56 168 
57 999 58 5 59 32 60 25 63 1 65 1 67 56 68 50 69 169 70 11 
71 719 72 38 73 19 75 1 77 15 78 20 79 25 80 0 81 38 82 77 
83 149 84 6 85 471 86 40 87 12 89 1 90 10 92 8 93 26 94 0 
95 54 96 35 97 151 98 4 99 150 100 23 102 13 103 1 104 14 105 3 
108 25 109 3 110 14 111 63 112 45 113 11 114 12 115 1 116 15 119 2 
120 7 121 5 123 20 124 1 125 18 126 35 127 80 128 0 129 7 130 13 
132 15 134 0 135 42 137 17 141 74 142 1 145 21 147 59 148 18 149 19 
150 41 151 22 152 26 153 2 154 32 155 22 156 41 157 0 159 1 163 3 
165 44 166 0 168 19 169 15 170 15 175 1 177 10 178 4 179 13 180 2 
181 9 182 14 183 32 184 1 187 43 188 18 189 1 191 1 192 4 193 10 
194 15 196 1 197 60 198 9 206 2 209 3 210 4 211 22 212 12 217 0 
218 37 219 11 221 25 222 14 224 15 225 26 238 14 239 1 240 11 249 18 
251 12 252 0 253 8 254 8 255 11 259 2 269 3 270 16 271 3 280 1 
282 2 283 6 295 16 309 2 310 12 313 13 314 5 315 1 316 18 317 1 
323 12 327 2 329 5 337 13 352 31 343 1 354 13 355 48 372 24 373 5 
374 12 375 19 376 13 377 2 378 13 388 31 389 58 390 3 391 11 392 58 
394 27 
