Name: FENCHYL ALCOHOL
MW: 154
Formula: C10H18O
Synonym: MassBank: JP002594
Synonym: FENCHYL ALCOHOL
Synonym: 1,3,3-TRIMETHYLBICYCLO(2.2.1)HEPTAN-2-OL
Structure: 46454E4348594C20414C434F484F4C2E6D6F6C0A20204368656D447261773131313030393135343932440A2031312031322020302020302020302020302020302020302020302020303939392056323030300A2020202D302E3231393420202020302E3434373720202020302E303030302043202020302020302020302020302020302020302020302020302020302020302020302020300A20202020302E3537333420202020302E3335353620202020302E303030302043202020302020302020302020302020302020302020302020302020302020302020302020300A20202020302E3537333420202020312E3138303620202020302E303030302043202020302020302020302020302020302020302020302020302020302020302020302020300A20202020312E3339333620202020302E3434373920202020302E303030302043202020302020302020302020302020302020302020302020302020302020302020302020300A20202020302E373532302020202D302E3432383820202020302E303030302043202020302020302020302020302020302020302020302020302020302020302020302020300A20202020302E343132322020202D312E3138303620202020302E303030302043202020302020302020302020302020302020302020302020302020302020302020302020300A2020202D302E343037382020202D312E3038393720202020302E303030302043202020302020302020302020302020302020302020302020302020302020302020302020300A2020202D302E353733362020202D302E3238333820202020302E303030302043202020302020302020302020302020302020302020302020302020302020302020302020300A2020202D312E333933362020202D302E3138313320202020302E303030302043202020302020302020302020302020302020302020302020302020302020302020302020300A20202020302E3134303920202020302E3132383720202020302E303030302043202020302020302020302020302020302020302020302020302020302020302020302020300A2020202D302E3633313920202020312E3136323220202020302E30303030204F202020302020302020302020302020302020302020302020302020302020302020302020300A2020312020322020312020302020202020200A2020322020332020312020362020202020200A2020322020342020312020312020202020200A2020322020352020312020302020202020200A2020352020362020312020302020202020200A2020362020372020312020302020202020200A2020372020382020312020302020202020200A2020382020392020312020302020202020200A2020312020382020312020302020202020200A2020352031302020312020302020202020200A2020382031302020312020302020202020200A2020312031312020312020302020202020200A4D2020454E44
Contributor: YAMAMOTO M, DEP. CHEMISTRY, FAC. SCIENCE, NARA WOMEN'S UNIV.
InstType: EI
InstName: HITACHI RMU-6M
IoniMethod: _ENERGY 70 eV
IonPolarity: pos
Date: 2010-10-09 19:48:36+02:00
Num Peaks: 60
27 133 28 93 29 94 31 23 39 143 40 29 41 331 42 29 43 267 44 16 
45 32 51 24 52 16 53 89 54 26 55 160 56 44 57 104 58 10 59 18 
65 30 66 16 67 171 68 34 69 233 70 36 71 238 72 239 73 34 77 45 
78 11 79 74 80 728 81 999 82 202 83 123 84 154 85 41 86 13 91 32 
92 35 93 132 94 26 95 56 96 44 97 43 98 42 99 19 105 14 107 103 
108 19 109 22 110 19 111 143 112 15 123 53 125 26 136 38 139 39 154 43 
