Name: MassBank: JP002974
MW: 244
Formula: C11H16O6
Synonym: MassBank: JP002974
Synonym: METHYL-4,6-DI-O-ACETYL-2,3-DIDEOXY-BETA-D-ERYTHRO-HEX-2-ENOPYRANOSID
Structure: 303535365F4D455448594C2D342C362D44492D4F2D41434554594C2D322C332D444944454F58592D424554412D442D4552595448524F2D4845582D322D454E4F505952414E4F5349442E6D6F6C0A20204368656D447261773039303631303138333632440A2031372031372020302020302020302020302020302020302020302020303939392056323030300A2020202D312E3432393120202020302E3039323520202020302E303030302043202020302020302020302020302020302020302020302020302020302020302020302020300A2020202D312E343239312020202D302E3733323520202020302E303030302043202020302020302020302020302020302020302020302020302020302020302020302020300A2020202D302E373134362020202D312E3134353020202020302E303030302043202020302020302020302020302020302020302020302020302020302020302020302020300A2020202D302E303030322020202D302E3733323520202020302E303030302043202020302020302020302020302020302020302020302020302020302020302020302020300A2020202D302E3030303220202020302E3039323520202020302E303030302043202020302020302020302020302020302020302020302020302020302020302020302020300A2020202D302E3731343620202020302E3530353020202020302E303030302043202020302020302020302020302020302020302020302020302020302020302020302020300A20202020302E363532352020202D312E3234303720202020302E30303030204F202020302020302020302020302020302020302020302020302020302020302020302020300A20202020302E3731343320202020302E3530353020202020302E303030302043202020302020302020302020302020302020302020302020302020302020302020302020300A2020202D322E3134313520202020302E3530353020202020302E30303030204F202020302020302020302020302020302020302020302020302020302020302020302020300A2020202D322E3134333620202020312E3333303020202020302E303030302043202020302020302020302020302020302020302020302020302020302020302020302020300A20202020302E3731343920202020312E3332373320202020302E30303030204F202020302020302020302020302020302020302020302020302020302020302020302020300A20202020312E3433303320202020322E3536343820202020302E30303030204F202020302020302020302020302020302020302020302020302020302020302020302020300A20202020312E3432393120202020312E3734313220202020302E303030302043202020302020302020302020302020302020302020302020302020302020302020302020300A20202020322E3134333620202020312E3332383720202020302E303030302043202020302020302020302020302020302020302020302020302020302020302020302020300A20202020312E313839392020202D322E3536343820202020302E30303030204F202020302020302020302020302020302020302020302020302020302020302020302020300A20202020302E353339302020202D322E3035373920202020302E303030302043202020302020302020302020302020302020302020302020302020302020302020302020300A2020202D302E323235342020202D322E3336383220202020302E303030302043202020302020302020302020302020302020302020302020302020302020302020302020300A2020312020322020312020302020202020200A2020322020332020322020302020202020200A2020332020342020312020302020202020200A2020342020352020312020302020202020200A2020352020362020312020302020202020200A2020362020312020312020302020202020200A2020342020372020312020312020202020200A2020352020382020312020362020202020200A2020312020392020312020362020202020200A2020392031302020312020302020202020200A2020382031312020312020302020202020200A2031312031332020312020302020202020200A2031322031332020322020302020202020200A2031332031342020312020302020202020200A2020372031362020312020302020202020200A2031352031362020322020302020202020200A2031362031372020312020302020202020200A4D2020454E44
Contributor: SASAKI S, TOYOHASHI UNIV. OF TECH.
InstType: EI
InstName: Unknown
IoniMethod: EI
IonPolarity: pos
Date: 2010-10-09 19:48:36+02:00
Num Peaks: 27
39 100 40 30 54 30 62 2 69 150 70 20 71 140 81 15 82 60 83 70 
84 20 97 14 99 40 100 999 109 50 110 7 111 340 112 50 113 40 129 22 
141 280 142 100 153 60 171 10 183 20 213 50 243 10 
