Name: DL-2-HYDROXYBUTANOIC ACID
MW: 104
Formula: C4H8O3
Synonym: MassBank: JP001283
Synonym: DL-2-HYDROXYBUTANOIC ACID
Synonym: DL-2-HYDROXYBUTYRIC ACID
Structure: 310A31380A444C2D322D485944524F5859425554414E4F494320414349442E6D6F6C0A20204368656D447261773130313831303136333532440A2020372020362020302020302020302020302020302020302020302020303939392056323030300A20202020302E3230363220202020302E3335373220202020302E303030302043202020302020302020302020302020302020302020302020302020302020302020302020300A2020202D302E323036322020202D302E3335373220202020302E303030302043202020302020302020302020302020302020302020302020302020302020302020302020300A20202020302E323036322020202D312E3037313720202020302E303030302043202020302020302020302020302020302020302020302020302020302020302020302020300A20202020312E303331332020202D312E3037313720202020302E303030302043202020302020302020302020302020302020302020302020302020302020302020302020300A20202020312E3033313320202020302E3335373220202020302E30303030204F202020302020302020302020302020302020302020302020302020302020302020302020300A2020202D302E3230363220202020312E3037313720202020302E30303030204F202020302020302020302020302020302020302020302020302020302020302020302020300A2020202D312E303331332020202D302E3335373220202020302E30303030204F202020302020302020302020302020302020302020302020302020302020302020302020300A2020312020322020312020302020202020200A2020322020332020312020302020202020200A2020332020342020312020302020202020200A2020312020352020322020302020202020200A2020312020362020312020302020202020200A2020322020372020312020302020202020200A4D2020454E44
Contributor: TAJIMA S, GUNMA COLLEGE OF TECHNOLOGY
InstType: EI
InstName: HITACHI RMU-7M
IoniMethod: _ENERGY 70 eV
IonPolarity: pos
Date: 2010-10-09 19:48:36+02:00
Num Peaks: 25
15 16 19 32 26 17 27 84 28 72 29 116 30 18 31 288 39 65 40 13 
41 319 42 62 43 56 44 65 45 54 55 153 56 13 57 96 58 78 59 999 
60 45 70 84 76 16 92 14 105 10 
