Name: CYCLOHEXANEPROPIONIC ACID METHYL ESTER
MW: 170
Formula: C10H18O2
Synonym: MassBank: JP002222
Synonym: CYCLOHEXANEPROPIONIC ACID METHYL ESTER
Synonym: METHYL 3-CYCLOHEXYLPROPIONATE
Structure: 4359434C4F484558414E4550524F50494F4E49432041434944204D455448594C2045535445522E6D6F6C0A20204368656D447261773038313131303137323532440A2031322031322020302020302020302020302020302020302020302020303939392056323030300A20202020302E343132352020202D302E3335373220202020302E303030302043202020302020302020302020302020302020302020302020302020302020302020302020300A20202020302E3832353020202020302E3335373220202020302E303030302043202020302020302020302020302020302020302020302020302020302020302020302020300A20202020312E3635303020202020302E3335373220202020302E303030302043202020302020302020302020302020302020302020302020302020302020302020302020300A20202020322E303632352020202D302E3335373220202020302E303030302043202020302020302020302020302020302020302020302020302020302020302020302020300A20202020312E363530302020202D312E3037313720202020302E303030302043202020302020302020302020302020302020302020302020302020302020302020302020300A20202020302E383235302020202D312E3037313720202020302E303030302043202020302020302020302020302020302020302020302020302020302020302020302020300A2020202D312E3635303020202020302E3335373220202020302E303030302043202020302020302020302020302020302020302020302020302020302020302020302020300A2020202D302E3832353020202020302E3335373220202020302E303030302043202020302020302020302020302020302020302020302020302020302020302020302020300A2020202D302E343132352020202D302E3335373220202020302E303030302043202020302020302020302020302020302020302020302020302020302020302020302020300A2020202D322E3036323520202020312E3037313720202020302E30303030204F202020302020302020302020302020302020302020302020302020302020302020302020300A2020202D322E303632352020202D302E3335373220202020302E30303030204F202020302020302020302020302020302020302020302020302020302020302020302020300A2020202D312E363530302020202D312E3037313720202020302E303030302043202020302020302020302020302020302020302020302020302020302020302020302020300A2020312020322020312020302020202020200A2020322020332020312020302020202020200A2020332020342020312020302020202020200A2020342020352020312020302020202020200A2020352020362020312020302020202020200A2020312020362020312020302020202020200A2020372020382020312020302020202020200A2020382020392020312020302020202020200A2020372031302020322020302020202020200A2020372031312020312020302020202020200A2020312020392020312020302020202020200A2031312031322020312020302020202020200A4D2020454E44
Contributor: KOGA M, UNIV. OF OCCUPATIONAL AND ENVIRONMENTAL HEALTH
InstType: EI
InstName: JEOL JMS-01-SG
IoniMethod: _ENERGY 70 eV
IonPolarity: pos
Date: 2010-10-09 19:48:36+02:00
Num Peaks: 67
38 3 39 144 41 378 42 4 43 236 50 10 51 14 52 1 53 77 54 91 
55 780 56 5 57 141 58 17 60 3 61 1 63 7 65 10 66 21 67 20 
68 56 69 98 70 17 72 0 74 809 75 236 76 14 77 1 78 21 79 74 
80 21 81 12 82 28 83 106 84 14 85 1 87 999 88 187 89 14 91 2 
93 38 94 63 95 95 96 29 97 943 98 81 99 3 105 0 109 38 110 24 
111 10 113 1 119 14 120 24 121 134 122 1 123 3 135 3 137 14 138 5 
139 127 140 14 141 130 142 2 169 3 170 14 171 3 
