Name: MassBank: JP002041
MW: 154
Formula: C5H2ClN3O
Synonym: MassBank: JP002041
Synonym: 6-CHLORO-5-CYANO-3,4-DIHYDROPYRIMIDIN-4-ONE
Structure: 362D43484C4F524F2D352D4359414E4F2D332C342D4449485944524F505952494D4944494E2D342D4F4E452E6D6F6C0A20204368656D447261773035313731303133313732440A2031302031302020302020302020302020302020302020302020302020303939392056323030300A20202020312E3635303020202020302E3030303020202020302E303030302043202020302020302020302020302020302020302020302020302020302020302020302020300A20202020312E323337352020202D302E3731343520202020302E30303030204E202020302020302020302020302020302020302020302020302020302020302020302020300A20202020302E343132352020202D302E3731343520202020302E303030302043202020302020302020302020302020302020302020302020302020302020302020302020300A2020202D302E3030303020202020302E3030303020202020302E303030302043202020302020302020302020302020302020302020302020302020302020302020302020300A20202020302E3431323520202020302E3731343520202020302E303030302043202020302020302020302020302020302020302020302020302020302020302020302020300A20202020312E3233373520202020302E3731343520202020302E30303030204E202020302020302020302020302020302020302020302020302020302020302020302020300A2020202D302E303030302020202D312E3432383920202020302E30303030204F202020302020302020302020302020302020302020302020302020302020302020302020300A2020202D302E3832353020202020302E3030303020202020302E303030302043202020302020302020302020302020302020302020302020302020302020302020302020300A2020202D312E3635303020202020302E3030303020202020302E30303030204E202020302020302020302020302020302020302020302020302020302020302020302020300A2020202D302E3030303020202020312E3432383920202020302E3030303020436C2020302020302020302020302020302020302020302020302020302020302020302020300A2020312020322020312020302020202020200A2020322020332020312020302020202020200A2020332020342020312020302020202020200A2020342020352020322020302020202020200A2020352020362020312020302020202020200A2020312020362020322020302020202020200A2020332020372020322020302020202020200A2020382020392020332020302020202020200A2020342020382020312020302020202020200A2020352031302020312020302020202020200A4D2020454E44
Contributor: SASAKI S, TOYOHASHI UNIV. OF TECH.
InstType: EI
InstName: MS-902
IoniMethod: _ENERGY 70 eV
IonPolarity: pos
Date: 2010-10-09 19:48:36+02:00
Num Peaks: 47
35 28 36 160 37 10 38 18 39 40 40 19 41 14 43 1 47 111 48 36 
49 35 50 4 51 40 53 11 55 12 57 2 62 44 63 47 64 104 65 9 
66 18 67 48 73 13 76 5 77 53 82 12 85 214 86 1 87 52 92 32 
93 824 94 5 99 39 100 29 101 13 111 1 120 111 127 391 128 151 129 14 
130 52 137 16 149 16 155 999 156 82 157 386 158 27 
