Name: MassBank: JP001628
MW: 121
Formula: C8H11N
Synonym: MassBank: JP001628
Synonym: 2,3-DIMETHYLANILINE
Synonym: 2,3-XYLIDINE
Structure: 310A32330A322C332D44494D455448594C414E494C494E452E6D6F6C0A20204368656D447261773132323030393131353132440A2020392020392020302020302020302020302020302020302020302020303939392056323030300A20202020302E343132352020202D312E3432383920202020302E30303030204E202020302020302020302020302020302020302020302020302020302020302020302020300A20202020302E303030302020202D302E3731343520202020302E303030302043202020302020302020302020302020302020302020302020302020302020302020302020300A20202020302E3431323520202020302E3030303020202020302E303030302043202020302020302020302020302020302020302020302020302020302020302020302020300A20202020302E3030303020202020302E3731343520202020302E303030302043202020302020302020302020302020302020302020302020302020302020302020302020300A2020202D302E3832353020202020302E3731343520202020302E303030302043202020302020302020302020302020302020302020302020302020302020302020302020300A2020202D312E323337352020202D302E3030303020202020302E303030302043202020302020302020302020302020302020302020302020302020302020302020302020300A2020202D302E383235302020202D302E3731343520202020302E303030302043202020302020302020302020302020302020302020302020302020302020302020302020300A20202020302E3431323520202020312E3432383920202020302E303030302043202020302020302020302020302020302020302020302020302020302020302020302020300A20202020312E3233373520202020302E3030303020202020302E303030302043202020302020302020302020302020302020302020302020302020302020302020302020300A2020312020322020312020302020202020200A2020322020332020312020302020202020200A2020332020342020322020302020202020200A2020342020352020312020302020202020200A2020352020362020322020302020202020200A2020362020372020312020302020202020200A2020322020372020322020302020202020200A2020342020382020312020302020202020200A2020332020392020312020302020202020200A4D2020454E44
Contributor: KOGA M, UNIV. OF OCCUPATIONAL AND ENVIRONMENTAL HEALTH
InstType: EI
InstName: VARIAN MAT-44
IoniMethod: _ENERGY 70 eV
IonPolarity: pos
Date: 2010-10-09 19:48:36+02:00
Num Peaks: 52
30 78 37 22 38 77 39 321 40 33 41 139 42 181 43 26 46 41 47 15 
49 14 50 106 51 185 52 176 53 176 54 75 58 106 59 126 60 94 61 20 
62 42 63 50 64 56 65 99 66 42 67 23 74 16 75 17 76 22 77 383 
78 194 79 215 80 124 81 16 89 30 90 19 91 219 92 56 93 107 94 33 
102 21 103 123 104 65 105 38 106 999 107 83 117 21 118 61 119 52 120 446 
121 817 122 72 
