Name: BUTYLMETHYLSILANE (SI-D2)
MW: 102
Formula: C5H14Si
Synonym: MassBank: JP006024
Synonym: BUTYLMETHYLSILANE (SI-D2)
Structure: 310A32310A425554594C4D455448594C53494C414E45202853492D4432292E6D6F6C0A20204368656D447261773039303631303034353032440A2020382020372020302020302020302020302020302020302020302020303939392056323030300A2020202D302E383235302020202D302E3330323020202020302E303030302053692020302020302020302020302020302020302020302020302020302020302020302020300A2020202D312E363530302020202D302E3330323020202020302E303030302043202020302020302020302020302020302020302020302020302020302020302020302020300A20202020302E303030302020202D302E3330323020202020302E303030302043202020302020302020302020302020302020302020302020302020302020302020302020300A2020202D302E3832353020202020302E3532333020202020302E303030302048202020312020302020302020302020302020302020302020302020302020302020302020300A2020202D302E383235302020202D312E3132373020202020302E303030302048202020312020302020302020302020302020302020302020302020302020302020302020300A20202020302E3431323520202020302E3431323520202020302E303030302043202020302020302020302020302020302020302020302020302020302020302020302020300A20202020312E3233373520202020302E3431323520202020302E303030302043202020302020302020302020302020302020302020302020302020302020302020302020300A20202020312E3635303020202020312E3132373020202020302E303030302043202020302020302020302020302020302020302020302020302020302020302020302020300A2020312020322020312020302020202020200A2020312020332020312020302020202020200A2020312020342020312020312020202020200A2020312020352020312020312020202020200A2020332020362020312020302020202020200A2020362020372020312020302020202020200A2020372020382020312020302020202020200A4D202049534F202032202020342020203220202035202020320A4D2020454E44
Contributor: YAMAMOTO M, DEP. CHEMISTRY, FAC. SCIENCE, NARA WOMEN'S UNIV.
InstType: EI
InstName: HITACHI RMU-6M
IoniMethod: _ENERGY 70 eV
IonPolarity: pos
Date: 2010-10-09 19:48:36+02:00
Num Peaks: 44
26 10 27 71 28 39 29 6 30 21 31 17 32 21 33 1 39 38 40 10 
41 72 42 2 43 94 44 101 45 315 46 41 47 367 48 31 49 13 53 2 
55 17 56 104 57 104 58 4 59 138 60 137 61 64 62 1 71 15 72 136 
73 105 74 6 75 999 76 113 77 40 85 1 86 18 89 16 100 13 101 12 
102 46 103 11 104 60 105 8 
