Name: FLUPHENAZINE
MW: 437
Formula: C22H26F3N3OS
Synonym: MassBank: JP002761
Synonym: FLUPHENAZINE
Structure: 303530355F464C555048454E415A494E452E6D6F6C0A20204368656D447261773039303631303138303032440A2033302033332020302020302020302020302020302020302020302020303939392056323030300A2020202D322E3835383820202020322E3236393420202020302E303030302043202020302020302020302020302020302020302020302020302020302020302020302020300A2020202D322E3835383820202020312E3434343420202020302E303030302043202020302020302020302020302020302020302020302020302020302020302020302020300A2020202D322E3134343420202020312E3033313920202020302E303030302043202020302020302020302020302020302020302020302020302020302020302020302020300A2020202D312E3432393920202020312E3434343420202020302E303030302043202020302020302020302020302020302020302020302020302020302020302020302020300A2020202D312E3432393920202020322E3236393420202020302E303030302043202020302020302020302020302020302020302020302020302020302020302020302020300A2020202D322E3134343420202020322E3638313920202020302E303030302043202020302020302020302020302020302020302020302020302020302020302020302020300A2020202D302E3731343720202020312E3032393120202020302E30303030204E202020302020302020302020302020302020302020302020302020302020302020302020300A2020202D302E3030303920202020312E3434343420202020302E303030302043202020302020302020302020302020302020302020302020302020302020302020302020300A2020202D302E3030303920202020322E3236393420202020302E303030302043202020302020302020302020302020302020302020302020302020302020302020302020300A2020202D302E3731343820202020322E3638313920202020302E303030302053202020302020302020302020302020302020302020302020302020302020302020302020300A20202020302E3731333520202020312E3033313920202020302E303030302043202020302020302020302020302020302020302020302020302020302020302020302020300A20202020312E3432383020202020312E3434343420202020302E303030302043202020302020302020302020302020302020302020302020302020302020302020302020300A20202020312E3432383020202020322E3236393420202020302E303030302043202020302020302020302020302020302020302020302020302020302020302020302020300A20202020302E3731333520202020322E3638313920202020302E303030302043202020302020302020302020302020302020302020302020302020302020302020302020300A2020202D332E3537333320202020312E3033313920202020302E303030302043202020302020302020302020302020302020302020302020302020302020302020302020300A2020202D332E3135383720202020302E3331353720202020302E303030302046202020302020302020302020302020302020302020302020302020302020302020302020300A2020202D342E3238373320202020302E3631393420202020302E303030302046202020302020302020302020302020302020302020302020302020302020302020302020300A2020202D332E3938333720202020312E3734353320202020302E303030302046202020302020302020302020302020302020302020302020302020302020302020302020300A20202020312E343239302020202D302E3230373020202020302E30303030204E202020302020302020302020302020302020302020302020302020302020302020302020300A20202020302E3731343020202020302E3230353520202020302E303030302043202020302020302020302020302020302020302020302020302020302020302020302020300A2020202D302E303030352020202D302E3230373020202020302E303030302043202020302020302020302020302020302020302020302020302020302020302020302020300A2020202D302E3731353020202020302E3230353520202020302E303030302043202020302020302020302020302020302020302020302020302020302020302020302020300A20202020312E343238352020202D312E3033323020202020302E303030302043202020302020302020302020302020302020302020302020302020302020302020302020300A20202020322E313432392020202D312E3434343520202020302E303030302043202020302020302020302020302020302020302020302020302020302020302020302020300A20202020322E383538342020202D312E3033313920202020302E30303030204E202020302020302020302020302020302020302020302020302020302020302020302020300A20202020322E383537342020202D302E3230373020202020302E303030302043202020302020302020302020302020302020302020302020302020302020302020302020300A20202020322E3134323920202020302E3230353520202020302E303030302043202020302020302020302020302020302020302020302020302020302020302020302020300A20202020342E323837332020202D322E3638313920202020302E30303030204F202020302020302020302020302020302020302020302020302020302020302020302020300A20202020332E353732382020202D322E3236393320202020302E303030302043202020302020302020302020302020302020302020302020302020302020302020302020300A20202020332E353732382020202D312E3434343420202020302E303030302043202020302020302020302020302020302020302020302020302020302020302020302020300A2020312020322020322020302020202020200A2020322020332020312020302020202020200A2020332020342020322020302020202020200A2020342020352020312020302020202020200A2020352020362020322020302020202020200A2020362020312020312020302020202020200A2020342020372020312020302020202020200A2020372020382020312020302020202020200A2020382020392020322020302020202020200A2020392031302020312020302020202020200A2031302020352020312020302020202020200A2020382031312020312020302020202020200A2031312031322020322020302020202020200A2031322031332020312020302020202020200A2031332031342020322020302020202020200A2031342020392020312020302020202020200A2020322031352020312020302020202020200A2031352031362020312020302020202020200A2031352031372020312020302020202020200A2031352031382020312020302020202020200A2020372032322020312020302020202020200A2031392032302020312020302020202020200A2032302032312020312020302020202020200A2032312032322020312020302020202020200A2031392032332020312020302020202020200A2032332032342020312020302020202020200A2032342032352020312020302020202020200A2032352032362020312020302020202020200A2032362032372020312020302020202020200A2032372031392020312020302020202020200A2032352033302020312020302020202020200A2032382032392020312020302020202020200A2032392033302020312020302020202020200A4D2020454E44
Contributor: SASAKI S, TOYOHASHI UNIV. OF TECH.
InstType: EI
InstName: Unknown
IoniMethod: EI
IonPolarity: pos
Date: 2010-10-09 19:48:36+02:00
Num Peaks: 72
39 99 41 479 42 990 43 77 44 549 45 289 55 409 56 96 57 509 58 589 
69 229 70 97 71 389 72 809 73 189 74 26 77 89 82 159 83 169 84 35 
85 119 86 89 88 89 96 19 97 349 98 709 99 299 100 80 111 329 112 89 
113 859 114 10 115 79 125 419 126 109 127 11 128 89 139 259 141 259 143 97 
153 229 157 539 171 329 196 5 197 49 198 39 203 119 247 7 248 669 249 89 
260 39 266 56 267 229 280 999 281 489 282 16 293 79 294 79 306 159 307 15 
308 29 336 19 350 39 363 2 364 9 378 29 391 19 393 1 406 379 407 199 
419 89 437 419 
