Name: 4-CHLORO-6-(4-FLUOROPHENYL)PYRIMIDINE
MW: 208
Formula: C10H6ClFN2
Synonym: MassBank: JP004468
Synonym: 4-CHLORO-6-(4-FLUOROPHENYL)PYRIMIDINE
Structure: 342D43484C4F524F2D362D28342D464C554F524F5048454E594C29505952494D4944494E452E6D6F6C0A20204368656D447261773033323531303130353132440A2031342031352020302020302020302020302020302020302020302020303939392056323030300A2020202D322E303632352020202D312E3037313720202020302E303030302043202020302020302020302020302020302020302020302020302020302020302020302020300A2020202D322E343735302020202D302E3335373220202020302E30303030204E202020302020302020302020302020302020302020302020302020302020302020302020300A2020202D322E3036323520202020302E3335373220202020302E303030302043202020302020302020302020302020302020302020302020302020302020302020302020300A2020202D312E3233373520202020302E3335373220202020302E303030302043202020302020302020302020302020302020302020302020302020302020302020302020300A2020202D302E383235302020202D302E3335373220202020302E303030302043202020302020302020302020302020302020302020302020302020302020302020302020300A2020202D312E323337352020202D312E3037313720202020302E30303030204E202020302020302020302020302020302020302020302020302020302020302020302020300A20202020302E303030302020202D302E3335373220202020302E303030302043202020302020302020302020302020302020302020302020302020302020302020302020300A20202020302E3431323520202020302E3335373220202020302E303030302043202020302020302020302020302020302020302020302020302020302020302020302020300A20202020312E3233373520202020302E3335373220202020302E303030302043202020302020302020302020302020302020302020302020302020302020302020302020300A20202020312E363530302020202D302E3335373220202020302E303030302043202020302020302020302020302020302020302020302020302020302020302020302020300A20202020312E323337352020202D312E3037313720202020302E303030302043202020302020302020302020302020302020302020302020302020302020302020302020300A20202020302E343132352020202D312E3037313720202020302E303030302043202020302020302020302020302020302020302020302020302020302020302020302020300A20202020322E343735302020202D302E3335373220202020302E303030302046202020302020302020302020302020302020302020302020302020302020302020302020300A2020202D322E3437353020202020312E3037313720202020302E3030303020436C2020302020302020302020302020302020302020302020302020302020302020302020300A2020312020322020322020302020202020200A2020322020332020312020302020202020200A2020332020342020322020302020202020200A2020342020352020312020302020202020200A2020352020362020322020302020202020200A2020312020362020312020302020202020200A2020372020382020312020302020202020200A2020382020392020322020302020202020200A2020392031302020312020302020202020200A2031302031312020322020302020202020200A2031312031322020312020302020202020200A2020372031322020322020302020202020200A2031302031332020312020302020202020200A2020352020372020312020302020202020200A2020332031342020312020302020202020200A4D2020454E44
Contributor: SASAKI S, TOYOHASHI UNIV. OF TECH.
InstType: EI
InstName: MS-902
IoniMethod: _ENERGY 70 eV
IonPolarity: pos
Date: 2010-10-09 19:48:36+02:00
Num Peaks: 57
39 7 50 14 51 7 52 1 57 14 60 22 61 7 62 1 63 10 68 10 
73 24 74 2 75 68 76 13 77 7 86 1 86.5 7 87 9 88 5 90.5 3 
91 5 91.5 10 92 5 94 5 95 75 96 5 99 37 100 1 104 25 105 9 
118 17 119 1 120 47 121 58 122 24 123 2 126 180 127 19 140 5 145 3 
146 624 147 63 148 5 153 2 171 5 173 999 174 95 175 1 180 5 181 14 
182 5 183 1 207 13 208 970 209 104 210 29 211 29 
