Name: FURFURYL FORMATE
MW: 126
Formula: C6H6O3
Synonym: MassBank: JP009098
Synonym: FURFURYL FORMATE
Structure: 310A32330A465552465552594C20464F524D4154452E6D6F6C0A20204368656D447261773038313131303139333832440A2020392020392020302020302020302020302020302020302020302020303939392056323030300A2020202D312E3031303120202020302E3431323520202020302E303030302043202020302020302020302020302020302020302020302020302020302020302020302020300A2020202D312E3732343620202020302E3832353020202020302E30303030204F202020302020302020302020302020302020302020302020302020302020302020302020300A2020202D312E303130312020202D302E3431323520202020302E30303030204F202020302020302020302020302020302020302020302020302020302020302020302020300A2020202D302E323935362020202D302E3832353020202020302E303030302043202020302020302020302020302020302020302020302020302020302020302020302020300A20202020302E343138392020202D302E3431323520202020302E303030302043202020302020302020302020302020302020302020302020302020302020302020302020300A20202020302E3530353120202020302E3430383020202020302E303030302043202020302020302020302020302020302020302020302020302020302020302020302020300A20202020312E3331323120202020302E3537393520202020302E303030302043202020302020302020302020302020302020302020302020302020302020302020302020300A20202020312E373234362020202D302E3133353020202020302E303030302043202020302020302020302020302020302020302020302020302020302020302020302020300A20202020312E313732352020202D302E3734383120202020302E30303030204F202020302020302020302020302020302020302020302020302020302020302020302020300A2020312020322020322020302020202020200A2020312020332020312020302020202020200A2020342020352020312020302020202020200A2020352020362020322020302020202020200A2020362020372020312020302020202020200A2020372020382020322020302020202020200A2020382020392020312020302020202020200A2020352020392020312020302020202020200A2020332020342020312020302020202020200A4D2020454E44
Contributor: SODA AROMATIC CO., LTD.
InstType: EI
InstName: HITACHI M-80B
IoniMethod: _ENERGY 70 eV
IonPolarity: pos
Date: 2010-10-09 19:48:36+02:00
Num Peaks: 27
26 29 27 161 29 169 31 37 37 31 38 60 39 164 40 12 41 82 42 45 
43 15 50 69 51 113 52 267 53 422 54 20 55 13 69 37 70 31 80 253 
81 999 82 56 95 34 97 35 98 71 126 490 127 32 
