Name: MassBank: JP006625
MW: 299
Formula: C18H25N3O
Synonym: MassBank: JP006625
Synonym: 2-(3-DIMETHYLAMINOPROPIONYL)-5,7-DIMETHYL-1,2,3,4-TETRAHYDROPYRIMIDO(1,6-A)INDOLE
Structure: 322D28332D44494D455448594C414D494E4F50524F50494F4E594C292D352C372D44494D455448594C2D312C322C332C342D5445545241485944524F505952494D49444F28312C362D4129494E444F4C452E6D6F6C0A20204368656D447261773132323130393138303432440A2032322032342020302020302020302020302020302020302020302020303939392056323030300A2020202D302E3837373620202020302E3331333520202020302E30303030204E202020302020302020302020302020302020302020302020302020302020302020302020300A2020202D302E383737362020202D302E3531313520202020302E303030302043202020302020302020302020302020302020302020302020302020302020302020302020300A2020202D312E363632322020202D302E3736363420202020302E303030302043202020302020302020302020302020302020302020302020302020302020302020302020300A2020202D322E313437322020202D302E3039393020202020302E303030302043202020302020302020302020302020302020302020302020302020302020302020302020300A2020202D322E393637362020202D302E3031323720202020302E303030302043202020302020302020302020302020302020302020302020302020302020302020302020300A2020202D332E3330333220202020302E3734303920202020302E303030302043202020302020302020302020302020302020302020302020302020302020302020302020300A2020202D322E3831383320202020312E3430383420202020302E303030302043202020302020302020302020302020302020302020302020302020302020302020302020300A2020202D312E3939373820202020312E3332323120202020302E303030302043202020302020302020302020302020302020302020302020302020302020302020302020300A2020202D312E3636323220202020302E3536383520202020302E303030302043202020302020302020302020302020302020302020302020302020302020302020302020300A2020202D302E3136333120202020302E3732363020202020302E303030302043202020302020302020302020302020302020302020302020302020302020302020302020300A20202020302E3535313320202020302E3331333520202020302E30303030204E202020302020302020302020302020302020302020302020302020302020302020302020300A20202020302E353531332020202D302E3531313520202020302E303030302043202020302020302020302020302020302020302020302020302020302020302020302020300A2020202D302E313633312020202D302E3932343020202020302E303030302043202020302020302020302020302020302020302020302020302020302020302020302020300A2020202D342E3132333720202020302E3832373220202020302E303030302043202020302020302020302020302020302020302020302020302020302020302020302020300A2020202D312E393137322020202D312E3535313020202020302E303030302043202020302020302020302020302020302020302020302020302020302020302020302020300A20202020312E3236353820202020302E3732363020202020302E303030302043202020302020302020302020302020302020302020302020302020302020302020302020300A20202020312E3236353820202020312E3535313020202020302E30303030204F202020302020302020302020302020302020302020302020302020302020302020302020300A20202020312E3938303320202020302E3331333520202020302E303030302043202020302020302020302020302020302020302020302020302020302020302020302020300A20202020322E3639343720202020302E3732363020202020302E303030302043202020302020302020302020302020302020302020302020302020302020302020302020300A20202020332E3430393220202020302E3331333520202020302E30303030204E202020302020302020302020302020302020302020302020302020302020302020302020300A20202020332E343039322020202D302E3531313520202020302E303030302043202020302020302020302020302020302020302020302020302020302020302020302020300A20202020342E3132333720202020302E3732363020202020302E303030302043202020302020302020302020302020302020302020302020302020302020302020302020300A2020312020322020312020302020202020200A2020322020332020322020302020202020200A2020332020342020312020302020202020200A2020342020352020312020302020202020200A2020352020362020322020302020202020200A2020362020372020312020302020202020200A2020372020382020322020302020202020200A2020382020392020312020302020202020200A2020312020392020312020302020202020200A2020342020392020322020302020202020200A2031302031312020312020302020202020200A2031312031322020312020302020202020200A2031322031332020312020302020202020200A2020312031302020312020302020202020200A2020322031332020312020302020202020200A2020362031342020312020302020202020200A2020332031352020312020302020202020200A2031362031372020322020302020202020200A2031362031382020312020302020202020200A2031382031392020312020302020202020200A2032302032312020312020302020202020200A2032302032322020312020302020202020200A2031392032302020312020302020202020200A2031312031362020312020302020202020200A4D2020454E44
Contributor: SASAKI S, TOYOHASHI UNIV. OF TECH.
InstType: EI
InstName: JEOL JMS-01-SG-2
IoniMethod: _ENERGY 75 eV
IonPolarity: pos
Date: 2010-10-09 19:48:36+02:00
Num Peaks: 23
58 999 59 40 69 45 77 1 91 12 98 32 115 35 128 3 129 40 130 25 
143 29 144 8 157 51 158 194 170 69 171 70 172 119 198 40 199 630 200 10 
241 99 298 10 299 450 
