Name: TETRAMETHYLSILANE
MW: 88
Formula: C4H12Si
Synonym: MassBank: JP008891
Synonym: TETRAMETHYLSILANE
Structure: 310A31340A54455452414D455448594C53494C414E452E6D6F6C0A20204368656D447261773038313231303037333132440A2020352020342020302020302020302020302020302020302020302020303939392056323030300A20202020302E3030303020202020302E3030303020202020302E303030302053692020302020302020302020302020302020302020302020302020302020302020302020300A20202020302E303030302020202D302E3832353020202020302E303030302043202020302020302020302020302020302020302020302020302020302020302020302020300A2020202D302E3832353020202020302E3030303020202020302E303030302043202020302020302020302020302020302020302020302020302020302020302020302020300A20202020302E3030303020202020302E3832353020202020302E303030302043202020302020302020302020302020302020302020302020302020302020302020302020300A20202020302E3832353020202020302E3030303020202020302E303030302043202020302020302020302020302020302020302020302020302020302020302020302020300A2020312020322020312020302020202020200A2020312020332020312020302020202020200A2020312020342020312020302020202020200A2020312020352020312020302020202020200A4D2020454E44
Contributor: TAJIMA S, GUNMA COLLEGE OF TECHNOLOGY
InstType: EI
InstName: HITACHI RMU-7M
IoniMethod: _ENERGY 70 eV
IonPolarity: pos
Date: 2010-10-09 19:48:36+02:00
Num Peaks: 18
15 69 27 13 28 11 29 29 31 19 42 24 43 97 44 24 45 126 53 18 
55 18 57 13 58 16 59 19 73 999 74 83 75 36 88 10 
