Name: CROTONIC ACID
MW: 86
Formula: C4H6O2
Synonym: MassBank: JP009176
Synonym: CROTONIC ACID
Structure: 310A31360A43524F544F4E494320414349442E6D6F6C0A20204368656D447261773039313531303034353232440A2020362020352020302020302020302020302020302020302020302020303939392056323030300A2020202D302E3731343520202020302E3230363220202020302E303030302043202020302020302020302020302020302020302020302020302020302020302020302020300A20202020302E3030303020202020302E3631383820202020302E303030302043202020302020302020302020302020302020302020302020302020302020302020302020300A20202020302E3731343520202020302E3230363220202020302E303030302043202020302020302020302020302020302020302020302020302020302020302020302020300A20202020312E3432383920202020302E3631383820202020302E303030302043202020302020302020302020302020302020302020302020302020302020302020302020300A2020202D302E373134352020202D302E3631383820202020302E30303030204F202020302020302020302020302020302020302020302020302020302020302020302020300A2020202D312E3432383920202020302E3631383820202020302E30303030204F202020302020302020302020302020302020302020302020302020302020302020302020300A2020312020322020312020302020202020200A2020322020332020322020302020202020200A2020332020342020312020302020202020200A2020312020352020322020302020202020200A2020312020362020312020302020202020200A4D2020454E44
Contributor: SODA AROMATIC CO., LTD.
InstType: EI
InstName: HITACHI M-80B
IoniMethod: _ENERGY 70 eV
IonPolarity: pos
Date: 2010-10-09 19:48:36+02:00
Num Peaks: 32
14 13 15 59 18 20 25 14 26 86 27 175 28 17 29 98 30 12 31 26 
36 15 37 133 38 246 39 999 40 273 41 890 42 138 43 70 44 20 45 283 
53 28 55 21 57 67 58 18 60 22 68 362 69 381 70 13 71 119 85 24 
86 901 87 46 
