Name: 4-PENTENYL ISOTHIOCYANATE
MW: 127
Formula: C6H9NS
Synonym: MassBank: JP000920
Synonym: 4-PENTENYL ISOTHIOCYANATE
Structure: 310A32300A342D50454E54454E594C2049534F5448494F4359414E4154452E6D6F6C0A20204368656D447261773034323231303230343132440A2020382020372020302020302020302020302020302020302020302020303939392056323030300A20202020302E333537322020202D302E3030303020202020302E303030302043202020302020302020302020302020302020302020302020302020302020302020302020300A2020202D302E3335373220202020302E3431323520202020302E303030302043202020302020302020302020302020302020302020302020302020302020302020302020300A2020202D312E303731372020202D302E3030303020202020302E303030302043202020302020302020302020302020302020302020302020302020302020302020302020300A2020202D312E3738363220202020302E3431323520202020302E303030302043202020302020302020302020302020302020302020302020302020302020302020302020300A2020202D322E353030362020202D302E3030303020202020302E303030302043202020302020302020302020302020302020302020302020302020302020302020302020300A20202020312E3037313720202020302E3431323520202020302E30303030204E202020302020302020302020302020302020302020302020302020302020302020302020300A20202020312E3738363220202020302E3030303020202020302E303030302043202020302020302020302020302020302020302020302020302020302020302020302020300A20202020322E353030362020202D302E3431323520202020302E303030302053202020302020302020302020302020302020302020302020302020302020302020302020300A2020312020322020312020302020202020200A2020322020332020312020302020202020200A2020332020342020312020302020202020200A2020342020352020322020302020202020200A2020362020372020322020302020202020200A2020372020382020322020302020202020200A2020312020362020312020302020202020200A4D2020454E44
Contributor: KAMEOKA H, DEPT. OF APPLIED CHEMISTRY, FAC. OF SCI. AND ENGINEERING, KINKI UNIV.
InstType: EI
InstName: SHIMADZU LKB-9000B
IoniMethod: _ENERGY 70 eV
IonPolarity: pos
Date: 2010-10-09 19:48:36+02:00
Num Peaks: 20
39 532 41 999 42 128 45 15 53 234 55 192 58 106 59 9 60 128 67 340 
68 149 69 11 70 340 72 255 85 213 99 17 126 149 127 170 128 60 129 75 
