Name: CHLOROETHYLENE
CAS: 75-01-4
MW: 61
Formula: C2H3Cl
Synonym: MassBank: JP000977
Synonym: CHLOROETHYLENE
Synonym: VINYL CHLORIDE
Structure: 310A31300A43484C4F524F455448594C454E452E6D6F6C0A20204368656D447261773038313131303137313932440A2020332020322020302020302020302020302020302020302020302020303939392056323030300A20202020302E373134352020202D302E3230363320202020302E303030302043202020302020302020302020302020302020302020302020302020302020302020302020300A2020202D302E3030303020202020302E3230363320202020302E303030302043202020302020302020302020302020302020302020302020302020302020302020302020300A2020202D302E373134352020202D302E3230363320202020302E3030303020436C2020302020302020302020302020302020302020302020302020302020302020302020300A2020312020322020322020302020202020200A2020322020332020312020302020202020200A4D2020454E44
Contributor: KOGA M, UNIV. OF OCCUPATIONAL AND ENVIRONMENTAL HEALTH
InstType: EI
InstName: JEOL JMS-01-SG
IoniMethod: _ENERGY 70 eV
IonPolarity: pos
Date: 2010-10-09 19:48:36+02:00
Num Peaks: 16
24 24 25 103 26 242 27 76 28 23 35 73 36 27 37 3 47 48 49 17 
59 20 60 7 61 84 62 999 63 50 64 308 
