Name: MassBank: JP004617
MW: 304
Formula: C20H32O2
Synonym: MassBank: JP004617
Synonym: (4E,8E,13E)-METHYL 1,5,9-TRIMETHYLCYCLOTETRADECATRIENEACETATE
Structure: 2834452C38452C313345292D4D455448594C20312C352C392D5452494D455448594C4359434C4F544554524144454341545249454E45414345544154452E6D6F6C0A20204368656D447261773130323130393138303232440A2032362032362020302020302020302020302020302020302020302020303939392056323030300A2020202D312E393931372020202D302E3835353620202020302E303030302043202020302020302020302020302020302020302020302020302020302020302020302020300A2020202D312E393931372020202D312E3638303620202020302E303030302043202020302020302020302020302020302020302020302020302020302020302020302020300A2020202D312E343038342020202D322E3236343020202020302E303030302043202020302020302020302020302020302020302020302020302020302020302020302020300A2020202D302E353833342020202D322E3236343020202020302E303030302043202020302020302020302020302020302020302020302020302020302020302020302020300A2020202D302E303030302020202D312E3638303620202020302E303030302043202020302020302020302020302020302020302020302020302020302020302020302020300A2020202D302E303030302020202D302E3835353620202020302E303030302043202020302020302020302020302020302020302020302020302020302020302020302020300A2020202D302E353833342020202D302E3237323320202020302E303030302043202020302020302020302020302020302020302020302020302020302020302020302020300A2020202D312E343038342020202D302E3237323320202020302E303030302043202020302020302020302020302020302020302020302020302020302020302020302020300A20202020302E353833342020202D322E3236343020202020302E303030302043202020302020302020302020302020302020302020302020302020302020302020302020300A20202020312E343038342020202D322E3236343020202020302E303030302043202020302020302020302020302020302020302020302020302020302020302020302020300A20202020312E393931372020202D312E3638303620202020302E303030302043202020302020302020302020302020302020302020302020302020302020302020302020300A20202020312E393931372020202D302E3835353620202020302E303030302043202020302020302020302020302020302020302020302020302020302020302020302020300A20202020312E343038342020202D302E3237323320202020302E303030302043202020302020302020302020302020302020302020302020302020302020302020302020300A20202020302E353833342020202D302E3237323320202020302E303030302043202020302020302020302020302020302020302020302020302020302020302020302020300A2020202D312E323735332020202D312E3236383120202020302E303030302048202020302020302020302020302020302020302020302020302020302020302020302020300A20202020312E3732343820202020302E3438373720202020302E303030302048202020302020302020302020302020302020302020302020302020302020302020302020300A20202020302E393938382020202D312E3535333120202020302E303030302048202020302020302020302020302020302020302020302020302020302020302020302020300A2020202D312E3732313920202020302E3438373720202020302E303030302048202020302020302020302020302020302020302020302020302020302020302020302020300A2020202D302E3939353920202020302E3434323220202020302E303030302043202020302020302020302020302020302020302020302020302020302020302020302020300A2020202D302E3939353920202020312E3236373220202020302E303030302043202020302020302020302020302020302020302020302020302020302020302020302020300A2020202D312E3730383220202020312E3637393020202020302E30303030204F202020302020302020302020302020302020302020302020302020302020302020302020300A2020202D302E3238313320202020312E3637393520202020302E30303030204F202020302020302020302020302020302020302020302020302020302020302020302020300A2020202D302E303030342020202D322E3530353620202020302E303030302043202020302020302020302020302020302020302020302020302020302020302020302020300A20202020312E323737302020202D312E3236383120202020302E303030302043202020302020302020302020302020302020302020302020302020302020302020302020300A2020202D302E3236383520202020302E3439303520202020302E303030302043202020302020302020302020302020302020302020302020302020302020302020302020300A2020202D302E3238323020202020322E3530353620202020302E303030302043202020302020302020302020302020302020302020302020302020302020302020302020300A2020312020322020312020302020202020200A2020322020332020312020302020202020200A2020332020342020312020302020202020200A2020342020352020312020302020202020200A2020362020372020312020302020202020200A2020372020382020312020302020202020200A2020382020312020322020302020202020200A2020352020392020322020302020202020200A2020392031302020312020302020202020200A2031302031312020312020302020202020200A2031312031322020312020302020202020200A2031322031332020322020302020202020200A2031332031342020312020302020202020200A2031342020362020312020302020202020200A2020312031352020312020302020202020200A2031332031362020312020302020202020200A2020392031372020312020302020202020200A2020382031382020312020302020202020200A2020372031392020312020302020202020200A2031392032302020312020302020202020200A2032302032312020322020302020202020200A2032302032322020312020302020202020200A2020352032332020312020302020202020200A2031322032342020312020302020202020200A2020372032352020312020302020202020200A2032322032362020312020302020202020200A4D202053545920203120202031205355500A4D2020534C4220203120202031202020310A4D202053414C20202031202031202032330A4D202053424C20202031202031202032330A4D2020534D5420202031204D650A4D2020534256202020312032332020202D362E3739333020202020362E353937360A4D202053545920203120202032205355500A4D2020534C4220203120202032202020320A4D202053414C20202032202031202032340A4D202053424C20202032202031202032340A4D2020534D5420202032204D650A4D2020534256202020322032342020202D372E3530373320202020372E303130310A4D202053545920203120202033205355500A4D2020534C4220203120202033202020330A4D202053414C20202033202031202032350A4D202053424C20202033202031202032350A4D2020534D5420202033204D650A4D2020534256202020332032352020202D362E3437373720202020382E313835340A4D202053545920203120202034205355500A4D2020534C4220203120202034202020340A4D202053414C20202034202031202032360A4D202053424C20202034202031202032360A4D2020534D5420202034204D650A4D2020534256202020342032362020202D362E3739333320202020382E323438360A4D2020454E44
Contributor: KATO T, DEPT. OF CHEM., FAC. OF SCI., TOHOKU UNIV.
InstType: EI
InstName: Unknown
IoniMethod: _ENERGY 25 eV
IonPolarity: pos
Date: 2010-10-09 19:48:36+02:00
Num Peaks: 124
18 735 28 326 32 42 41 3 43 367 55 116 57 34 58 23 59 13 67 233 
68 105 69 29 71 11 73 21 74 49 75 4 79 265 80 95 81 744 82 16 
83 120 85 63 91 80 92 5 93 744 94 377 95 816 96 13 97 63 99 43 
101 17 105 26 106 222 107 609 108 936 109 73 110 68 111 59 113 11 115 1 
117 22 119 411 120 392 121 999 122 557 123 214 124 21 125 2 127 36 129 19 
131 69 132 2 133 411 134 198 135 396 136 13 137 56 139 19 140 13 141 6 
145 346 146 128 147 411 148 39 149 729 150 126 151 37 153 6 154 19 155 17 
157 18 159 21 160 118 161 385 162 195 163 18 164 31 165 22 166 21 167 4 
173 143 174 132 175 315 176 7 177 84 178 10 179 38 180 4 181 33 185 14 
187 106 188 5 189 125 190 40 191 19 193 1 194 21 195 22 201 14 202 2 
203 16 215 68 216 13 217 1 221 21 222 15 229 16 230 59 231 519 232 86 
233 33 247 3 248 10 255 19 257 26 261 2 262 10 272 22 273 41 275 1 
276 12 289 66 304 77 305 15 
