Name: TETRAHYDROFURFURYL 9-OCTADECENOATE
MW: 366
Formula: C23H42O3
Synonym: MassBank: JP003325
Synonym: TETRAHYDROFURFURYL 9-OCTADECENOATE
Structure: 5445545241485944524F465552465552594C20392D4F435441444543454E4F4154452E6D6F6C0A20204368656D447261773038313231303037323232440A2032362032362020302020302020302020302020302020302020302020303939392056323030300A20202020332E393931322020202D302E3038333520202020302E303030302043202020302020302020302020302020302020302020302020302020302020302020302020300A20202020332E393931322020202D302E3930383520202020302E303030302043202020302020302020302020302020302020302020302020302020302020302020302020300A20202020332E323736372020202D312E3332313020202020302E303030302043202020302020302020302020302020302020302020302020302020302020302020302020300A20202020322E353632332020202D302E3930383520202020302E303030302043202020302020302020302020302020302020302020302020302020302020302020302020300A20202020312E383437382020202D312E3332313020202020302E303030302043202020302020302020302020302020302020302020302020302020302020302020302020300A20202020312E313333332020202D302E3930383520202020302E303030302043202020302020302020302020302020302020302020302020302020302020302020302020300A20202020302E343138392020202D312E3332313020202020302E303030302043202020302020302020302020302020302020302020302020302020302020302020302020300A2020202D302E323935362020202D302E3930383520202020302E303030302043202020302020302020302020302020302020302020302020302020302020302020302020300A2020202D312E303130312020202D312E3332313020202020302E303030302043202020302020302020302020302020302020302020302020302020302020302020302020300A2020202D312E373234362020202D302E3930383520202020302E303030302043202020302020302020302020302020302020302020302020302020302020302020302020300A2020202D322E343339302020202D312E3332313020202020302E303030302043202020302020302020302020302020302020302020302020302020302020302020302020300A2020202D332E313533352020202D302E3930383520202020302E303030302043202020302020302020302020302020302020302020302020302020302020302020302020300A2020202D332E383638302020202D312E3332313020202020302E303030302043202020302020302020302020302020302020302020302020302020302020302020302020300A2020202D342E353832342020202D302E3930383520202020302E303030302043202020302020302020302020302020302020302020302020302020302020302020302020300A2020202D352E323936392020202D312E3332313020202020302E303030302043202020302020302020302020302020302020302020302020302020302020302020302020300A2020202D362E303131342020202D302E3930383520202020302E303030302043202020302020302020302020302020302020302020302020302020302020302020302020300A2020202D362E373235392020202D312E3332313020202020302E303030302043202020302020302020302020302020302020302020302020302020302020302020302020300A2020202D372E343430332020202D302E3930383520202020302E303030302043202020302020302020302020302020302020302020302020302020302020302020302020300A20202020332E3237363720202020302E3332393020202020302E30303030204F202020302020302020302020302020302020302020302020302020302020302020302020300A20202020342E3730353720202020302E3332393020202020302E30303030204F202020302020302020302020302020302020302020302020302020302020302020302020300A20202020352E343230322020202D302E3038333520202020302E303030302043202020302020302020302020302020302020302020302020302020302020302020302020300A20202020362E3133343620202020302E3332393020202020302E303030302043202020302020302020302020302020302020302020302020302020302020302020302020300A20202020362E3232303920202020312E3134393520202020302E303030302043202020302020302020302020302020302020302020302020302020302020302020302020300A20202020372E3032373820202020312E3332313020202020302E303030302043202020302020302020302020302020302020302020302020302020302020302020302020300A20202020372E3434303320202020302E3630363520202020302E303030302043202020302020302020302020302020302020302020302020302020302020302020302020300A20202020362E383838332020202D302E3030363620202020302E30303030204F202020302020302020302020302020302020302020302020302020302020302020302020300A2020312020322020312020302020202020200A2020322020332020312020302020202020200A2020332020342020312020302020202020200A2020342020352020312020302020202020200A2020352020362020312020302020202020200A2020362020372020312020302020202020200A2020372020382020312020302020202020200A2020382020392020312020302020202020200A2020392031302020322020302020202020200A2031302031312020312020302020202020200A2031312031322020312020302020202020200A2031322031332020312020302020202020200A2031332031342020312020302020202020200A2031342031352020312020302020202020200A2031352031362020312020302020202020200A2031362031372020312020302020202020200A2031372031382020312020302020202020200A2020312031392020322020302020202020200A2020312032302020312020302020202020200A2032312032322020312020302020202020200A2032322032332020312020302020202020200A2032332032342020312020302020202020200A2032342032352020312020302020202020200A2032352032362020312020302020202020200A2032322032362020312020302020202020200A2032302032312020312020302020202020200A4D2020454E44
Contributor: KOGA M, UNIV. OF OCCUPATIONAL AND ENVIRONMENTAL HEALTH
InstType: EI
InstName: JEOL JMS-01-SG-2
IoniMethod: _ENERGY 75 eV
IonPolarity: pos
Date: 2010-10-09 19:48:36+02:00
Num Peaks: 35
53 33 54 385 55 75 56 179 67 176 68 65 69 153 70 6 71 999 72 56 
79 39 80 2 81 114 82 82 83 104 84 38 85 419 95 78 96 68 97 6 
98 167 100 33 109 42 110 4 111 33 112 58 123 29 137 3 144 43 152 26 
157 26 264 12 265 37 366 59 367 26 
