Name: N-METHYLPYRROLE
CAS: 96-54-8
MW: 81
Formula: C5H7N
Synonym: MassBank: JP001626
Synonym: N-METHYLPYRROLE
Structure: 310A31370A4E2D4D455448594C505952524F4C452E6D6F6C0A20204368656D447261773038313231303032313632440A2020362020362020302020302020302020302020302020302020302020303939392056323030300A2020202D302E323232332020202D302E3030303020202020302E30303030204E202020302020302020302020302020302020302020302020302020302020302020302020300A20202020302E3236323720202020302E3636373420202020302E303030302043202020302020302020302020302020302020302020302020302020302020302020302020300A20202020312E3034373320202020302E3431323520202020302E303030302043202020302020302020302020302020302020302020302020302020302020302020302020300A20202020312E303437332020202D302E3431323520202020302E303030302043202020302020302020302020302020302020302020302020302020302020302020302020300A20202020302E323632372020202D302E3636373420202020302E303030302043202020302020302020302020302020302020302020302020302020302020302020302020300A2020202D312E303437332020202D302E3030303020202020302E303030302043202020302020302020302020302020302020302020302020302020302020302020302020300A2020312020322020312020302020202020200A2020322020332020322020302020202020200A2020332020342020312020302020202020200A2020342020352020322020302020202020200A2020312020352020312020302020202020200A2020312020362020312020302020202020200A4D2020454E44
Contributor: KOGA M, UNIV. OF OCCUPATIONAL AND ENVIRONMENTAL HEALTH
InstType: EI
InstName: VARIAN MAT-44
IoniMethod: _ENERGY 70 eV
IonPolarity: pos
Date: 2010-10-09 19:48:36+02:00
Num Peaks: 30
32 68 37 56 38 103 39 442 40 163 41 181 42 547 43 27 49 16 50 48 
51 56 52 112 53 564 54 223 55 298 56 29 57 34 58 29 59 12 66 36 
67 25 68 38 69 49 70 14 71 14 78 140 79 45 80 747 81 999 82 60 
