Name: HEXADECALACTONE
MW: 254
Formula: C16H30O2
Synonym: MassBank: JP008313
Synonym: HEXADECALACTONE
Synonym: 1-OXACYCLOHEPTADECANE-2-ONE
Structure: 48455841444543414C4143544F4E452E6D6F6C0A20204368656D447261773131323230393231343332440A2031382031382020302020302020302020302020302020302020302020303939392056323030300A2020202D322E3434343620202020302E3739363920202020302E303030302043202020302020302020302020302020302020302020302020302020302020302020302020300A2020202D322E343434362020202D302E3032383120202020302E303030302043202020302020302020302020302020302020302020302020302020302020302020302020300A2020202D312E373939362020202D302E3534323520202020302E303030302043202020302020302020302020302020302020302020302020302020302020302020302020300A2020202D302E393935332020202D302E3335383920202020302E303030302043202020302020302020302020302020302020302020302020302020302020302020302020300A2020202D302E3633373320202020302E3338343420202020302E303030302043202020302020302020302020302020302020302020302020302020302020302020302020300A2020202D302E3939353320202020312E3132373720202020302E30303030204F202020302020302020302020302020302020302020302020302020302020302020302020300A2020202D312E3739393620202020312E3331313320202020302E303030302043202020302020302020302020302020302020302020302020302020302020302020302020300A2020202D302E353330352020202D312E3034303620202020302E303030302043202020302020302020302020302020302020302020302020302020302020302020302020300A20202020302E323932322020202D302E3937383920202020302E303030302043202020302020302020302020302020302020302020302020302020302020302020302020300A20202020302E363530312020202D302E3233353620202020302E303030302043202020302020302020302020302020302020302020302020302020302020302020302020300A20202020302E3138353420202020302E3434363020202020302E303030302043202020302020302020302020302020302020302020302020302020302020302020302020300A20202020302E353634362020202D312E3735373620202020302E303030302043202020302020302020302020302020302020302020302020302020302020302020302020300A20202020312E333037392020202D322E3131353620202020302E303030302043202020302020302020302020302020302020302020302020302020302020302020302020300A20202020322E303836362020202D312E3834333120202020302E303030302043202020302020302020302020302020302020302020302020302020302020302020302020300A20202020322E343434362020202D312E3039393820202020302E303030302043202020302020302020302020302020302020302020302020302020302020302020302020300A20202020322E313732312020202D302E3332313120202020302E303030302043202020302020302020302020302020302020302020302020302020302020302020302020300A20202020312E3432383820202020302E3033363920202020302E303030302043202020302020302020302020302020302020302020302020302020302020302020302020300A2020202D312E3938333220202020322E3131353620202020302E30303030204F202020302020302020302020302020302020302020302020302020302020302020302020300A2020312020322020312020302020202020200A2020322020332020312020302020202020200A2020332020342020312020302020202020200A2020352020362020312020302020202020200A2020362020372020312020302020202020200A2020372020312020312020302020202020200A2020342020382020312020302020202020200A2020382020392020312020302020202020200A2031302031312020312020302020202020200A2031312020352020312020302020202020200A2020392031322020312020302020202020200A2031322031332020312020302020202020200A2031332031342020312020302020202020200A2031342031352020312020302020202020200A2031352031362020312020302020202020200A2031362031372020312020302020202020200A2031372031302020312020302020202020200A2020372031382020322020302020202020200A4D2020454E44
Contributor: UBE SCIENTIFIC ANALYSIS LABORATORY
InstType: EI
InstName: HITACHI M-60
IoniMethod: _ENERGY 70 eV
IonPolarity: pos
Date: 2010-10-09 19:48:36+02:00
Num Peaks: 140
27 119 28 46 29 324 31 9 39 112 40 36 41 837 42 219 43 509 44 19 
45 15 53 47 54 121 55 999 56 332 57 313 58 81 59 37 60 87 61 45 
65 5 66 21 67 200 68 232 69 575 70 275 71 205 72 12 73 175 74 18 
79 28 80 41 81 234 82 417 83 566 84 307 85 83 86 9 87 52 91 11 
93 20 94 40 95 162 96 345 97 374 98 277 99 46 100 42 101 79 102 14 
105 4 107 18 108 29 109 102 110 141 111 183 112 84 113 53 114 74 115 52 
116 62 117 5 119 21 120 5 121 24 122 23 123 92 124 111 125 93 126 42 
127 56 128 20 129 69 130 12 133 19 134 16 135 25 136 17 137 59 138 87 
139 56 140 26 141 23 142 12 143 17 144 4 147 11 148 18 149 21 150 10 
151 47 152 74 153 34 154 14 155 20 156 7 157 6 158 13 161 9 162 4 
163 7 164 9 165 35 166 41 167 18 168 3 169 10 171 10 172 20 173 5 
175 5 179 20 180 11 181 11 182 7 183 5 185 23 186 11 187 6 189 3 
190 4 192 37 193 22 194 75 195 20 197 8 207 11 208 24 209 4 211 19 
212 2 218 19 219 4 225 5 226 3 236 122 237 23 253 3 254 86 255 18 
