Name: MassBank: JP005541
MW: 272
Formula: C20H16O
Synonym: MassBank: JP005541
Synonym: 2,5-DIMETHYL-4-PHENYLNAPHTHO(2,1-B)FURAN (5,5,5-D3)
Structure: 322C352D44494D455448594C2D342D5048454E594C4E41504854484F28322C312D4229465552414E2028352C352C352D4433292E6D6F6C0A20204368656D447261773132323130393031333532440A2032342032372020302020302020302020302020302020302020302020303939392056323030300A20202020302E3937303320202020302E3938353720202020302E30303030204F202020302020302020302020302020302020302020302020302020302020302020302020300A20202020302E3335373220202020302E3433333720202020302E303030302043202020302020302020302020302020302020302020302020302020302020302020302020300A2020202D302E3335373220202020302E3834363220202020302E303030302043202020302020302020302020302020302020302020302020302020302020302020302020300A2020202D302E3138353720202020312E3635333120202020302E303030302043202020302020302020302020302020302020302020302020302020302020302020302020300A20202020302E3633343820202020312E3733393420202020302E303030302043202020302020302020302020302020302020302020302020302020302020302020302020300A20202020302E333537322020202D302E3339313320202020302E303030302043202020302020302020302020302020302020302020302020302020302020302020302020300A2020202D302E333537322020202D302E3830333820202020302E303030302043202020302020302020302020302020302020302020302020302020302020302020302020300A2020202D312E303731372020202D302E3339313320202020302E303030302043202020302020302020302020302020302020302020302020302020302020302020302020300A2020202D312E373836322020202D302E3830333820202020302E303030302043202020302020302020302020302020302020302020302020302020302020302020302020300A2020202D322E353030362020202D302E3339313320202020302E303030302043202020302020302020302020302020302020302020302020302020302020302020302020300A2020202D322E3530303620202020302E3433333720202020302E303030302043202020302020302020302020302020302020302020302020302020302020302020302020300A2020202D312E3738363220202020302E3834363220202020302E303030302043202020302020302020302020302020302020302020302020302020302020302020302020300A2020202D312E3037313720202020302E3433333720202020302E303030302043202020302020302020302020302020302020302020302020302020302020302020302020300A20202020312E303731372020202D302E3830333820202020302E303030302043202020302020302020302020302020302020302020302020302020302020302020302020300A20202020312E303731372020202D312E3632383820202020302E303030302043202020302020302020302020302020302020302020302020302020302020302020302020300A20202020312E373836322020202D322E3034313320202020302E303030302043202020302020302020302020302020302020302020302020302020302020302020302020300A20202020322E353030362020202D312E3632383820202020302E303030302043202020302020302020302020302020302020302020302020302020302020302020302020300A20202020322E353030362020202D302E3830333820202020302E303030302043202020302020302020302020302020302020302020302020302020302020302020302020300A20202020312E373836322020202D302E3339313320202020302E303030302043202020302020302020302020302020302020302020302020302020302020302020302020300A20202020312E3034373320202020322E3435333820202020302E303030302043202020302020302020302020302020302020302020302020302020302020302020302020300A2020202D302E333537322020202D312E3632383820202020302E303030302043202020302020302020302020302020302020302020302020302020302020302020302020300A2020202D302E333537322020202D322E3435333820202020302E303030302048202020312020302020302020302020302020302020302020302020302020302020302020300A20202020302E343637382020202D312E3632383820202020302E303030302048202020312020302020302020302020302020302020302020302020302020302020302020300A2020202D312E313832322020202D312E3632383820202020302E303030302048202020312020302020302020302020302020302020302020302020302020302020302020300A2020312020322020312020302020202020200A2020322020332020312020302020202020200A2020332020342020312020302020202020200A2020342020352020322020302020202020200A2020312020352020312020302020202020200A2020362020372020312020302020202020200A2020372020382020312020302020202020200A2020382020392020312020302020202020200A2020392031302020322020302020202020200A2031302031312020312020302020202020200A2031312031322020322020302020202020200A2031322031332020312020302020202020200A2020382031332020322020302020202020200A2020322020362020322020302020202020200A2020332031332020312020302020202020200A2031342031352020312020302020202020200A2031352031362020322020302020202020200A2031362031372020312020302020202020200A2031372031382020322020302020202020200A2031382031392020312020302020202020200A2031342031392020322020302020202020200A2020362031342020312020302020202020200A2020352032302020312020302020202020200A2020372032312020312020302020202020200A2032312032322020312020302020202020200A2032312032332020312020302020202020200A2032312032342020312020302020202020200A4D202049534F2020332020323220202032202032332020203220203234202020320A4D2020454E44
Contributor: MASS SPECTROSCOPY SOC. OF JAPAN (MSSJ)
InstType: EI
InstName: HITACHI RMU-6L
IoniMethod: _ENERGY 70 eV
IonPolarity: pos
Date: 2010-10-09 19:48:36+02:00
Num Peaks: 50
40 75 41 63 43 148 45 55 47 550 49 325 51 85 55 53 57 73 59 73 
69 35 74 33 77 75 82 180 83 30 84 83 85 40 91 58 102 38 105 113 
115 55 120 38 121 33 123 50 127 38 128 73 129 73 137.5 53 158 63 164 43 
167 33 171 28 172 33 197 45 198 73 227 33 228 68 229 78 230 90 231 95 
232 85 257 30 258 33 271 20 272 48 273 158 274 450 275 999 276 238 277 33 
