Name: MassBank: JP006317
MW: 436
Formula: C26H44O5
Synonym: MassBank: JP006317
Synonym: LABDA-7,14-DIEN-13(R)-OL-ALPHA-L-RHAMNOPYRANOSIDE
Structure: 313131325F4C414244412D372C31342D4449454E2D31332852292D4F4C2D414C5048412D4C2D5248414D4E4F505952414E4F534944452E6D6F6C0A20204368656D447261773039303731303130353932440A2033392034312020302020302020302020302020302020302020302020303939392056323030300A20202020302E3131353020202020322E3833303020202020302E303030302043202020302020302020302020302020302020302020302020302020302020302020302020300A20202020302E3131353020202020322E3030353020202020302E303030302043202020302020302020302020302020302020302020302020302020302020302020302020300A20202020302E3832393520202020312E3539323520202020302E303030302043202020302020302020302020302020302020302020302020302020302020302020302020300A20202020312E3534333920202020322E3030353020202020302E303030302043202020302020302020302020302020302020302020302020302020302020302020302020300A20202020312E3534333920202020322E3833303020202020302E303030302043202020302020302020302020302020302020302020302020302020302020302020302020300A20202020302E3832393520202020332E3234323520202020302E303030302043202020302020302020302020302020302020302020302020302020302020302020302020300A20202020322E3235383420202020312E3539323520202020302E303030302043202020302020302020302020302020302020302020302020302020302020302020302020300A20202020322E3937323920202020322E3030353020202020302E303030302043202020302020302020302020302020302020302020302020302020302020302020302020300A20202020322E3937323920202020322E3833303020202020302E303030302043202020302020302020302020302020302020302020302020302020302020302020302020300A20202020322E3235383420202020332E3234323520202020302E303030302043202020302020302020302020302020302020302020302020302020302020302020302020300A2020202D302E3539393520202020312E3539323520202020302E303030302043202020302020302020302020302020302020302020302020302020302020302020302020300A20202020322E3838353220202020332E3737383920202020302E303030302043202020302020302020302020302020302020302020302020302020302020302020302020300A20202020312E3136333220202020302E3833383020202020302E303030302043202020302020302020302020302020302020302020302020302020302020302020302020300A20202020312E3532313020202020312E3138303320202020302E303030302043202020302020302020302020302020302020302020302020302020302020302020302020300A20202020312E3032343720202020302E3032343720202020302E303030302043202020302020302020302020302020302020302020302020302020302020302020302020300A20202020312E363539382020202D302E3530313820202020302E303030302043202020302020302020302020302020302020302020302020302020302020302020302020300A20202020322E3138363420202020302E3133333220202020302E303030302043202020302020302020302020302020302020302020302020302020302020302020302020300A20202020322E323934382020202D312E3032383420202020302E303030302043202020302020302020302020302020302020302020302020302020302020302020302020300A20202020312E313333322020202D312E3133363920202020302E30303030204F202020302020302020302020302020302020302020302020302020302020302020302020300A20202020302E3231353720202020312E3034313220202020302E303030302048202020302020302020302020302020302020302020302020302020302020302020302020300A20202020312E3534333920202020332E3635353020202020302E303030302048202020302020302020302020302020302020302020302020302020302020302020302020300A20202020312E3738313920202020332E3931363020202020302E303030302043202020302020302020302020302020302020302020302020302020302020302020302020300A20202020332E303638342020202D302E3734313720202020302E303030302043202020302020302020302020302020302020302020302020302020302020302020302020300A2020202D312E383738362020202D312E3239303820202020302E303030302043202020302020302020302020302020302020302020302020302020302020302020302020300A2020202D332E303638342020202D322E3139363920202020302E303030302043202020302020302020302020302020302020302020302020302020302020302020302020300A2020202D312E383738362020202D332E3039313020202020302E303030302043202020302020302020302020302020302020302020302020302020302020302020302020300A2020202D302E303136342020202D332E3039313020202020302E303030302043202020302020302020302020302020302020302020302020302020302020302020302020300A20202020312E323231312020202D322E3139363920202020302E303030302043202020302020302020302020302020302020302020302020302020302020302020302020300A2020202D302E303136342020202D312E3239303820202020302E30303030204F202020302020302020302020302020302020302020302020302020302020302020302020300A2020202D332E303638342020202D312E3433363220202020302E30303030204F202020302020302020302020302020302020302020302020302020302020302020302020300A2020202D332E303638342020202D332E3039313020202020302E303030302048202020302020302020302020302020302020302020302020302020302020302020302020300A20202020312E323231312020202D332E3030393920202020302E303030302048202020302020302020302020302020302020302020302020302020302020302020302020300A2020202D302E303136342020202D322E3239323220202020302E303030302048202020302020302020302020302020302020302020302020302020302020302020302020300A2020202D302E303136342020202D332E3931363020202020302E30303030204F202020302020302020302020302020302020302020302020302020302020302020302020300A2020202D312E383738362020202D332E3931363020202020302E30303030204F202020302020302020302020302020302020302020302020302020302020302020302020300A2020202D312E383738362020202D322E3333393920202020302E303030302048202020302020302020302020302020302020302020302020302020302020302020302020300A2020202D312E383738362020202D302E3533303220202020302E303030302048202020302020302020302020302020302020302020302020302020302020302020302020300A2020202D312E383930352020202D312E3838363920202020302E303030302043202020302020302020302020302020302020302020302020302020302020302020302020300A2020202D302E3539393520202020332E3234323520202020302E303030302048202020302020302020302020302020302020302020302020302020302020302020302020300A2020312020322020322020302020202020200A2020322020332020312020302020202020200A2020332020342020312020302020202020200A2020342020352020312020302020202020200A2020352020362020312020302020202020200A2020362020312020312020302020202020200A2020342020372020312020302020202020200A2020372020382020312020302020202020200A2020382020392020312020302020202020200A2020392031302020312020302020202020200A2031302020352020312020302020202020200A2020322031312020312020302020202020200A2031302031322020312020312020202020200A2020332031332020312020312020202020200A2020342031342020312020312020202020200A2031332031352020312020302020202020200A2031352031362020312020302020202020200A2031362031372020312020312020202020200A2031362031382020312020302020202020200A2031362031392020312020312020202020200A2020332032302020312020362020202020200A2020352032312020312020362020202020200A2031302032322020312020362020202020200A2031382032332020322020302020202020200A2032342032352020312020302020202020200A2032352032362020312020312020202020200A2032362032372020312020312020202020200A2032382032372020312020312020202020200A2032382032392020312020302020202020200A2032342032392020312020302020202020200A2032352033302020312020302020202020200A2032352033312020312020302020202020200A2032382033322020312020302020202020200A2032372033332020312020302020202020200A2032372033342020312020302020202020200A2032362033352020312020302020202020200A2032362033362020312020302020202020200A2032342033372020312020302020202020200A2032342033382020312020302020202020200A2031392032382020312020302020202020200A2020312033392020312020302020202020200A4D2020454E44
Contributor: EGUCHI S, FAC. OF SCIENCE, HIROSHIMA UNIV.
InstType: EI
InstName: HITACHI RMU-6L
IoniMethod: _ENERGY 70 eV
IonPolarity: pos
Date: 2010-10-09 19:48:36+02:00
Num Peaks: 197
40 50 41 745 42 114 43 54 44 226 45 430 46 116 47 4 50 12 51 38 
52 25 53 17 54 60 55 690 56 121 57 37 58 140 59 148 60 445 61 15 
62 15 63 24 65 64 66 4 67 271 68 162 69 580 70 11 71 474 72 79 
73 445 74 11 75 85 76 21 77 134 78 4 79 219 80 217 81 592 82 16 
83 293 84 134 85 164 86 4 87 115 88 14 89 13 90 2 91 214 92 71 
93 342 94 13 95 407 96 102 97 154 98 7 99 92 100 66 101 79 102 5 
103 70 104 25 105 213 106 8 107 252 108 173 109 594 110 9 111 142 112 38 
113 54 114 2 115 84 116 34 117 124 118 3 119 274 120 100 121 260 122 14 
123 172 124 136 125 91 126 4 127 41 128 34 129 180 130 4 131 64 132 44 
133 183 134 8 135 124 136 87 137 114 138 6 139 45 140 26 141 44 142 3 
143 42 144 46 145 93 146 5 147 185 148 114 149 120 150 5 151 67 152 34 
153 44 154 2 155 26 156 18 157 58 158 3 159 52 160 34 161 150 162 5 
163 109 164 101 165 53 166 4 167 35 168 15 169 15 170 2 171 34 172 15 
173 55 174 2 175 74 176 39 177 103 178 3 179 30 180 25 181 25 182 2 
183 15 184 15 185 39 186 2 187 75 188 38 189 200 190 6 191 205 192 45 
193 35 194 2 195 10 196 10 199 21 200 1 201 86 202 38 203 74 204 999 
205 240 206 51 207 39 208 2 217 32 218 34 219 34 220 6 221 30 231 20 
233 30 234 2 256 50 257 60 270 29 271 15 272 84 273 70 284 4 285 1 
286 13 287 16 288 17 289 2 290 9 291 4 303 3 304 1 305 7 331 8 
337 6 350 1 366 2 391 2 403 3 418 0 436 7 
