Name: 2-METHOXYETHYLAMINE
CAS: 109-85-3
MW: 75
Formula: C3H9NO
Synonym: MassBank: JP004282
Synonym: 2-METHOXYETHYLAMINE
Structure: 310A31340A322D4D4554484F5859455448594C414D494E452E6D6F6C0A20204368656D447261773031323231303032323332440A2020352020342020302020302020302020302020302020302020302020303939392056323030300A20202020312E343238392020202D302E3230363320202020302E30303030204E202020302020302020302020302020302020302020302020302020302020302020302020300A20202020302E3731343520202020302E3230363320202020302E303030302043202020302020302020302020302020302020302020302020302020302020302020302020300A2020202D302E303030302020202D302E3230363320202020302E303030302043202020302020302020302020302020302020302020302020302020302020302020302020300A2020202D302E3731343520202020302E3230363320202020302E30303030204F202020302020302020302020302020302020302020302020302020302020302020302020300A2020202D312E343238392020202D302E3230363220202020302E303030302043202020302020302020302020302020302020302020302020302020302020302020302020300A2020322020332020312020302020202020200A2020312020322020312020302020202020200A2020342020352020312020302020202020200A2020332020342020312020302020202020200A4D2020454E44
Contributor: TAJIMA S, GUNMA COLLEGE OF TECHNOLOGY
InstType: EI
InstName: HITACHI RMU-7M
IoniMethod: _ENERGY 70 eV
IonPolarity: pos
Date: 2010-10-09 19:48:36+02:00
Num Peaks: 11
15 29 27 15 28 74 29 48 30 999 31 52 41 11 42 52 43 15 44 33 
45 107 
