Name: ETHYL VALERATE
MW: 130
Formula: C7H14O2
Synonym: MassBank: JP005297
Synonym: ETHYL VALERATE
Synonym: PENTANOIC ACID ETHYL ESTER
Structure: 310A32320A50454E54414E4F4943204143494420455448594C2045535445522E6D6F6C0A20204368656D447261773038313231303034353632440A2020392020382020302020302020302020302020302020302020302020303939392056323030300A20202020302E323036332020202D302E3030303020202020302E303030302043202020302020302020302020302020302020302020302020302020302020302020302020300A2020202D302E3230363320202020302E3731343520202020302E303030302043202020302020302020302020302020302020302020302020302020302020302020302020300A2020202D312E3033313320202020302E3731343520202020302E303030302043202020302020302020302020302020302020302020302020302020302020302020302020300A2020202D312E343433382020202D302E3030303020202020302E303030302043202020302020302020302020302020302020302020302020302020302020302020302020300A2020202D322E323638382020202D302E3030303020202020302E303030302043202020302020302020302020302020302020302020302020302020302020302020302020300A2020202D302E323036332020202D302E3731343520202020302E30303030204F202020302020302020302020302020302020302020302020302020302020302020302020300A20202020312E303331322020202D302E3030303020202020302E30303030204F202020302020302020302020302020302020302020302020302020302020302020302020300A20202020312E343433382020202D302E3731343520202020302E303030302043202020302020302020302020302020302020302020302020302020302020302020302020300A20202020322E323638382020202D302E3731343520202020302E303030302043202020302020302020302020302020302020302020302020302020302020302020302020300A2020312020322020312020302020202020200A2020322020332020312020302020202020200A2020332020342020312020302020202020200A2020342020352020312020302020202020200A2020312020362020322020302020202020200A2020312020372020312020302020202020200A2020382020392020312020302020202020200A2020372020382020312020302020202020200A4D2020454E44
Contributor: YAMAMOTO M, DEP. CHEMISTRY, FAC. SCIENCE, NARA WOMEN'S UNIV.
InstType: EI
InstName: HITACHI RMU-6M
IoniMethod: _ENERGY 70 eV
IonPolarity: pos
Date: 2010-10-09 19:48:36+02:00
Num Peaks: 38
15 35 26 38 27 352 28 152 29 966 30 23 31 25 39 114 40 14 41 380 
42 76 43 97 44 18 46 201 53 17 55 95 56 61 57 720 58 33 59 23 
60 458 61 243 70 170 73 242 74 29 75 10 83 19 84 14 85 863 86 48 
87 28 88 999 89 46 101 240 102 35 103 88 115 21 130 28 
