Name: MassBank: JP002968
MW: 412
Formula: C24H32N2O4
Synonym: MassBank: JP002968
Synonym: 7,7'-DIHYDROXY-6,6'-DIMETHOXY-1,1',2,2'-TETRAMETHYL-1,1',2,2',3,3',4,4'-OCTAHYDRO-8,8'-BISISOQUINOLINE
Structure: 310A350A372C37272D4449485944524F58592D362C36272D44494D4554484F58592D312C31272C322C32272D54455452414D455448594C2D312C31272C322C32272C332C33272C342C34272D4F435441485944524F2D382C38272D42495349534F5155494E4F4C494E452E6D6F6C0A20204368656D447261773035313931303232353732440A2020302020302020302020302020302020302020302020302020302020303939392056323030300A4D2020454E44
Contributor: SASAKI S, TOYOHASHI UNIV. OF TECH.
InstType: EI
InstName: Unknown
IoniMethod: EI
IonPolarity: pos
Date: 2010-10-09 19:48:36+02:00
Num Peaks: 24
36 235 38 82 44 100 72 7 169 60 183 60 191 387 324 10 338 133 340 95 
352 73 354 1 367 73 368 108 369 60 382 1 383 73 395 235 396 73 397 999 
398 322 399 83 411 83 412 180 
