Name: TRANS-2-OCTENOIC ACID
MW: 142
Formula: C8H14O2
Synonym: MassBank: JP009193
Synonym: TRANS-2-OCTENOIC ACID
Structure: 5452414E532D322D4F4354454E4F494320414349442E6D6F6C0A20204368656D447261773038313231303037353632440A2031302020392020302020302020302020302020302020302020302020303939392056323030300A2020202D322E313433342020202D302E3230363220202020302E303030302043202020302020302020302020302020302020302020302020302020302020302020302020300A2020202D312E343238392020202D302E3631383820202020302E303030302043202020302020302020302020302020302020302020302020302020302020302020302020300A2020202D302E373134352020202D302E3230363220202020302E303030302043202020302020302020302020302020302020302020302020302020302020302020302020300A20202020302E303030302020202D302E3631383820202020302E303030302043202020302020302020302020302020302020302020302020302020302020302020302020300A20202020302E373134352020202D302E3230363220202020302E303030302043202020302020302020302020302020302020302020302020302020302020302020302020300A20202020312E343238392020202D302E3631383820202020302E303030302043202020302020302020302020302020302020302020302020302020302020302020302020300A20202020322E313433342020202D302E3230363220202020302E303030302043202020302020302020302020302020302020302020302020302020302020302020302020300A20202020322E383537392020202D302E3631383820202020302E303030302043202020302020302020302020302020302020302020302020302020302020302020302020300A2020202D322E3134333420202020302E3631383820202020302E30303030204F202020302020302020302020302020302020302020302020302020302020302020302020300A2020202D322E383537392020202D302E3631383820202020302E30303030204F202020302020302020302020302020302020302020302020302020302020302020302020300A2020312020322020312020302020202020200A2020322020332020322020302020202020200A2020332020342020312020302020202020200A2020342020352020312020302020202020200A2020352020362020312020302020202020200A2020362020372020312020302020202020200A2020372020382020312020302020202020200A2020312020392020322020302020202020200A2020312031302020312020302020202020200A4D2020454E44
Contributor: SODA AROMATIC CO., LTD.
InstType: EI
InstName: HITACHI M-80B
IoniMethod: _ENERGY 70 eV
IonPolarity: pos
Date: 2010-10-09 19:48:36+02:00
Num Peaks: 68
15 30 16 15 18 16 26 41 27 501 28 60 29 787 30 21 31 33 38 35 
39 569 40 91 41 999 42 418 43 304 44 26 45 151 46 11 50 24 51 54 
52 28 53 139 54 74 55 640 56 251 57 231 58 38 59 16 60 83 61 16 
63 10 65 32 66 25 67 151 68 274 69 124 70 576 71 102 72 16 73 871 
74 60 77 19 79 19 80 15 81 82 82 318 83 105 84 24 85 28 86 284 
87 134 88 16 89 12 91 12 95 47 96 162 97 37 99 264 100 101 101 27 
109 14 110 18 113 54 114 18 124 117 125 24 127 20 142 12 
