Name: 3-FORMYLINDOLE
MW: 145
Formula: C9H7NO
Synonym: MassBank: JP008303
Synonym: 3-FORMYLINDOLE
Structure: 332D464F524D594C494E444F4C452E6D6F6C0A20204368656D447261773032323231303138303432440A2031312031322020302020302020302020302020302020302020302020303939392056323030300A2020202D302E3133373820202020312E3032313020202020302E30303030204E202020302020302020302020302020302020302020302020302020302020302020302020300A20202020302E3631353920202020302E3638353520202020302E303030302043202020302020302020302020302020302020302020302020302020302020302020302020300A20202020302E353239362020202D302E3133353020202020302E303030302043202020302020302020302020302020302020302020302020302020302020302020302020300A2020202D302E323737332020202D302E3330363520202020302E303030302043202020302020302020302020302020302020302020302020302020302020302020302020300A2020202D302E363839382020202D312E3032313020202020302E303030302043202020302020302020302020302020302020302020302020302020302020302020302020300A2020202D312E353134382020202D312E3032313020202020302E303030302043202020302020302020302020302020302020302020302020302020302020302020302020300A2020202D312E393237332020202D302E3330363520202020302E303030302043202020302020302020302020302020302020302020302020302020302020302020302020300A2020202D312E3531343820202020302E3430373920202020302E303030302043202020302020302020302020302020302020302020302020302020302020302020302020300A2020202D302E3638393820202020302E3430373920202020302E303030302043202020302020302020302020302020302020302020302020302020302020302020302020300A20202020312E313432372020202D302E3638373120202020302E303030302043202020302020302020302020302020302020302020302020302020302020302020302020300A20202020312E393237332020202D302E3433323120202020302E30303030204F202020302020302020302020302020302020302020302020302020302020302020302020300A2020312020322020312020302020202020200A2020322020332020322020302020202020200A2020332020342020312020302020202020200A2020342020352020312020302020202020200A2020352020362020322020302020202020200A2020362020372020312020302020202020200A2020372020382020322020302020202020200A2020382020392020312020302020202020200A2020312020392020312020302020202020200A2020342020392020322020302020202020200A2031302031312020322020302020202020200A2020332031302020312020302020202020200A4D2020454E44
Contributor: UBE SCIENTIFIC ANALYSIS LABORATORY
InstType: EI
InstName: HITACHI M-60
IoniMethod: _ENERGY 70 eV
IonPolarity: pos
Date: 2010-10-09 19:48:36+02:00
Num Peaks: 14
39 52 58 32 59 87 62 43 63 106 72 39 89 250 90 47 115 23 116 291 
117 34 144 999 145 839 146 81 
