Name: TRICHLOROETHYLENE
CAS: 79-01-6
MW: 129
Formula: C2HCl3
Synonym: MassBank: JP004907
Synonym: TRICHLOROETHYLENE
Structure: 310A31340A54524943484C4F524F455448594C454E452E6D6F6C0A20204368656D447261773038313231303038323332440A2020352020342020302020302020302020302020302020302020302020303939392056323030300A20202020302E333537322020202D302E3230363220202020302E303030302043202020302020302020302020302020302020302020302020302020302020302020302020300A2020202D302E333537322020202D302E3631383820202020302E303030302043202020302020302020302020302020302020302020302020302020302020302020302020300A20202020312E303731372020202D302E3631383720202020302E3030303020436C2020302020302020302020302020302020302020302020302020302020302020302020300A20202020302E3335373220202020302E3631383820202020302E3030303020436C2020302020302020302020302020302020302020302020302020302020302020302020300A2020202D312E303731372020202D302E3230363220202020302E3030303020436C2020302020302020302020302020302020302020302020302020302020302020302020300A2020312020322020322020302020202020200A2020312020332020312020302020202020200A2020312020342020312020302020202020200A2020322020352020312020302020202020200A4D2020454E44
Contributor: MASS SPECTROSCOPY SOC. OF JAPAN (MSSJ)
InstType: EI
InstName: JEOL JMS-D-3000
IoniMethod: _ENERGY 70 eV
IonPolarity: pos
Date: 2010-10-09 19:48:36+02:00
Num Peaks: 23
47 55 48 19 49 19 59 34 60 280 61 20 62 90 65 24 66 28 82 13 
83 11 94 66 95 999 96 64 97 660 98 21 99 104 130 988 131 26 132 981 
133 22 134 322 136 34 
