Name: MassBank: JP001988
MW: 220
Formula: C11H12N2O3
Synonym: MassBank: JP001988
Synonym: 5-METHOXY-2,3-DIMETHYL-6-NITROINDOLE
Structure: 352D4D4554484F58592D322C332D44494D455448594C2D362D4E4954524F494E444F4C452E6D6F6C0A20204368656D447261773034323331303036313432440A2031362031372020302020302020302020302020302020302020302020303939392056323030300A2020202D312E313636332020202D302E3536383520202020302E30303030204E202020302020302020302020302020302020302020302020302020302020302020302020300A2020202D312E3635313220202020302E3039393020202020302E303030302043202020302020302020302020302020302020302020302020302020302020302020302020300A2020202D312E3136363320202020302E3736363420202020302E303030302043202020302020302020302020302020302020302020302020302020302020302020302020300A2020202D302E3338313720202020302E3531313520202020302E303030302043202020302020302020302020302020302020302020302020302020302020302020302020300A20202020302E3333323820202020302E3932343020202020302E303030302043202020302020302020302020302020302020302020302020302020302020302020302020300A20202020312E3034373320202020302E3531313520202020302E303030302043202020302020302020302020302020302020302020302020302020302020302020302020300A20202020312E303437332020202D302E3331333520202020302E303030302043202020302020302020302020302020302020302020302020302020302020302020302020300A20202020302E333332382020202D302E3732363020202020302E303030302043202020302020302020302020302020302020302020302020302020302020302020302020300A2020202D302E333831372020202D302E3331333520202020302E303030302043202020302020302020302020302020302020302020302020302020302020302020302020300A20202020312E373631372020202D302E3732363020202020302E30303030204E202020302020332020302020302020302020302020302020302020302020302020302020300A20202020312E373631372020202D312E3535313020202020302E30303030204F202020302020302020302020302020302020302020302020302020302020302020302020300A20202020322E343736322020202D302E3331333520202020302E30303030204F202020302020352020302020302020302020302020302020302020302020302020302020300A2020202D312E3432313220202020312E3535313020202020302E303030302043202020302020302020302020302020302020302020302020302020302020302020302020300A2020202D322E3437363220202020302E3039393020202020302E303030302043202020302020302020302020302020302020302020302020302020302020302020302020300A20202020312E3736313720202020302E3932343020202020302E30303030204F202020302020302020302020302020302020302020302020302020302020302020302020300A20202020322E3437363220202020302E3531313520202020302E303030302043202020302020302020302020302020302020302020302020302020302020302020302020300A2020312020322020312020302020202020200A2020322020332020322020302020202020200A2020332020342020312020302020202020200A2020342020352020312020302020202020200A2020352020362020322020302020202020200A2020362020372020312020302020202020200A2020372020382020322020302020202020200A2020382020392020312020302020202020200A2020312020392020312020302020202020200A2020342020392020322020302020202020200A2031302031312020322020302020202020200A2031302031322020312020302020202020200A2020372031302020312020302020202020200A2020332031332020312020302020202020200A2020322031342020312020302020202020200A2031352031362020312020302020202020200A2020362031352020312020302020202020200A4D202043484720203220203130202020312020313220202D310A4D2020454E44
Contributor: SASAKI S, TOYOHASHI UNIV. OF TECH.
InstType: EI
InstName: MX-1303
IoniMethod: _ENERGY 50 eV
IonPolarity: pos
Date: 2010-10-09 19:48:36+02:00
Num Peaks: 47
39 20 41 16 42 50 43 2 45 19 51 25 52 1 55 14 57 13 63 22 
65 1 69 12 76 13 77 84 78 1 89 21 91 16 102 22 103 3 104 17 
115 50 116 19 117 2 118 19 128 28 129 31 130 7 131 125 132 47 141 42 
143 19 144 500 145 56 146 38 147 18 158 14 159 10 160 47 162 1 172 51 
173 180 174 12 190 3 205 25 219 29 220 999 221 95 
