Name: BUTYL BENZYL PHTHALATE
MW: 312
Formula: C19H20O4
Synonym: MassBank: JP003315
Synonym: BUTYL BENZYL PHTHALATE
Structure: 425554594C2042454E5A594C2050485448414C4154452E6D6F6C0A20204368656D447261773039303631303032343832440A2032332032342020302020302020302020302020302020302020302020303939392056323030300A2020202D302E3030303020202020302E3030303020202020302E303030302043202020302020302020302020302020302020302020302020302020302020302020302020300A2020202D302E3431323520202020302E3731343520202020302E303030302043202020302020302020302020302020302020302020302020302020302020302020302020300A2020202D312E3233373520202020302E3731343520202020302E303030302043202020302020302020302020302020302020302020302020302020302020302020302020300A2020202D312E363530302020202D302E3030303020202020302E303030302043202020302020302020302020302020302020302020302020302020302020302020302020300A2020202D312E3635303020202020312E3432383920202020302E303030302043202020302020302020302020302020302020302020302020302020302020302020302020300A2020202D312E3233373520202020322E3134333420202020302E303030302043202020302020302020302020302020302020302020302020302020302020302020302020300A2020202D302E3431323520202020322E3134333420202020302E303030302043202020302020302020302020302020302020302020302020302020302020302020302020300A2020202D302E3030303020202020312E3432383920202020302E303030302043202020302020302020302020302020302020302020302020302020302020302020302020300A2020202D302E343132352020202D302E3731343520202020302E30303030204F202020302020302020302020302020302020302020302020302020302020302020302020300A20202020302E3832353020202020302E3030303020202020302E30303030204F202020302020302020302020302020302020302020302020302020302020302020302020300A2020202D322E343735302020202D302E3030303020202020302E30303030204F202020302020302020302020302020302020302020302020302020302020302020302020300A2020202D312E323337352020202D302E3731343520202020302E30303030204F202020302020302020302020302020302020302020302020302020302020302020302020300A20202020312E323337352020202D302E3731343520202020302E303030302043202020302020302020302020302020302020302020302020302020302020302020302020300A20202020322E303632352020202D302E3731343520202020302E303030302043202020302020302020302020302020302020302020302020302020302020302020302020300A20202020322E3437353020202020302E3030303020202020302E303030302043202020302020302020302020302020302020302020302020302020302020302020302020300A20202020332E3330303020202020302E3030303020202020302E303030302043202020302020302020302020302020302020302020302020302020302020302020302020300A20202020332E373132352020202D302E3731343520202020302E303030302043202020302020302020302020302020302020302020302020302020302020302020302020300A20202020332E333030302020202D312E3432383920202020302E303030302043202020302020302020302020302020302020302020302020302020302020302020302020300A20202020322E343735302020202D312E3432383920202020302E303030302043202020302020302020302020302020302020302020302020302020302020302020302020300A2020202D312E363530302020202D312E3432383920202020302E303030302043202020302020302020302020302020302020302020302020302020302020302020302020300A2020202D322E343735302020202D312E3432383920202020302E303030302043202020302020302020302020302020302020302020302020302020302020302020302020300A2020202D322E383837352020202D322E3134333420202020302E303030302043202020302020302020302020302020302020302020302020302020302020302020302020300A2020202D332E373132352020202D322E3134333420202020302E303030302043202020302020302020302020302020302020302020302020302020302020302020302020300A2020312020322020312020302020202020200A2020322020332020312020302020202020200A2020332020342020312020302020202020200A2020332020352020322020302020202020200A2020352020362020312020302020202020200A2020362020372020322020302020202020200A2020372020382020312020302020202020200A2020322020382020322020302020202020200A2020312020392020322020302020202020200A2020312031302020312020302020202020200A2020342031312020322020302020202020200A2020342031322020312020302020202020200A2031332031342020312020302020202020200A2031342031352020312020302020202020200A2031352031362020322020302020202020200A2031362031372020312020302020202020200A2031372031382020322020302020202020200A2031382031392020312020302020202020200A2031342031392020322020302020202020200A2031302031332020312020302020202020200A2032302032312020312020302020202020200A2032312032322020312020302020202020200A2032322032332020312020302020202020200A2031322032302020312020302020202020200A4D2020454E44
Contributor: KOGA M, UNIV. OF OCCUPATIONAL AND ENVIRONMENTAL HEALTH
InstType: EI
InstName: JEOL JMS-01-SG-2
IoniMethod: _ENERGY 75 eV
IonPolarity: pos
Date: 2010-10-09 19:48:36+02:00
Num Peaks: 45
43 18 50 33 51 43 52 11 54 23 55 43 56 41 62 1 65 110 73 12 
76 57 77 8 78 15 79 27 89 20 90 2 91 601 92 50 93 23 104 9 
105 122 106 22 107 41 108 2 120 11 121 23 122 91 123 12 132 115 133 16 
135 52 136 2 149 999 150 105 151 13 165 1 177 12 178 55 205 58 206 35 
207 47 238 45 239 18 312 13 313 37 
