Name: ISOPROPYL ORTHO TOLUATE (2-D1)
MW: 178
Formula: C11H14O2
Synonym: MassBank: JP000062
Synonym: ISOPROPYL ORTHO TOLUATE (2-D1)
Structure: 303031365F49534F50524F50594C204F5254484F20544F4C554154452028322D4431292E6D6F6C0A20204368656D447261773039303331303135353532440A2031342031342020302020302020302020302020302020302020302020303939392056323030300A20202020302E373134352020202D302E3030303020202020302E303030302043202020302020302020302020302020302020302020302020302020302020302020302020300A20202020312E3432383920202020302E3431323520202020302E303030302043202020302020302020302020302020302020302020302020302020302020302020302020300A20202020322E313433342020202D302E3832353020202020302E303030302043202020302020302020302020302020302020302020302020302020302020302020302020300A20202020302E373134352020202D302E3832353020202020302E303030302043202020302020302020302020302020302020302020302020302020302020302020302020300A20202020322E313433342020202D302E3030303020202020302E303030302043202020302020302020302020302020302020302020302020302020302020302020302020300A20202020312E343238392020202D312E3233373520202020302E303030302043202020302020302020302020302020302020302020302020302020302020302020302020300A2020202D302E3030303020202020302E3431323520202020302E303030302043202020302020302020302020302020302020302020302020302020302020302020302020300A2020202D302E3030303020202020312E3233373520202020302E30303030204F202020302020302020302020302020302020302020302020302020302020302020302020300A2020202D302E373134352020202D302E3030303020202020302E30303030204F202020302020302020302020302020302020302020302020302020302020302020302020300A2020202D312E3432383920202020302E3431323520202020302E303030302043202020302020302020302020302020302020302020302020302020302020302020302020300A2020202D322E313433342020202D302E3030303020202020302E303030302043202020302020302020302020302020302020302020302020302020302020302020302020300A2020202D312E3432383920202020312E3233373520202020302E303030302048202020312020302020302020302020302020302020302020302020302020302020302020300A20202020312E3432383920202020312E3233373520202020302E303030302043202020302020302020302020302020302020302020302020302020302020302020302020300A2020202D302E3731343420202020302E3832353020202020302E303030302043202020302020302020302020302020302020302020302020302020302020302020302020300A2020312020322020312020302020202020200A2020312020342020322020302020202020200A2020322020352020322020302020202020200A2020332020352020312020302020202020200A2020332020362020322020302020202020200A2020342020362020312020302020202020200A2020312020372020312020302020202020200A2020372020382020322020302020202020200A2020372020392020312020302020202020200A2031302031312020312020302020202020200A2031302031322020312020302020202020200A2020392031302020312020302020202020200A2020322031332020312020302020202020200A2031302031342020312020302020202020200A4D202049534F20203120203132202020320A4D2020454E44
Contributor: TAJIMA S, GUNMA COLLEGE OF TECHNOLOGY
InstType: EI
InstName: HITACHI RMU-7M
IoniMethod: _ENERGY 70 eV
IonPolarity: pos
Date: 2010-10-09 19:48:36+02:00
Num Peaks: 28
27 40 29 17 39 118 40 23 41 88 42 90 43 61 44 172 51 37 55 31 
57 41 60 22 63 59 65 248 77 40 79 23 89 77 90 260 91 576 92 67 
118 999 119 774 120 73 135 32 136 573 137 73 179 95 180 13 
