Name: MassBank: JP003121
MW: 216
Formula: C12H8O4
Synonym: MassBank: JP003121
Synonym: 4-METHOXYFURO(3',2':6,7)COUMARIN
Structure: 342D4D4554484F58594655524F2833272C3227362C3729434F554D4152494E2E6D6F6C0A20204368656D447261773034323031303233343132440A2031362031382020302020302020302020302020302020302020302020303939392056323030300A20202020302E3939323020202020312E3434333820202020302E30303030204F202020302020302020302020302020302020302020302020302020302020302020302020300A20202020312E3730363520202020312E3033313320202020302E303030302043202020302020302020302020302020302020302020302020302020302020302020302020300A20202020322E3432313020202020312E3434333820202020302E30303030204F202020302020302020302020302020302020302020302020302020302020302020302020300A20202020312E3730363520202020302E3230363320202020302E303030302043202020302020302020302020302020302020302020302020302020302020302020302020300A20202020302E393932302020202D302E3230363220202020302E303030302043202020302020302020302020302020302020302020302020302020302020302020302020300A20202020302E3237373520202020302E3230363220202020302E303030302043202020302020302020302020302020302020302020302020302020302020302020302020300A2020202D302E343336392020202D302E3230363220202020302E303030302043202020302020302020302020302020302020302020302020302020302020302020302020300A2020202D312E3135313420202020302E3230363220202020302E303030302043202020302020302020302020302020302020302020302020302020302020302020302020300A2020202D312E3135313420202020312E3033313220202020302E303030302043202020302020302020302020302020302020302020302020302020302020302020302020300A2020202D302E3433363920202020312E3434333820202020302E303030302043202020302020302020302020302020302020302020302020302020302020302020302020300A20202020302E3237373520202020312E3033313320202020302E303030302043202020302020302020302020302020302020302020302020302020302020302020302020300A2020202D312E3933363020202020312E3238363220202020302E30303030204F202020302020302020302020302020302020302020302020302020302020302020302020300A2020202D312E393336302020202D302E3034383720202020302E303030302043202020302020302020302020302020302020302020302020302020302020302020302020300A2020202D322E3432313020202020302E3631383720202020302E303030302043202020302020302020302020302020302020302020302020302020302020302020302020300A20202020302E393932302020202D312E3033313320202020302E30303030204F202020302020302020302020302020302020302020302020302020302020302020302020300A20202020312E373036352020202D312E3434333820202020302E303030302043202020302020302020302020302020302020302020302020302020302020302020302020300A2020312020322020312020302020202020200A2020322020332020322020302020202020200A2020322020342020312020302020202020200A2020342020352020322020302020202020200A2020352020362020312020302020202020200A2020362020372020312020302020202020200A2020372020382020322020302020202020200A2020382020392020312020302020202020200A2020392031302020322020302020202020200A2031302031312020312020302020202020200A2020312031312020312020302020202020200A2020362031312020322020302020202020200A2031332031342020322020302020202020200A2031322031342020312020302020202020200A2020382031332020312020302020202020200A2020392031322020312020302020202020200A2031352031362020312020302020202020200A2020352031352020312020302020202020200A4D2020454E44
Contributor: NAKAYAMA M, MASS SPECTROSCOPY SOC. OF JAPAN (MSSJ)
InstType: EI
InstName: HITACHI RMU-7L
IoniMethod: _ENERGY 70 eV
IonPolarity: pos
Date: 2010-10-09 19:48:36+02:00
Num Peaks: 8
89 90 117 50 145 170 158 160 173 190 188 400 216 999 217 80 
