Name: MassBank: JP003136
MW: 314
Formula: C18H18O5
Synonym: MassBank: JP003136
Synonym: 3,8,9-TRIMETHOXYPTEROCARPAN
Structure: 332C382C392D5452494D4554484F5859505445524F43415250414E2E6D6F6C0A20204368656D447261773032323231303038343732440A2032352032382020302020302020302020302020302020302020302020303939392056323030300A2020202D322E3235313720202020312E3836303320202020302E303030302043202020302020302020302020302020302020302020302020302020302020302020302020300A2020202D322E3235313720202020312E3033353320202020302E303030302043202020302020302020302020302020302020302020302020302020302020302020302020300A2020202D312E3533373320202020302E3632323820202020302E303030302043202020302020302020302020302020302020302020302020302020302020302020302020300A2020202D302E3832323820202020312E3033353320202020302E303030302043202020302020302020302020302020302020302020302020302020302020302020302020300A2020202D302E3832323820202020312E3836303320202020302E303030302043202020302020302020302020302020302020302020302020302020302020302020302020300A2020202D312E3533373320202020322E3237323820202020302E303030302043202020302020302020302020302020302020302020302020302020302020302020302020300A2020202D302E3130383320202020302E3632323820202020302E303030302043202020302020302020302020302020302020302020302020302020302020302020302020300A20202020302E3630363120202020312E3033353320202020302E303030302043202020302020302020302020302020302020302020302020302020302020302020302020300A20202020302E3630363120202020312E3836303320202020302E303030302043202020302020302020302020302020302020302020302020302020302020302020302020300A2020202D302E3130383320202020322E3237323820202020302E30303030204F202020302020302020302020302020302020302020302020302020302020302020302020300A20202020302E303633322020202D302E3138343220202020302E30303030204F202020302020302020302020302020302020302020302020302020302020302020302020300A20202020302E383833372020202D302E3237303420202020302E303030302043202020302020302020302020302020302020302020302020302020302020302020302020300A20202020312E3231393220202020302E3438333220202020302E303030302043202020302020302020302020302020302020302020302020302020302020302020302020300A20202020312E333638362020202D302E3933373920202020302E303030302043202020302020302020302020302020302020302020302020302020302020302020302020300A20202020322E313839312020202D302E3835313620202020302E303030302043202020302020302020302020302020302020302020302020302020302020302020302020300A20202020322E353234362020202D302E3039383020202020302E303030302043202020302020302020302020302020302020302020302020302020302020302020302020300A20202020322E3033393720202020302E3536393520202020302E303030302043202020302020302020302020302020302020302020302020302020302020302020302020300A2020202D302E3832323820202020302E3231303320202020302E303030302048202020302020302020302020302020302020302020302020302020302020302020302020300A20202020312E3332303620202020312E3434373820202020302E303030302048202020302020302020302020302020302020302020302020302020302020302020302020300A2020202D322E3936363220202020322E3237323820202020302E30303030204F202020302020302020302020302020302020302020302020302020302020302020302020300A2020202D332E3638303720202020312E3836303320202020302E303030302043202020302020302020302020302020302020302020302020302020302020302020302020300A20202020322E363734302020202D312E3531393120202020302E30303030204F202020302020302020302020302020302020302020302020302020302020302020302020300A20202020322E333338352020202D322E3237323820202020302E303030302043202020302020302020302020302020302020302020302020302020302020302020302020300A20202020332E333435312020202D302E3031313720202020302E30303030204F202020302020302020302020302020302020302020302020302020302020302020302020300A20202020332E3638303720202020302E3734313920202020302E303030302043202020302020302020302020302020302020302020302020302020302020302020302020300A2020312020322020322020302020202020200A2020322020332020312020302020202020200A2020332020342020322020302020202020200A2020342020352020312020302020202020200A2020352020362020322020302020202020200A2020362020312020312020302020202020200A2020342020372020312020302020202020200A2020372020382020312020302020202020200A2020382020392020312020302020202020200A2020392031302020312020302020202020200A2031302020352020312020302020202020200A2020372031312020312020302020202020200A2031312031322020312020302020202020200A2031322031332020322020302020202020200A2031332020382020312020302020202020200A2031322031342020312020302020202020200A2031342031352020322020302020202020200A2031352031362020312020302020202020200A2031362031372020322020302020202020200A2031372031332020312020302020202020200A2020372031382020312020362020202020200A2020382031392020312020362020202020200A2020312032302020312020302020202020200A2032302032312020312020302020202020200A2031352032322020312020302020202020200A2032322032332020312020302020202020200A2031362032342020312020302020202020200A2032342032352020312020302020202020200A4D2020454E44
Contributor: NAKAYAMA M, MASS SPECTROSCOPY SOC. OF JAPAN (MSSJ)
InstType: EI
InstName: HITACHI RMU-7L
IoniMethod: _ENERGY 70 eV
IonPolarity: pos
Date: 2010-10-09 19:48:36+02:00
Num Peaks: 15
115 50 127 40 133 50 135 40 137 40 148 260 161 90 178 100 191 40 211 50 
271 40 299 230 313 130 314 999 315 170 
