Name: PINANE (3-D1)
MW: 138
Formula: C10H18
Synonym: MassBank: JP007400
Synonym: PINANE (3-D1)
Synonym: 2,6,6-TRIMETHYLBICYCLO(3.1.1)HEPTANE (3-D1)
Structure: 50494E414E452028332D4431292E6D6F6C0A20204368656D447261773132323130393032343832440A2031312031322020302020302020302020302020302020302020302020303939392056323030300A20202020302E3338373320202020302E3332303420202020302E303030302043202020302020302020302020302020302020302020302020302020302020302020302020300A20202020302E3735383420202020312E3035373220202020302E303030302043202020302020302020302020302020302020302020302020302020302020302020302020300A20202020302E373831342020202D302E3336323220202020302E303030302043202020302020302020302020302020302020302020302020302020302020302020302020300A20202020302E333830322020202D312E3035373220202020302E303030302043202020302020302020302020302020302020302020302020302020302020302020302020300A2020202D302E343537322020202D312E3035373220202020302E303030302043202020302020302020302020302020302020302020302020302020302020302020302020300A20202020302E313739302020202D302E3432303920202020302E303030302043202020302020302020302020302020302020302020302020302020302020302020302020300A2020202D302E393630342020202D302E3334333820202020302E303030302043202020302020302020302020302020302020302020302020302020302020302020302020300A2020202D312E363036342020202D302E3835373020202020302E303030302043202020302020302020302020302020302020302020302020302020302020302020302020300A2020202D312E3530393620202020302E3237313920202020302E303030302043202020302020302020302020302020302020302020302020302020302020302020302020300A2020202D302E3338343720202020302E3233323020202020302E303030302043202020302020302020302020302020302020302020302020302020302020302020302020300A20202020312E363036342020202D302E3336323220202020302E303030302048202020312020302020302020302020302020302020302020302020302020302020302020300A2020312020322020312020302020202020200A2020312020332020312020302020202020200A2020332020342020312020302020202020200A2020342020352020312020302020202020200A2020352020362020312020302020202020200A2020352020372020312020302020202020200A2020372020382020312020362020202020200A2020372020392020312020312020202020200A2020372031302020312020302020202020200A2020362031302020312020302020202020200A2020312031302020312020302020202020200A2020332031312020312020302020202020200A4D202049534F20203120203131202020320A4D2020454E44
Contributor: YAMAMOTO M, DEP. CHEMISTRY, FAC. SCIENCE, NARA WOMEN'S UNIV.
InstType: EI
InstName: HITACHI RMU-6M
IoniMethod: _ENERGY 70 eV
IonPolarity: pos
Date: 2010-10-09 19:48:36+02:00
Num Peaks: 66
15 10 26 8 27 234 28 68 29 155 30 55 38 11 39 278 40 92 41 710 
42 218 43 154 44 33 50 14 51 51 52 33 53 156 54 85 55 630 56 425 
57 87 58 18 63 13 64 6 65 51 66 35 67 286 68 484 69 669 70 231 
71 50 72 6 77 98 78 42 79 103 80 111 81 306 82 727 83 798 84 470 
85 55 91 77 92 95 93 306 94 74 95 230 96 999 97 334 98 72 99 6 
103 12 105 20 106 6 107 17 108 10 109 53 110 80 111 39 121 38 122 6 
123 14 124 281 125 30 136 39 139 160 140 18 
