Name: MassBank: JP006734
MW: 245
Formula: C15H19NO2
Synonym: MassBank: JP006734
Synonym: N-(3,3-DIDEUTERO-4-PHENYLBUTYRYL)PIPERIDIN-2-ONE
Structure: 4E2D28332C332D44494445555445524F2D342D5048454E594C4255545952594C2950495045524944494E2D322D4F4E452E6D6F6C0A20204368656D447261773038313231303031313632440A2032302032312020302020302020302020302020302020302020302020303939392056323030300A2020202D312E383031302020202D302E3030303020202020302E30303030204E202020302020302020302020302020302020302020302020302020302020302020302020300A2020202D322E353135352020202D302E3431323520202020302E303030302043202020302020302020302020302020302020302020302020302020302020302020302020300A2020202D332E323239392020202D302E3030303020202020302E303030302043202020302020302020302020302020302020302020302020302020302020302020302020300A2020202D332E3232393920202020302E3832353020202020302E303030302043202020302020302020302020302020302020302020302020302020302020302020302020300A2020202D322E3531353520202020312E3233373520202020302E303030302043202020302020302020302020302020302020302020302020302020302020302020302020300A2020202D312E3830313020202020302E3832353020202020302E303030302043202020302020302020302020302020302020302020302020302020302020302020302020300A2020202D322E353135352020202D312E3233373520202020302E30303030204F202020302020302020302020302020302020302020302020302020302020302020302020300A2020202D312E303836352020202D302E3431323520202020302E303030302043202020302020302020302020302020302020302020302020302020302020302020302020300A2020202D312E303836352020202D312E3233373520202020302E30303030204F202020302020302020302020302020302020302020302020302020302020302020302020300A2020202D302E333732302020202D302E3030303020202020302E303030302043202020302020302020302020302020302020302020302020302020302020302020302020300A20202020302E333432342020202D302E3431323520202020302E303030302043202020302020302020302020302020302020302020302020302020302020302020302020300A20202020302E3735343920202020302E3330323020202020302E303030302043202020302020302020302020302020302020302020302020302020302020302020302020300A20202020312E3537393920202020302E3330323020202020302E303030302043202020302020302020302020302020302020302020302020302020302020302020302020300A20202020312E3939323420202020312E3031363420202020302E303030302043202020302020302020302020302020302020302020302020302020302020302020302020300A20202020322E3831373420202020312E3031363420202020302E303030302043202020302020302020302020302020302020302020302020302020302020302020302020300A20202020332E3232393920202020302E3330323020202020302E303030302043202020302020302020302020302020302020302020302020302020302020302020302020300A20202020322E383137342020202D302E3431323520202020302E303030302043202020302020302020302020302020302020302020302020302020302020302020302020300A20202020312E393932342020202D302E3431323520202020302E303030302043202020302020302020302020302020302020302020302020302020302020302020302020300A20202020312E303536392020202D302E3832353020202020302E303030302048202020312020302020302020302020302020302020302020302020302020302020302020300A2020202D302E303730312020202D312E3132373020202020302E303030302048202020312020302020302020302020302020302020302020302020302020302020302020300A2020312020322020312020302020202020200A2020322020332020312020302020202020200A2020332020342020312020302020202020200A2020342020352020312020302020202020200A2020352020362020312020302020202020200A2020312020362020312020302020202020200A2020322020372020322020302020202020200A2020382020392020322020302020202020200A2020382031302020312020302020202020200A2031302031312020312020302020202020200A2031312031322020312020302020202020200A2031332031342020312020302020202020200A2031342031352020322020302020202020200A2031352031362020312020302020202020200A2031362031372020322020302020202020200A2031372031382020312020302020202020200A2031332031382020322020302020202020200A2031322031332020312020302020202020200A2031312031392020312020302020202020200A2031312032302020312020302020202020200A2020312020382020312020302020202020200A4D202049534F202032202031392020203220203230202020320A4D2020454E44
Contributor: MASS SPECTROSCOPY SOC. OF JAPAN (MSSJ)
InstType: EI
InstName: HITACHI RMU-6G
IoniMethod: _ENERGY 20 eV
IonPolarity: pos
Date: 2010-10-09 19:48:36+02:00
Num Peaks: 69
39 50 40 45 41 450 42 50 43 70 44 30 45 10 47 65 55 60 56 30 
57 185 58 20 59 10 60 10 63 10 69 15 70 50 71 55 72 10 75 70 
76 460 77 50 78 170 79 10 82 15 83 10 84 10 85 35 86 10 91 160 
92 50 93 20 97 10 98 105 99 680 100 370 101 50 102 5 103 5 104 5 
105 75 106 170 107 65 109 10 110 20 111 10 112 35 113 670 114 80 118 20 
119 20 120 10 130 10 131 10 139 30 141 999 142 90 143 10 146 15 148 20 
149 45 156 70 157 10 166 20 177 10 179 7 247 80 248 20 249 2 
