Name: ISOPROPENYLBENZENE
MW: 118
Formula: C9H10
Synonym: MassBank: JP001690
Synonym: ISOPROPENYLBENZENE
Synonym: ALPHA-METHYLSTYRENE
Structure: 310A32330A49534F50524F50454E594C42454E5A454E452E6D6F6C0A20204368656D447261773131323130393138343232440A2020392020392020302020302020302020302020302020302020302020303939392056323030300A2020202D302E3230363320202020302E3030303020202020302E303030302043202020302020302020302020302020302020302020302020302020302020302020302020300A20202020302E3230363320202020302E3731343520202020302E303030302043202020302020302020302020302020302020302020302020302020302020302020302020300A20202020312E3033313220202020302E3731343520202020302E303030302043202020302020302020302020302020302020302020302020302020302020302020302020300A20202020312E343433382020202D302E3030303020202020302E303030302043202020302020302020302020302020302020302020302020302020302020302020302020300A20202020312E303331332020202D302E3731343520202020302E303030302043202020302020302020302020302020302020302020302020302020302020302020302020300A20202020302E323036332020202D302E3731343520202020302E303030302043202020302020302020302020302020302020302020302020302020302020302020302020300A2020202D312E3033313220202020302E3030303020202020302E303030302043202020302020302020302020302020302020302020302020302020302020302020302020300A2020202D312E343433382020202D302E3731343520202020302E303030302043202020302020302020302020302020302020302020302020302020302020302020302020300A2020202D312E3434333820202020302E3731343520202020302E303030302043202020302020302020302020302020302020302020302020302020302020302020302020300A2020312020322020312020302020202020200A2020322020332020322020302020202020200A2020332020342020312020302020202020200A2020342020352020322020302020202020200A2020352020362020312020302020202020200A2020312020362020322020302020202020200A2020372020382020322020302020202020200A2020372020392020312020302020202020200A2020312020372020312020302020202020200A4D2020454E44
Contributor: TAJIMA S, GUNMA COLLEGE OF TECHNOLOGY
InstType: EI
InstName: HITACHI RMU-7M
IoniMethod: _ENERGY 70 eV
IonPolarity: pos
Date: 2010-10-09 19:48:36+02:00
Num Peaks: 34
27 36 28 30 38 18 39 130 40 17 41 21 50 77 51 197 52 44 53 16 
57 25 57.5 60 58 97 62 25 63 72 65 62 74 32 75 29 76 35 77 261 
78 372 79 30 89 39 90 17 91 199 92 20 102 52 103 559 104 47 115 266 
116 60 117 795 118 999 119 97 
