Name: NEROLIDOL
MW: 222
Formula: C15H26O
Synonym: MassBank: JP007724
Synonym: NEROLIDOL
Synonym: (S-(Z))-3,7,11-TRIMETHYL-1,6,10-DODECATRIEN-3-OL
Structure: 28532D285A29292D332C372C31312D5452494D455448594C2D312C362C31302D444F44454341545249454E2D332D4F4C2E6D6F6C0A20204368656D447261773130323230393231303632440A2031372031362020302020302020302020302020302020302020302020303939392056323030300A2020202D322E3036323620202020302E3731343220202020302E303030302043202020302020302020302020302020302020302020302020302020302020302020302020300A2020202D312E363530302020202D302E3030303120202020302E303030302043202020302020302020302020302020302020302020302020302020302020302020302020300A2020202D322E3838373620202020302E3731343220202020302E303030302043202020302020302020302020302020302020302020302020302020302020302020302020300A2020202D302E383235302020202D302E3030303120202020302E303030302043202020302020302020302020302020302020302020302020302020302020302020302020300A2020202D302E343132332020202D302E3731343420202020302E303030302043202020302020302020302020302020302020302020302020302020302020302020302020300A20202020302E343132362020202D302E3731343420202020302E303030302043202020302020302020302020302020302020302020302020302020302020302020302020300A2020202D302E383234382020202D312E3432393120202020302E303030302043202020302020302020302020302020302020302020302020302020302020302020302020300A20202020302E3832353220202020302E3030303020202020302E303030302043202020302020302020302020302020302020302020302020302020302020302020302020300A20202020302E383235322020202D312E3432393020202020302E303030302048202020302020302020302020302020302020302020302020302020302020302020302020300A20202020312E3635303220202020302E3030303120202020302E303030302043202020302020302020302020302020302020302020302020302020302020302020302020300A20202020322E3036323720202020302E3731343520202020302E303030302043202020302020302020302020302020302020302020302020302020302020302020302020300A20202020322E3838373720202020302E3731343620202020302E303030302043202020302020302020302020302020302020302020302020302020302020302020302020300A20202020332E3330303320202020312E3432393020202020302E303030302043202020302020302020302020302020302020302020302020302020302020302020302020300A20202020312E3635303120202020312E3432393120202020302E30303030204F202020302020302020302020302020302020302020302020302020302020302020302020300A20202020322E3437353220202020302E3030303020202020302E303030302043202020302020302020302020302020302020302020302020302020302020302020302020300A2020202D332E3330303320202020312E3432383620202020302E303030302043202020302020302020302020302020302020302020302020302020302020302020302020300A2020202D332E333030312020202D302E3030303420202020302E303030302043202020302020302020302020302020302020302020302020302020302020302020302020300A2020312020322020312020302020202020200A2020312020332020322020302020202020200A2020322020342020312020302020202020200A2020342020352020312020302020202020200A2020352020362020322020302020202020200A2020352020372020312020302020202020200A2020362020382020312020302020202020200A2020362020392020312020302020202020200A2020382031302020312020302020202020200A2031302031312020312020302020202020200A2031312031322020312020302020202020200A2031322031332020322020302020202020200A2031312031342020312020312020202020200A2031312031352020312020312020202020200A2020332031362020312020302020202020200A2020332031372020312020302020202020200A4D2020454E44
Contributor: KYOTO INSTITUTE OF TECHNOLOGY
InstType: EI
InstName: SHIMADZU QP-1000
IoniMethod: _ENERGY 70 eV
IonPolarity: pos
Date: 2010-10-09 19:48:36+02:00
Num Peaks: 55
40 48 41 999 42 69 43 71 44 30 45 23 51 17 53 13 54 20 55 347 
56 25 57 6 58 14 65 27 66 11 67 21 68 84 69 814 70 71 71 32 
72 22 77 54 79 150 80 9 81 215 82 66 83 44 91 8 92 25 93 387 
94 53 95 8 96 15 97 27 105 44 106 2 107 191 108 29 109 76 111 2 
119 47 120 17 121 75 122 3 123 74 133 23 134 19 135 4 136 101 137 21 
147 10 148 2 161 69 162 15 189 14 
