Name: PYRIDINE
MW: 79
Formula: C5H5N
Synonym: MassBank: JP000477
Synonym: PYRIDINE
Structure: 310A31370A5059524944494E452E6D6F6C0A20204368656D447261773038313231303036323632440A2020362020362020302020302020302020302020302020302020302020303939392056323030300A20202020302E373134352020202D302E3431323520202020302E303030302043202020302020302020302020302020302020302020302020302020302020302020302020300A2020202D302E303030302020202D302E3832353020202020302E303030302043202020302020302020302020302020302020302020302020302020302020302020302020300A2020202D302E373134352020202D302E3431323520202020302E303030302043202020302020302020302020302020302020302020302020302020302020302020302020300A2020202D302E3731343520202020302E3431323520202020302E303030302043202020302020302020302020302020302020302020302020302020302020302020302020300A20202020302E3030303020202020302E3832353020202020302E303030302043202020302020302020302020302020302020302020302020302020302020302020302020300A20202020302E3731343520202020302E3431323520202020302E30303030204E202020302020302020302020302020302020302020302020302020302020302020302020300A2020312020322020312020302020202020200A2020322020332020322020302020202020200A2020332020342020312020302020202020200A2020342020352020322020302020202020200A2020352020362020312020302020202020200A2020312020362020322020302020202020200A4D2020454E44
Contributor: SASAKI S, TOYOHASHI UNIV. OF TECH.
InstType: EI
InstName: MX-1303
IoniMethod: _ENERGY 50 eV
IonPolarity: pos
Date: 2010-10-09 19:48:36+02:00
Num Peaks: 33
29 310 30 123 31 59 34 2 36 29 37 42 38 62 39 15 40 469 41 79 
42 65 43 15 45 55 46 21 48 24 49 6 50 352 51 391 52 755 53 11 
55 52 56 26 57 23 60 2 64 33 67 24 69 23 75 3 76 24 77 23 
78 127 79 999 80 65 
