Name: MassBank: JP005111
MW: 184
Formula: C12H12N2
Synonym: MassBank: JP005111
Synonym: 5,5'-DIMETHYL-2,2'-BIPYRIDINE
Structure: 352C35272D44494D455448594C2D322C32272D42495059524944494E452E6D6F6C0A20204368656D447261773034323331303032313332440A2031342031352020302020302020302020302020302020302020302020303939392056323030300A2020202D302E343132352020202D302E3030303020202020302E303030302043202020302020302020302020302020302020302020302020302020302020302020302020300A2020202D302E3832353020202020302E3731343520202020302E303030302043202020302020302020302020302020302020302020302020302020302020302020302020300A2020202D312E3635303020202020302E3731343520202020302E303030302043202020302020302020302020302020302020302020302020302020302020302020302020300A2020202D322E303632352020202D302E3030303020202020302E303030302043202020302020302020302020302020302020302020302020302020302020302020302020300A2020202D312E363530302020202D302E3731343520202020302E303030302043202020302020302020302020302020302020302020302020302020302020302020302020300A2020202D302E383235302020202D302E3731343520202020302E30303030204E202020302020302020302020302020302020302020302020302020302020302020302020300A20202020302E343132352020202D302E3030303020202020302E303030302043202020302020302020302020302020302020302020302020302020302020302020302020300A20202020302E383235302020202D302E3731343520202020302E303030302043202020302020302020302020302020302020302020302020302020302020302020302020300A20202020312E363530302020202D302E3731343520202020302E303030302043202020302020302020302020302020302020302020302020302020302020302020302020300A20202020322E3036323520202020302E3030303020202020302E303030302043202020302020302020302020302020302020302020302020302020302020302020302020300A20202020312E3635303020202020302E3731343520202020302E303030302043202020302020302020302020302020302020302020302020302020302020302020302020300A20202020302E3832353020202020302E3731343520202020302E30303030204E202020302020302020302020302020302020302020302020302020302020302020302020300A20202020322E3838373520202020302E3030303020202020302E303030302043202020302020302020302020302020302020302020302020302020302020302020302020300A2020202D322E383837352020202D302E3030303020202020302E303030302043202020302020302020302020302020302020302020302020302020302020302020302020300A2020312020322020312020302020202020200A2020322020332020322020302020202020200A2020332020342020312020302020202020200A2020342020352020322020302020202020200A2020352020362020312020302020202020200A2020312020362020322020302020202020200A2020372020382020312020302020202020200A2020382020392020322020302020202020200A2020392031302020312020302020202020200A2031302031312020322020302020202020200A2031312031322020312020302020202020200A2020372031322020322020302020202020200A2020312020372020312020302020202020200A2031302031332020312020302020202020200A2020342031342020312020302020202020200A4D2020454E44
Contributor: SASAKI S, TOYOHASHI UNIV. OF TECH.
InstType: EI
InstName: MX-1303
IoniMethod: _ENERGY 50 eV
IonPolarity: pos
Date: 2010-10-09 19:48:36+02:00
Num Peaks: 97
27 14 29 24 30 17 40 2 41 111 42 26 43 29 45 2 50 24 51 24 
52 50 53 3 55 17 56 14 57 30 58 1 59 16 60 10 61 10 62 2 
63 52 64 35 65 99 68 4 69 19 70 14 71 10 72 1 73 12 74 16 
75 19 76 2 77 50 77.5 10 78 31 79 2 80 17 82 12 83 10 84 1 
84.5 10 85 14 85.5 10 86 1 87 12 88 14 89 29 90 2 91 28 92 78 
93 26 98 1 99 10 100 10 101 16 102 2 105 23 106 16 107 10 108 1 
112 10 113 16 114 26 115 3 116 23 117 26 118 17 127 1 128 24 129 42 
130 29 131 6 132 33 134 12 140 17 141 6 142 144 143 26 144 10 145 1 
154 10 155 42 156 52 157 18 158 107 159 29 166 10 167 2 168 31 169 88 
171 17 181 2 182 43 183 505 184 999 185 14 186 16 
