Name: MassBank: JP000424
MW: 200
Formula: C10H24N4
Synonym: MassBank: JP000424
Synonym: 1,5,5-TRIETHYL-3-ISOPROPYL-3,4-DIHYDROFORMAZAN
Structure: 312C352C352D545249455448594C2D332D49534F50524F50594C2D332C342D4449485944524F464F524D415A414E2E6D6F6C0A20204368656D447261773131313630393132303932440A2031342031332020302020302020302020302020302020302020302020303939392056323030300A20202020312E303731372020202D312E3233373520202020302E30303030204E202020302020302020302020302020302020302020302020302020302020302020302020300A20202020302E333537322020202D302E3832353020202020302E30303030204E202020302020302020302020302020302020302020302020302020302020302020302020300A20202020302E3335373220202020302E3030303020202020302E303030302043202020302020302020302020302020302020302020302020302020302020302020302020300A2020202D302E3335373220202020302E3431323520202020302E30303030204E202020302020302020302020302020302020302020302020302020302020302020302020300A2020202D312E3037313720202020302E3030303020202020302E30303030204E202020302020302020302020302020302020302020302020302020302020302020302020300A20202020312E3037313720202020302E3431323520202020302E303030302043202020302020302020302020302020302020302020302020302020302020302020302020300A20202020312E3738363220202020302E3030303020202020302E303030302043202020302020302020302020302020302020302020302020302020302020302020302020300A20202020312E3037313720202020312E3233373520202020302E303030302043202020302020302020302020302020302020302020302020302020302020302020302020300A2020202D312E303731372020202D302E3832353020202020302E303030302043202020302020302020302020302020302020302020302020302020302020302020302020300A2020202D302E333537322020202D312E3233373520202020302E303030302043202020302020302020302020302020302020302020302020302020302020302020302020300A2020202D312E3738363220202020302E3431323520202020302E303030302043202020302020302020302020302020302020302020302020302020302020302020302020300A2020202D322E3530303620202020302E3030303020202020302E303030302043202020302020302020302020302020302020302020302020302020302020302020302020300A20202020312E373836322020202D302E3832353020202020302E303030302043202020302020302020302020302020302020302020302020302020302020302020302020300A20202020322E353030362020202D312E3233373520202020302E303030302043202020302020302020302020302020302020302020302020302020302020302020302020300A2020312020322020322020302020202020200A2020322020332020312020302020202020200A2020332020342020312020302020202020200A2020342020352020312020302020202020200A2020362020372020312020302020202020200A2020362020382020312020302020202020200A2020332020362020312020302020202020200A2020392031302020312020302020202020200A2020352020392020312020302020202020200A2031312031322020312020302020202020200A2020352031312020312020302020202020200A2031332031342020312020302020202020200A2020312031332020312020302020202020200A4D2020454E44
Contributor: SASAKI S, TOYOHASHI UNIV. OF TECH.
InstType: EI
InstName: SHIMADZU LKB-2091
IoniMethod: _ENERGY 70 eV
IonPolarity: pos
Date: 2010-10-09 19:48:36+02:00
Num Peaks: 35
28 400 29 611 30 305 39 7 41 188 42 305 43 259 44 87 45 40 54 21 
55 188 56 19 57 151 58 305 59 235 68 1 69 13 70 127 71 80 72 8 
73 87 74 92 86 17 87 52 88 40 99 57 100 28 101 3 113 40 115 31 
127 179 128 3 142 59 143 999 144 111 
