Name: MassBank: JP007281
MW: 250
Formula: C15H22O3
Synonym: MassBank: JP007281
Synonym: (2S,3S)-4-BENZYLOXY-3-METHYLBUTAN-1,2-DIOLISOPROPYLIDENE ACETAL
Structure: 2832532C3353292D342D42454E5A594C4F58592D332D4D455448594C425554414E2D312C322D44494F4C2049534F50524F50594C4944454E452041434554414C2E6D6F6C0A20204368656D447261773130323030393232333032440A2032302032312020302020302020302020302020302020302020302020303939392056323030300A2020202D312E383135302020202D302E3339313420202020302E303030302043202020302020302020302020302020302020302020302020302020302020302020302020300A2020202D312E3130303520202020302E3032313120202020302E303030302043202020302020302020302020302020302020302020302020302020302020302020302020300A2020202D302E333836312020202D302E3339313420202020302E30303030204F202020302020302020302020302020302020302020302020302020302020302020302020300A20202020302E3332383320202020302E3032313120202020302E303030302043202020302020302020302020302020302020302020302020302020302020302020302020300A20202020312E303432382020202D302E3339313420202020302E303030302043202020302020302020302020302020302020302020302020302020302020302020302020300A20202020312E373537332020202D302E3830333920202020302E303030302043202020302020302020302020302020302020302020302020302020302020302020302020300A2020202D322E3532393420202020302E3032313120202020302E303030302043202020302020302020302020302020302020302020302020302020302020302020302020300A2020202D332E323433392020202D302E3339313420202020302E303030302043202020302020302020302020302020302020302020302020302020302020302020302020300A2020202D332E323433392020202D312E3231363320202020302E303030302043202020302020302020302020302020302020302020302020302020302020302020302020300A2020202D322E353239342020202D312E3632383820202020302E303030302043202020302020302020302020302020302020302020302020302020302020302020302020300A2020202D312E383135302020202D312E3231363320202020302E303030302043202020302020302020302020302020302020302020302020302020302020302020302020300A20202020302E363330332020202D312E3130353820202020302E303030302048202020302020302020302020302020302020302020302020302020302020302020302020300A20202020312E3435353320202020302E3332333120202020302E303030302043202020302020302020302020302020302020302020302020302020302020302020302020300A20202020322E3237353820202020302E3430393420202020302E30303030204F202020302020302020302020302020302020302020302020302020302020302020302020300A20202020322E3434373320202020312E3231363320202020302E303030302043202020302020302020302020302020302020302020302020302020302020302020302020300A20202020312E3733323820202020312E3632383820202020302E30303030204F202020302020302020302020302020302020302020302020302020302020302020302020300A20202020312E3131393720202020312E3037363820202020302E303030302043202020302020302020302020302020302020302020302020302020302020302020302020300A20202020302E3635383420202020302E3533363620202020302E303030302048202020302020302020302020302020302020302020302020302020302020302020302020300A20202020332E3139393920202020312E3535323920202020302E303030302043202020302020302020302020302020302020302020302020302020302020302020302020300A20202020332E3234333920202020312E3030323920202020302E303030302043202020302020302020302020302020302020302020302020302020302020302020302020300A2020312020322020312020302020202020200A2020322020332020312020302020202020200A2020332020342020312020302020202020200A2020342020352020312020302020202020200A2020352020362020312020302020202020200A2020312020372020322020302020202020200A2020372020382020312020302020202020200A2020382020392020322020302020202020200A2020392031302020312020302020202020200A2031302031312020322020302020202020200A2031312020312020312020302020202020200A2020352031322020312020312020202020200A2020352031332020312020302020202020200A2031332031342020312020302020202020200A2031342031352020312020302020202020200A2031352031362020312020302020202020200A2031362031372020312020302020202020200A2031372031332020312020302020202020200A2031332031382020312020362020202020200A2031352031392020312020362020202020200A2031352032302020312020312020202020200A4D202053545920203120202031205355500A4D2020534C4220203120202031202020310A4D202053414C20202031202031202031390A4D202053424C20202031202031202032300A4D2020534D5420202031204D650A4D2020534256202020312032302020202D352E3839323520202020372E353336360A4D202053545920203120202032205355500A4D2020534C4220203120202032202020320A4D202053414C20202032202031202032300A4D202053424C20202032202031202032310A4D2020534D5420202032204D650A4D2020534256202020322032312020202D352E3834383520202020362E393836360A4D2020454E44
Contributor: ITO S, DEPT. OF CHEM., TOHOKU UNIV.
InstType: EI
InstName: HITACHI M-52
IoniMethod: _ENERGY 14 eV
IonPolarity: pos
Date: 2010-10-09 19:48:36+02:00
Num Peaks: 48
42 21 43 23 55 25 58 8 59 51 69 63 70 28 71 4 72 118 83 28 
84 51 85 4 86 127 87 55 91 999 92 14 101 171 103 28 104 70 105 10 
106 66 107 140 108 91 120 4 129 59 133 21 134 47 143 9 144 19 145 133 
147 21 148 4 149 23 150 76 159 154 160 2 161 30 173 23 174 561 175 9 
177 21 191 66 192 341 193 5 235 301 236 49 249 4 251 2 
