Name: MassBank: JP001633
MW: 121
Formula: C8H11N
Synonym: MassBank: JP001633
Synonym: 3,5-DIMETHYLANILINE
Synonym: 3,5-XYLIDINE
Structure: 310A32330A332C352D44494D455448594C414E494C494E452E6D6F6C0A20204368656D447261773032323231303031323932440A2020392020392020302020302020302020302020302020302020302020303939392056323030300A2020202D312E323337352020202D302E3030303020202020302E30303030204E202020302020302020302020302020302020302020302020302020302020302020302020300A2020202D302E343132352020202D302E3030303020202020302E303030302043202020302020302020302020302020302020302020302020302020302020302020302020300A2020202D302E3030303020202020302E3731343520202020302E303030302043202020302020302020302020302020302020302020302020302020302020302020302020300A20202020302E3832353020202020302E3731343520202020302E303030302043202020302020302020302020302020302020302020302020302020302020302020302020300A20202020312E323337352020202D302E3030303020202020302E303030302043202020302020302020302020302020302020302020302020302020302020302020302020300A20202020302E383235302020202D302E3731343520202020302E303030302043202020302020302020302020302020302020302020302020302020302020302020302020300A2020202D302E303030302020202D302E3731343520202020302E303030302043202020302020302020302020302020302020302020302020302020302020302020302020300A20202020312E323337352020202D312E3432383920202020302E303030302043202020302020302020302020302020302020302020302020302020302020302020302020300A20202020312E3233373520202020312E3432383920202020302E303030302043202020302020302020302020302020302020302020302020302020302020302020302020300A2020312020322020312020302020202020200A2020322020332020312020302020202020200A2020332020342020322020302020202020200A2020342020352020312020302020202020200A2020352020362020322020302020202020200A2020362020372020312020302020202020200A2020322020372020322020302020202020200A2020362020382020312020302020202020200A2020342020392020312020302020202020200A4D2020454E44
Contributor: KOGA M, UNIV. OF OCCUPATIONAL AND ENVIRONMENTAL HEALTH
InstType: EI
InstName: VARIAN MAT-44
IoniMethod: _ENERGY 70 eV
IonPolarity: pos
Date: 2010-10-09 19:48:36+02:00
Num Peaks: 50
30 49 37 23 38 79 39 333 40 52 41 137 42 126 46 31 47 12 49 18 
50 118 51 174 52 155 53 145 54 57 58 82 59 105 60 58 61 15 62 43 
63 31 64 70 65 92 66 48 67 16 74 15 75 18 76 29 77 357 78 120 
79 152 80 76 89 22 90 15 91 197 92 44 93 111 94 41 102 11 103 58 
104 48 105 45 106 899 107 72 117 17 118 43 119 41 120 737 121 999 122 90 
