Name: 4A-METHYLDECAHYDRO-2-NAPHTHOL
MW: 168
Formula: C11H20O
Synonym: MassBank: JP009744
Synonym: 4A-METHYLDECAHYDRO-2-NAPHTHOL
Structure: 34412D4D455448594C44454341485944524F2D322D4E41504854484F4C2E6D6F6C0A20204368656D447261773034323331303030353532440A2031322031332020302020302020302020302020302020302020302020303939392056323030300A20202020302E3631383820202020302E3335373220202020302E303030302043202020302020302020302020302020302020302020302020302020302020302020302020300A20202020312E303331332020202D302E3335373220202020302E303030302043202020302020302020302020302020302020302020302020302020302020302020302020300A20202020302E363138382020202D312E3037313720202020302E303030302043202020302020302020302020302020302020302020302020302020302020302020302020300A2020202D302E323036322020202D312E3037313720202020302E303030302043202020302020302020302020302020302020302020302020302020302020302020302020300A2020202D302E363138382020202D302E3335373220202020302E303030302043202020302020302020302020302020302020302020302020302020302020302020302020300A2020202D312E343433382020202D302E3335373220202020302E303030302043202020302020302020302020302020302020302020302020302020302020302020302020300A2020202D312E3835363320202020302E3335373220202020302E303030302043202020302020302020302020302020302020302020302020302020302020302020302020300A2020202D312E3434333820202020312E3037313720202020302E303030302043202020302020302020302020302020302020302020302020302020302020302020302020300A2020202D302E3631383820202020312E3037313720202020302E303030302043202020302020302020302020302020302020302020302020302020302020302020302020300A2020202D302E3230363220202020302E3335373220202020302E303030302043202020302020302020302020302020302020302020302020302020302020302020302020300A20202020312E383536332020202D302E3335373220202020302E30303030204F202020302020302020302020302020302020302020302020302020302020302020302020300A2020202D312E303331332020202D312E3037313720202020302E303030302043202020302020302020302020302020302020302020302020302020302020302020302020300A2020312020322020312020302020202020200A2020322020332020312020302020202020200A2020332020342020312020302020202020200A2020342020352020312020302020202020200A2020352020362020312020302020202020200A2020362020372020312020302020202020200A2020372020382020312020302020202020200A2020382020392020312020302020202020200A2020392031302020312020302020202020200A2020312031302020312020302020202020200A2020352031302020312020302020202020200A2020322031312020312020302020202020200A2020352031322020312020302020202020200A4D2020454E44
Contributor: YAMAMOTO M, DEP. CHEMISTRY, FAC. SCIENCE, NARA WOMEN'S UNIV.
InstType: EI
InstName: HITACHI M-80
IoniMethod: _ENERGY 20 eV
IonPolarity: pos
Date: 2010-10-09 19:48:36+02:00
Num Peaks: 52
40 244 41 186 42 28 43 129 44 45 53 51 54 48 55 364 56 74 57 129 
59 64 66 45 67 462 68 234 69 350 70 98 71 71 77 34 78 15 79 224 
80 87 81 486 82 240 83 168 84 51 85 26 91 52 92 34 93 496 94 266 
95 490 96 240 97 61 98 33 105 21 107 319 108 432 109 421 110 208 111 215 
112 30 121 212 122 124 123 19 124 35 135 999 136 106 137 19 150 486 151 65 
153 21 166 32 
