Name: O-ETHOXYPHENOL
MW: 138
Formula: C8H10O2
Synonym: MassBank: JP008436
Synonym: O-ETHOXYPHENOL
Synonym: PYROCATECHOL MONOETHYL ETHER
Structure: 5059524F4341544543484F4C204D4F4E4F455448594C2045544845522E6D6F6C0A20204368656D447261773038313231303036323832440A2031302031302020302020302020302020302020302020302020302020303939392056323030300A2020202D302E363138382020202D302E3335373220202020302E30303030204F202020302020302020302020302020302020302020302020302020302020302020302020300A20202020302E323036322020202D302E3335373220202020302E303030302043202020302020302020302020302020302020302020302020302020302020302020302020300A20202020302E3631383820202020302E3335373220202020302E303030302043202020302020302020302020302020302020302020302020302020302020302020302020300A20202020302E3230363220202020312E3037313720202020302E30303030204F202020302020302020302020302020302020302020302020302020302020302020302020300A20202020312E3434333720202020302E3335373220202020302E303030302043202020302020302020302020302020302020302020302020302020302020302020302020300A20202020312E383536332020202D302E3335373220202020302E303030302043202020302020302020302020302020302020302020302020302020302020302020302020300A20202020312E343433372020202D312E3037313720202020302E303030302043202020302020302020302020302020302020302020302020302020302020302020302020300A20202020302E363138372020202D312E3037313720202020302E303030302043202020302020302020302020302020302020302020302020302020302020302020302020300A2020202D312E303331332020202D312E3037313720202020302E303030302043202020302020302020302020302020302020302020302020302020302020302020302020300A2020202D312E383536332020202D312E3037313720202020302E303030302043202020302020302020302020302020302020302020302020302020302020302020302020300A2020312020322020312020302020202020200A2020322020332020312020302020202020200A2020332020342020312020302020202020200A2020332020352020322020302020202020200A2020352020362020312020302020202020200A2020362020372020322020302020202020200A2020372020382020312020302020202020200A2020322020382020322020302020202020200A2020392031302020312020302020202020200A2020312020392020312020302020202020200A4D2020454E44
Contributor: SODA AROMATIC CO., LTD.
InstType: EI
InstName: HITACHI M-80B
IoniMethod: _ENERGY 70 eV
IonPolarity: pos
Date: 2010-10-09 19:48:36+02:00
Num Peaks: 25
26 26 27 147 29 64 38 16 39 59 43 13 45 11 50 28 51 45 52 56 
53 84 54 22 55 23 63 48 64 108 65 40 81 171 82 38 92 50 95 12 
109 84 110 999 111 58 138 410 139 30 
