Name: MassBank: JP001958
MW: 330
Formula: C18H29F3Si
Synonym: MassBank: JP001958
Synonym: 2,4,6-TRI-TERT-BUTYL-1-TRIFLUOROSILYLBENZENE
Synonym: TRIFLUORO-2,4,6-TRI-TERT-BUTYLPHENYLSILANE
Structure: 322C342C362D5452492D544552542D425554594C2D312D545249464C554F524F53494C594C42454E5A454E452E6D6F6C0A20204368656D447261773132323030393133333432440A2032322032322020302020302020302020302020302020302020302020303939392056323030300A2020202D302E3030303020202020302E3730313320202020302E303030302043202020302020302020302020302020302020302020302020302020302020302020302020300A20202020302E3731343520202020302E3238383820202020302E303030302043202020302020302020302020302020302020302020302020302020302020302020302020300A20202020302E373134352020202D302E3533363220202020302E303030302043202020302020302020302020302020302020302020302020302020302020302020302020300A20202020302E303030302020202D302E3934383820202020302E303030302043202020302020302020302020302020302020302020302020302020302020302020302020300A2020202D302E373134352020202D302E3533363220202020302E303030302043202020302020302020302020302020302020302020302020302020302020302020302020300A2020202D302E3731343520202020302E3238383820202020302E303030302043202020302020302020302020302020302020302020302020302020302020302020302020300A2020202D302E3030303020202020312E3737333820202020302E303030302053692020302020302020302020302020302020302020302020302020302020302020302020300A20202020302E3832353020202020312E3737333820202020302E303030302046202020302020302020302020302020302020302020302020302020302020302020302020300A2020202D302E3030303020202020322E3539383820202020302E303030302046202020302020302020302020302020302020302020302020302020302020302020302020300A2020202D302E3832353020202020312E3737333820202020302E303030302046202020302020302020302020302020302020302020302020302020302020302020302020300A2020202D312E3438393720202020302E3537303920202020302E303030302043202020302020302020302020302020302020302020302020302020302020302020302020300A2020202D322E3236353020202020302E3835333120202020302E303030302043202020302020302020302020302020302020302020302020302020302020302020302020300A2020202D312E3230373620202020312E3334363220202020302E303030302043202020302020302020302020302020302020302020302020302020302020302020302020300A2020202D312E373731392020202D302E3230343320202020302E303030302043202020302020302020302020302020302020302020302020302020302020302020302020300A20202020302E303030302020202D312E3737333820202020302E303030302043202020302020302020302020302020302020302020302020302020302020302020302020300A2020202D302E383235302020202D312E3737333820202020302E303030302043202020302020302020302020302020302020302020302020302020302020302020302020300A20202020302E383235302020202D312E3737333820202020302E303030302043202020302020302020302020302020302020302020302020302020302020302020302020300A20202020302E303030302020202D322E3539383820202020302E303030302043202020302020302020302020302020302020302020302020302020302020302020302020300A20202020312E3438393720202020302E3537303920202020302E303030302043202020302020302020302020302020302020302020302020302020302020302020302020300A20202020312E3230373620202020312E3334363220202020302E303030302043202020302020302020302020302020302020302020302020302020302020302020302020300A20202020322E3236353020202020302E3835333120202020302E303030302043202020302020302020302020302020302020302020302020302020302020302020302020300A20202020312E373731392020202D302E3230343320202020302E303030302043202020302020302020302020302020302020302020302020302020302020302020302020300A2020312020322020312020302020202020200A2020322020332020322020302020202020200A2020332020342020312020302020202020200A2020342020352020322020302020202020200A2020352020362020312020302020202020200A2020312020362020322020302020202020200A2020372020382020312020312020202020200A2020372020392020312020302020202020200A2020372031302020312020312020202020200A2020312020372020312020302020202020200A2031312031322020312020302020202020200A2031312031342020312020302020202020200A2031312031332020312020302020202020200A2020362031312020312020302020202020200A2031352031362020312020302020202020200A2031352031382020312020302020202020200A2031352031372020312020302020202020200A2020342031352020312020302020202020200A2031392032302020312020302020202020200A2031392032322020312020302020202020200A2031392032312020312020302020202020200A2020322031392020312020302020202020200A4D2020454E44
Contributor: MASS SPECTROSCOPY SOC. OF JAPAN (MSSJ)
InstType: EI
InstName: JEOL JMS-D-3000
IoniMethod: _ENERGY 70 eV
IonPolarity: pos
Date: 2010-10-09 19:48:36+02:00
Num Peaks: 29
42 10 43 31 44 12 53 11 55 38 57 999 58 45 59 10 77 14 91 22 
105 11 115 16 128 15 129 13 141 10 142 10 143 28 199 14 231 25 243 11 
259 746 260 147 261 40 274 48 275 11 315 55 316 13 330 57 331 15 
