Name: PROPYLHYDRAZONE PROPIONALDEHYDE
MW: 114
Formula: C6H14N2
Synonym: MassBank: JP000525
Synonym: PROPYLHYDRAZONE PROPIONALDEHYDE
Synonym: PROPIONALDEHYDE PROPYLHYDRAZONE
Structure: 310A32320A50524F50594C48594452415A4F4E452050524F50494F4E414C4445485944452E6D6F6C0A20204368656D447261773038313231303036323132440A2020392020382020302020302020302020302020302020302020302020303939392056323030300A2020202D322E313433342020202D302E3230363320202020302E303030302043202020302020302020302020302020302020302020302020302020302020302020302020300A2020202D312E3432383920202020302E3230363320202020302E303030302043202020302020302020302020302020302020302020302020302020302020302020302020300A2020202D312E3432383920202020312E3033313320202020302E303030302043202020302020302020302020302020302020302020302020302020302020302020302020300A2020202D322E313433342020202D312E3033313320202020302E30303030204F202020302020302020302020302020302020302020302020302020302020302020302020300A2020202D302E373134352020202D302E3230363320202020302E30303030204E202020302020302020302020302020302020302020302020302020302020302020302020300A20202020302E3030303020202020302E3230363320202020302E30303030204E202020302020302020302020302020302020302020302020302020302020302020302020300A20202020302E373134352020202D302E3230363220202020302E303030302043202020302020302020302020302020302020302020302020302020302020302020302020300A20202020312E3432383920202020302E3230363320202020302E303030302043202020302020302020302020302020302020302020302020302020302020302020302020300A20202020322E313433342020202D302E3230363220202020302E303030302043202020302020302020302020302020302020302020302020302020302020302020302020300A2020312020322020312020302020202020200A2020322020332020312020302020202020200A2020312020342020322020302020202020200A2020352020362020312020302020202020200A2020372020382020312020302020202020200A2020382020392020312020302020202020200A2020362020372020312020302020202020200A2020322020352020322020302020202020200A4D2020454E44
Contributor: SASAKI S, TOYOHASHI UNIV. OF TECH.
InstType: EI
InstName: SHIMADZU LKB-2091
IoniMethod: _ENERGY 70 eV
IonPolarity: pos
Date: 2010-10-09 19:48:36+02:00
Num Peaks: 31
27 160 28 340 29 180 30 71 31 16 38 5 39 47 40 1 41 137 42 35 
43 103 44 2 45 3 52 3 54 20 55 1 56 167 57 28 58 28 69 1 
70 3 71 14 72 22 73 0 83 3 85 999 86 47 99 1 113 5 114 276 
115 24 
