Name: ETHYLHEXADECYLDIMETHYLAMMONIUM BROMIDE
MW: 377
Formula: C20H44BrN
Synonym: MassBank: JP004203
Synonym: ETHYLHEXADECYLDIMETHYLAMMONIUM BROMIDE
Structure: 455448594C48455841444543594C44494D455448594C414D4D4F4E49554D2042524F4D4944452E6D6F6C0A20204368656D447261773038313131303139313432440A2032322032302020302020302020302020302020302020302020302020303939392056323030300A20202020352E3039373020202020302E3034313220202020302E30303030204E202020302020332020302020302020302020302020302020302020302020302020302020300A20202020352E383131352020202D302E3337313320202020302E303030302043202020302020302020302020302020302020302020302020302020302020302020302020300A20202020342E363834352020202D302E3637333320202020302E303030302043202020302020302020302020302020302020302020302020302020302020302020302020300A20202020342E3338323520202020302E3435333720202020302E303030302043202020302020302020302020302020302020302020302020302020302020302020302020300A20202020332E3636383120202020302E3034313220202020302E303030302043202020302020302020302020302020302020302020302020302020302020302020302020300A20202020322E3935333620202020302E3435333720202020302E303030302043202020302020302020302020302020302020302020302020302020302020302020302020300A20202020322E3233393120202020302E3034313220202020302E303030302043202020302020302020302020302020302020302020302020302020302020302020302020300A20202020312E3532343720202020302E3435333720202020302E303030302043202020302020302020302020302020302020302020302020302020302020302020302020300A20202020302E3831303220202020302E3034313220202020302E303030302043202020302020302020302020302020302020302020302020302020302020302020302020300A20202020302E3039353720202020302E3435333720202020302E303030302043202020302020302020302020302020302020302020302020302020302020302020302020300A2020202D302E3631383820202020302E3034313220202020302E303030302043202020302020302020302020302020302020302020302020302020302020302020302020300A2020202D312E3333333220202020302E3435333720202020302E303030302043202020302020302020302020302020302020302020302020302020302020302020302020300A2020202D322E3034373720202020302E3034313220202020302E303030302043202020302020302020302020302020302020302020302020302020302020302020302020300A2020202D322E3736323220202020302E3435333720202020302E303030302043202020302020302020302020302020302020302020302020302020302020302020302020300A2020202D332E3437363620202020302E3034313220202020302E303030302043202020302020302020302020302020302020302020302020302020302020302020302020300A2020202D342E3139313120202020302E3435333720202020302E303030302043202020302020302020302020302020302020302020302020302020302020302020302020300A2020202D342E3930353620202020302E3034313220202020302E303030302043202020302020302020302020302020302020302020302020302020302020302020302020300A2020202D352E3632303020202020302E3435333720202020302E303030302043202020302020302020302020302020302020302020302020302020302020302020302020300A2020202D362E3333343520202020302E3034313220202020302E303030302043202020302020302020302020302020302020302020302020302020302020302020302020300A20202020352E3530393520202020302E3735353720202020302E303030302043202020302020302020302020302020302020302020302020302020302020302020302020300A20202020362E3333343520202020302E3735353720202020302E303030302043202020302020302020302020302020302020302020302020302020302020302020302020300A20202020352E333130352020202D302E3735353720202020302E303030302042722020302020352020302020302020302020302020302020302020302020302020302020300A2020312020322020312020302020202020200A2020312020332020312020302020202020200A2020342020352020312020302020202020200A2020352020362020312020302020202020200A2020362020372020312020302020202020200A2020372020382020312020302020202020200A2020382020392020312020302020202020200A2020392031302020312020302020202020200A2031302031312020312020302020202020200A2031312031322020312020302020202020200A2031322031332020312020302020202020200A2031332031342020312020302020202020200A2031342031352020312020302020202020200A2031352031362020312020302020202020200A2031362031372020312020302020202020200A2031372031382020312020302020202020200A2031382031392020312020302020202020200A2020312020342020312020302020202020200A2032302032312020312020302020202020200A2020312032302020312020302020202020200A4D202043484720203220202031202020312020323220202D310A4D2020454E44
Contributor: ISA K, DEPT. OF CHEM., FAC. OF EDUC., FUKUI UNIV.
InstType: EI
InstName: JEOL JMS-01-SG
IoniMethod: _ENERGY 15 eV
IonPolarity: pos
Date: 2010-10-09 19:48:36+02:00
Num Peaks: 30
43 19 44 28 58 367 73 999 79 25 80 25 83 65 84 65 96 76 98 83 
108 14 114 15 128 17 135 34 140 8 142 15 154 8 168 6 182 4 196 4 
212 5 226 5 240 5 254 12 268 65 282 36 283 36 298 43 304 1 306 1 
