Name: 2-METHYLMERCAPTOPYRIDINE
MW: 125
Formula: C6H7NS
Synonym: MassBank: JP003001
Synonym: 2-METHYLMERCAPTOPYRIDINE
Structure: 310A32310A322D4D455448594C4D4552434150544F5059524944494E452E6D6F6C0A20204368656D447261773032313831303134313432440A2020382020382020302020302020302020302020302020302020302020303939392056323030300A2020202D302E3230363320202020302E3030303020202020302E303030302043202020302020302020302020302020302020302020302020302020302020302020302020300A20202020302E323036332020202D302E3731343520202020302E303030302043202020302020302020302020302020302020302020302020302020302020302020302020300A20202020312E303331322020202D302E3731343520202020302E303030302043202020302020302020302020302020302020302020302020302020302020302020302020300A20202020312E3434333820202020302E3030303020202020302E303030302043202020302020302020302020302020302020302020302020302020302020302020302020300A20202020312E3033313320202020302E3731343520202020302E303030302043202020302020302020302020302020302020302020302020302020302020302020302020300A20202020302E3230363320202020302E3731343520202020302E30303030204E202020302020302020302020302020302020302020302020302020302020302020302020300A2020202D312E3033313220202020302E3030303020202020302E303030302053202020302020302020302020302020302020302020302020302020302020302020302020300A2020202D312E343433382020202D302E3731343520202020302E303030302043202020302020302020302020302020302020302020302020302020302020302020302020300A2020312020322020312020302020202020200A2020322020332020322020302020202020200A2020332020342020312020302020202020200A2020342020352020322020302020202020200A2020352020362020312020302020202020200A2020312020362020322020302020202020200A2020372020382020312020302020202020200A2020312020372020312020302020202020200A4D2020454E44
Contributor: SASAKI S, TOYOHASHI UNIV. OF TECH.
InstType: EI
InstName: Unknown
IoniMethod: EI
IonPolarity: pos
Date: 2010-10-09 19:48:36+02:00
Num Peaks: 18
32 110 39 140 45 120 50 10 51 260 52 340 57 50 78 2 79 830 80 170 
82 50 83 1 92 70 110 30 124 630 125 999 126 110 127 50 
