Name: META-NITROPHENYLPENTAMETHYLDISILANE
MW: 253
Formula: C11H19NO2Si2
Synonym: MassBank: JP001974
Synonym: META-NITROPHENYLPENTAMETHYLDISILANE
Structure: 4D4554412D4E4954524F5048454E594C50454E54414D455448594C444953494C414E452E6D6F6C0A20204368656D447261773038313131303232353032440A2031362031362020302020302020302020302020302020302020302020303939392056323030300A2020202D312E373432342020202D302E3138343820202020302E303030302053692020302020302020302020302020302020302020302020302020302020302020302020300A2020202D312E3332393920202020302E3532393620202020302E303030302053692020302020302020302020302020302020302020302020302020302020302020302020300A2020202D312E303237392020202D302E3539373320202020302E303030302043202020302020302020302020302020302020302020302020302020302020302020302020300A2020202D322E313534392020202D302E3839393320202020302E303030302043202020302020302020302020302020302020302020302020302020302020302020302020300A2020202D322E3435363820202020302E3232373720202020302E303030302043202020302020302020302020302020302020302020302020302020302020302020302020300A2020202D302E3931373420202020312E3234343120202020302E303030302043202020302020302020302020302020302020302020302020302020302020302020302020300A2020202D322E3034343320202020302E3934323120202020302E303030302043202020302020302020302020302020302020302020302020302020302020302020302020300A2020202D302E343031302020202D302E3030363620202020302E303030302043202020302020302020302020302020302020302020302020302020302020302020302020300A20202020302E3331333420202020302E3430353920202020302E303030302043202020302020302020302020302020302020302020302020302020302020302020302020300A20202020312E303237392020202D302E3030363620202020302E303030302043202020302020302020302020302020302020302020302020302020302020302020302020300A20202020312E303237392020202D302E3833313620202020302E303030302043202020302020302020302020302020302020302020302020302020302020302020302020300A20202020302E333133342020202D312E3234343120202020302E303030302043202020302020302020302020302020302020302020302020302020302020302020302020300A2020202D302E343031312020202D302E3833313620202020302E303030302043202020302020302020302020302020302020302020302020302020302020302020302020300A20202020312E3734323420202020302E3430353920202020302E30303030204E202020302020332020302020302020302020302020302020302020302020302020302020300A20202020312E3734323420202020312E3233303920202020302E30303030204F202020302020302020302020302020302020302020302020302020302020302020302020300A20202020322E343536382020202D302E3030363620202020302E30303030204F202020302020352020302020302020302020302020302020302020302020302020302020300A2020312020322020312020302020202020200A2020312020332020312020302020202020200A2020312020342020312020302020202020200A2020312020352020312020302020202020200A2020322020362020312020302020202020200A2020322020372020312020302020202020200A2020382020392020312020302020202020200A2020392031302020322020302020202020200A2031302031312020312020302020202020200A2031312031322020322020302020202020200A2031322031332020312020302020202020200A2020382031332020322020302020202020200A2031342031352020322020302020202020200A2031342031362020312020302020202020200A2031302031342020312020302020202020200A2020322020382020312020302020202020200A4D202043484720203220203134202020312020313620202D310A4D2020454E44
Contributor: MASS SPECTROSCOPY SOC. OF JAPAN (MSSJ)
InstType: EI
InstName: JEOL JMS-D-3000
IoniMethod: _ENERGY 70 eV
IonPolarity: pos
Date: 2010-10-09 19:48:36+02:00
Num Peaks: 56
53 49 55 20 58 23 59 59 63 14 67 23 69 18 72 15 73 999 74 98 
75 69 77 13 79 14 83 52 90 27 91 23 93 53 103 26 104 15 105 32 
107 19 117 20 119 339 120 51 121 50 131 76 132 27 133 211 134 381 135 77 
136 21 145 18 147 120 148 27 149 201 150 70 151 18 158 61 159 14 164 218 
165 39 175 19 177 20 179 214 180 142 181 30 191 13 192 19 193 282 194 65 
195 31 207 26 208 45 222 13 238 21 253 14 
