Name: VIRIDIN
MW: 352
Formula: C20H16O6
Synonym: MassBank: JP003724
Synonym: VIRIDIN
Structure: 303031325F5649524944494E2E6D6F6C0A20204368656D447261773038313931303232323132440A2036382033302020302020302020302020302020302020302020302020303939392056323030300A20202020352E333839332020202D322E3137333220202020302E303030302043202020302020302020302020302020302020302020302020302020302020302020302020300A20202031352E3930333920202D31362E3635373420202020302E303030302043202020302020302020302020302020302020302020302020302020302020302020302020300A20202D31302E3737333920202031382E3239393220202020302E303030302043202020302020302020302020302020302020302020302020302020302020302020302020300A20202031362E3333313520202D31342E3838333720202020302E303030302043202020302020302020302020302020302020302020302020302020302020302020302020300A20202031392E3832343020202D31382E3339383220202020302E303030302043202020302020302020302020302020302020302020302020302020302020302020302020300A2020202D342E3436323620202020322E3038333820202020302E303030302043202020302020302020302020302020302020302020302020302020302020302020302020300A2020202D312E3939353920202020342E3930313220202020302E303030302043202020302020302020302020302020302020302020302020302020302020302020302020300A20202020312E3832333920202020342E3839383420202020302E303030302043202020302020302020302020302020302020302020302020302020302020302020302020300A20202D31382E3536363020202031382E3332353320202020302E303030302043202020302020302020302020302020302020302020302020302020302020302020302020300A20202D31302E3832323020202031302E3533333220202020302E303030302043202020302020302020302020302020302020302020302020302020302020302020302020300A20202D31302E3830303020202020342E3932333220202020302E303030302043202020302020302020302020302020302020302020302020302020302020302020302020300A2020202D352E3139303020202031302E3535353220202020302E303030302043202020302020302020302020302020302020302020302020302020302020302020302020300A20202D31302E3832323020202031302E3533333220202020302E303030302043202020302020302020302020302020302020302020302020302020302020302020302020300A20202D31302E3830303020202020342E3932333220202020302E303030302043202020302020302020302020302020302020302020302020302020302020302020302020300A2020202D352E3139303020202031302E3535353220202020302E303030302043202020302020302020302020302020302020302020302020302020302020302020302020300A20202D31302E3832323020202031302E3533333220202020302E303030302043202020302020302020302020302020302020302020302020302020302020302020302020300A2020202D312E3938373620202020342E3838383820202020302E303030302043202020302020302020302020302020302020302020302020302020302020302020302020300A2020202D342E3436343020202031302E3438303920202020302E303030302043202020302020302020302020302020302020302020302020302020302020302020302020300A20202D31372E3534303220202020342E3930313220202020302E303030302043202020302020302020302020302020302020302020302020302020302020302020302020300A20202D31302E373731312020202D352E3238343820202020302E303030302043202020302020302020302020302020302020302020302020302020302020302020302020300A20202D31372E353430322020202D352E3638363320202020302E303030302043202020302020302020302020302020302020302020302020302020302020302020302020300A20202020352E333839332020202D322E3137333220202020302E303030302043202020302020302020302020302020302020302020302020302020302020302020302020300A20202031352E3930333920202D31362E3635373420202020302E303030302043202020302020302020302020302020302020302020302020302020302020302020302020300A20202D31302E3737333920202031382E3239393220202020302E303030302043202020302020302020302020302020302020302020302020302020302020302020302020300A20202031362E3333313520202D31342E3838333720202020302E303030302043202020302020302020302020302020302020302020302020302020302020302020302020300A20202031392E3832343020202D31382E3339383220202020302E303030302043202020302020302020302020302020302020302020302020302020302020302020302020300A2020202D342E3436323620202020322E3038333820202020302E303030302043202020302020302020302020302020302020302020302020302020302020302020302020300A2020202D312E3939353920202020342E3930313220202020302E303030302043202020302020302020302020302020302020302020302020302020302020302020302020300A20202020312E3832333920202020342E3839383420202020302E303030302043202020302020302020302020302020302020302020302020302020302020302020302020300A20202D31382E3536363020202031382E3332353320202020302E303030302043202020302020302020302020302020302020302020302020302020302020302020302020300A20202D31302E3832323020202031302E3533333220202020302E303030302043202020302020302020302020302020302020302020302020302020302020302020302020300A20202D31302E3830303020202020342E3932333220202020302E303030302043202020302020302020302020302020302020302020302020302020302020302020302020300A2020202D352E3139303020202031302E3535353220202020302E303030302043202020302020302020302020302020302020302020302020302020302020302020302020300A20202D31302E3832323020202031302E3533333220202020302E303030302043202020302020302020302020302020302020302020302020302020302020302020302020300A20202D31302E3830303020202020342E3932333220202020302E303030302043202020302020302020302020302020302020302020302020302020302020302020302020300A2020202D352E3139303020202031302E3535353220202020302E303030302043202020302020302020302020302020302020302020302020302020302020302020302020300A20202D31302E3832323020202031302E3533333220202020302E303030302043202020302020302020302020302020302020302020302020302020302020302020302020300A2020202D312E3938373620202020342E3838383820202020302E303030302043202020302020302020302020302020302020302020302020302020302020302020302020300A2020202D342E3436343020202031302E3438303920202020302E303030302043202020302020302020302020302020302020302020302020302020302020302020302020300A20202D31372E3534303220202020342E3930313220202020302E303030302043202020302020302020302020302020302020302020302020302020302020302020302020300A20202D31302E373731312020202D352E3238343820202020302E303030302043202020302020302020302020302020302020302020302020302020302020302020302020300A20202D31372E353430322020202D352E3638363320202020302E303030302043202020302020302020302020302020302020302020302020302020302020302020302020300A20202D31382E3535343520202031352E3832303120202020302E303030302043202020302020302020302020302020302020302020302020302020302020302020302020300A20202D31382E3535343520202031342E3939353120202020302E303030302043202020302020302020302020302020302020302020302020302020302020302020302020300A20202D31372E3834303020202031342E3538323620202020302E303030302043202020302020302020302020302020302020302020302020302020302020302020302020300A20202D31372E3132353520202031342E3939353120202020302E303030302043202020302020302020302020302020302020302020302020302020302020302020302020300A20202D31372E3132353520202031352E3832303120202020302E303030302043202020302020302020302020302020302020302020302020302020302020302020302020300A20202D31372E3834303020202031362E3233323620202020302E303030302043202020302020302020302020302020302020302020302020302020302020302020302020300A20202D31392E3333393120202031362E3037353020202020302E303030302043202020302020302020302020302020302020302020302020302020302020302020302020300A20202D31392E3832343020202031352E3430373620202020302E303030302043202020302020302020302020302020302020302020302020302020302020302020302020300A20202D31392E3333393120202031342E3734303120202020302E303030302043202020302020302020302020302020302020302020302020302020302020302020302020300A20202D31392E3539343020202031332E3935353520202020302E30303030204F202020302020302020302020302020302020302020302020302020302020302020302020300A20202D31362E3431313120202031362E3233323620202020302E303030302043202020302020302020302020302020302020302020302020302020302020302020302020300A20202D31362E3431313120202031372E3035373620202020302E303030302043202020302020302020302020302020302020302020302020302020302020302020302020300A20202D31372E3132353520202031372E3437303120202020302E303030302043202020302020302020302020302020302020302020302020302020302020302020302020300A20202D31372E3834303020202031372E3035373620202020302E303030302043202020302020302020302020302020302020302020302020302020302020302020302020300A20202D31352E3639363620202031352E3832303120202020302E303030302043202020302020302020302020302020302020302020302020302020302020302020302020300A20202D31342E3938323120202031362E3233323620202020302E303030302043202020302020302020302020302020302020302020302020302020302020302020302020300A20202D31342E3938323120202031372E3035373620202020302E303030302043202020302020302020302020302020302020302020302020302020302020302020302020300A20202D31352E3639363620202031372E3437303120202020302E303030302043202020302020302020302020302020302020302020302020302020302020302020302020300A20202D31352E3639363620202031382E3239353120202020302E303030302043202020302020302020302020302020302020302020302020302020302020302020302020300A20202D31362E3732363220202031382E3339383220202020302E30303030204F202020302020302020302020302020302020302020302020302020302020302020302020300A20202D31342E3236373620202031372E3437303120202020302E30303030204F202020302020302020302020302020302020302020302020302020302020302020302020300A20202D31382E3535343520202031372E3437303120202020302E30303030204F202020302020302020302020302020302020302020302020302020302020302020302020300A20202D31342E3236373620202031352E3832303120202020302E30303030204F202020302020302020302020302020302020302020302020302020302020302020302020300A20202D31352E3639363620202031342E3939353120202020302E30303030204F202020302020302020302020302020302020302020302020302020302020302020302020300A20202D31362E3431313120202031352E3430373620202020302E303030302043202020302020302020302020302020302020302020302020302020302020302020302020300A20202D31332E3535333220202031362E3233323620202020302E303030302043202020302020302020302020302020302020302020302020302020302020302020302020300A2034332034342020322020302020202020200A2034342034352020312020302020202020200A2034352034362020322020302020202020200A2034362034372020312020302020202020200A2034372034382020322020302020202020200A2034382034332020312020302020202020200A2034332034392020312020302020202020200A2034392035302020312020302020202020200A2035302035312020312020302020202020200A2035312034342020312020302020202020200A2035312035322020322020302020202020200A2034372035332020312020302020202020200A2035332035342020312020302020202020200A2035342035352020322020302020202020200A2035352035362020312020302020202020200A2035362034382020312020302020202020200A2035332035372020312020302020202020200A2035372035382020312020302020202020200A2035382035392020312020302020202020200A2035392036302020312020302020202020200A2036302035342020312020302020202020200A2036302036312020322020302020202020200A2035352036322020312020302020202020200A2036322036312020312020302020202020200A2035392036332020322020302020202020200A2035362036342020322020302020202020200A2035382036352020312020312020202020200A2035372036362020312020312020202020200A2035332036372020312020312020202020200A2036352036382020312020302020202020200A4D2020454E44
Contributor: SASAKI S, TOYOHASHI UNIV. OF TECH.
InstType: EI
InstName: Unknown
IoniMethod: EI
IonPolarity: pos
Date: 2010-10-09 19:48:36+02:00
Num Peaks: 58
39 14 43 24 44 14 45 5 51 24 55 7 59 14 63 3 74 33 75 29 
76 24 77 1 82 24 87 14 88 20 89 1 115 24 125 24 139 57 150 2 
151 55 152 38 163 48 164 3 165 148 166 29 176 35 177 1 178 14 179 14 
192 14 193 7 194 55 195 14 221 57 222 17 223 38 235 14 236 10 237 0 
249 48 250 524 251 124 252 4 263 24 277 38 278 999 279 26 280 43 305 24 
309 21 319 1 323 14 324 29 337 48 338 0 352 186 353 38 
