Name: BENZOTHIAZOLE
MW: 135
Formula: C7H5NS
Synonym: MassBank: JP000473
Synonym: BENZOTHIAZOLE
Structure: 310A32340A42454E5A4F544849415A4F4C452E6D6F6C0A20204368656D447261773039303331303134353132440A2020392031302020302020302020302020302020302020302020302020303939392056323030300A2020202D302E3836343320202020302E3636373420202020302E303030302053202020302020302020302020302020302020302020302020302020302020302020302020300A2020202D312E333439322020202D302E3030303020202020302E303030302043202020302020302020302020302020302020302020302020302020302020302020302020300A2020202D302E383634332020202D302E3636373420202020302E30303030204E202020302020302020302020302020302020302020302020302020302020302020302020300A2020202D302E303739372020202D302E3431323520202020302E303030302043202020302020302020302020302020302020302020302020302020302020302020302020300A2020202D302E3037393720202020302E3431323520202020302E303030302043202020302020302020302020302020302020302020302020302020302020302020302020300A20202020302E363334382020202D302E3832353020202020302E303030302043202020302020302020302020302020302020302020302020302020302020302020302020300A20202020312E333439322020202D302E3431323520202020302E303030302043202020302020302020302020302020302020302020302020302020302020302020302020300A20202020312E3334393220202020302E3431323520202020302E303030302043202020302020302020302020302020302020302020302020302020302020302020302020300A20202020302E3633343820202020302E3832353020202020302E303030302043202020302020302020302020302020302020302020302020302020302020302020302020300A2020312020322020312020302020202020200A2020322020332020322020302020202020200A2020332020342020312020302020202020200A2020342020352020312020302020202020200A2020312020352020312020302020202020200A2020362020372020312020302020202020200A2020372020382020322020302020202020200A2020382020392020312020302020202020200A2020352020392020322020302020202020200A2020342020362020322020302020202020200A4D2020454E44
Contributor: SASAKI S, TOYOHASHI UNIV. OF TECH.
InstType: EI
InstName: MX-1303
IoniMethod: _ENERGY 50 eV
IonPolarity: pos
Date: 2010-10-09 19:48:36+02:00
Num Peaks: 41
27 18 29 10 37 26 38 4 39 49 40 14 41 12 43 4 45 80 50 43 
51 21 53 1 54 76 57 16 58 83 61 2 62 37 63 103 64 28 67.5 3 
69 202 70 14 71 15 74 3 75 19 76 12 77 15 81 5 82 135 83 10 
84 33 91 10 93 16 107 19 108 358 109 4 110 20 134 17 135 999 136 10 
137 52 
