Name: MassBank: JP004970
MW: 262
Formula: C11H16Cl2OSi
Synonym: MassBank: JP004970
Synonym: 1,1-DICHLORO-2-PHENYL-2-TRIMETHYLSILOXYETHANE
Structure: 312C312D444943484C4F524F2D322D5048454E594C2D322D5452494D455448594C53494C4F5859455448414E452E6D6F6C0A20204368656D447261773130323330393033353332440A2031352031352020302020302020302020302020302020302020302020303939392056323030300A2020202D302E3736393720202020302E3631383820202020302E303030302043202020302020302020302020302020302020302020302020302020302020302020302020300A2020202D302E3035353320202020302E3230363320202020302E303030302043202020302020302020302020302020302020302020302020302020302020302020302020300A20202020302E3635393220202020302E3631383820202020302E30303030204F202020302020302020302020302020302020302020302020302020302020302020302020300A20202020302E3635393220202020312E3434333820202020302E303030302053692020302020302020302020302020302020302020302020302020302020302020302020300A20202020312E3438343220202020312E3434333820202020302E303030302043202020302020302020302020302020302020302020302020302020302020302020302020300A20202020302E3635393220202020322E3236383820202020302E303030302043202020302020302020302020302020302020302020302020302020302020302020302020300A2020202D302E3136353820202020312E3434333820202020302E303030302043202020302020302020302020302020302020302020302020302020302020302020302020300A2020202D302E303535332020202D302E3631383720202020302E303030302043202020302020302020302020302020302020302020302020302020302020302020302020300A20202020302E363539322020202D312E3033313320202020302E303030302043202020302020302020302020302020302020302020302020302020302020302020302020300A20202020302E363539322020202D312E3835363220202020302E303030302043202020302020302020302020302020302020302020302020302020302020302020302020300A2020202D302E303535332020202D322E3236383820202020302E303030302043202020302020302020302020302020302020302020302020302020302020302020302020300A2020202D302E373639372020202D312E3835363320202020302E303030302043202020302020302020302020302020302020302020302020302020302020302020302020300A2020202D302E373639372020202D312E3033313220202020302E303030302043202020302020302020302020302020302020302020302020302020302020302020302020300A2020202D302E3736393720202020312E3434333820202020302E3030303020436C2020302020302020302020302020302020302020302020302020302020302020302020300A2020202D312E3438343220202020302E3230363320202020302E3030303020436C2020302020302020302020302020302020302020302020302020302020302020302020300A2020312020322020312020302020202020200A2020332020342020312020302020202020200A2020342020352020312020302020202020200A2020342020362020312020302020202020200A2020342020372020312020302020202020200A2020322020332020312020302020202020200A2020382020392020312020302020202020200A2020392031302020322020302020202020200A2031302031312020312020302020202020200A2031312031322020322020302020202020200A2031322031332020312020302020202020200A2020382031332020322020302020202020200A2020322020382020312020302020202020200A2020312031342020312020302020202020200A2020312031352020312020302020202020200A4D2020454E44
Contributor: MASS SPECTROSCOPY SOC. OF JAPAN (MSSJ)
InstType: EI
InstName: JEOL JMS-D-3000
IoniMethod: _ENERGY 70 eV
IonPolarity: pos
Date: 2010-10-09 19:48:36+02:00
Num Peaks: 24
43 73 45 152 51 79 65 62 74 177 75 171 77 175 79 60 90 47 91 299 
92 126 93 471 95 179 102 96 103 198 105 72 119 300 138 86 163 55 179 999 
180 707 181 206 247 18 249 14 
