Name: 5-CHLORO-4-HYDROXY-3-PHENYLISOTHIAZOLE
MW: 210
Formula: C9H6ClNOS
Synonym: MassBank: JP002966
Synonym: 5-CHLORO-4-HYDROXY-3-PHENYLISOTHIAZOLE
Structure: 352D43484C4F524F2D342D485944524F58592D332D5048454E594C49534F544849415A4F4C452E6D6F6C0A20204368656D447261773034323331303034343432440A2031332031342020302020302020302020302020302020302020302020303939392056323030300A20202020312E353338362020202D302E3738313320202020302E303030302053202020302020302020302020302020302020302020302020302020302020302020302020300A20202020302E373533392020202D312E3033363220202020302E30303030204E202020302020302020302020302020302020302020302020302020302020302020302020300A20202020302E323639302020202D302E3336383820202020302E303030302043202020302020302020302020302020302020302020302020302020302020302020302020300A20202020302E3735333920202020302E3239383620202020302E303030302043202020302020302020302020302020302020302020302020302020302020302020302020300A20202020312E3533383620202020302E3034333720202020302E303030302043202020302020302020302020302020302020302020302020302020302020302020302020300A2020202D302E353536302020202D302E3336383820202020302E303030302043202020302020302020302020302020302020302020302020302020302020302020302020300A2020202D302E393638352020202D312E3038333320202020302E303030302043202020302020302020302020302020302020302020302020302020302020302020302020300A2020202D312E373933352020202D312E3038333320202020302E303030302043202020302020302020302020302020302020302020302020302020302020302020302020300A2020202D322E323036302020202D302E3336383820202020302E303030302043202020302020302020302020302020302020302020302020302020302020302020302020300A2020202D312E3739333520202020302E3334353720202020302E303030302043202020302020302020302020302020302020302020302020302020302020302020302020300A2020202D302E3936383520202020302E3334353720202020302E303030302043202020302020302020302020302020302020302020302020302020302020302020302020300A20202020302E3439393020202020312E3038333320202020302E30303030204F202020302020302020302020302020302020302020302020302020302020302020302020300A20202020322E3230363020202020302E3532383620202020302E3030303020436C2020302020302020302020302020302020302020302020302020302020302020302020300A2020312020322020312020302020202020200A2020322020332020322020302020202020200A2020332020342020312020302020202020200A2020342020352020322020302020202020200A2020312020352020312020302020202020200A2020362020372020312020302020202020200A2020372020382020322020302020202020200A2020382020392020312020302020202020200A2020392031302020322020302020202020200A2031302031312020312020302020202020200A2020362031312020322020302020202020200A2020332020362020312020302020202020200A2020342031322020312020302020202020200A2020352031332020312020302020202020200A4D2020454E44
Contributor: SASAKI S, TOYOHASHI UNIV. OF TECH.
InstType: EI
InstName: Unknown
IoniMethod: EI
IonPolarity: pos
Date: 2010-10-09 19:48:36+02:00
Num Peaks: 34
38 23 39 68 44 68 45 13 50 170 51 318 52 68 62 3 63 57 64 34 
72 136 73 5 74 68 75 102 76 239 77 7 78 114 79 386 80 80 81 14 
82 34 102 45 103 170 104 11 105 284 106 23 108 68 110 2 147 45 211 999 
212 136 213 34 214 57 215 34 
