Name: 2-(DIMETHOXYMETHYL)CYCLOPENTANONE
MW: 158
Formula: C8H14O3
Synonym: MassBank: JP002304
Synonym: 2-(DIMETHOXYMETHYL)CYCLOPENTANONE
Structure: 322D2844494D4554484F58594D455448594C294359434C4F50454E54414E4F4E452E6D6F6C0A20204368656D447261773132323130393230353032440A2031312031312020302020302020302020302020302020302020302020303939392056323030300A20202020302E3838313420202020302E3239383620202020302E303030302043202020302020302020302020302020302020302020302020302020302020302020302020300A20202020302E333936352020202D302E3336383820202020302E303030302043202020302020302020302020302020302020302020302020302020302020302020302020300A20202020302E383831342020202D312E3033363220202020302E303030302043202020302020302020302020302020302020302020302020302020302020302020302020300A20202020312E363636302020202D302E3738313320202020302E303030302043202020302020302020302020302020302020302020302020302020302020302020302020300A20202020312E3636363020202020302E3034333720202020302E303030302043202020302020302020302020302020302020302020302020302020302020302020302020300A2020202D302E343238352020202D302E3336383820202020302E303030302043202020302020302020302020302020302020302020302020302020302020302020302020300A2020202D302E383431302020202D312E3038333320202020302E30303030204F202020302020302020302020302020302020302020302020302020302020302020302020300A2020202D312E363636302020202D312E3038333320202020302E303030302043202020302020302020302020302020302020302020302020302020302020302020302020300A2020202D302E3834313020202020302E3334353720202020302E30303030204F202020302020302020302020302020302020302020302020302020302020302020302020300A2020202D302E3432383520202020312E3036303120202020302E303030302043202020302020302020302020302020302020302020302020302020302020302020302020300A20202020302E3632363520202020312E3038333320202020302E30303030204F202020302020302020302020302020302020302020302020302020302020302020302020300A2020312020322020312020302020202020200A2020322020332020312020302020202020200A2020332020342020312020302020202020200A2020342020352020312020302020202020200A2020312020352020312020302020202020200A2020372020382020312020302020202020200A2020362020372020312020302020202020200A2020392031302020312020302020202020200A2020362020392020312020302020202020200A2020322020362020312020302020202020200A2020312031312020322020302020202020200A4D2020454E44
Contributor: MASS SPECTROSCOPY SOC. OF JAPAN (MSSJ)
InstType: EI
InstName: JEOL JMS-D-3000
IoniMethod: _ENERGY 70 eV
IonPolarity: pos
Date: 2010-10-09 19:48:36+02:00
Num Peaks: 26
41 157 42 31 43 17 45 33 47 95 53 21 55 68 59 27 67 209 68 18 
69 43 70 49 71 102 75 999 76 31 83 18 84 104 85 31 87 20 95 84 
97 55 98 18 111 21 126 94 127 115 158 20 
