Name: 2-METHYLHEPTANE-2-THIOL
MW: 146
Formula: C8H18S
Synonym: MassBank: JP008744
Synonym: 2-METHYLHEPTANE-2-THIOL
Structure: 310A32320A322D4D455448594C48455054414E452D322D5448494F4C2E6D6F6C0A20204368656D447261773032313831303134303632440A2020392020382020302020302020302020302020302020302020302020303939392056323030300A20202020302E3337323020202020302E3431323520202020302E303030302043202020302020302020302020302020302020302020302020302020302020302020302020300A20202020312E303836352020202D302E3030303020202020302E303030302043202020302020302020302020302020302020302020302020302020302020302020302020300A20202020302E363734302020202D302E3731343520202020302E303030302043202020302020302020302020302020302020302020302020302020302020302020302020300A2020202D302E313531302020202D302E3731343520202020302E303030302043202020302020302020302020302020302020302020302020302020302020302020302020300A2020202D302E3536333520202020302E3030303020202020302E303030302043202020302020302020302020302020302020302020302020302020302020302020302020300A2020202D312E3338383520202020302E3030303020202020302E303030302043202020302020302020302020302020302020302020302020302020302020302020302020300A2020202D312E3830313020202020302E3731343520202020302E303030302043202020302020302020302020302020302020302020302020302020302020302020302020300A20202020312E3439393020202020302E3731343520202020302E303030302053202020302020302020302020302020302020302020302020302020302020302020302020300A20202020312E383031302020202D302E3431323520202020302E303030302043202020302020302020302020302020302020302020302020302020302020302020302020300A2020312020322020312020302020202020200A2020322020332020312020302020202020200A2020332020342020312020302020202020200A2020342020352020312020302020202020200A2020352020362020312020302020202020200A2020362020372020312020302020202020200A2020322020382020312020302020202020200A2020322020392020312020302020202020200A4D2020454E44
Contributor: SODA AROMATIC CO., LTD.
InstType: EI
InstName: HITACHI M-80B
IoniMethod: _ENERGY 70 eV
IonPolarity: pos
Date: 2010-10-09 19:48:36+02:00
Num Peaks: 28
15 11 27 76 28 10 29 141 39 112 40 14 41 351 42 15 43 67 45 13 
47 25 53 22 55 149 56 108 57 999 58 46 59 48 69 15 71 10 74 40 
75 401 76 16 77 16 88 30 89 78 97 34 113 107 146 25 
