Name: 4BETA-DEUTERO-7-METHOXYISOFLAVAN-4-OL
MW: 256
Formula: C16H16O3
Synonym: MassBank: JP001266
Synonym: 4BETA-DEUTERO-7-METHOXYISOFLAVAN-4-OL
Synonym: 7-METHOXY-3-PHENYL-4(2H1)CHROMAN-4(S)-OL
Structure: 34424554412D4445555445524F2D372D4D4554484F585949534F464C4156414E2D342D4F4C2E6D6F6C0A20204368656D447261773034323331303031303332440A2032302032322020302020302020302020302020302020302020302020303939392056323030300A2020202D312E3037313720202020312E3033313320202020302E303030302043202020302020302020302020302020302020302020302020302020302020302020302020300A2020202D312E3037313720202020302E3230363220202020302E303030302043202020302020302020302020302020302020302020302020302020302020302020302020300A2020202D302E333537322020202D302E3230363220202020302E303030302043202020302020302020302020302020302020302020302020302020302020302020302020300A20202020302E3335373220202020302E3230363220202020302E303030302043202020302020302020302020302020302020302020302020302020302020302020302020300A20202020302E3335373220202020312E3033313320202020302E303030302043202020302020302020302020302020302020302020302020302020302020302020302020300A2020202D302E3335373220202020312E3434333820202020302E30303030204F202020302020302020302020302020302020302020302020302020302020302020302020300A20202020312E303731372020202D302E3230363220202020302E303030302043202020302020302020302020302020302020302020302020302020302020302020302020300A20202020312E3738363120202020302E3230363220202020302E303030302043202020302020302020302020302020302020302020302020302020302020302020302020300A20202020312E3738363120202020312E3033313320202020302E303030302043202020302020302020302020302020302020302020302020302020302020302020302020300A20202020312E3037313720202020312E3434333820202020302E303030302043202020302020302020302020302020302020302020302020302020302020302020302020300A20202020322E3530303520202020312E3434333820202020302E30303030204F202020302020302020302020302020302020302020302020302020302020302020302020300A20202020332E3231353020202020312E3033313320202020302E303030302043202020302020302020302020302020302020302020302020302020302020302020302020300A2020202D312E373836312020202D302E3230363220202020302E303030302043202020302020302020302020302020302020302020302020302020302020302020302020300A2020202D322E3530303520202020302E3230363220202020302E303030302043202020302020302020302020302020302020302020302020302020302020302020302020300A2020202D332E323135302020202D302E3230363220202020302E303030302043202020302020302020302020302020302020302020302020302020302020302020302020300A2020202D332E323135302020202D312E3033313320202020302E303030302043202020302020302020302020302020302020302020302020302020302020302020302020300A2020202D322E353030352020202D312E3434333820202020302E303030302043202020302020302020302020302020302020302020302020302020302020302020302020300A2020202D312E373836312020202D312E3033313320202020302E303030302043202020302020302020302020302020302020302020302020302020302020302020302020300A2020202D302E373639372020202D302E3932303720202020302E303030302048202020312020302020302020302020302020302020302020302020302020302020302020300A20202020302E323236312020202D302E3738393620202020302E30303030204F202020302020302020302020302020302020302020302020302020302020302020302020300A2020312020322020312020302020202020200A2020322020332020312020302020202020200A2020332020342020312020302020202020200A2020342020352020322020302020202020200A2020352020362020312020302020202020200A2020362020312020312020302020202020200A2020342020372020312020302020202020200A2020372020382020322020302020202020200A2020382020392020312020302020202020200A2020392031302020322020302020202020200A2031302020352020312020302020202020200A2020392031312020312020302020202020200A2031312031322020312020302020202020200A2020322031332020312020302020202020200A2031332031342020322020302020202020200A2031342031352020312020302020202020200A2031352031362020322020302020202020200A2031362031372020312020302020202020200A2031372031382020322020302020202020200A2031382031332020312020302020202020200A2020332031392020312020362020202020200A2020332032302020312020312020202020200A4D202049534F20203120203139202020320A4D2020454E44
Contributor: SASAKI S, TOYOHASHI UNIV. OF TECH.
InstType: EI
InstName: HITACHI RMU-6D
IoniMethod: _ENERGY 70 eV
IonPolarity: pos
Date: 2010-10-09 19:48:36+02:00
Num Peaks: 66
28 20 39 20 40 10 50 1 51 40 52 20 63 30 64 2 65 20 66 10 
69 30 75 1 76 20 77 80 78 20 79 1 83 20 90 20 91 30 92 1 
102 13 103 20 104 10 105 6 115 20 116 37 119 40 120 1 127 9 128 10 
129 13 139 1 140 30 141 10 147 13 151 1 152 40 153 60 154 20 161 2 
162 410 163 50 164 20 165 4 166 160 167 40 168 23 175 1 176 20 177 30 
178 43 179 2 194 20 195 110 196 40 208 4 211 10 222 10 223 30 224 8 
225 10 237 133 238 880 239 999 240 140 241 13 
