Name: DIALLYLHYDRAZONE PROPIONALDEHYDE
MW: 152
Formula: C9H16N2
Synonym: MassBank: JP000868
Synonym: DIALLYLHYDRAZONE PROPIONALDEHYDE
Synonym: PROPIONALDEHYDE DIALLYLHYDRAZONE
Structure: 303730365F4449414C4C594C48594452415A4F4E452050524F50494F4E414C4445485944452E6D6F6C0A20204368656D447261773038323031303039333132440A2031312031302020302020302020302020302020302020302020302020303939392056323030300A20202020302E3631383720202020312E3432383920202020302E303030302043202020302020302020302020302020302020302020302020302020302020302020302020300A20202020302E3230363220202020302E3731343520202020302E303030302043202020302020302020302020302020302020302020302020302020302020302020302020300A20202020312E3434333720202020312E3432383920202020302E303030302043202020302020302020302020302020302020302020302020302020302020302020302020300A20202020302E3631383720202020302E3030303020202020302E30303030204E202020302020302020302020302020302020302020302020302020302020302020302020300A20202020302E323036322020202D302E3731343520202020302E30303030204E202020302020302020302020302020302020302020302020302020302020302020302020300A20202020302E363138372020202D312E3432383920202020302E303030302043202020302020302020302020302020302020302020302020302020302020302020302020300A20202020312E343433372020202D312E3432383920202020302E303030302043202020302020302020302020302020302020302020302020302020302020302020302020300A20202020312E383536332020202D302E3731343520202020302E303030302043202020302020302020302020302020302020302020302020302020302020302020302020300A2020202D302E363138382020202D302E3731343520202020302E303030302043202020302020302020302020302020302020302020302020302020302020302020302020300A2020202D312E3033313320202020302E3030303020202020302E303030302043202020302020302020302020302020302020302020302020302020302020302020302020300A2020202D312E3835363320202020302E3030303020202020302E303030302043202020302020302020302020302020302020302020302020302020302020302020302020300A2020312020322020312020302020202020200A2020312020332020312020302020202020200A2020342020352020312020302020202020200A2020362020372020312020302020202020200A2020372020382020322020302020202020200A2020352020362020312020302020202020200A2020392031302020312020302020202020200A2031302031312020322020302020202020200A2020352020392020312020302020202020200A2020322020342020322020302020202020200A4D2020454E44
Contributor: SASAKI S, TOYOHASHI UNIV. OF TECH.
InstType: EI
InstName: SHIMADZU LKB-2091
IoniMethod: _ENERGY 70 eV
IonPolarity: pos
Date: 2010-10-09 19:48:36+02:00
Num Peaks: 39
28 118 29 102 30 26 38 1 39 214 40 46 41 999 42 9 43 69 53 24 
54 56 55 56 56 96 57 8 58 8 67 3 68 47 69 40 70 30 73 1 
81 22 82 22 83 90 84 1 94 15 95 11 96 21 97 1 109 11 110 7 
111 20 123 3 124 27 125 96 126 10 137 1 151 14 152 169 153 27 
