Name: 5-ALLYL-5-ISOPROPYL-BARBITURIC ACID
MW: 210
Formula: C10H14N2O3
Synonym: MassBank: JP002796
Synonym: 5-ALLYL-5-ISOPROPYL-BARBITURIC ACID
Structure: 352D414C4C594C2D352D49534F50524F50594C2D4241524249545552494320414349442E6D6F6C0A20204368656D447261773034323331303034313032440A2031352031352020302020302020302020302020302020302020302020303939392056323030300A20202020312E3031393620202020302E3731343520202020302E30303030204E202020302020302020302020302020302020302020302020302020302020302020302020300A20202020312E3433323120202020302E3030303020202020302E303030302043202020302020302020302020302020302020302020302020302020302020302020302020300A20202020322E3235373120202020302E3030303020202020302E30303030204F202020302020302020302020302020302020302020302020302020302020302020302020300A20202020312E303139362020202D302E3731343520202020302E30303030204E202020302020302020302020302020302020302020302020302020302020302020302020300A20202020302E313934362020202D302E3731343520202020302E303030302043202020302020302020302020302020302020302020302020302020302020302020302020300A2020202D302E323137392020202D312E3432383920202020302E30303030204F202020302020302020302020302020302020302020302020302020302020302020302020300A2020202D302E3231373920202020302E3030303020202020302E303030302043202020302020302020302020302020302020302020302020302020302020302020302020300A20202020302E3139343620202020302E3731343520202020302E303030302043202020302020302020302020302020302020302020302020302020302020302020302020300A2020202D302E3231373920202020312E3432383920202020302E30303030204F202020302020302020302020302020302020302020302020302020302020302020302020300A2020202D302E383439392020202D302E3533303320202020302E303030302043202020302020302020302020302020302020302020302020302020302020302020302020300A2020202D302E373036362020202D312E3334323820202020302E303030302043202020302020302020302020302020302020302020302020302020302020302020302020300A2020202D312E363235312020202D302E3234383120202020302E303030302043202020302020302020302020302020302020302020302020302020302020302020302020300A2020202D302E3834393920202020302E3533303320202020302E303030302043202020302020302020302020302020302020302020302020302020302020302020302020300A2020202D312E3632353120202020302E3234383120202020302E303030302043202020302020302020302020302020302020302020302020302020302020302020302020300A2020202D322E3235373120202020302E3737383420202020302E303030302043202020302020302020302020302020302020302020302020302020302020302020302020300A2020312020322020312020302020202020200A2020322020332020322020302020202020200A2020322020342020312020302020202020200A2020342020352020312020302020202020200A2020352020362020322020302020202020200A2020352020372020312020302020202020200A2020372020382020312020302020202020200A2020382020392020322020302020202020200A2020312020382020312020302020202020200A2031302031312020312020302020202020200A2031302031322020312020302020202020200A2020372031302020312020302020202020200A2031332031342020312020302020202020200A2031342031352020322020302020202020200A2020372031332020312020302020202020200A4D2020454E44
Contributor: SASAKI S, TOYOHASHI UNIV. OF TECH.
InstType: EI
InstName: Unknown
IoniMethod: EI
IonPolarity: pos
Date: 2010-10-09 19:48:36+02:00
Num Peaks: 116
26 14 27 82 28 391 29 30 30 78 31 19 32 10 33 2 36 14 37 38 
38 61 39 44 40 84 41 675 42 118 43 24 44 124 45 11 49 13 50 4 
51 82 52 100 53 231 54 7 55 100 56 30 57 19 58 0 59 4 61 10 
62 13 63 1 64 18 65 39 66 34 67 1 68 52 69 44 70 54 71 1 
75 10 76 14 77 50 78 5 79 120 80 60 81 110 82 4 83 41 84 14 
85 13 86 1 91 20 92 4 93 16 94 2 95 24 96 147 97 207 98 4 
99 14 100 4 102 2 103 1 104 4 105 11 106 94 107 3 108 54 109 60 
110 19 111 1 112 31 113 9 114 4 121 1 122 24 123 18 124 419 125 5 
126 40 127 14 128 19 129 1 136 9 137 11 138 14 139 2 140 24 141 34 
142 11 143 0 148 10 149 18 150 27 151 4 152 18 153 120 154 29 155 4 
156 14 157 8 167 999 168 35 169 210 170 29 171 10 192 1 193 4 194 5 
195 154 196 2 197 10 210 20 211 11 212 4 
