Name: DIISOBUTYLHYDRAZONE ISOBUTYRALDEHYDE
MW: 198
Formula: C12H26N2
Synonym: MassBank: JP000845
Synonym: DIISOBUTYLHYDRAZONE ISOBUTYRALDEHYDE
Synonym: ISOBUTYRALDEHYDE DIISOBUTYLHYDRAZONE
Structure: 303137365F444949534F425554594C48594452415A4F4E452049534F4255545952414C4445485944452E6D6F6C0A20204368656D447261773039303331303138333532440A2031342031332020302020302020302020302020302020302020302020303939392056323030300A2020202D312E3233373420202020302E3335373220202020302E303030302043202020302020302020302020302020302020302020302020302020302020302020302020300A2020202D302E3431323520202020302E3335373220202020302E303030302043202020302020302020302020302020302020302020302020302020302020302020302020300A2020202D312E3634393920202020312E3037313720202020302E303030302043202020302020302020302020302020302020302020302020302020302020302020302020300A20202020302E303030302020202D302E3335373220202020302E30303030204E202020302020302020302020302020302020302020302020302020302020302020302020300A20202020302E383235302020202D302E3335373220202020302E30303030204E202020302020302020302020302020302020302020302020302020302020302020302020300A20202020312E3233373520202020302E3335373220202020302E303030302043202020302020302020302020302020302020302020302020302020302020302020302020300A20202020302E3832353020202020312E3037313720202020302E303030302043202020302020302020302020302020302020302020302020302020302020302020302020300A20202020302E3030303020202020312E3037313720202020302E303030302043202020302020302020302020302020302020302020302020302020302020302020302020300A20202020312E3233373520202020312E3738363120202020302E303030302043202020302020302020302020302020302020302020302020302020302020302020302020300A20202020312E323337352020202D312E3037313720202020302E303030302043202020302020302020302020302020302020302020302020302020302020302020302020300A20202020322E303632342020202D312E3037313720202020302E303030302043202020302020302020302020302020302020302020302020302020302020302020302020300A20202020322E343734392020202D302E3335373220202020302E303030302043202020302020302020302020302020302020302020302020302020302020302020302020300A20202020322E343734392020202D312E3738363120202020302E303030302043202020302020302020302020302020302020302020302020302020302020302020302020300A2020202D322E3437343920202020312E3037313720202020302E303030302043202020302020302020302020302020302020302020302020302020302020302020302020300A2020312020322020312020302020202020200A2020312020332020312020302020202020200A2020342020352020312020302020202020200A2020362020372020312020302020202020200A2020372020382020312020302020202020200A2020372020392020312020302020202020200A2020352020362020312020302020202020200A2031302031312020312020302020202020200A2031312031322020312020302020202020200A2031312031332020312020302020202020200A2020352031302020312020302020202020200A2020322020342020322020302020202020200A2020332031342020312020302020202020200A4D2020454E44
Contributor: SASAKI S, TOYOHASHI UNIV. OF TECH.
InstType: EI
InstName: SHIMADZU LKB-2091
IoniMethod: _ENERGY 70 eV
IonPolarity: pos
Date: 2010-10-09 19:48:36+02:00
Num Peaks: 38
27 44 28 24 29 124 30 11 39 30 40 6 41 148 42 8 43 129 44 14 
53 5 54 1 55 37 56 25 57 186 58 2 68 8 69 8 70 71 71 1 
72 19 82 7 83 6 84 2 86 20 97 7 99 422 100 3 111 7 113 16 
127 5 141 1 155 999 156 110 183 12 197 1 198 108 199 18 
