Name: SULFANILAMIDE
CAS: 63-74-1
MW: 172
Formula: C6H8N2O2S
Synonym: MassBank: JP006291
Synonym: SULFANILAMIDE
Structure: 53554C46414E494C414D4944452E6D6F6C0A20204368656D447261773038313231303036353732440A2031312031312020302020302020302020302020302020302020302020303939392056323030300A20202020322E3036323520202020302E3030303020202020302E30303030204E202020302020302020302020302020302020302020302020302020302020302020302020300A20202020312E3233373520202020302E3030303020202020302E303030302053202020302020302020302020302020302020302020302020302020302020302020302020300A20202020312E3233373520202020302E3832353020202020302E30303030204F202020302020302020302020302020302020302020302020302020302020302020302020300A20202020312E323337352020202D302E3832353020202020302E30303030204F202020302020302020302020302020302020302020302020302020302020302020302020300A20202020302E3431323520202020302E3030303020202020302E303030302043202020302020302020302020302020302020302020302020302020302020302020302020300A2020202D302E303030302020202D302E3731343520202020302E303030302043202020302020302020302020302020302020302020302020302020302020302020302020300A2020202D302E383235302020202D302E3731343520202020302E303030302043202020302020302020302020302020302020302020302020302020302020302020302020300A2020202D312E3233373520202020302E3030303020202020302E303030302043202020302020302020302020302020302020302020302020302020302020302020302020300A2020202D322E3036323520202020302E3030303020202020302E30303030204E202020302020302020302020302020302020302020302020302020302020302020302020300A2020202D302E3832353020202020302E3731343520202020302E303030302043202020302020302020302020302020302020302020302020302020302020302020302020300A2020202D302E3030303020202020302E3731343520202020302E303030302043202020302020302020302020302020302020302020302020302020302020302020302020300A2020312020322020312020302020202020200A2020322020332020322020302020202020200A2020322020342020322020302020202020200A2020322020352020312020302020202020200A2020352020362020312020302020202020200A2020362020372020322020302020202020200A2020372020382020312020302020202020200A2020382020392020312020302020202020200A2020382031302020322020302020202020200A2031302031312020312020302020202020200A2020352031312020322020302020202020200A4D2020454E44
Contributor: MASS SPECTROSCOPY SOC. OF JAPAN (MSSJ)
InstType: EI
InstName: HITACHI M-80
IoniMethod: _ENERGY 70 eV
IonPolarity: pos
Date: 2010-10-09 19:48:36+02:00
Num Peaks: 49
15 6 27 18 28 114 32 20 38 15 39 186 40 13 41 56 42 25 43 10 
44 10 45 6 46 7 48 10 50 10 51 16 52 54 53 59 54 47 55 5 
62 8 63 73 64 111 65 708 66 100 67 9 75 7 78 9 79 10 80 160 
81 23 90 25 91 71 92 819 93 71 106 6 107 82 108 513 109 59 123 10 
124 8 125 5 140 44 156 729 157 57 158 38 172 999 173 85 174 54 
