Name: NIALAMIDE
MW: 298
Formula: C16H18N4O2
Synonym: MassBank: JP002789
Synonym: NIALAMIDE
Structure: 303531305F4E49414C414D4944452E6D6F6C0A20204368656D447261773039303631303138303932440A2032322032332020302020302020302020302020302020302020302020303939392056323030300A2020202D322E3838373520202020302E3335373220202020302E303030302043202020302020302020302020302020302020302020302020302020302020302020302020300A2020202D332E3330353220202020312E3036383720202020302E303030302043202020302020302020302020302020302020302020302020302020302020302020302020300A2020202D342E3133303120202020312E3036383720202020302E303030302043202020302020302020302020302020302020302020302020302020302020302020302020300A2020202D342E3533373520202020302E3335373220202020302E30303030204E202020302020302020302020302020302020302020302020302020302020302020302020300A2020202D342E313330312020202D302E3335343320202020302E303030302043202020302020302020302020302020302020302020302020302020302020302020302020300A2020202D332E333035322020202D302E3335343320202020302E303030302043202020302020302020302020302020302020302020302020302020302020302020302020300A2020202D322E3036323520202020302E3335373220202020302E303030302043202020302020302020302020302020302020302020302020302020302020302020302020300A2020202D312E3634383720202020312E3037313220202020302E30303030204F202020302020302020302020302020302020302020302020302020302020302020302020300A2020202D312E363530302020202D302E3335383120202020302E30303030204E202020302020302020302020302020302020302020302020302020302020302020302020300A2020202D302E383235302020202D302E3335383120202020302E30303030204E202020302020302020302020302020302020302020302020302020302020302020302020300A2020202D302E343132352020202D312E3037313720202020302E303030302043202020302020302020302020302020302020302020302020302020302020302020302020300A20202020302E343132352020202D312E3037313720202020302E303030302043202020302020302020302020302020302020302020302020302020302020302020302020300A20202020302E383235302020202D302E3335373220202020302E303030302043202020302020302020302020302020302020302020302020302020302020302020302020300A20202020302E3431333820202020302E3335353920202020302E30303030204F202020302020302020302020302020302020302020302020302020302020302020302020300A20202020312E363530302020202D302E3335383120202020302E30303030204E202020302020302020302020302020302020302020302020302020302020302020302020300A20202020322E3036323520202020302E3335373220202020302E303030302043202020302020302020302020302020302020302020302020302020302020302020302020300A20202020322E3838373520202020302E3335373220202020302E303030302043202020302020302020302020302020302020302020302020302020302020302020302020300A20202020332E333030302020202D302E3335373220202020302E303030302043202020302020302020302020302020302020302020302020302020302020302020302020300A20202020342E313235302020202D302E3335373220202020302E303030302043202020302020302020302020302020302020302020302020302020302020302020302020300A20202020342E3533373520202020302E3335373220202020302E303030302043202020302020302020302020302020302020302020302020302020302020302020302020300A20202020342E3132353020202020312E3037313720202020302E303030302043202020302020302020302020302020302020302020302020302020302020302020302020300A20202020332E3330303020202020312E3037313720202020302E303030302043202020302020302020302020302020302020302020302020302020302020302020302020300A2020312020322020322020302020202020200A2020322020332020312020302020202020200A2020332020342020322020302020202020200A2020342020352020312020302020202020200A2020352020362020322020302020202020200A2020362020312020312020302020202020200A2020312020372020312020302020202020200A2020372020382020322020302020202020200A2020372020392020312020302020202020200A2020392031302020312020302020202020200A2031302031312020312020302020202020200A2031312031322020312020302020202020200A2031322031332020312020302020202020200A2031332031342020322020302020202020200A2031332031352020312020302020202020200A2031352031362020312020302020202020200A2031362031372020312020302020202020200A2031372031382020322020302020202020200A2031382031392020312020302020202020200A2031392032302020322020302020202020200A2032302032312020312020302020202020200A2032312032322020322020302020202020200A2031372032322020312020302020202020200A4D2020454E44
Contributor: SASAKI S, TOYOHASHI UNIV. OF TECH.
InstType: EI
InstName: Unknown
IoniMethod: EI
IonPolarity: pos
Date: 2010-10-09 19:48:36+02:00
Num Peaks: 124
26 49 27 159 28 699 29 4 30 137 31 27 32 153 36 4 37 20 38 29 
39 97 40 2 41 69 42 49 43 90 44 56 45 111 49 23 50 144 51 39 
52 98 53 31 54 18 55 20 56 28 57 38 58 19 59 4 60 9 61 4 
62 13 63 4 64 24 65 163 66 24 67 2 68 3 69 20 70 79 71 2 
72 17 73 13 74 19 75 3 76 41 77 163 78 473 79 3 80 29 81 9 
82 8 83 0 84 23 85 23 86 12 87 0 88 9 89 39 90 26 91 999 
92 89 93 23 94 13 95 2 96 3 103 31 104 125 105 1 106 822 107 220 
108 39 109 1 114 3 115 21 116 22 117 9 118 53 119 23 120 11 121 1 
122 119 123 148 124 23 125 1 130 11 131 10 132 39 133 3 134 17 135 17 
136 1 137 1 138 16 143 3 144 20 145 1 146 13 147 20 148 49 149 12 
150 73 151 19 159 17 160 4 161 113 162 35 163 17 164 1 172 12 173 4 
174 19 175 1 176 46 177 267 178 53 179 1 180 3 189 19 190 9 191 1 
192 3 298 27 299 11 300 2 
