Name: 5-HEXYL-5-METHYLOXOLAN-2-ONE
MW: 184
Formula: C11H20O2
Synonym: MassBank: JP003979
Synonym: 5-HEXYL-5-METHYLOXOLAN-2-ONE
Structure: 352D484558594C2D352D4D455448594C4F584F4C414E2D322D4F4E452E6D6F6C0A20204368656D447261773034323331303035353432440A2031332031332020302020302020302020302020302020302020302020303939392056323030300A20202020312E3332383820202020302E3431353820202020302E30303030204F202020302020302020302020302020302020302020302020302020302020302020302020300A20202020322E3135333820202020302E3431353820202020302E303030302043202020302020302020302020302020302020302020302020302020302020302020302020300A20202020322E343038372020202D302E3336383820202020302E303030302043202020302020302020302020302020302020302020302020302020302020302020302020300A20202020312E373431332020202D302E3835333720202020302E303030302043202020302020302020302020302020302020302020302020302020302020302020302020300A20202020312E303733382020202D302E3336383820202020302E303030302043202020302020302020302020302020302020302020302020302020302020302020302020300A20202020322E3633383720202020312E3038333320202020302E30303030204F202020302020302020302020302020302020302020302020302020302020302020302020300A20202020302E333230312020202D302E3033333220202020302E303030302043202020302020302020302020302020302020302020302020302020302020302020302020300A20202020302E363631332020202D312E3038333320202020302E303030302043202020302020302020302020302020302020302020302020302020302020302020302020300A2020202D302E313633372020202D312E3038333320202020302E303030302043202020302020302020302020302020302020302020302020302020302020302020302020300A2020202D302E353736322020202D302E3336383820202020302E303030302043202020302020302020302020302020302020302020302020302020302020302020302020300A2020202D312E343031322020202D302E3336383820202020302E303030302043202020302020302020302020302020302020302020302020302020302020302020302020300A2020202D312E3831333720202020302E3334353720202020302E303030302043202020302020302020302020302020302020302020302020302020302020302020302020300A2020202D322E3633383720202020302E3334353720202020302E303030302043202020302020302020302020302020302020302020302020302020302020302020302020300A2020312020322020312020302020202020200A2020322020332020312020302020202020200A2020332020342020312020302020202020200A2020342020352020312020302020202020200A2020312020352020312020302020202020200A2020322020362020322020302020202020200A2020352020372020312020302020202020200A2020382020392020312020302020202020200A2020392031302020312020302020202020200A2031302031312020312020302020202020200A2031312031322020312020302020202020200A2031322031332020312020302020202020200A2020352020382020312020302020202020200A4D2020454E44
Contributor: MASS SPECTROSCOPY SOC. OF JAPAN (MSSJ)
InstType: EI
InstName: HITACHI RMU-6L
IoniMethod: _ENERGY 70 eV
IonPolarity: pos
Date: 2010-10-09 19:48:36+02:00
Num Peaks: 36
27 75 28 159 29 68 32 3 39 50 41 175 42 30 43 39 53 35 54 29 
55 103 56 9 57 31 58 30 67 32 68 4 69 64 70 66 71 91 81 4 
83 30 85 25 95 22 96 2 98 26 99 999 100 82 109 3 110 28 111 20 
114 35 129 5 151 29 169 42 170 21 184 30 
