Name: MassBank: JP008876
MW: 58
Formula: C3H6O
Synonym: MassBank: JP008876
Synonym: ACETONE (1,1,1,3,3,3-D6)
Structure: 414345544F4E452028312C312C312C332C332C332D4436292E6D6F6C0A20204368656D447261773036323431303137353632440A2031302020392020302020302020302020302020302020302020302020303939392056323030300A20202020302E3236313520202020302E3731343520202020302E303030302043202020302020302020302020302020302020302020302020302020302020302020302020300A2020202D302E313531302020202D302E3030303020202020302E303030302043202020302020302020302020302020302020302020302020302020302020302020302020300A2020202D302E393736302020202D302E3030303020202020302E30303030204F202020302020302020302020302020302020302020302020302020302020302020302020300A20202020302E323631352020202D302E3731343520202020302E303030302043202020302020302020302020302020302020302020302020302020302020302020302020300A20202020302E393736302020202D302E3330323020202020302E303030302048202020312020302020302020302020302020302020302020302020302020302020302020300A20202020302E363734302020202D312E3432383920202020302E303030302048202020312020302020302020302020302020302020302020302020302020302020302020300A2020202D302E343533302020202D312E3132373020202020302E303030302048202020312020302020302020302020302020302020302020302020302020302020302020300A2020202D302E3435333020202020312E3132373020202020302E303030302048202020312020302020302020302020302020302020302020302020302020302020302020300A20202020302E3637343020202020312E3432383920202020302E303030302048202020312020302020302020302020302020302020302020302020302020302020302020300A20202020302E3937363020202020302E3330323020202020302E303030302048202020312020302020302020302020302020302020302020302020302020302020302020300A2020312020322020312020302020202020200A2020322020332020322020302020202020200A2020322020342020312020302020202020200A2020342020352020312020302020202020200A2020342020362020312020302020202020200A2020342020372020312020302020202020200A2020312020382020312020302020202020200A2020312020392020312020302020202020200A2020312031302020312020302020202020200A4D202049534F2020362020203520202032202020362020203220202037202020322020203820202032202020392020203220203130202020320A4D2020454E44
Contributor: TAJIMA S, GUNMA COLLEGE OF TECHNOLOGY
InstType: EI
InstName: HITACHI RMU-7M
IoniMethod: _ENERGY 70 eV
IonPolarity: pos
Date: 2010-10-09 19:48:36+02:00
Num Peaks: 15
16 36 18 202 26 11 28 55 30 80 32 15 34 19 38 24 40 30 42 62 
44 65 45 27 46 999 47 22 64 210 
