Name: BETA-ELEMENE
MW: 204
Formula: C15H24
Synonym: MassBank: JP002857
Synonym: BETA-ELEMENE
Structure: 424554412D454C454D454E452E6D6F6C0A20204368656D447261773039303531303132323932440A2031372031372020302020302020302020302020302020302020302020303939392056323030300A2020202D302E373430312020202D302E3731343520202020302E303030302043202020302020302020302020302020302020302020302020302020302020302020302020300A2020202D302E3332373620202020302E3030303020202020302E303030302043202020302020302020302020302020302020302020302020302020302020302020302020300A20202020302E3439373420202020302E3030303020202020302E303030302043202020302020302020302020302020302020302020302020302020302020302020302020300A20202020302E393039392020202D302E3731343520202020302E303030302043202020302020302020302020302020302020302020302020302020302020302020302020300A20202020302E343937342020202D312E3432383920202020302E303030302043202020302020302020302020302020302020302020302020302020302020302020302020300A2020202D302E333237362020202D312E3432383920202020302E303030302043202020302020302020302020302020302020302020302020302020302020302020302020300A20202020312E373334392020202D302E3731343520202020302E303030302043202020302020302020302020302020302020302020302020302020302020302020302020300A20202020322E313437342020202D312E3432383920202020302E303030302043202020302020302020302020302020302020302020302020302020302020302020302020300A20202020322E3134373420202020302E3030303020202020302E303030302043202020302020302020302020302020302020302020302020302020302020302020302020300A2020202D302E3734303120202020302E3731343520202020302E303030302043202020302020302020302020302020302020302020302020302020302020302020302020300A2020202D312E3536353120202020302E3731343520202020302E303030302043202020302020302020302020302020302020302020302020302020302020302020302020300A2020202D302E3332373620202020312E3432383920202020302E303030302043202020302020302020302020302020302020302020302020302020302020302020302020300A2020202D312E333732312020202D312E3234343820202020302E303030302043202020302020302020302020302020302020302020302020302020302020302020302020300A2020202D322E313437342020202D302E3936323620202020302E303030302043202020302020302020302020302020302020302020302020302020302020302020302020300A2020202D312E333732312020202D302E3138343220202020302E303030302043202020302020302020302020302020302020302020302020302020302020302020302020300A20202020302E3038343920202020302E3731343520202020302E303030302048202020302020302020302020302020302020302020302020302020302020302020302020300A20202020312E343933322020202D312E3239373820202020302E303030302048202020302020302020302020302020302020302020302020302020302020302020302020300A2020312020322020312020302020202020200A2020322020332020312020302020202020200A2020332020342020312020302020202020200A2020342020352020312020302020202020200A2020352020362020312020302020202020200A2020312020362020312020302020202020200A2020372020382020322020302020202020200A2020372020392020312020302020202020200A2020342020372020312020362020202020200A2031302031312020322020302020202020200A2031302031322020312020302020202020200A2020322031302020312020362020202020200A2031332031342020322020302020202020200A2020312031332020312020312020202020200A2020312031352020312020362020202020200A2020322031362020312020312020202020200A2020342031372020312020312020202020200A4D2020454E44
Contributor: SASAKI S, TOYOHASHI UNIV. OF TECH.
InstType: EI
InstName: Unknown
IoniMethod: EI
IonPolarity: pos
Date: 2010-10-09 19:48:36+02:00
Num Peaks: 106
26 16 27 416 28 95 29 33 37 6 38 17 39 525 40 17 41 943 42 103 
43 165 44 1 50 17 51 92 52 56 53 51 54 48 55 495 56 36 57 5 
58 6 62 5 63 25 64 2 65 133 66 96 67 555 68 81 69 227 70 17 
71 10 72 1 73 5 74 5 75 12 76 1 77 270 78 81 79 433 80 2 
81 999 82 100 83 30 84 1 85 5 86 5 87 5 89 1 90 15 91 305 
92 105 93 67 94 205 95 200 96 25 97 1 102 5 103 23 104 15 105 23 
106 92 107 416 108 213 109 1 110 12 115 22 116 10 117 3 118 12 119 182 
120 78 121 3 122 92 123 100 124 10 127 1 128 11 129 10 130 5 131 2 
132 8 133 166 134 87 135 16 136 58 137 6 145 15 146 1 147 237 148 108 
149 55 150 1 159 6 160 6 161 215 162 7 163 35 175 45 176 26 177 1 
187 5 189 197 190 30 204 8 205 13 30 8 
