Name: 4-BROMOBENZYL-2-TETRAHYDROPYRANYL ETHER
MW: 270
Formula: C12H15BrO2
Synonym: MassBank: JP005125
Synonym: 4-BROMOBENZYL-2-TETRAHYDROPYRANYL ETHER
Structure: 342D42524F4D4F42454E5A594C2D322D5445545241485944524F505952414E594C2045544845522E6D6F6C0A20204368656D447261773033323531303038343132440A2031352031362020302020302020302020302020302020302020302020303939392056323030300A2020202D312E3434333720202020302E3335373220202020302E303030302043202020302020302020302020302020302020302020302020302020302020302020302020300A2020202D312E383536332020202D302E3335373220202020302E303030302043202020302020302020302020302020302020302020302020302020302020302020302020300A2020202D322E363831322020202D302E3335373220202020302E303030302043202020302020302020302020302020302020302020302020302020302020302020302020300A2020202D332E3039333820202020302E3335373220202020302E303030302043202020302020302020302020302020302020302020302020302020302020302020302020300A2020202D322E3638313220202020312E3037313720202020302E303030302043202020302020302020302020302020302020302020302020302020302020302020302020300A2020202D312E3835363320202020312E3037313720202020302E30303030204F202020302020302020302020302020302020302020302020302020302020302020302020300A2020202D302E3631383820202020302E3335373220202020302E30303030204F202020302020302020302020302020302020302020302020302020302020302020302020300A2020202D302E323036322020202D302E3335373220202020302E303030302043202020302020302020302020302020302020302020302020302020302020302020302020300A20202020302E363138382020202D302E3335373220202020302E303030302043202020302020302020302020302020302020302020302020302020302020302020302020300A20202020312E3033313320202020302E3335373220202020302E303030302043202020302020302020302020302020302020302020302020302020302020302020302020300A20202020312E3835363320202020302E3335373220202020302E303030302043202020302020302020302020302020302020302020302020302020302020302020302020300A20202020322E323638382020202D302E3335373220202020302E303030302043202020302020302020302020302020302020302020302020302020302020302020302020300A20202020312E383536332020202D312E3037313720202020302E303030302043202020302020302020302020302020302020302020302020302020302020302020302020300A20202020312E303331332020202D312E3037313720202020302E303030302043202020302020302020302020302020302020302020302020302020302020302020302020300A20202020332E303933382020202D302E3335373220202020302E303030302042722020302020302020302020302020302020302020302020302020302020302020302020300A2020312020322020312020302020202020200A2020322020332020312020302020202020200A2020332020342020312020302020202020200A2020342020352020312020302020202020200A2020352020362020312020302020202020200A2020312020362020312020302020202020200A2020382020392020312020302020202020200A2020392031302020312020302020202020200A2031302031312020322020302020202020200A2031312031322020312020302020202020200A2031322031332020322020302020202020200A2031332031342020312020302020202020200A2020392031342020322020302020202020200A2020372020382020312020302020202020200A2031322031352020312020302020202020200A2020312020372020312020302020202020200A4D2020454E44
Contributor: HAYASHI A, FAC. OF SCIENCE AND TECHNOLOGY, KINKI UNIV.
InstType: EI
InstName: JEOL JMS-HX-100
IoniMethod: _ENERGY 20 eV
IonPolarity: pos
Date: 2010-10-09 19:48:36+02:00
Num Peaks: 95
39 2 41 16 42 3 43 35 44 2 54 4 55 36 56 7 57 45 58 4 
59 2 67 49 68 9 69 3 71 1 73 2 77 9 78 4 79 18 80 3 
83 13 84 31 85 528 86 41 87 4 89 14 90 21 91 61 92 7 93 3 
99 1 101 364 102 23 103 3 104 4 105 4 106 2 107 29 108 4 114 8 
115 2 116 13 117 11 118 2 129 1 130 3 131 2 143 7 144 3 145 459 
146 60 147 4 149 7 150 2 156 2 157 4 158 2 169 991 170 148 171 999 
172 143 173 9 182 98 183 15 184 103 185 59 186 131 187 51 188 124 189 11 
191 25 192 4 195 49 196 27 197 50 198 27 199 5 209 4 210 2 211 6 
212 2 213 4 214 2 222 1 223 2 224 209 225 28 226 202 227 27 228 2 
269 2 270 67 271 11 272 64 273 9 
