Name: MassBank: JP006041
MW: 144
Formula: C9H20O
Synonym: MassBank: JP006041
Synonym: 3,5,5-TRIMETHYL-1-HEXANOL
Structure: 332C352C352D5452494D455448594C2D312D484558414E4F4C2E6D6F6C0A20204368656D447261773032323231303030323132440A2031302020392020302020302020302020302020302020302020302020303939392056323030300A20202020312E3432383920202020302E3035353320202020302E303030302043202020302020302020302020302020302020302020302020302020302020302020302020300A20202020302E3731343520202020302E3436373820202020302E303030302043202020302020302020302020302020302020302020302020302020302020302020302020300A2020202D302E3030303020202020302E3035353320202020302E303030302043202020302020302020302020302020302020302020302020302020302020302020302020300A2020202D302E3731343520202020302E3436373820202020302E303030302043202020302020302020302020302020302020302020302020302020302020302020302020300A2020202D312E3432383920202020302E3035353320202020302E303030302043202020302020302020302020302020302020302020302020302020302020302020302020300A2020202D312E303136342020202D302E3635393220202020302E303030302043202020302020302020302020302020302020302020302020302020302020302020302020300A20202020322E3134333420202020302E3436373820202020302E30303030204F202020302020302020302020302020302020302020302020302020302020302020302020300A2020202D322E313433342020202D302E3335373220202020302E303030302043202020302020302020302020302020302020302020302020302020302020302020302020300A2020202D312E3834313420202020302E3736393720202020302E303030302043202020302020302020302020302020302020302020302020302020302020302020302020300A2020202D302E303030302020202D302E3736393720202020302E303030302043202020302020302020302020302020302020302020302020302020302020302020302020300A2020312020322020312020302020202020200A2020322020332020312020302020202020200A2020332020342020312020302020202020200A2020342020352020312020302020202020200A2020352020362020312020312020202020200A2020312020372020312020302020202020200A2020352020382020312020302020202020200A2020352020392020312020312020202020200A2020332031302020312020302020202020200A4D2020454E44
Contributor: HASHIMOTO K, KYOTO COLLEGE OF PHARMACY
InstType: EI
InstName: HITACHI M-80
IoniMethod: _ENERGY 20 eV
IonPolarity: pos
Date: 2010-10-09 19:48:36+02:00
Num Peaks: 22
41 50 42 19 43 63 55 107 56 337 57 999 58 45 68 17 69 435 70 153 
71 124 83 98 84 16 85 63 86 59 87 252 88 16 98 18 111 169 112 15 
129 167 130 15 
