Name: MENTHOL
MW: 156
Formula: C10H20O
Synonym: MassBank: JP006932
Synonym: MENTHOL
Synonym: 1ALPHA,2BETA,5ALPHA-5-METHYL-2-(1-METHYLETHYL)CYCLOHEXAN-1-OL
Structure: 4D454E54484F4C2E6D6F6C0A20204368656D447261773132313130393031313732440A2031312031312020302020302020302020302020302020302020302020303939392056323030300A20202020302E3230363220202020302E3335373220202020302E303030302043202020302020302020302020302020302020302020302020302020302020302020302020300A20202020302E363138372020202D302E3335373220202020302E303030302043202020302020302020302020302020302020302020302020302020302020302020302020300A20202020302E323036322020202D312E3037313720202020302E303030302043202020302020302020302020302020302020302020302020302020302020302020302020300A2020202D302E363138382020202D312E3037313720202020302E303030302043202020302020302020302020302020302020302020302020302020302020302020302020300A2020202D312E303331332020202D302E3335373220202020302E303030302043202020302020302020302020302020302020302020302020302020302020302020302020300A2020202D302E3631383820202020302E3335373220202020302E303030302043202020302020302020302020302020302020302020302020302020302020302020302020300A2020202D312E383536332020202D302E3335373220202020302E303030302043202020302020302020302020302020302020302020302020302020302020302020302020300A20202020312E343433372020202D302E3335373220202020302E303030302043202020302020302020302020302020302020302020302020302020302020302020302020300A20202020312E383536332020202D312E3037313720202020302E303030302043202020302020302020302020302020302020302020302020302020302020302020302020300A20202020312E3835363320202020302E3335373220202020302E303030302043202020302020302020302020302020302020302020302020302020302020302020302020300A20202020302E3631383720202020312E3037313720202020302E30303030204F202020302020302020302020302020302020302020302020302020302020302020302020300A2020312020322020312020302020202020200A2020322020332020312020302020202020200A2020332020342020312020302020202020200A2020342020352020312020302020202020200A2020352020362020312020302020202020200A2020312020362020312020302020202020200A2020352020372020312020302020202020200A2020382020392020312020302020202020200A2020382031302020312020302020202020200A2020322020382020312020302020202020200A2020312031312020312020302020202020200A4D2020454E44
Contributor: TAJIMA S, GUNMA COLLEGE OF TECHNOLOGY
InstType: EI
InstName: HITACHI M-80B
IoniMethod: _ENERGY 70 eV
IonPolarity: pos
Date: 2010-10-09 19:48:36+02:00
Num Peaks: 53
15 12 27 210 28 22 29 185 31 41 39 176 40 28 41 547 42 85 43 353 
44 62 45 24 51 16 53 113 54 43 55 436 56 198 57 304 58 28 59 17 
65 19 67 252 68 126 69 325 70 129 71 999 72 45 73 12 77 23 79 30 
80 94 81 735 82 352 83 134 84 24 85 93 86 35 91 11 93 20 94 38 
95 685 96 273 97 39 99 31 109 105 110 73 111 17 112 16 113 12 123 311 
124 25 138 261 139 25 
