Name: MassBank: JP001939
MW: 140
Formula: C8H16Si
Synonym: MassBank: JP001939
Synonym: 2-(TRIMETHYLSILYLMETHYL)BUTA-1,3-DIENE
Structure: 310A32320A322D285452494D455448594C53494C594C4D455448594C29425554412D312C332D4449454E452E6D6F6C0A20204368656D447261773132323130393231333632440A2020392020382020302020302020302020302020302020302020302020303939392056323030300A2020202D302E3030303020202020312E3132373020202020302E303030302043202020302020302020302020302020302020302020302020302020302020302020302020300A20202020302E3431323520202020302E3431323520202020302E303030302043202020302020302020302020302020302020302020302020302020302020302020302020300A20202020312E3233373520202020302E3431323520202020302E303030302043202020302020302020302020302020302020302020302020302020302020302020302020300A20202020312E363530302020202D302E3330323020202020302E303030302043202020302020302020302020302020302020302020302020302020302020302020302020300A2020202D302E303030302020202D302E3330323020202020302E303030302043202020302020302020302020302020302020302020302020302020302020302020302020300A2020202D302E383235302020202D302E3330323020202020302E303030302053692020302020302020302020302020302020302020302020302020302020302020302020300A2020202D302E3832353020202020302E3532333020202020302E303030302043202020302020302020302020302020302020302020302020302020302020302020302020300A2020202D312E363530302020202D302E3330323020202020302E303030302043202020302020302020302020302020302020302020302020302020302020302020302020300A2020202D302E383235302020202D312E3132373020202020302E303030302043202020302020302020302020302020302020302020302020302020302020302020302020300A2020312020322020322020302020202020200A2020322020332020312020302020202020200A2020332020342020322020302020202020200A2020362020372020312020312020202020200A2020362020382020312020302020202020200A2020362020392020312020312020202020200A2020352020362020312020302020202020200A2020322020352020312020302020202020200A4D2020454E44
Contributor: MASS SPECTROSCOPY SOC. OF JAPAN (MSSJ)
InstType: EI
InstName: JEOL JMS-D-3000
IoniMethod: _ENERGY 70 eV
IonPolarity: pos
Date: 2010-10-09 19:48:36+02:00
Num Peaks: 23
43 49 44 14 45 64 55 13 58 20 59 103 69 12 71 12 72 16 73 999 
74 90 75 35 83 16 85 38 86 16 97 79 98 50 99 17 109 13 125 91 
126 11 140 120 141 18 
