Name: MassBank: JP008543
MW: 206
Formula: C13H18O2
Synonym: MassBank: JP008543
Synonym: 1,1-DIMETHYL-3-PHENYLPROPYL ACETATE
Synonym: DIMETHYL PHENYLETHYL CARBINYL ACETATE
Structure: 312C312D44494D455448594C2D332D5048454E594C50524F50594C20414345544154452E6D6F6C0A20204368656D447261773130323330393130343732440A2031352031352020302020302020302020302020302020302020302020303939392056323030300A20202020322E3036323520202020302E3431323520202020302E303030302043202020302020302020302020302020302020302020302020302020302020302020302020300A20202020322E3838373520202020302E3431323520202020302E303030302043202020302020302020302020302020302020302020302020302020302020302020302020300A20202020312E3635303020202020312E3132373020202020302E30303030204F202020302020302020302020302020302020302020302020302020302020302020302020300A20202020312E363530302020202D302E3330323020202020302E30303030204F202020302020302020302020302020302020302020302020302020302020302020302020300A20202020302E383235302020202D302E3330323020202020302E303030302043202020302020302020302020302020302020302020302020302020302020302020302020300A2020202D302E303030302020202D302E3330323020202020302E303030302043202020302020302020302020302020302020302020302020302020302020302020302020300A2020202D302E3431323520202020302E3431323520202020302E303030302043202020302020302020302020302020302020302020302020302020302020302020302020300A2020202D312E3233373520202020302E3431323520202020302E303030302043202020302020302020302020302020302020302020302020302020302020302020302020300A2020202D312E363530302020202D302E3330323020202020302E303030302043202020302020302020302020302020302020302020302020302020302020302020302020300A2020202D322E343735302020202D302E3330323020202020302E303030302043202020302020302020302020302020302020302020302020302020302020302020302020300A2020202D322E3838373520202020302E3431323520202020302E303030302043202020302020302020302020302020302020302020302020302020302020302020302020300A2020202D322E3437353020202020312E3132373020202020302E303030302043202020302020302020302020302020302020302020302020302020302020302020302020300A2020202D312E3635303020202020312E3132373020202020302E303030302043202020302020302020302020302020302020302020302020302020302020302020302020300A20202020302E3832353020202020302E3532333020202020302E303030302043202020302020302020302020302020302020302020302020302020302020302020302020300A20202020302E383235302020202D312E3132373020202020302E303030302043202020302020302020302020302020302020302020302020302020302020302020302020300A2020312020322020312020302020202020200A2020312020332020322020302020202020200A2020312020342020312020302020202020200A2020352020362020312020302020202020200A2020362020372020312020302020202020200A2020382020392020312020302020202020200A2020392031302020322020302020202020200A2031302031312020312020302020202020200A2031312031322020322020302020202020200A2031322031332020312020302020202020200A2020382031332020322020302020202020200A2020372020382020312020302020202020200A2020352031342020312020302020202020200A2020352031352020312020302020202020200A2020342020352020312020302020202020200A4D2020454E44
Contributor: SODA AROMATIC CO., LTD.
InstType: EI
InstName: HITACHI M-80B
IoniMethod: _ENERGY 70 eV
IonPolarity: pos
Date: 2010-10-09 19:48:36+02:00
Num Peaks: 44
15 38 18 33 27 44 28 13 29 24 31 15 39 91 41 88 42 13 43 756 
44 15 50 15 51 62 52 14 53 16 55 17 56 25 59 124 63 26 65 145 
66 10 68 21 77 91 78 36 79 34 89 22 91 701 92 51 101 16 103 37 
104 42 105 94 115 22 116 18 117 23 128 14 129 25 130 11 131 999 132 114 
145 23 146 425 147 63 149 44 
