Name: METHYCHLOTHIAZIDE
MW: 358
Formula: C9H11Cl2N3O4S2
Synonym: MassBank: JP002783
Synonym: METHYCHLOTHIAZIDE
Structure: 303530395F4D4554485943484C4F544849415A4944452E6D6F6C0A20204368656D447261773039303631303138303832440A2032302032312020302020302020302020302020302020302020302020303939392056323030300A2020202D312E3738353620202020302E3436373820202020302E30303030204E202020302020302020302020302020302020302020302020302020302020302020302020300A2020202D312E373836322020202D302E3335373220202020302E303030302043202020302020302020302020302020302020302020302020302020302020302020302020300A2020202D312E303731372020202D302E3736393720202020302E30303030204E202020302020302020302020302020302020302020302020302020302020302020302020300A2020202D302E333537322020202D302E3335373220202020302E303030302043202020302020302020302020302020302020302020302020302020302020302020302020300A2020202D302E3335373220202020302E3436373820202020302E303030302043202020302020302020302020302020302020302020302020302020302020302020302020300A2020202D312E3037313720202020302E3838303320202020302E303030302053202020302020302020302020302020302020302020302020302020302020302020302020300A20202020302E333537322020202D302E3736393720202020302E303030302043202020302020302020302020302020302020302020302020302020302020302020302020300A20202020312E303731372020202D302E3335373220202020302E303030302043202020302020302020302020302020302020302020302020302020302020302020302020300A20202020312E3037313720202020302E3436373820202020302E303030302043202020302020302020302020302020302020302020302020302020302020302020302020300A20202020302E3335373220202020302E3838303320202020302E303030302043202020302020302020302020302020302020302020302020302020302020302020302020300A2020202D322E3530303620202020302E3838303320202020302E303030302043202020302020302020302020302020302020302020302020302020302020302020302020300A2020202D322E353030362020202D302E3736393720202020302E303030302043202020302020302020302020302020302020302020302020302020302020302020302020300A2020202D322E343939362020202D312E3539343720202020302E3030303020436C2020302020302020302020302020302020302020302020302020302020302020302020300A20202020312E3738363220202020302E3838303320202020302E303030302053202020302020302020302020302020302020302020302020302020302020302020302020300A20202020312E3337333720202020312E3539343720202020302E30303030204F202020302020302020302020302020302020302020302020302020302020302020302020300A20202020322E3530303620202020312E3239323820202020302E30303030204F202020302020302020302020302020302020302020302020302020302020302020302020300A20202020322E3139383720202020302E3136353820202020302E30303030204E202020302020302020302020302020302020302020302020302020302020302020302020300A20202020312E373836322020202D302E3736393720202020302E3030303020436C2020302020302020302020302020302020302020302020302020302020302020302020300A2020202D302E3533323520202020312E3530343620202020302E30303030204F202020302020302020302020302020302020302020302020302020302020302020302020300A2020202D312E3633363020202020312E3438323120202020302E30303030204F202020302020302020302020302020302020302020302020302020302020302020302020300A2020312020322020312020302020202020200A2020322020332020312020302020202020200A2020332020342020312020302020202020200A2020342020352020322020302020202020200A2020352020362020312020302020202020200A2020362020312020312020302020202020200A2020342020372020312020302020202020200A2020372020382020322020302020202020200A2020382020392020312020302020202020200A2020392031302020322020302020202020200A2031302020352020312020302020202020200A2020312031312020312020302020202020200A2020322031322020312020302020202020200A2031322031332020312020302020202020200A2020392031342020312020302020202020200A2031342031352020322020302020202020200A2031342031362020322020302020202020200A2031342031372020312020302020202020200A2020382031382020312020302020202020200A2020362031392020322020302020202020200A2020362032302020322020302020202020200A4D2020454E44
Contributor: SASAKI S, TOYOHASHI UNIV. OF TECH.
InstType: EI
InstName: Unknown
IoniMethod: EI
IonPolarity: pos
Date: 2010-10-09 19:48:36+02:00
Num Peaks: 279
26 29 27 89 28 440 29 5 30 219 31 25 32 89 34 1 35 90 36 539 
37 39 38 20 39 67 40 33 41 96 42 37 43 299 44 60 45 31 46 0 
47 19 48 219 49 94 50 18 51 87 52 217 53 50 54 7 55 140 56 249 
57 109 58 10 59 9 60 35 61 89 62 26 63 259 64 579 65 94 66 4 
67 22 68 22 69 49 70 2 71 21 72 28 73 99 74 14 75 149 76 109 
77 69 78 14 79 39 80 69 81 17 82 2 83 19 84 25 85 38 86 0 
87 50 88 119 89 159 90 19 91 49 92 109 93 49 94 4 95 29 96 25 
97 140 98 5 99 80 100 40 101 30 102 5 103 33 104 37 105 41 106 3 
107 18 108 27 109 59 110 5 111 49 112 58 113 40 114 5 115 31 116 31 
117 29 118 1 119 19 120 17 121 11 122 2 123 40 124 99 125 70 126 1 
127 58 128 29 129 39 130 2 131 62 132 17 133 10 134 1 135 9 136 16 
137 29 138 4 139 43 140 51 141 29 142 4 143 22 144 25 145 11 146 0 
147 12 148 13 149 29 150 5 151 51 152 40 153 32 154 0 155 23 156 30 
157 23 158 2 159 15 160 12 161 12 162 1 163 16 164 38 165 41 166 1 
167 30 168 28 169 19 170 1 171 16 172 19 173 13 174 2 175 13 176 9 
177 16 178 4 179 39 180 29 181 28 182 2 183 17 184 25 185 18 186 2 
187 19 188 33 189 15 190 3 191 20 192 19 193 12 194 1 195 19 196 11 
197 9 198 1 199 8 200 13 201 9 202 2 203 10 204 16 205 49 206 12 
207 29 208 45 209 9 210 1 211 9 212 9 213 9 214 1 215 6 216 15 
217 23 218 5 219 19 220 28 221 38 222 1 223 18 224 5 229 14 230 1 
231 69 232 79 233 35 234 2 235 15 236 9 237 8 238 1 243 11 244 74 
245 46 246 5 247 26 248 19 249 11 250 1 251 9 252 10 253 16 254 1 
255 9 256 3 257 28 258 7 259 58 260 39 261 29 262 2 263 13 264 19 
265 7 266 1 267 5 268 10 269 11 270 1 271 21 272 20 273 20 274 2 
275 10 276 15 277 6 278 1 279 7 292 10 293 9 294 1 295 8 296 9 
297 5 298 0 299 41 300 9 301 19 302 0 309 25 310 999 311 126 312 43 
313 59 314 47 315 9 316 0 324 37 325 19 326 39 327 1 328 13 329 9 
330 4 337 1 339 7 358 3 359 41 360 1 361 29 362 9 363 11 
