Name: ACETONE
CAS: 67-64-1
MW: 58
Formula: C3H6O
Synonym: MassBank: JP007680
Synonym: ACETONE
Synonym: 2-PROPANONE
Structure: 310A31320A414345544F4E452E6D6F6C0A20204368656D447261773032323131303134343432440A2020342020332020302020302020302020302020302020302020302020303939392056323030300A20202020302E3631383820202020302E3731343520202020302E303030302043202020302020302020302020302020302020302020302020302020302020302020302020300A20202020302E3230363220202020302E3030303020202020302E303030302043202020302020302020302020302020302020302020302020302020302020302020302020300A20202020302E363138382020202D302E3731343520202020302E30303030204F202020302020302020302020302020302020302020302020302020302020302020302020300A2020202D302E3631383820202020302E3030303020202020302E303030302043202020302020302020302020302020302020302020302020302020302020302020302020300A2020312020322020312020302020202020200A2020322020332020322020302020202020200A2020322020342020312020302020202020200A4D2020454E44
Contributor: TAJIMA S, GUNMA COLLEGE OF TECHNOLOGY
InstType: EI
InstName: HITACHI RMU-7M
IoniMethod: _ENERGY 70 eV
IonPolarity: pos
Date: 2010-10-09 19:48:36+02:00
Num Peaks: 16
14 31 15 232 26 31 27 55 28 28 29 44 39 39 41 50 42 63 43 999 
44 37 55 35 56 17 57 59 58 300 59 14 
