Name: MassBank: JP006318
MW: 436
Formula: C26H44O5
Synonym: MassBank: JP006318
Synonym: LABDA-7,14-DIEN-13(R)-OL-BETA-D-FUCOPYRANOSIDE
Structure: 313131335F4C414244412D372C31342D4449454E2D31332852292D4F4C2D424554412D442D4655434F505952414E4F534944452E6D6F6C0A20204368656D447261773039303731303130353432440A2033382034302020302020302020302020302020302020302020302020303939392056323030300A20202020302E3135363220202020322E3731363620202020302E303030302043202020302020302020302020302020302020302020302020302020302020302020302020300A20202020302E3135363220202020312E3839313620202020302E303030302043202020302020302020302020302020302020302020302020302020302020302020302020300A20202020302E3837303720202020312E3437393120202020302E303030302043202020302020302020302020302020302020302020302020302020302020302020302020300A20202020312E3538353220202020312E3839313620202020302E303030302043202020302020302020302020302020302020302020302020302020302020302020302020300A20202020312E3538353220202020322E3731363620202020302E303030302043202020302020302020302020302020302020302020302020302020302020302020302020300A20202020302E3837303720202020332E3132393120202020302E303030302043202020302020302020302020302020302020302020302020302020302020302020302020300A20202020322E3239393720202020312E3437393120202020302E303030302043202020302020302020302020302020302020302020302020302020302020302020302020300A20202020332E3031343120202020312E3839313620202020302E303030302043202020302020302020302020302020302020302020302020302020302020302020302020300A20202020332E3031343120202020322E3731363620202020302E303030302043202020302020302020302020302020302020302020302020302020302020302020302020300A20202020322E3239393720202020332E3132393120202020302E303030302043202020302020302020302020302020302020302020302020302020302020302020302020300A2020202D302E3535383220202020312E3437393120202020302E303030302043202020302020302020302020302020302020302020302020302020302020302020302020300A20202020322E3932363520202020332E3636353520202020302E303030302043202020302020302020302020302020302020302020302020302020302020302020302020300A20202020312E3230343420202020302E3732343620202020302E303030302043202020302020302020302020302020302020302020302020302020302020302020302020300A20202020312E3536323220202020312E3036363920202020302E303030302043202020302020302020302020302020302020302020302020302020302020302020302020300A20202020312E303635392020202D302E3038383720202020302E303030302043202020302020302020302020302020302020302020302020302020302020302020302020300A20202020312E373031302020202D302E3631353320202020302E303030302043202020302020302020302020302020302020302020302020302020302020302020302020300A20202020322E3232373620202020302E3031393820202020302E303030302043202020302020302020302020302020302020302020302020302020302020302020302020300A20202020322E333336312020202D312E3134313920202020302E303030302043202020302020302020302020302020302020302020302020302020302020302020302020300A20202020312E313734342020202D312E3235303420202020302E30303030204F202020302020302020302020302020302020302020302020302020302020302020302020300A20202020302E3235363920202020302E3932373820202020302E303030302048202020302020302020302020302020302020302020302020302020302020302020302020300A20202020312E3538353220202020332E3534313620202020302E303030302048202020302020302020302020302020302020302020302020302020302020302020302020300A20202020312E3832333220202020332E3830323620202020302E303030302043202020302020302020302020302020302020302020302020302020302020302020302020300A20202020332E313039372020202D302E3835353220202020302E303030302043202020302020302020302020302020302020302020302020302020302020302020302020300A2020202D312E393139392020202D312E3137373420202020302E303030302043202020302020302020302020302020302020302020302020302020302020302020302020300A2020202D332E313039372020202D322E3038333420202020302E303030302043202020302020302020302020302020302020302020302020302020302020302020302020300A2020202D312E393139392020202D322E3937373620202020302E303030302043202020302020302020302020302020302020302020302020302020302020302020302020300A2020202D302E303537362020202D322E3937373620202020302E303030302043202020302020302020302020302020302020302020302020302020302020302020302020300A20202020312E313739392020202D322E3038333420202020302E303030302043202020302020302020302020302020302020302020302020302020302020302020302020300A2020202D302E303537362020202D312E3137373420202020302E30303030204F202020302020302020302020302020302020302020302020302020302020302020302020300A2020202D332E313039372020202D312E3332323820202020302E30303030204F202020302020302020302020302020302020302020302020302020302020302020302020300A2020202D332E313039372020202D322E3937373620202020302E303030302048202020302020302020302020302020302020302020302020302020302020302020302020300A20202020312E313739392020202D322E3839363520202020302E303030302048202020302020302020302020302020302020302020302020302020302020302020302020300A2020202D302E303537362020202D322E3137383820202020302E303030302048202020302020302020302020302020302020302020302020302020302020302020302020300A2020202D302E303537362020202D332E3830323620202020302E30303030204F202020302020302020302020302020302020302020302020302020302020302020302020300A2020202D312E393139392020202D332E3830323620202020302E303030302048202020302020302020302020302020302020302020302020302020302020302020302020300A2020202D312E393139392020202D322E3232363520202020302E30303030204F202020302020302020302020302020302020302020302020302020302020302020302020300A2020202D312E393139392020202D302E3431363720202020302E303030302043202020302020302020302020302020302020302020302020302020302020302020302020300A2020202D312E393331382020202D312E3737333520202020302E303030302048202020302020302020302020302020302020302020302020302020302020302020302020300A2020312020322020322020302020202020200A2020322020332020312020302020202020200A2020332020342020312020302020202020200A2020342020352020312020302020202020200A2020352020362020312020302020202020200A2020362020312020312020302020202020200A2020342020372020312020302020202020200A2020372020382020312020302020202020200A2020382020392020312020302020202020200A2020392031302020312020302020202020200A2031302020352020312020302020202020200A2020322031312020312020302020202020200A2031302031322020312020312020202020200A2020332031332020312020312020202020200A2020342031342020312020312020202020200A2031332031352020312020302020202020200A2031352031362020312020302020202020200A2031362031372020312020312020202020200A2031362031382020312020302020202020200A2031362031392020312020312020202020200A2020332032302020312020362020202020200A2020352032312020312020362020202020200A2031302032322020312020362020202020200A2031382032332020322020302020202020200A2032342032352020312020302020202020200A2032352032362020312020312020202020200A2032362032372020312020312020202020200A2032382032372020312020312020202020200A2032382032392020312020302020202020200A2032342032392020312020302020202020200A2032352033302020312020302020202020200A2032352033312020312020302020202020200A2032382033322020312020302020202020200A2032372033332020312020302020202020200A2032372033342020312020302020202020200A2032362033352020312020302020202020200A2032362033362020312020302020202020200A2032342033372020312020302020202020200A2032342033382020312020302020202020200A2031392032382020312020302020202020200A4D2020454E44
Contributor: EGUCHI S, FAC. OF SCIENCE, HIROSHIMA UNIV.
InstType: EI
InstName: HITACHI RMU-6L
IoniMethod: _ENERGY 70 eV
IonPolarity: pos
Date: 2010-10-09 19:48:36+02:00
Num Peaks: 188
40 30 41 531 42 73 43 46 44 55 45 333 46 21 47 2 48 20 49 15 
50 15 51 5 52 21 53 114 54 51 55 46 56 116 57 477 58 55 59 34 
60 135 61 67 62 15 63 3 64 21 65 50 66 28 67 17 68 65 69 330 
70 170 71 34 72 53 73 205 74 170 75 17 76 50 77 55 78 205 79 17 
80 165 81 364 82 107 83 20 84 67 85 95 86 25 87 4 88 20 89 25 
90 15 91 16 92 54 93 232 94 85 95 26 96 70 97 30 98 45 99 2 
100 20 101 27 102 22 103 4 104 55 105 140 106 52 107 17 108 143 109 330 
110 52 111 7 112 83 113 103 114 21 115 4 116 84 117 105 118 21 119 20 
120 85 121 190 122 110 123 11 124 55 125 50 126 25 127 5 128 43 129 55 
130 25 131 5 132 35 133 145 134 85 135 2 136 70 137 70 138 27 139 3 
140 15 141 40 142 25 143 3 144 22 145 50 146 21 147 5 148 25 149 100 
150 91 151 8 152 80 153 41 154 29 155 3 156 20 157 25 158 20 159 3 
160 20 161 25 162 23 163 17 164 56 165 81 166 35 167 3 168 15 169 225 
170 25 171 2 172 11 173 11 174 25 175 2 176 72 177 45 178 55 179 3 
180 20 181 25 182 20 183 2 184 11 185 15 186 11 187 3 188 22 189 145 
190 44 191 16 192 28 193 15 194 15 201 3 202 22 203 78 204 999 205 26 
206 35 218 50 219 31 220 4 221 18 249 55 257 48 258 2 263 40 271 30 
272 55 273 7 274 20 279 185 288 3 289 1 290 4 291 2 324 3 337 0 
350 3 352 6 367 5 380 0 390 3 403 2 418 1 436 3 
