Name: 4-AMINOANTIPYRIN
MW: 203
Formula: C11H13N3O
Synonym: MassBank: JP003820
Synonym: 4-AMINOANTIPYRIN
Structure: 342D414D494E4F414E5449505952494E2E6D6F6C0A20204368656D447261773033323531303034333632440A2031352031362020302020302020302020302020302020302020302020303939392056323030300A20202020312E353338362020202D302E3431323520202020302E303030302043202020302020302020302020302020302020302020302020302020302020302020302020300A20202020302E373533392020202D302E3636373420202020302E303030302043202020302020302020302020302020302020302020302020302020302020302020302020300A20202020302E343939302020202D312E3435323120202020302E30303030204F202020302020302020302020302020302020302020302020302020302020302020302020300A20202020302E3236393020202020302E3030303020202020302E30303030204E202020302020302020302020302020302020302020302020302020302020302020302020300A20202020302E3735333920202020302E3636373420202020302E30303030204E202020302020302020302020302020302020302020302020302020302020302020302020300A20202020302E3439393020202020312E3435323120202020302E303030302043202020302020302020302020302020302020302020302020302020302020302020302020300A20202020312E3533383620202020302E3431323520202020302E303030302043202020302020302020302020302020302020302020302020302020302020302020302020300A20202020322E3230363020202020302E3839373420202020302E303030302043202020302020302020302020302020302020302020302020302020302020302020302020300A2020202D302E3535363020202020302E3030303020202020302E303030302043202020302020302020302020302020302020302020302020302020302020302020302020300A2020202D302E393638352020202D302E3731343520202020302E303030302043202020302020302020302020302020302020302020302020302020302020302020302020300A2020202D312E373933352020202D302E3731343520202020302E303030302043202020302020302020302020302020302020302020302020302020302020302020302020300A2020202D322E3230363020202020302E3030303020202020302E303030302043202020302020302020302020302020302020302020302020302020302020302020302020300A2020202D312E3739333520202020302E3731343520202020302E303030302043202020302020302020302020302020302020302020302020302020302020302020302020300A2020202D302E3936383520202020302E3731343520202020302E303030302043202020302020302020302020302020302020302020302020302020302020302020302020300A20202020322E323036302020202D302E3839373420202020302E30303030204E202020302020302020302020302020302020302020302020302020302020302020302020300A2020312020322020312020302020202020200A2020322020332020322020302020202020200A2020322020342020312020302020202020200A2020342020352020312020302020202020200A2020352020362020312020302020202020200A2020352020372020312020302020202020200A2020372020382020312020302020202020200A2020312020372020322020302020202020200A2020342020392020312020302020202020200A2020392031302020312020302020202020200A2031302031312020322020302020202020200A2031312031322020312020302020202020200A2031322031332020322020302020202020200A2031332031342020312020302020202020200A2020392031342020322020302020202020200A2020312031352020312020302020202020200A4D2020454E44
Contributor: SASAKI S, TOYOHASHI UNIV. OF TECH.
InstType: EI
InstName: Unknown
IoniMethod: _ENERGY 70 eV
IonPolarity: pos
Date: 2010-10-09 19:48:36+02:00
Num Peaks: 30
39 49 40 29 41 39 42 31 43 34 44 39 51 79 52 3 53 19 54 69 
55 39 56 999 57 639 58 19 77 139 82 5 83 269 84 649 85 39 91 9 
92 29 93 119 103 24 104 2 109 29 119 104 201 39 202 7 203 439 204 39 
