Name: MassBank: JP003717
MW: 61
Formula: C2H7NO
Synonym: MassBank: JP003717
Synonym: O,N-DIMETHYLHYDROXYLAMINE
Structure: 310A31320A4F2C4E2D44494D455448594C485944524F58594C414D494E452E6D6F6C0A20204368656D447261773038313231303033313332440A2020342020332020302020302020302020302020302020302020302020303939392056323030300A2020202D302E333537322020202D302E3230363220202020302E30303030204E202020302020302020302020302020302020302020302020302020302020302020302020300A20202020302E3335373220202020302E3230363220202020302E30303030204F202020302020302020302020302020302020302020302020302020302020302020302020300A2020202D312E3037313720202020302E3230363220202020302E303030302043202020302020302020302020302020302020302020302020302020302020302020302020300A20202020312E303731372020202D302E3230363220202020302E303030302043202020302020302020302020302020302020302020302020302020302020302020302020300A2020312020322020312020302020202020200A2020312020332020312020302020202020200A2020322020342020312020302020202020200A4D2020454E44
Contributor: SASAKI S, TOYOHASHI UNIV. OF TECH.
InstType: EI
InstName: Unknown
IoniMethod: EI
IonPolarity: pos
Date: 2010-10-09 19:48:36+02:00
Num Peaks: 10
41 10 42 30 43 20 44 2 45 140 46 999 47 20 60 2 61 900 62 20 
