Name: BETA-TERPINEOL
MW: 154
Formula: C10H18O
Synonym: MassBank: JP006929
Synonym: BETA-TERPINEOL
Synonym: 1-METHYL-4-(1-METHYLETHENYL)CYCLOHEXAN-1-OL
Structure: 424554412D54455250494E454F4C2E6D6F6C0A20204368656D447261773131313930393136343432440A2031312031312020302020302020302020302020302020302020302020303939392056323030300A20202020312E3132373820202020302E3030303020202020302E303030302043202020302020302020302020302020302020302020302020302020302020302020302020300A20202020302E373135332020202D302E3731343520202020302E303030302043202020302020302020302020302020302020302020302020302020302020302020302020300A2020202D302E313039372020202D302E3731343520202020302E303030302043202020302020302020302020302020302020302020302020302020302020302020302020300A2020202D302E3532323220202020302E3030303020202020302E303030302043202020302020302020302020302020302020302020302020302020302020302020302020300A2020202D302E3130393720202020302E3731343520202020302E303030302043202020302020302020302020302020302020302020302020302020302020302020302020300A20202020302E3731353320202020302E3731343520202020302E303030302043202020302020302020302020302020302020302020302020302020302020302020302020300A20202020312E3735393720202020302E3533303320202020302E30303030204F202020302020302020302020302020302020302020302020302020302020302020302020300A2020202D312E3334373220202020302E3030303020202020302E303030302043202020302020302020302020302020302020302020302020302020302020302020302020300A2020202D312E3735393720202020302E3731343520202020302E303030302043202020302020302020302020302020302020302020302020302020302020302020302020300A2020202D312E373539372020202D302E3731343520202020302E303030302043202020302020302020302020302020302020302020302020302020302020302020302020300A20202020312E373539372020202D302E3533303320202020302E303030302043202020302020302020302020302020302020302020302020302020302020302020302020300A2020312020322020312020302020202020200A2020322020332020312020302020202020200A2020332020342020312020302020202020200A2020342020352020312020302020202020200A2020352020362020312020302020202020200A2020312020362020312020302020202020200A2020312020372020312020302020202020200A2020382020392020322020302020202020200A2020382031302020312020302020202020200A2020342020382020312020302020202020200A2020312031312020312020302020202020200A4D2020454E44
Contributor: TAJIMA S, GUNMA COLLEGE OF TECHNOLOGY
InstType: EI
InstName: HITACHI M-80B
IoniMethod: _ENERGY 70 eV
IonPolarity: pos
Date: 2010-10-09 19:48:36+02:00
Num Peaks: 63
15 28 27 184 28 59 29 141 31 30 38 11 39 276 40 69 41 408 42 54 
43 869 44 20 45 39 50 11 51 46 52 23 53 191 54 32 55 273 56 68 
57 60 58 288 59 26 62 13 63 16 65 49 66 29 67 244 68 349 69 427 
70 38 71 999 72 52 77 74 78 17 79 217 80 94 81 208 82 46 83 141 
84 222 85 17 91 61 92 170 93 557 94 274 95 134 96 30 97 62 105 20 
107 310 108 203 109 22 111 125 112 10 121 334 122 27 123 12 125 10 126 12 
136 459 137 56 139 64 
