Name: METHYL 2-TRIMETHYLSILOXYEICOSANOATE
MW: 414
Formula: C24H50O3Si
Synonym: MassBank: JP001868
Synonym: METHYL 2-TRIMETHYLSILOXYEICOSANOATE
Synonym: METHYL (O-TRIMETHYLSILYL)-ALPHA-HYDROXYARACHIDATE
Structure: 303334315F4D455448594C20322D5452494D455448594C53494C4F58594549434F53414E4F4154452E6D6F6C0A20204368656D447261773039303631303136313132440A2032382032372020302020302020302020302020302020302020302020303939392056323030300A20202020342E3331363920202020302E3334303420202020302E303030302043202020302020302020302020302020302020302020302020302020302020302020302020300A20202020332E3535333720202020302E3732393320202020302E303030302043202020302020302020302020302020302020302020302020302020302020302020302020300A20202020342E333337352020202D302E3438343520202020302E303030302043202020302020302020302020302020302020302020302020302020302020302020302020300A20202020332E363233302020202D302E3839373020202020302E303030302043202020302020302020302020302020302020302020302020302020302020302020302020300A20202020322E393038352020202D302E3438343520202020302E303030302043202020302020302020302020302020302020302020302020302020302020302020302020300A20202020322E313934322020202D302E3839373020202020302E303030302043202020302020302020302020302020302020302020302020302020302020302020302020300A20202020312E343739372020202D302E3438343520202020302E303030302043202020302020302020302020302020302020302020302020302020302020302020302020300A20202020302E373635322020202D302E3839373020202020302E303030302043202020302020302020302020302020302020302020302020302020302020302020302020300A20202020302E303530382020202D302E3438343520202020302E303030302043202020302020302020302020302020302020302020302020302020302020302020302020300A2020202D302E363633362020202D302E3839373020202020302E303030302043202020302020302020302020302020302020302020302020302020302020302020302020300A2020202D312E333738312020202D302E3438343520202020302E303030302043202020302020302020302020302020302020302020302020302020302020302020302020300A2020202D322E303932362020202D302E3839373020202020302E303030302043202020302020302020302020302020302020302020302020302020302020302020302020300A2020202D322E383037302020202D302E3438343520202020302E303030302043202020302020302020302020302020302020302020302020302020302020302020302020300A2020202D332E353231352020202D302E3839373020202020302E303030302043202020302020302020302020302020302020302020302020302020302020302020302020300A2020202D342E323335392020202D302E3438343520202020302E303030302043202020302020302020302020302020302020302020302020302020302020302020302020300A2020202D342E393530332020202D302E3839373020202020302E303030302043202020302020302020302020302020302020302020302020302020302020302020302020300A2020202D352E363634382020202D302E3438343520202020302E303030302043202020302020302020302020302020302020302020302020302020302020302020302020300A2020202D362E333739332020202D302E3839373020202020302E303030302043202020302020302020302020302020302020302020302020302020302020302020302020300A20202020342E3732393320202020312E3035343920202020302E30303030204F202020302020302020302020302020302020302020302020302020302020302020302020300A20202020352E3535343320202020312E3035343920202020302E303030302053692020302020302020302020302020302020302020302020302020302020302020302020300A20202020352E3535343320202020302E3232393920202020302E303030302043202020302020302020302020302020302020302020302020302020302020302020302020300A20202020352E3535343320202020312E3837393920202020302E303030302043202020302020302020302020302020302020302020302020302020302020302020302020300A20202020362E3337393320202020312E3035343920202020302E303030302043202020302020302020302020302020302020302020302020302020302020302020302020300A20202020322E3734373020202020302E3930323220202020302E30303030204F202020302020302020302020302020302020302020302020302020302020302020302020300A20202020332E3832393720202020312E3530363820202020302E30303030204F202020302020302020302020302020302020302020302020302020302020302020302020300A20202020332E3239343420202020322E3133343520202020302E303030302043202020302020302020302020302020302020302020302020302020302020302020302020300A2020202D362E333739332020202D312E3732323020202020302E303030302043202020302020302020302020302020302020302020302020302020302020302020302020300A2020202D352E363634382020202D322E3133343520202020302E303030302043202020302020302020302020302020302020302020302020302020302020302020302020300A2020312020322020312020302020202020200A2020332020342020312020302020202020200A2020342020352020312020302020202020200A2020352020362020312020302020202020200A2020362020372020312020302020202020200A2020372020382020312020302020202020200A2020382020392020312020302020202020200A2020392031302020312020302020202020200A2031302031312020312020302020202020200A2031312031322020312020302020202020200A2031322031332020312020302020202020200A2031332031342020312020302020202020200A2031342031352020312020302020202020200A2031352031362020312020302020202020200A2031362031372020312020302020202020200A2031372031382020312020302020202020200A2020312031392020312020302020202020200A2032302032312020312020302020202020200A2032302032322020312020302020202020200A2032302032332020312020302020202020200A2031392032302020312020302020202020200A2020312020332020312020302020202020200A2020322032342020322020302020202020200A2020322032352020312020302020202020200A2032352032362020312020302020202020200A2031382032372020312020302020202020200A2032372032382020312020302020202020200A4D2020454E44
Contributor: SEYAMA Y, DEPT. OF PHYSIOL. CHEMISTRY AND NUTRITION, FAC. OF MEDICINE, UNIV. OF TOKYO
InstType: EI
InstName: SHIMADZU LKB-9000B
IoniMethod: _ENERGY 70 eV
IonPolarity: pos
Date: 2010-10-09 19:48:36+02:00
Num Peaks: 72
39 11 41 88 42 21 43 199 45 22 54 11 55 113 56 23 57 170 58 11 
59 61 61 12 67 40 68 17 69 104 70 24 71 85 72 12 73 551 74 55 
75 143 76 13 81 48 82 29 83 129 84 16 85 44 87 17 89 249 90 21 
91 51 95 49 97 118 98 10 99 11 101 26 103 161 104 17 105 19 107 15 
109 29 111 55 113 10 115 28 116 17 117 14 119 24 123 11 125 18 129 132 
130 16 131 20 143 16 145 19 146 22 149 42 159 89 161 13 162 16 167 14 
185 11 207 26 355 999 356 293 357 73 358 10 371 36 372 10 399 331 400 102 
401 25 414 17 
