Name: PHENYLSILANE
MW: 108
Formula: C6H8Si
Synonym: MassBank: JP008881
Synonym: PHENYLSILANE
Structure: 310A31390A5048454E594C53494C414E452E6D6F6C0A20204368656D447261773038313231303035333432440A2020372020372020302020302020302020302020302020302020302020303939392056323030300A2020202D312E323337352020202D302E3030303020202020302E303030302053692020302020302020302020302020302020302020302020302020302020302020302020300A2020202D302E343132352020202D302E3030303020202020302E303030302043202020302020302020302020302020302020302020302020302020302020302020302020300A2020202D302E3030303020202020302E3731343520202020302E303030302043202020302020302020302020302020302020302020302020302020302020302020302020300A20202020302E3832353020202020302E3731343520202020302E303030302043202020302020302020302020302020302020302020302020302020302020302020302020300A20202020312E323337352020202D302E3030303020202020302E303030302043202020302020302020302020302020302020302020302020302020302020302020302020300A20202020302E383235302020202D302E3731343520202020302E303030302043202020302020302020302020302020302020302020302020302020302020302020302020300A2020202D302E303030302020202D302E3731343520202020302E303030302043202020302020302020302020302020302020302020302020302020302020302020302020300A2020322020332020312020302020202020200A2020332020342020322020302020202020200A2020342020352020312020302020202020200A2020352020362020322020302020202020200A2020362020372020312020302020202020200A2020322020372020322020302020202020200A2020312020322020312020302020202020200A4D2020454E44
Contributor: TAJIMA S, GUNMA COLLEGE OF TECHNOLOGY
InstType: EI
InstName: HITACHI RMU-7M
IoniMethod: _ENERGY 70 eV
IonPolarity: pos
Date: 2010-10-09 19:48:36+02:00
Num Peaks: 50
26 27 27 72 28 75 29 213 30 56 31 92 37 27 38 35 39 116 41 21 
42 26 43 38 45 28 46 13 49 26 50 233 51 388 52 121 53 999 53.5 23 
54 236 55 300 56 32 57 16 63 13 65 58 66 101 67 101 68 15 73 16 
74 54 75 26 76 36 77 323 78 250 79 261 80 91 81 184 82 73 83 14 
93 66 101 24 103 64 104 24 105 676 106 933 107 960 108 944 109 128 110 36 
