Name: ALPHA-FENCHYL ACETATE
MW: 196
Formula: C12H20O2
Synonym: MassBank: JP007162
Synonym: ALPHA-FENCHYL ACETATE
Structure: 414C5048412D46454E4348594C20414345544154452E6D6F6C0A20204368656D447261773038303631303036313532440A2031362031372020302020302020302020302020302020302020302020303939392056323030300A20202020312E333837302020202D302E3136393920202020302E303030302043202020302020302020302020302020302020302020302020302020302020302020302020300A20202020322E313031352020202D302E3538323420202020302E303030302043202020302020302020302020302020302020302020302020302020302020302020302020300A20202020312E3338373020202020302E3635323220202020302E30303030204F202020302020302020302020302020302020302020302020302020302020302020302020300A20202020302E363730302020202D302E3538333920202020302E30303030204F202020302020302020302020302020302020302020302020302020302020302020302020300A2020202D302E303338322020202D302E3137353020202020302E303030302043202020302020302020302020302020302020302020302020302020302020302020302020300A2020202D302E383737312020202D302E3532323320202020302E303030302043202020302020302020302020302020302020302020302020302020302020302020302020300A2020202D302E343634362020202D312E3233363820202020302E303030302043202020302020302020302020302020302020302020302020302020302020302020302020300A2020202D312E353338372020202D312E3030323620202020302E303030302043202020302020302020302020302020302020302020302020302020302020302020302020300A2020202D312E3338373020202020302E3033373620202020302E303030302043202020302020302020302020302020302020302020302020302020302020302020302020300A2020202D312E3437323720202020302E3930363420202020302E303030302043202020302020302020302020302020302020302020302020302020302020302020302020300A2020202D302E3639333320202020312E3233363820202020302E303030302043202020302020302020302020302020302020302020302020302020302020302020302020300A2020202D302E3136343620202020302E3538353420202020302E303030302043202020302020302020302020302020302020302020302020302020302020302020302020300A20202020302E3538393020202020302E3932313020202020302E303030302043202020302020302020302020302020302020302020302020302020302020302020302020300A2020202D302E353438392020202D302E3138333520202020302E303030302043202020302020302020302020302020302020302020302020302020302020302020302020300A2020202D322E313031352020202D302E3337343920202020302E303030302048202020302020302020302020302020302020302020302020302020302020302020302020300A20202020302E313735332020202D302E3937313920202020302E303030302048202020302020302020302020302020302020302020302020302020302020302020302020300A2020312020322020312020302020202020200A2020312020332020322020302020202020200A2020312020342020312020302020202020200A2020352020362020312020302020202020200A2020362020372020312020362020202020200A2020362020382020312020312020202020200A2020362020392020312020302020202020200A2020392031302020312020302020202020200A2031302031312020312020302020202020200A2031312031322020312020302020202020200A2031322031332020312020362020202020200A2020352031322020312020302020202020200A2020392031342020312020312020202020200A2031322031342020312020312020202020200A2020352020342020312020362020202020200A2020392031352020312020362020202020200A2020352031362020312020312020202020200A4D2020454E44
Contributor: SODA AROMATIC CO., LTD.
InstType: EI
InstName: HITACHI M-80B
IoniMethod: _ENERGY 70 eV
IonPolarity: pos
Date: 2010-10-09 19:48:36+02:00
Num Peaks: 59
15 20 27 51 29 46 39 67 41 213 42 17 43 743 44 14 45 16 53 64 
54 12 55 93 56 20 57 35 59 14 65 17 67 101 68 19 69 128 70 13 
71 61 72 86 77 37 79 71 80 442 81 999 82 116 83 52 84 51 85 16 
86 15 91 32 92 60 93 237 94 33 95 63 96 12 97 19 98 14 99 12 
105 12 107 129 108 23 109 76 110 14 111 56 113 15 114 18 115 31 121 180 
122 15 123 28 135 36 136 325 137 40 139 19 153 26 154 37 196 13 
