Name: MassBank: JP007535
CAS: 55-38-9
MW: 278
Formula: C10H15O3PS2
Synonym: MassBank: JP007535
Synonym: O,O-DIMETHYL O-(3-METHYL-4-METHYLTHIOPHENYL) PHOSPHOROTHIOATE
Structure: 4F2C4F2D44494D455448594C204F2D28332D4D455448594C2D342D4D455448594C5448494F5048454E594C292050484F5350484F524F5448494F4154452E6D6F6C0A20204368656D447261773038313231303033313432440A2031362031362020302020302020302020302020302020302020302020303939392056323030300A20202020312E343238392020202D302E3335373220202020302E303030302050202020302020302020302020302020302020302020302020302020302020302020302020300A20202020322E3134333420202020302E3035353320202020302E30303030204F202020302020302020302020302020302020302020302020302020302020302020302020300A20202020312E3031363420202020302E3335373220202020302E30303030204F202020302020302020302020302020302020302020302020302020302020302020302020300A20202020302E373134352020202D302E3736393720202020302E30303030204F202020302020302020302020302020302020302020302020302020302020302020302020300A20202020312E383431342020202D312E3037313720202020302E303030302053202020302020302020302020302020302020302020302020302020302020302020302020300A2020202D302E303030302020202D302E3335373220202020302E303030302043202020302020302020302020302020302020302020302020302020302020302020302020300A2020202D302E373134352020202D302E3736393720202020302E303030302043202020302020302020302020302020302020302020302020302020302020302020302020300A2020202D312E343238392020202D302E3335373220202020302E303030302043202020302020302020302020302020302020302020302020302020302020302020302020300A2020202D312E3432383920202020302E3436373820202020302E303030302043202020302020302020302020302020302020302020302020302020302020302020302020300A2020202D302E3731343520202020302E3838303320202020302E303030302043202020302020302020302020302020302020302020302020302020302020302020302020300A20202020302E3030303020202020302E3436373820202020302E303030302043202020302020302020302020302020302020302020302020302020302020302020302020300A2020202D322E3134333420202020302E3838303320202020302E303030302053202020302020302020302020302020302020302020302020302020302020302020302020300A2020202D322E3835373920202020302E3436373820202020302E303030302043202020302020302020302020302020302020302020302020302020302020302020302020300A2020202D322E313433342020202D302E3736393720202020302E303030302043202020302020302020302020302020302020302020302020302020302020302020302020300A20202020322E383537392020202D302E3335373220202020302E303030302043202020302020302020302020302020302020302020302020302020302020302020302020300A20202020312E3432383920202020312E3037313720202020302E303030302043202020302020302020302020302020302020302020302020302020302020302020302020300A2020312020322020312020302020202020200A2020312020332020312020302020202020200A2020312020342020312020302020202020200A2020312020352020322020302020202020200A2020362020372020312020302020202020200A2020372020382020322020302020202020200A2020382020392020312020302020202020200A2020392031302020322020302020202020200A2031302031312020312020302020202020200A2020362031312020322020302020202020200A2031322031332020312020302020202020200A2020392031322020312020302020202020200A2020382031342020312020302020202020200A2020342020362020312020302020202020200A2020322031352020312020302020202020200A2020332031362020312020302020202020200A4D2020454E44
Contributor: KOGA M, UNIV. OF OCCUPATIONAL AND ENVIRONMENTAL HEALTH
InstType: EI
InstName: JEOL JMS-01-SG
IoniMethod: _ENERGY 70 eV
IonPolarity: pos
Date: 2010-10-09 19:48:36+02:00
Num Peaks: 86
45 249 47 315 50 17 51 7 52 59 53 17 59 24 62 13 63 126 64 42 
65 77 66 5 69 56 70 42 71 17 73 3 76 24 77 84 78 129 79 43 
84 24 85 38 89 42 91 15 93 378 94 28 95 38 96 2 105 80 106 17 
107 17 109 91 110 143 111 45 121 157 122 9 123 52 124 21 125 999 126 4 
127 56 134 28 135 157 136 7 137 245 138 101 139 56 142 2 143 28 149 17 
150 17 151 34 152 35 153 291 154 133 155 9 167 66 168 178 169 764 170 13 
171 63 182 17 183 24 184 6 185 28 200 31 201 35 213 4 215 28 216 38 
231 70 232 4 233 63 244 21 245 294 246 14 247 35 262 42 263 192 264 2 
265 17 277 17 278 189 279 46 280 340 281 21 
