Name: 3-INDOLEBUTYRIC ACID METHYL ESTER
MW: 217
Formula: C13H15NO2
Synonym: MassBank: JP002653
Synonym: 3-INDOLEBUTYRIC ACID METHYL ESTER
Structure: 332D494E444F4C45425554595249432041434944204D455448594C2045535445522E6D6F6C0A20204368656D447261773032323231303231343432440A2031362031372020302020302020302020302020302020302020302020303939392056323030300A20202020312E313433322020202D312E3135313120202020302E30303030204E202020302020302020302020302020302020302020302020302020302020302020302020300A20202020302E333839352020202D302E3831353620202020302E303030302043202020302020302020302020302020302020302020302020302020302020302020302020300A20202020302E3437353820202020302E3030343920202020302E303030302043202020302020302020302020302020302020302020302020302020302020302020302020300A20202020312E3238323720202020302E3137363420202020302E303030302043202020302020302020302020302020302020302020302020302020302020302020302020300A20202020312E3639353220202020302E3839303920202020302E303030302043202020302020302020302020302020302020302020302020302020302020302020302020300A20202020322E3532303220202020302E3839303920202020302E303030302043202020302020302020302020302020302020302020302020302020302020302020302020300A20202020322E3933323720202020302E3137363420202020302E303030302043202020302020302020302020302020302020302020302020302020302020302020302020300A20202020322E353230322020202D302E3533383020202020302E303030302043202020302020302020302020302020302020302020302020302020302020302020302020300A20202020312E363935322020202D302E3533383020202020302E303030302043202020302020302020302020302020302020302020302020302020302020302020302020300A2020202D322E3331393720202020302E3539393120202020302E303030302043202020302020302020302020302020302020302020302020302020302020302020302020300A2020202D312E3533353020202020302E3835343020202020302E303030302043202020302020302020302020302020302020302020302020302020302020302020302020300A2020202D302E3932313920202020302E3330323020202020302E303030302043202020302020302020302020302020302020302020302020302020302020302020302020300A2020202D302E3133373320202020302E3535363920202020302E303030302043202020302020302020302020302020302020302020302020302020302020302020302020300A2020202D322E3933323720202020312E3135313120202020302E30303030204F202020302020302020302020302020302020302020302020302020302020302020302020300A2020202D322E353333322020202D302E3139373820202020302E30303030204F202020302020302020302020302020302020302020302020302020302020302020302020300A2020202D312E393439382020202D302E3738313220202020302E303030302043202020302020302020302020302020302020302020302020302020302020302020302020300A2020312020322020312020302020202020200A2020322020332020322020302020202020200A2020332020342020312020302020202020200A2020342020352020312020302020202020200A2020352020362020322020302020202020200A2020362020372020312020302020202020200A2020372020382020322020302020202020200A2020382020392020312020302020202020200A2020312020392020312020302020202020200A2020342020392020322020302020202020200A2031302031312020312020302020202020200A2031312031322020312020302020202020200A2031322031332020312020302020202020200A2031302031342020322020302020202020200A2031302031352020312020302020202020200A2020332031332020312020302020202020200A2031352031362020312020302020202020200A4D2020454E44
Contributor: KOGA M, UNIV. OF OCCUPATIONAL AND ENVIRONMENTAL HEALTH
InstType: EI
InstName: JEOL JMS-01-SG
IoniMethod: _ENERGY 70 eV
IonPolarity: pos
Date: 2010-10-09 19:48:36+02:00
Num Peaks: 30
42 98 51 143 55 45 63 7 65 156 75 45 76 52 77 42 78 52 79 52 
89 52 102 12 103 261 115 156 116 45 117 9 127 45 128 111 129 215 130 86 
131 496 142 71 143 908 144 25 156 163 157 52 186 392 187 5 217 999 218 11 
