Name: DIETHYLHYDRAZONE ACETALDEHYDE
MW: 114
Formula: C6H14N2
Synonym: MassBank: JP000829
Synonym: DIETHYLHYDRAZONE ACETALDEHYDE
Synonym: ACETALDEHYDE DIETHYLHYDRAZONE
Structure: 310A32300A4449455448594C48594452415A4F4E452041434554414C4445485944452E6D6F6C0A20204368656D447261773036323431303035333332440A2020382020372020302020302020302020302020302020302020302020303939392056323030300A2020202D302E383235302020202D312E3037313720202020302E303030302043202020302020302020302020302020302020302020302020302020302020302020302020300A2020202D312E363530302020202D312E3037313720202020302E303030302043202020302020302020302020302020302020302020302020302020302020302020302020300A2020202D302E343132352020202D302E3335373220202020302E30303030204E202020302020302020302020302020302020302020302020302020302020302020302020300A20202020302E343132352020202D302E3335373220202020302E30303030204E202020302020302020302020302020302020302020302020302020302020302020302020300A20202020302E3832353020202020302E3335373220202020302E303030302043202020302020302020302020302020302020302020302020302020302020302020302020300A20202020302E3431323520202020312E3037313720202020302E303030302043202020302020302020302020302020302020302020302020302020302020302020302020300A20202020302E383235302020202D312E3037313720202020302E303030302043202020302020302020302020302020302020302020302020302020302020302020302020300A20202020312E363530302020202D312E3037313720202020302E303030302043202020302020302020302020302020302020302020302020302020302020302020302020300A2020312020322020312020302020202020200A2020332020342020312020302020202020200A2020352020362020312020302020202020200A2020342020352020312020302020202020200A2020372020382020312020302020202020200A2020342020372020312020302020202020200A2020312020332020322020302020202020200A4D2020454E44
Contributor: SASAKI S, TOYOHASHI UNIV. OF TECH.
InstType: EI
InstName: SHIMADZU LKB-2091
IoniMethod: _ENERGY 70 eV
IonPolarity: pos
Date: 2010-10-09 19:48:36+02:00
Num Peaks: 27
26 30 27 160 28 195 29 33 30 410 31 10 39 9 40 2 41 48 42 270 
43 32 44 18 54 8 55 11 56 200 57 5 58 90 69 9 70 45 71 18 
72 15 85 18 99 999 100 6 113 30 114 380 115 32 
