Name: DIBUTYL 1-(N-TRIFLUOROACETYLAMINO)PENTYLPHOSPHONATE
MW: 375
Formula: C15H29F3NO4P
Synonym: MassBank: JP004548
Synonym: DIBUTYL 1-(N-TRIFLUOROACETYLAMINO)PENTYLPHOSPHONATE
Structure: 4449425554594C20312D284E2D545249464C554F524F41434554594C414D494E4F2950454E54594C50484F5350484F4E4154452E6D6F6C0A20204368656D447261773039323131303137323232440A2032342032332020302020302020302020302020302020302020302020303939392056323030300A20202020302E3232313120202020302E3637343020202020302E303030302050202020302020302020302020302020302020302020302020302020302020302020302020300A20202020302E3232313120202020312E3439393020202020302E303030302043202020302020302020302020302020302020302020302020302020302020302020302020300A20202020302E323231312020202D302E3135313020202020302E30303030204F202020302020302020302020302020302020302020302020302020302020302020302020300A20202020312E3034363120202020302E3637343020202020302E30303030204F202020302020302020302020302020302020302020302020302020302020302020302020300A2020202D302E3630333920202020302E3637343020202020302E30303030204F202020302020302020302020302020302020302020302020302020302020302020302020300A20202020302E393335352020202D302E3536333520202020302E303030302043202020302020302020302020302020302020302020302020302020302020302020302020300A20202020302E393335352020202D312E3338383520202020302E303030302043202020302020302020302020302020302020302020302020302020302020302020302020300A20202020312E363530302020202D312E3830313020202020302E303030302043202020302020302020302020302020302020302020302020302020302020302020302020300A20202020312E363530302020202D322E3632363020202020302E303030302043202020302020302020302020302020302020302020302020302020302020302020302020300A2020202D312E303136342020202D302E3034303520202020302E303030302043202020302020302020302020302020302020302020302020302020302020302020302020300A2020202D312E383431342020202D302E3034303520202020302E303030302043202020302020302020302020302020302020302020302020302020302020302020302020300A2020202D322E323533392020202D302E3735343920202020302E303030302043202020302020302020302020302020302020302020302020302020302020302020302020300A2020202D332E303738392020202D302E3735343920202020302E303030302043202020302020302020302020302020302020302020302020302020302020302020302020300A2020202D302E3439333420202020312E3931313520202020302E303030302043202020302020302020302020302020302020302020302020302020302020302020302020300A20202020302E3933353520202020312E3931313520202020302E30303030204E202020302020302020302020302020302020302020302020302020302020302020302020300A2020202D312E3230373920202020312E3439393020202020302E303030302043202020302020302020302020302020302020302020302020302020302020302020302020300A2020202D312E3932323420202020312E3931313520202020302E303030302043202020302020302020302020302020302020302020302020302020302020302020302020300A2020202D322E3633363820202020312E3439393020202020302E303030302043202020302020302020302020302020302020302020302020302020302020302020302020300A20202020312E3635303020202020312E3439393020202020302E303030302043202020302020302020302020302020302020302020302020302020302020302020302020300A20202020322E3336343520202020312E3931313520202020302E303030302043202020302020302020302020302020302020302020302020302020302020302020302020300A20202020312E3635303020202020302E3637343020202020302E30303030204F202020302020302020302020302020302020302020302020302020302020302020302020300A20202020332E3037383920202020322E3332343020202020302E303030302046202020302020302020302020302020302020302020302020302020302020302020302020300A20202020312E3935323020202020322E3632363020202020302E303030302046202020302020302020302020302020302020302020302020302020302020302020302020300A20202020322E3737373020202020312E3139373020202020302E303030302046202020302020302020302020302020302020302020302020302020302020302020302020300A2020312020322020312020302020202020200A2020312020332020312020302020202020200A2020312020342020322020302020202020200A2020312020352020312020302020202020200A2020332020362020312020302020202020200A2020362020372020312020302020202020200A2020372020382020312020302020202020200A2020382020392020312020302020202020200A2020352031302020312020302020202020200A2031302031312020312020302020202020200A2031312031322020312020302020202020200A2031322031332020312020302020202020200A2020322031342020312020302020202020200A2020322031352020312020302020202020200A2031342031362020312020302020202020200A2031362031372020312020302020202020200A2031372031382020312020302020202020200A2031352031392020312020302020202020200A2031392032302020312020302020202020200A2031392032312020322020302020202020200A2032302032322020312020302020202020200A2032302032332020312020302020202020200A2032302032342020312020302020202020200A4D2020454E44
Contributor: HAYASHI A, DEPT. OF CHEMISTRY, FAC. OF SCI. AND TECHNOLOGY, KINKI UNIV.
InstType: EI
InstName: SHIMADZU LKB-9000B
IoniMethod: _ENERGY 70 eV
IonPolarity: pos
Date: 2010-10-09 19:48:36+02:00
Num Peaks: 50
69 51 82 29 83 437 96 1 97 10 99 40 109 28 110 4 111 12 114 36 
112 10 123 18 124 11 126 95 136 19 137 3 138 456 139 999 140 77 141 1 
150 16 145 20 152 33 155 4 164 14 165 21 166 28 178 1 179 33 180 30 
182 205 183 2 189 14 194 121 195 29 206 3 207 112 208 100 211 31 220 4 
246 81 263 31 264 182 265 2 302 20 319 38 320 46 332 1 375 9 376 18 
