Name: P-HYDROXY NITROBENZEN
MW: 139
Formula: C6H5NO3
Synonym: MassBank: JP002916
Synonym: P-HYDROXY NITROBENZEN
Structure: 502D485944524F5859204E4954524F42454E5A454E2E6D6F6C0A20204368656D447261773038313231303034303432440A2031302031302020302020302020302020302020302020302020302020303939392056323030300A2020202D302E363138382020202D302E3030303020202020302E303030302043202020302020302020302020302020302020302020302020302020302020302020302020300A2020202D302E3230363220202020302E3731343520202020302E303030302043202020302020302020302020302020302020302020302020302020302020302020302020300A20202020302E3631383720202020302E3731343520202020302E303030302043202020302020302020302020302020302020302020302020302020302020302020302020300A20202020312E303331332020202D302E3030303020202020302E303030302043202020302020302020302020302020302020302020302020302020302020302020302020300A20202020302E363138382020202D302E3731343520202020302E303030302043202020302020302020302020302020302020302020302020302020302020302020302020300A2020202D302E323036322020202D302E3731343520202020302E303030302043202020302020302020302020302020302020302020302020302020302020302020302020300A2020202D312E343433372020202D302E3030303020202020302E30303030204E202020302020332020302020302020302020302020302020302020302020302020302020300A2020202D312E3835363320202020302E3731343520202020302E30303030204F202020302020302020302020302020302020302020302020302020302020302020302020300A2020202D312E383536332020202D302E3731343520202020302E30303030204F202020302020352020302020302020302020302020302020302020302020302020302020300A20202020312E383536332020202D302E3030303020202020302E30303030204F202020302020302020302020302020302020302020302020302020302020302020302020300A2020312020322020312020302020202020200A2020322020332020322020302020202020200A2020332020342020312020302020202020200A2020342020352020322020302020202020200A2020352020362020312020302020202020200A2020312020362020322020302020202020200A2020372020382020322020302020202020200A2020372020392020312020302020202020200A2020312020372020312020302020202020200A2020342031302020312020302020202020200A4D202043484720203220202037202020312020203920202D310A4D2020454E44
Contributor: MASS SPECTROSCOPY SOC. OF JAPAN (MSSJ)
InstType: EI
InstName: Unknown
IoniMethod: EI
IonPolarity: pos
Date: 2010-10-09 19:48:36+02:00
Num Peaks: 23
18 74 27 91 29 54 30 77 38 120 39 615 44 36 45 38 50 39 51 37 
52 35 53 169 62 74 63 168 64 75 65 703 66 46 81 208 93 242 109 315 
123 55 139 999 140 56 
