Name: MONASCORUBRIN
MW: 382
Formula: C23H26O5
Synonym: MassBank: JP003238
Synonym: MONASCORUBRIN
Structure: 303630325F4D4F4E4153434F52554252494E2E6D6F6C0A20204368656D447261773039303631303139323432440A2032382033302020302020302020302020302020302020302020302020303939392056323030300A2020202D322E323938382020202D302E3737373220202020302E303030302043202020302020302020302020302020302020302020302020302020302020302020302020300A2020202D322E323937372020202D312E3630323220202020302E30303030204F202020302020302020302020302020302020302020302020302020302020302020302020300A2020202D312E353834332020202D322E3031343720202020302E303030302043202020302020302020302020302020302020302020302020302020302020302020302020300A2020202D302E383639382020202D312E3630323220202020302E303030302043202020302020302020302020302020302020302020302020302020302020302020302020300A2020202D302E383639382020202D302E3737373220202020302E303030302043202020302020302020302020302020302020302020302020302020302020302020302020300A2020202D312E353834332020202D302E3336343720202020302E303030302043202020302020302020302020302020302020302020302020302020302020302020302020300A2020202D302E313535342020202D322E3031343720202020302E303030302043202020302020302020302020302020302020302020302020302020302020302020302020300A20202020302E353539312020202D312E3630323220202020302E303030302043202020302020302020302020302020302020302020302020302020302020302020302020300A20202020302E353539312020202D302E3737373220202020302E303030302043202020302020302020302020302020302020302020302020302020302020302020302020300A2020202D302E313535342020202D302E3336343720202020302E303030302043202020302020302020302020302020302020302020302020302020302020302020302020300A20202020312E333435302020202D312E3835383320202020302E30303030204F202020302020302020302020302020302020302020302020302020302020302020302020300A20202020312E383238372020202D312E3138393720202020302E303030302043202020302020302020302020302020302020302020302020302020302020302020302020300A20202020312E333433372020202D302E3532323320202020302E303030302043202020302020302020302020302020302020302020302020302020302020302020302020300A2020202D302E313534372020202D322E3833393720202020302E30303030204F202020302020302020302020302020302020302020302020302020302020302020302020300A20202020322E363534312020202D312E3139323520202020302E30303030204F202020302020302020302020302020302020302020302020302020302020302020302020300A20202020312E3031363220202020302E3834343720202020302E30303030204F202020302020302020302020302020302020302020302020302020302020302020302020300A20202020312E3539383720202020302E3236323320202020302E303030302043202020302020302020302020302020302020302020302020302020302020302020302020300A20202020322E3236353320202020322E3632363220202020302E303030302043202020302020302020302020302020302020302020302020302020302020302020302020300A20202020322E3035313820202020312E3832393320202020302E303030302043202020302020302020302020302020302020302020302020302020302020302020302020300A20202020322E3633353120202020312E3234363020202020302E303030302043202020302020302020302020302020302020302020302020302020302020302020302020300A20202020322E3430303920202020302E3435343920202020302E303030302043202020302020302020302020302020302020302020302020302020302020302020302020300A20202020332E3036323220202020322E3833393720202020302E303030302043202020302020302020302020302020302020302020302020302020302020302020302020300A20202020332E3634353620202020322E3235363420202020302E303030302043202020302020302020302020302020302020302020302020302020302020302020302020300A20202020342E3434323520202020322E3436393920202020302E303030302043202020302020302020302020302020302020302020302020302020302020302020302020300A20202020302E363435302020202D322E3432323820202020302E303030302043202020302020302020302020302020302020302020302020302020302020302020302020300A2020202D332E303133352020202D302E3336353220202020302E303030302043202020302020302020302020302020302020302020302020302020302020302020302020300A2020202D332E373237372020202D302E3737383220202020302E303030302043202020302020302020302020302020302020302020302020302020302020302020302020300A2020202D342E343432352020202D302E3336363120202020302E303030302043202020302020302020302020302020302020302020302020302020302020302020302020300A2020312020322020312020302020202020200A2020322020332020312020302020202020200A2020332020342020322020302020202020200A2020342020352020312020302020202020200A2020352020362020312020302020202020200A2020362020312020322020302020202020200A2020342020372020312020302020202020200A2020372020382020312020302020202020200A2020382020392020312020302020202020200A2020392031302020312020302020202020200A2031302020352020322020302020202020200A2020382031312020312020302020202020200A2031312031322020312020302020202020200A2031322031332020312020302020202020200A2031332020392020322020302020202020200A2020372031342020322020302020202020200A2031322031352020322020302020202020200A2031332031372020312020302020202020200A2031362031372020322020302020202020200A2031372032312020312020302020202020200A2031382031392020312020302020202020200A2031392032302020312020302020202020200A2032302032312020312020302020202020200A2031382032322020312020302020202020200A2032322032332020312020302020202020200A2032332032342020312020302020202020200A2020382032352020312020362020202020200A2020312032362020312020302020202020200A2032362032372020322020302020202020200A2032372032382020312020302020202020200A4D2020454E44
Contributor: MASS SPECTROSCOPY SOC. OF JAPAN (MSSJ)
InstType: EI
InstName: HITACHI RMU-7
IoniMethod: _ENERGY 70 eV
IonPolarity: pos
Date: 2010-10-09 19:48:36+02:00
Num Peaks: 11
382 90 339 80 299 180 298 999 283 200 257 110 256 560 255 340 215 380 213 380 
200 190 
