Name: 1-ISOPROPYL-4-METHYL-2-TRIMETHYLSILOXYCYCLOHEXANE
MW: 228
Formula: C13H28OSi
Synonym: MassBank: JP002266
Synonym: 1-ISOPROPYL-4-METHYL-2-TRIMETHYLSILOXYCYCLOHEXANE
Synonym: MENTHYLOXYTRIMETHYLSILANE
Structure: 312D49534F50524F50594C2D342D4D455448594C2D322D5452494D455448594C53494C4F58594359434C4F484558414E452E6D6F6C0A20204368656D447261773131313930393136303032440A2031352031352020302020302020302020302020302020302020302020303939392056323030300A20202020302E3536333520202020302E3335373220202020302E303030302043202020302020302020302020302020302020302020302020302020302020302020302020300A20202020302E313531302020202D302E3335373220202020302E303030302043202020302020302020302020302020302020302020302020302020302020302020302020300A20202020302E353633352020202D312E3037313720202020302E303030302043202020302020302020302020302020302020302020302020302020302020302020302020300A20202020312E333838352020202D312E3037313720202020302E303030302043202020302020302020302020302020302020302020302020302020302020302020302020300A20202020312E383031302020202D302E3335373220202020302E303030302043202020302020302020302020302020302020302020302020302020302020302020302020300A20202020312E3338383520202020302E3335373220202020302E303030302043202020302020302020302020302020302020302020302020302020302020302020302020300A2020202D302E363734302020202D302E3335373220202020302E30303030204F202020302020302020302020302020302020302020302020302020302020302020302020300A2020202D312E303836352020202D312E3037313720202020302E303030302053692020302020302020302020302020302020302020302020302020302020302020302020300A2020202D312E383031302020202D302E3635393220202020302E303030302043202020302020302020302020302020302020302020302020302020302020302020302020300A2020202D302E333732302020202D312E3438343220202020302E303030302043202020302020302020302020302020302020302020302020302020302020302020302020300A2020202D312E343939302020202D312E3738363220202020302E303030302043202020302020302020302020302020302020302020302020302020302020302020302020300A20202020312E383031302020202D312E3738363220202020302E303030302043202020302020302020302020302020302020302020302020302020302020302020302020300A20202020302E3135313020202020312E3037313720202020302E303030302043202020302020302020302020302020302020302020302020302020302020302020302020300A20202020302E3536333520202020312E3738363220202020302E303030302043202020302020302020302020302020302020302020302020302020302020302020302020300A2020202D302E3637343020202020312E3037313720202020302E303030302043202020302020302020302020302020302020302020302020302020302020302020302020300A2020312020322020312020302020202020200A2020322020332020312020302020202020200A2020332020342020312020302020202020200A2020342020352020312020302020202020200A2020352020362020312020302020202020200A2020312020362020312020302020202020200A2020372020382020312020302020202020200A2020382020392020312020302020202020200A2020382031302020312020302020202020200A2020382031312020312020302020202020200A2020322020372020312020302020202020200A2020342031322020312020302020202020200A2031332031342020312020302020202020200A2031332031352020312020302020202020200A2020312031332020312020302020202020200A4D2020454E44
Contributor: MASS SPECTROSCOPY SOC. OF JAPAN (MSSJ)
InstType: EI
InstName: JEOL JMS-D-3000
IoniMethod: _ENERGY 70 eV
IonPolarity: pos
Date: 2010-10-09 19:48:36+02:00
Num Peaks: 23
43 37 44 18 55 17 73 102 75 169 81 66 82 33 95 54 123 40 137 52 
138 200 139 25 143 999 144 136 145 52 157 49 171 54 205 68 213 179 214 37 
220 24 228 149 229 34 
