Name: O-METHOXYBENZALDEHYDE
MW: 136
Formula: C8H8O2
Synonym: MassBank: JP008709
Synonym: O-METHOXYBENZALDEHYDE
Structure: 4F2D4D4554484F585942454E5A414C4445485944452E6D6F6C0A20204368656D447261773038313231303033303932440A2031302031302020302020302020302020302020302020302020302020303939392056323030300A20202020302E383235302020202D312E3037313720202020302E303030302043202020302020302020302020302020302020302020302020302020302020302020302020300A20202020302E343132352020202D302E3335373220202020302E303030302043202020302020302020302020302020302020302020302020302020302020302020302020300A2020202D302E343132352020202D302E3335373220202020302E303030302043202020302020302020302020302020302020302020302020302020302020302020302020300A2020202D302E3832353020202020302E3335373220202020302E303030302043202020302020302020302020302020302020302020302020302020302020302020302020300A2020202D302E3431323520202020312E3037313720202020302E303030302043202020302020302020302020302020302020302020302020302020302020302020302020300A20202020302E3431323520202020312E3037313720202020302E303030302043202020302020302020302020302020302020302020302020302020302020302020302020300A20202020302E3832353020202020302E3335373220202020302E303030302043202020302020302020302020302020302020302020302020302020302020302020302020300A20202020312E363530302020202D312E3037313720202020302E30303030204F202020302020302020302020302020302020302020302020302020302020302020302020300A2020202D302E383235302020202D312E3037313720202020302E30303030204F202020302020302020302020302020302020302020302020302020302020302020302020300A2020202D312E363530302020202D312E3037313720202020302E303030302043202020302020302020302020302020302020302020302020302020302020302020302020300A2020312020322020312020302020202020200A2020322020332020312020302020202020200A2020332020342020322020302020202020200A2020342020352020312020302020202020200A2020352020362020322020302020202020200A2020362020372020312020302020202020200A2020322020372020322020302020202020200A2020312020382020322020302020202020200A2020392031302020312020302020202020200A2020332020392020312020302020202020200A4D2020454E44
Contributor: SODA AROMATIC CO., LTD.
InstType: EI
InstName: HITACHI M-80B
IoniMethod: _ENERGY 70 eV
IonPolarity: pos
Date: 2010-10-09 19:48:36+02:00
Num Peaks: 47
15 47 26 13 27 35 28 29 29 103 31 30 37 43 38 114 39 362 49 18 
50 239 51 290 52 40 53 65 61 35 62 73 63 272 64 148 65 340 66 32 
73 18 74 85 75 55 76 390 77 695 78 321 79 209 80 16 89 16 90 155 
91 147 92 287 93 84 94 82 104 224 105 165 106 12 107 112 108 16 118 224 
119 264 120 54 121 147 122 12 135 484 136 999 137 78 
