Name: DIMETHYLHYDRAZONE DIETHYLKETONE
MW: 128
Formula: C7H16N2
Synonym: MassBank: JP000850
Synonym: DIMETHYLHYDRAZONE DIETHYLKETONE
Synonym: 3-PENTANONE DIMETHYLHYDRAZONE
Structure: 310A32320A44494D455448594C48594452415A4F4E45204449455448594C4B45544F4E452E6D6F6C0A20204368656D447261773033323331303037323932440A2020392020382020302020302020302020302020302020302020302020303939392056323030300A20202020312E3738363220202020302E3431323520202020302E303030302043202020302020302020302020302020302020302020302020302020302020302020302020300A20202020312E3037313720202020302E3832353020202020302E303030302043202020302020302020302020302020302020302020302020302020302020302020302020300A20202020302E3335373220202020302E3431323520202020302E303030302043202020302020302020302020302020302020302020302020302020302020302020302020300A20202020302E333537322020202D302E3431323520202020302E303030302043202020302020302020302020302020302020302020302020302020302020302020302020300A20202020312E303731372020202D302E3832353020202020302E303030302043202020302020302020302020302020302020302020302020302020302020302020302020300A2020202D302E3335373220202020302E3832353020202020302E30303030204E202020302020302020302020302020302020302020302020302020302020302020302020300A2020202D312E3037313720202020302E3431323520202020302E30303030204E202020302020302020302020302020302020302020302020302020302020302020302020300A2020202D312E303731372020202D302E3431323520202020302E303030302043202020302020302020302020302020302020302020302020302020302020302020302020300A2020202D312E3738363220202020302E3832353020202020302E303030302043202020302020302020302020302020302020302020302020302020302020302020302020300A2020312020322020312020302020202020200A2020322020332020312020302020202020200A2020332020342020312020302020202020200A2020342020352020312020302020202020200A2020362020372020312020302020202020200A2020372020382020312020302020202020200A2020372020392020312020302020202020200A2020332020362020322020302020202020200A4D2020454E44
Contributor: SASAKI S, TOYOHASHI UNIV. OF TECH.
InstType: EI
InstName: SHIMADZU LKB-2091
IoniMethod: _ENERGY 70 eV
IonPolarity: pos
Date: 2010-10-09 19:48:36+02:00
Num Peaks: 34
29 143 30 54 39 45 40 1 41 94 42 285 43 178 44 999 45 940 46 83 
52 7 53 1 54 92 55 81 56 323 57 10 58 87 59 24 67 12 68 4 
69 14 70 23 71 7 72 2 82 56 83 26 84 178 85 6 97 7 99 64 
113 27 127 1 128 428 129 61 
