Name: MassBank: JP002452
MW: 224
Formula: C9H17ClO4
Synonym: MassBank: JP002452
Synonym: (4S,5S)-2-(2-CHLOROETHYL)-4,5-BIS(METHOXYMETHYL)-1,3-DIOXOLANE
Structure: 2834532C3553292D322D28322D43484C4F524F455448594C292D342C352D424953284D4554484F58594D455448594C292D312C332D44494F584F4C414E452E6D6F6C0A20204368656D447261773130323230393032343832440A2031362031362020302020302020302020302020302020302020302020303939392056323030300A2020202D302E3438343020202020302E3235303520202020302E303030302043202020302020302020302020302020302020302020302020302020302020302020302020300A20202020302E3333363520202020302E3136343320202020302E30303030204F202020302020302020302020302020302020302020302020302020302020302020302020300A20202020302E3637323120202020302E3931373920202020302E303030302043202020302020302020302020302020302020302020302020302020302020302020302020300A20202020302E3035383920202020312E3436393020202020302E30303030204F202020302020302020302020302020302020302020302020302020302020302020302020300A2020202D302E3635353520202020312E3035373520202020302E303030302043202020302020302020302020302020302020302020302020302020302020302020302020300A20202020312E3437383920202020312E3038393820202020302E303030302043202020302020302020302020302020302020302020302020302020302020302020302020300A2020202D302E3939303620202020312E3831313420202020302E303030302048202020302020302020302020302020302020302020302020302020302020302020302020300A2020202D302E343834302020202D302E3537343520202020302E303030302043202020302020302020302020302020302020302020302020302020302020302020302020300A2020202D312E3434303220202020302E3830323820202020302E303030302043202020302020302020302020302020302020302020302020302020302020302020302020300A2020202D312E3330343520202020302E3136343320202020302E303030302048202020302020302020302020302020302020302020302020302020302020302020302020300A2020202D312E313938352020202D302E3938373020202020302E30303030204F202020302020302020302020302020302020302020302020302020302020302020302020300A2020202D322E3035333120202020312E3335353020202020302E30303030204F202020302020302020302020302020302020302020302020302020302020302020302020300A20202020322E3033313220202020302E3437373020202020302E303030302043202020302020302020302020302020302020302020302020302020302020302020302020300A20202020322E3833383120202020302E3634383920202020302E3030303020436C2020302020302020302020302020302020302020302020302020302020302020302020300A2020202D312E313939362020202D312E3831313420202020302E303030302043202020302020302020302020302020302020302020302020302020302020302020302020300A2020202D322E3833383120202020312E3130313220202020302E303030302043202020302020302020302020302020302020302020302020302020302020302020302020300A2020312020322020312020302020202020200A2020322020332020312020302020202020200A2020332020342020312020302020202020200A2020342020352020312020302020202020200A2020352020312020312020302020202020200A2020332020362020312020302020202020200A2020352020372020312020312020202020200A2020312020382020312020312020202020200A2020352020392020312020362020202020200A2020312031302020312020362020202020200A2020382031312020312020302020202020200A2020392031322020312020302020202020200A2020362031332020312020302020202020200A2031332031342020312020302020202020200A2031312031352020312020302020202020200A2031322031362020312020302020202020200A4D202053545920203120202031205355500A4D2020534C4220203120202031202020310A4D202053414C20202031202031202031350A4D202053424C20202031202031202031350A4D2020534D5420202031204D650A4D2020534256202020312031352020202D372E3336343820202020372E323137370A4D202053545920203120202032205355500A4D2020534C4220203120202032202020320A4D202053414C20202032202031202031360A4D202053424C20202032202031202031360A4D2020534D5420202032204D650A4D2020534256202020322031362020202D382E3134383720202020372E373838330A4D2020454E44
Contributor: ITO S, DEPT. OF CHEM., TOHOKU UNIV.
InstType: EI
InstName: HITACHI M-52
IoniMethod: _ENERGY 25 eV
IonPolarity: pos
Date: 2010-10-09 19:48:36+02:00
Num Peaks: 53
38 13 39 33 40 18 41 8 42 20 43 155 44 36 45 32 53 29 54 20 
55 245 56 10 57 73 58 209 59 573 60 3 67 18 68 33 69 94 70 7 
71 300 72 65 73 44 75 7 81 74 83 145 84 209 85 31 86 36 87 999 
88 29 95 2 99 25 100 36 101 27 102 2 103 18 107 44 109 22 111 2 
113 18 115 827 116 64 121 3 128 25 129 58 143 464 144 5 161 564 162 31 
179 64 181 3 187 27 
