Name: TERT-BUTYLBROMIDE
MW: 135
Formula: C4H9Br
Synonym: MassBank: JP009380
Synonym: TERT-BUTYLBROMIDE
Synonym: 2-METHYL-2-BROMOPROPANE
Structure: 310A31340A544552542D425554594C42524F4D4944452E6D6F6C0A20204368656D447261773031323231303033303432440A2020352020342020302020302020302020302020302020302020302020303939392056323030300A20202020302E3030303020202020302E3030303020202020302E303030302043202020302020302020302020302020302020302020302020302020302020302020302020300A20202020302E303030302020202D302E3832353020202020302E303030302043202020302020302020302020302020302020302020302020302020302020302020302020300A2020202D302E3832353020202020302E3030303020202020302E303030302043202020302020302020302020302020302020302020302020302020302020302020302020300A20202020302E3030303020202020302E3832353020202020302E303030302043202020302020302020302020302020302020302020302020302020302020302020302020300A20202020302E3832353020202020302E3030303020202020302E303030302042722020302020302020302020302020302020302020302020302020302020302020302020300A2020312020322020312020302020202020200A2020312020342020312020302020202020200A2020312020332020312020302020202020200A2020312020352020312020302020202020200A4D2020454E44
Contributor: GUNMA COLLEGE OF TECHNOLOGY
InstType: EI
InstName: HITACHI RMU-7M
IoniMethod: _ENERGY 70 eV
IonPolarity: pos
Date: 2010-10-09 19:48:36+02:00
Num Peaks: 22
15 19 26 26 27 136 28 106 29 249 36 67 37 26 38 61 39 339 40 66 
41 999 42 43 50 40 51 35 53 40 54 17 55 149 56 371 57 651 58 29 
136 17 138 17 
