Name: TRIMETHYLVINYLAMMONIUM BROMIDE
MW: 165
Formula: C5H12BrN
Synonym: MassBank: JP004529
Synonym: TRIMETHYLVINYLAMMONIUM BROMIDE
Structure: 310A31380A5452494D455448594C56494E594C414D4D4F4E49554D2042524F4D4944452E6D6F6C0A20204368656D447261773038313231303039303632440A2020372020352020302020302020302020302020302020302020302020303939392056323030300A2020202D302E333537322020202D302E3034313220202020302E30303030204E202020302020332020302020302020302020302020302020302020302020302020302020300A20202020302E3335373220202020302E3337313320202020302E303030302043202020302020302020302020302020302020302020302020302020302020302020302020300A20202020312E303731372020202D302E3034313220202020302E303030302043202020302020302020302020302020302020302020302020302020302020302020302020300A20202020302E303535332020202D302E3735353720202020302E303030302043202020302020302020302020302020302020302020302020302020302020302020302020300A2020202D312E303731372020202D302E3435333720202020302E303030302043202020302020302020302020302020302020302020302020302020302020302020302020300A2020202D302E3736393720202020302E3637333320202020302E303030302043202020302020302020302020302020302020302020302020302020302020302020302020300A2020202D302E3134333720202020302E3735353720202020302E303030302042722020302020352020302020302020302020302020302020302020302020302020302020300A2020322020332020322020302020202020200A2020312020322020312020302020202020200A2020312020342020312020302020202020200A2020312020352020312020302020202020200A2020312020362020312020302020202020200A4D202043484720203220202031202020312020203720202D310A4D2020454E44
Contributor: ISA K, DEPT. OF CHEM., FAC. OF EDUC., FUKUI UNIV.
InstType: EI
InstName: JEOL JMS-01-SG
IoniMethod: _ENERGY 15 eV
IonPolarity: pos
Date: 2010-10-09 19:48:36+02:00
Num Peaks: 10
15 310 18 570 30 140 42 9 58 999 59 460 74 140 79 0 80 20 94 400 
