Name: MassBank: JP000895
MW: 112
Formula: C6H12N2
Synonym: MassBank: JP000895
Synonym: 1,4,5-TRIMETHYL-2-PYRAZOLINE
Structure: 310A32330A312C342C352D5452494D455448594C2D322D505952415A4F4C494E452E6D6F6C0A20204368656D447261773131313430393231353032440A2020392020392020302020302020302020302020302020302020302020303939392056323030300A2020202D302E3037313120202020302E3636373420202020302E30303030204E202020302020302020302020302020302020302020302020302020302020302020302020300A20202020302E3731333620202020302E3431323520202020302E30303030204E202020302020302020302020302020302020302020302020302020302020302020302020300A20202020302E373133362020202D302E3431323520202020302E303030302043202020302020302020302020302020302020302020302020302020302020302020302020300A2020202D302E303731312020202D302E3636373420202020302E303030302043202020302020302020302020302020302020302020302020302020302020302020302020300A2020202D302E353536302020202D302E3030303020202020302E303030302043202020302020302020302020302020302020302020302020302020302020302020302020300A2020202D312E333831302020202D302E3030303020202020302E303030302043202020302020302020302020302020302020302020302020302020302020302020302020300A2020202D302E333236302020202D312E3435323120202020302E303030302043202020302020302020302020302020302020302020302020302020302020302020302020300A2020202D302E3332363020202020312E3435323120202020302E303030302043202020302020302020302020302020302020302020302020302020302020302020302020300A20202020312E333831302020202D302E3839373420202020302E303030302048202020302020302020302020302020302020302020302020302020302020302020302020300A2020312020322020312020302020202020200A2020322020332020322020302020202020200A2020332020342020312020302020202020200A2020342020352020312020302020202020200A2020312020352020312020302020202020200A2020352020362020312020302020202020200A2020342020372020312020302020202020200A2020312020382020312020302020202020200A2020332020392020312020302020202020200A4D2020454E44
Contributor: SASAKI S, TOYOHASHI UNIV. OF TECH.
InstType: EI
InstName: SHIMADZU LKB-2091
IoniMethod: _ENERGY 70 eV
IonPolarity: pos
Date: 2010-10-09 19:48:36+02:00
Num Peaks: 35
26 21 27 104 28 250 29 8 30 96 38 8 39 83 40 2 41 150 42 254 
43 67 44 1 51 10 52 10 53 31 54 3 55 46 56 500 57 50 58 1 
67 8 68 19 69 19 70 5 80 5 81 12 82 24 83 1 95 22 96 9 
97 999 98 6 111 42 112 250 113 20 
