Name: MassBank: JP007822
CAS: 91-55-4
MW: 145
Formula: C10H11N
Synonym: MassBank: JP007822
Synonym: 2,3-DIMETHYLINDOLE
Structure: 322C332D44494D455448594C494E444F4C452E6D6F6C0A20204368656D447261773132323030393132303332440A2031312031322020302020302020302020302020302020302020302020303939392056323030300A2020202D302E343531382020202D302E3938313020202020302E30303030204E202020302020302020302020302020302020302020302020302020302020302020302020300A2020202D302E393336372020202D302E3331333520202020302E303030302043202020302020302020302020302020302020302020302020302020302020302020302020300A2020202D302E3435313820202020302E3335333920202020302E303030302043202020302020302020302020302020302020302020302020302020302020302020302020300A20202020302E3333323820202020302E3039393020202020302E303030302043202020302020302020302020302020302020302020302020302020302020302020302020300A20202020312E3034373320202020302E3531313520202020302E303030302043202020302020302020302020302020302020302020302020302020302020302020302020300A20202020312E3736313720202020302E3039393020202020302E303030302043202020302020302020302020302020302020302020302020302020302020302020302020300A20202020312E373631372020202D302E3732363020202020302E303030302043202020302020302020302020302020302020302020302020302020302020302020302020300A20202020312E303437332020202D312E3133383520202020302E303030302043202020302020302020302020302020302020302020302020302020302020302020302020300A20202020302E333332382020202D302E3732363020202020302E303030302043202020302020302020302020302020302020302020302020302020302020302020302020300A2020202D302E3730363820202020312E3133383520202020302E303030302043202020302020302020302020302020302020302020302020302020302020302020302020300A2020202D312E373631372020202D302E3331333520202020302E303030302043202020302020302020302020302020302020302020302020302020302020302020302020300A2020312020322020312020302020202020200A2020322020332020322020302020202020200A2020332020342020312020302020202020200A2020342020352020312020302020202020200A2020352020362020322020302020202020200A2020362020372020312020302020202020200A2020372020382020322020302020202020200A2020382020392020312020302020202020200A2020312020392020312020302020202020200A2020342020392020322020302020202020200A2020332031302020312020302020202020200A2020322031312020312020302020202020200A4D2020454E44
Contributor: HASHIMOTO K, KYOTO COLLEGE OF PHARMACY
InstType: EI
InstName: HITACHI M-80
IoniMethod: _ENERGY 20 eV
IonPolarity: pos
Date: 2010-10-09 19:48:36+02:00
Num Peaks: 19
27 15 28 10 39 27 42 13 51 62 58.5 30 71.5 73 72.5 64 76 30 77 125 
102 56 103 73 115 82 117 35 130 519 131 69 144 999 145 824 146 77 
