Name: MassBank: JP003594
MW: 142
Formula: C9H18O
Synonym: MassBank: JP003594
Synonym: 3,3,5-TRIMETHYLCYCLOHEXANOL
Structure: 332C332C352D5452494D455448594C4359434C4F484558414E4F4C2E6D6F6C0A20204368656D447261773032323131303139353332440A2031302031302020302020302020302020302020302020302020302020303939392056323030300A20202020302E3736333520202020302E3634333620202020302E303030302043202020302020302020302020302020302020302020302020302020302020302020302020300A20202020302E3034393020202020312E3035363120202020302E303030302043202020302020302020302020302020302020302020302020302020302020302020302020300A2020202D302E3636353520202020302E3634333620202020302E303030302043202020302020302020302020302020302020302020302020302020302020302020302020300A2020202D302E363635352020202D302E3138313420202020302E303030302043202020302020302020302020302020302020302020302020302020302020302020302020300A20202020302E303439302020202D302E3539333920202020302E303030302043202020302020302020302020302020302020302020302020302020302020302020302020300A20202020302E373633352020202D302E3138313420202020302E303030302043202020302020302020302020302020302020302020302020302020302020302020302020300A20202020302E303439302020202D312E3431383920202020302E303030302043202020302020302020302020302020302020302020302020302020302020302020302020300A2020202D302E3934373620202020312E3431383920202020302E303030302043202020302020302020302020302020302020302020302020302020302020302020302020300A2020202D312E3437373920202020302E3530303420202020302E303030302043202020302020302020302020302020302020302020302020302020302020302020302020300A20202020312E3437373920202020312E3035363120202020302E30303030204F202020302020302020302020302020302020302020302020302020302020302020302020300A2020312020322020312020302020202020200A2020322020332020312020302020202020200A2020332020342020312020302020202020200A2020342020352020312020302020202020200A2020352020362020312020302020202020200A2020312020362020312020302020202020200A2020352020372020312020302020202020200A2020332020382020312020312020202020200A2020332020392020312020362020202020200A2020312031302020312020302020202020200A4D2020454E44
Contributor: MASS SPECTROSCOPY SOC. OF JAPAN (MSSJ)
InstType: EI
InstName: Unknown
IoniMethod: EI
IonPolarity: pos
Date: 2010-10-09 19:48:36+02:00
Num Peaks: 50
18 30 27 70 28 40 29 10 32 30 39 90 40 30 41 23 42 35 43 197 
44 75 45 4 51 33 53 30 54 27 55 23 56 180 57 200 58 30 59 3 
65 35 67 180 68 173 69 18 70 35 71 223 72 30 77 3 79 28 80 38 
81 120 82 15 83 420 84 45 85 210 86 3 91 30 95 120 96 130 97 5 
98 28 107 31 109 999 110 9 111 28 124 135 125 48 127 4 140 40 141 30 
