Name: STIGMASTERYL TRIMETHYLSILYL ETHER
MW: 484
Formula: C32H56OSi
Synonym: MassBank: JP006232
Synonym: STIGMASTERYL TRIMETHYLSILYL ETHER
Synonym: STIGMASTA-5,22-DIEN-BETA-3-YL TRIMETHYLSILYL ETHER
Structure: 303533365F535449474D415354412D352C32322D4449454E2D424554412D332D594C205452494D455448594C53494C594C2045544845522E6D6F6C0A20204368656D447261773038323031303035323032440A2034312034342020302020302020302020302020302020302020302020303939392056323030300A2020202D332E313437312020202D302E3232363220202020302E303030302043202020302020302020302020302020302020302020302020302020302020302020302020300A2020202D332E313437312020202D312E3035313220202020302E303030302043202020302020302020302020302020302020302020302020302020302020302020302020300A2020202D322E343332362020202D312E3436333720202020302E303030302043202020302020302020302020302020302020302020302020302020302020302020302020300A2020202D312E373138312020202D312E3035313220202020302E303030302043202020302020302020302020302020302020302020302020302020302020302020302020300A2020202D312E373138312020202D302E3232363220202020302E303030302043202020302020302020302020302020302020302020302020302020302020302020302020300A2020202D322E3433323620202020302E3138363320202020302E303030302043202020302020302020302020302020302020302020302020302020302020302020302020300A2020202D312E303033372020202D312E3436333720202020302E303030302043202020302020302020302020302020302020302020302020302020302020302020302020300A2020202D302E323839322020202D312E3035313220202020302E303030302043202020302020302020302020302020302020302020302020302020302020302020302020300A2020202D302E323839322020202D302E3232363220202020302E303030302043202020302020302020302020302020302020302020302020302020302020302020302020300A2020202D312E3030333720202020302E3138363320202020302E303030302043202020302020302020302020302020302020302020302020302020302020302020302020300A20202020302E3432353320202020302E3138363320202020302E303030302043202020302020302020302020302020302020302020302020302020302020302020302020300A20202020312E323039392020202D302E3036383620202020302E303030302043202020302020302020302020302020302020302020302020302020302020302020302020300A20202020312E3639343820202020302E3539383820202020302E303030302043202020302020302020302020302020302020302020302020302020302020302020302020300A20202020312E3230393920202020312E3236363320202020302E303030302043202020302020302020302020302020302020302020302020302020302020302020302020300A20202020312E3436343820202020322E3035303920202020302E303030302043202020302020302020302020302020302020302020302020302020302020302020302020300A20202020302E3636383020202020322E3236343420202020302E303030302043202020302020302020302020302020302020302020302020302020302020302020302020300A20202020312E3436343820202020322E3837353920202020302E303030302048202020302020302020302020302020302020302020302020302020302020302020302020300A20202020322E3238393820202020322E3035303920202020302E303030302043202020302020302020302020302020302020302020302020302020302020302020302020300A20202020322E3837333220202020322E3633343320202020302E303030302043202020302020302020302020302020302020302020302020302020302020302020302020300A20202020332E3637303120202020322E3432303720202020302E303030302043202020302020302020302020302020302020302020302020302020302020302020302020300A20202020342E3235343320202020332E3030333120202020302E303030302048202020302020302020302020302020302020302020302020302020302020302020302020300A20202020342E3338343620202020322E3030383220202020302E303030302043202020302020302020302020302020302020302020302020302020302020302020302020300A20202020352E3039393020202020322E3432303720202020302E303030302043202020302020302020302020302020302020302020302020302020302020302020302020300A20202020342E3338343620202020312E3138333220202020302E303030302043202020302020302020302020302020302020302020302020302020302020302020302020300A20202020332E3835363620202020312E3030343020202020302E303030302043202020302020302020302020302020302020302020302020302020302020302020302020300A20202020332E3335343420202020312E3635383520202020302E303030302043202020302020302020302020302020302020302020302020302020302020302020302020300A20202020322E3033343920202020312E3236363320202020302E303030302048202020302020302020302020302020302020302020302020302020302020302020302020300A20202020302E343235332020202D302E3633383720202020302E303030302048202020302020302020302020302020302020302020302020302020302020302020302020300A20202020312E303038362020202D302E3339373020202020302E303030302048202020302020302020302020302020302020302020302020302020302020302020302020300A2020202D302E3238393220202020312E3432333820202020302E303030302043202020302020302020302020302020302020302020302020302020302020302020302020300A2020202D312E3030333720202020312E3031313320202020302E303030302043202020302020302020302020302020302020302020302020302020302020302020302020300A20202020302E3432353320202020312E3031313320202020302E303030302043202020302020302020302020302020302020302020302020302020302020302020302020300A20202020302E3432353320202020312E3833363320202020302E303030302043202020302020302020302020302020302020302020302020302020302020302020302020300A2020202D332E383631352020202D302E3633383720202020302E303030302048202020302020302020302020302020302020302020302020302020302020302020302020300A2020202D332E353539362020202D312E3736353620202020302E30303030204F202020302020302020302020302020302020302020302020302020302020302020302020300A2020202D342E323734302020202D322E3137383120202020302E303030302053692020302020302020302020302020302020302020302020302020302020302020302020300A2020202D342E323734302020202D332E3030333120202020302E303030302043202020302020302020302020302020302020302020302020302020302020302020302020300A2020202D352E303939302020202D322E3137383120202020302E303030302043202020302020302020302020302020302020302020302020302020302020302020302020300A2020202D342E323734302020202D312E3335333120202020302E303030302043202020302020302020302020302020302020302020302020302020302020302020302020300A2020202D312E303033372020202D302E3633383720202020302E303030302043202020302020302020302020302020302020302020302020302020302020302020302020300A2020202D312E3538373020202020302E3736393720202020302E303030302048202020302020302020302020302020302020302020302020302020302020302020302020300A2020312020322020312020302020202020200A2020322020332020312020302020202020200A2020332020342020312020302020202020200A2020342020352020312020302020202020200A2020352020362020312020302020202020200A2020362020312020312020302020202020200A2020342020372020322020302020202020200A2020372020382020312020302020202020200A2020382020392020312020302020202020200A2020392031302020312020302020202020200A2031302020352020312020302020202020200A2020392031312020312020302020202020200A2031312033322020312020302020202020200A2033322033302020312020302020202020200A2033312031302020312020302020202020200A2031312031322020312020302020202020200A2031322031332020312020302020202020200A2031332031342020312020302020202020200A2031342033322020312020302020202020200A2031342031352020312020302020202020200A2031352031362020312020302020202020200A2031352031372020312020312020202020200A2031352031382020312020302020202020200A2031382031392020322020302020202020200A2031392032302020312020302020202020200A2032302032312020312020312020202020200A2032302032362020312020302020202020200A2032302032322020312020302020202020200A2032322032332020312020302020202020200A2032322032342020312020302020202020200A2032352032362020312020302020202020200A2031342032372020312020362020202020200A2020392032382020312020312020202020200A2031312032392020312020362020202020200A2033302033312020312020302020202020200A2033322033332020312020312020202020200A2020322033342020312020362020202020200A2020322033352020312020312020202020200A2033352033362020312020302020202020200A2033362033372020312020302020202020200A2033362033382020312020302020202020200A2033362033392020312020302020202020200A2020352034302020312020312020202020200A2031302034312020312020362020202020200A4D2020454E44
Contributor: HASHIMOTO K, KYOTO COLLEGE OF PHARMACY
InstType: EI
InstName: HITACHI M-80
IoniMethod: _ENERGY 20 eV
IonPolarity: pos
Date: 2010-10-09 19:48:36+02:00
Num Peaks: 127
43 20 55 103 57 205 58 11 67 30 68 15 69 316 71 105 73 43 75 58 
81 178 82 25 83 999 84 82 85 26 89 10 91 10 93 56 95 85 96 24 
97 180 98 16 105 43 106 17 107 87 109 73 110 18 111 27 117 13 119 86 
120 38 121 81 122 23 123 51 125 13 129 534 130 80 131 60 133 148 134 30 
135 56 137 27 138 13 139 235 140 35 143 60 145 114 146 26 147 112 148 22 
149 31 151 12 155 32 157 32 158 31 159 138 160 27 161 69 162 19 163 19 
166 12 169 22 171 17 173 37 175 13 182 16 185 26 187 21 189 28 191 10 
196 11 197 15 198 10 199 29 201 19 203 14 207 15 211 16 213 87 214 19 
215 60 216 13 217 24 227 23 228 24 229 22 239 17 240 14 241 23 242 12 
243 30 245 11 253 57 254 18 255 286 256 71 257 30 258 12 267 22 271 38 
281 18 282 29 283 32 300 11 309 21 318 14 343 48 344 22 353 47 355 74 
356 128 357 33 358 13 366 14 367 13 372 45 374 17 380 88 381 23 395 267 
396 79 397 17 470 35 471 23 485 245 486 93 487 29 
