Name: MassBank: JP001941
MW: 164
Formula: C9H12OSi
Synonym: MassBank: JP001941
Synonym: 2,2-DIMETHYL-3,4-BENZO-1-OXA-2-SILACYCLOPENT-3-ENE
Structure: 322C322D44494D455448594C2D332C342D42454E5A4F2D312D4F58412D322D53494C414359434C4F50454E542D332D454E452E6D6F6C0A20204368656D447261773132323030393036333932440A2031312031322020302020302020302020302020302020302020302020303939392056323030300A2020202D312E3530353220202020302E3732393220202020302E303030302043202020302020302020302020302020302020302020302020302020302020302020302020300A2020202D312E353035322020202D302E3039353820202020302E303030302043202020302020302020302020302020302020302020302020302020302020302020302020300A2020202D302E373930382020202D302E3530383320202020302E303030302043202020302020302020302020302020302020302020302020302020302020302020302020300A2020202D302E303736332020202D302E3039353820202020302E303030302043202020302020302020302020302020302020302020302020302020302020302020302020300A2020202D302E3037363320202020302E3732393220202020302E303030302043202020302020302020302020302020302020302020302020302020302020302020302020300A2020202D302E3739303820202020312E3134313720202020302E303030302043202020302020302020302020302020302020302020302020302020302020302020302020300A20202020302E373038332020202D302E3335303720202020302E303030302053692020302020302020302020302020302020302020302020302020302020302020302020300A20202020312E3139333320202020302E3331363720202020302E30303030204F202020302020302020302020302020302020302020302020302020302020302020302020300A20202020302E3730383320202020302E3938343220202020302E303030302043202020302020302020302020302020302020302020302020302020302020302020302020300A20202020312E353035322020202D302E3536343220202020302E303030302043202020302020302020302020302020302020302020302020302020302020302020302020300A20202020302E343734302020202D312E3134313720202020302E303030302043202020302020302020302020302020302020302020302020302020302020302020302020300A2020312020322020322020302020202020200A2020322020332020312020302020202020200A2020332020342020322020302020202020200A2020342020352020312020302020202020200A2020352020362020322020302020202020200A2020362020312020312020302020202020200A2020342020372020312020302020202020200A2020372020382020312020302020202020200A2020382020392020312020302020202020200A2020392020352020312020302020202020200A2020372031302020312020362020202020200A2020372031312020312020312020202020200A4D2020454E44
Contributor: MASS SPECTROSCOPY SOC. OF JAPAN (MSSJ)
InstType: EI
InstName: JEOL JMS-D-3000
IoniMethod: _ENERGY 70 eV
IonPolarity: pos
Date: 2010-10-09 19:48:36+02:00
Num Peaks: 28
43 42 45 32 53 21 63 21 67 18 74 22 75 27 77 28 81 24 89 35 
90 18 91 18 103 22 105 59 119 15 121 17 131 25 133 31 145 23 147 25 
148 17 149 999 150 145 151 44 163 128 164 240 165 40 166 11 
