Name: ADRENOLUTIN
MW: 179
Formula: C9H9NO3
Synonym: MassBank: JP004106
Synonym: ADRENOLUTIN
Structure: 414452454E4F4C5554494E2E6D6F6C0A20204368656D447261773036323431303139333432440A2031332031342020302020302020302020302020302020302020302020303939392056323030300A2020202D302E3433363920202020302E3431323520202020302E303030302043202020302020302020302020302020302020302020302020302020302020302020302020300A2020202D302E343336392020202D302E3431323520202020302E303030302043202020302020302020302020302020302020302020302020302020302020302020302020300A20202020302E323737352020202D302E3832353020202020302E303030302043202020302020302020302020302020302020302020302020302020302020302020302020300A20202020302E393932302020202D302E3431323520202020302E303030302043202020302020302020302020302020302020302020302020302020302020302020302020300A20202020302E3939323020202020302E3431323520202020302E303030302043202020302020302020302020302020302020302020302020302020302020302020302020300A20202020302E3237373520202020302E3832353020202020302E303030302043202020302020302020302020302020302020302020302020302020302020302020302020300A2020202D312E3232313620202020302E3636373420202020302E303030302043202020302020302020302020302020302020302020302020302020302020302020302020300A2020202D312E373036352020202D302E3030303020202020302E303030302043202020302020302020302020302020302020302020302020302020302020302020302020300A2020202D312E323231362020202D302E3636373420202020302E30303030204E202020302020302020302020302020302020302020302020302020302020302020302020300A2020202D312E3437363520202020312E3435323120202020302E30303030204F202020302020302020302020302020302020302020302020302020302020302020302020300A2020202D312E343736352020202D312E3435323120202020302E303030302043202020302020302020302020302020302020302020302020302020302020302020302020300A20202020312E373036352020202D302E3832353020202020302E30303030204F202020302020302020302020302020302020302020302020302020302020302020302020300A20202020312E3730363520202020302E3832353020202020302E30303030204F202020302020302020302020302020302020302020302020302020302020302020302020300A2020312020322020322020302020202020200A2020322020332020312020302020202020200A2020332020342020322020302020202020200A2020342020352020312020302020202020200A2020352020362020322020302020202020200A2020362020312020312020302020202020200A2020312020372020312020302020202020200A2020372020382020322020302020202020200A2020382020392020312020302020202020200A2020392020322020312020302020202020200A2020372031302020312020302020202020200A2020392031312020312020302020202020200A2020342031322020312020302020202020200A2020352031332020312020302020202020200A4D2020454E44
Contributor: YAMAMOTO M, DEP. CHEMISTRY, FAC. SCIENCE, NARA WOMEN'S UNIV.
InstType: EI
InstName: HITACHI RMU-6E
IoniMethod: _ENERGY 70 eV
IonPolarity: pos
Date: 2010-10-09 19:48:36+02:00
Num Peaks: 81
14 20 15 176 18 51 26 24 27 173 28 104 29 77 37 4 38 80 39 240 
40 55 41 18 42 646 43 88 44 79 49 3 50 215 51 334 52 194 52.5 10 
53 191 53.5 22 54 63 55 19 56 36 57 17 60.5 18 61 5 62 156 63 135 
64 81 65 11 66 86 67 114 68 87 69 4 74 19 75 34 76 36 77 20 
78 77 79 71 80 66 81 15 82 114 89.5 82 90 41 91 3 92 27 93 37 
94 68 95 5 103 16 104 116 105 89 106 4 107 39 108 86 109 176 110 4 
118 19 121 23 122 51 123 999 124 85 127 27 129 15 132 31 133 51 134 29 
135 23 136 30 137 35 149 24 150 32 151 77 164 25 165 12 178 7 179 870 
180 104 
