Name: METHYL 2-TRIMETHYLSILOXY-TETRADECANOATE
MW: 330
Formula: C18H38O3Si
Synonym: MassBank: JP002741
Synonym: METHYL 2-TRIMETHYLSILOXY-TETRADECANOATE
Structure: 4D455448594C20322D5452494D455448594C53494C4F58592D5445545241444543414E4F4154452E6D6F6C0A20204368656D447261773038313131303233333832440A2032322032312020302020302020302020302020302020302020302020303939392056323030300A2020202D332E3135393920202020312E3233373520202020302E303030302043202020302020302020302020302020302020302020302020302020302020302020302020300A2020202D332E3135393920202020302E3431323520202020302E303030302043202020302020302020302020302020302020302020302020302020302020302020302020300A2020202D322E343435342020202D302E3030303020202020302E303030302043202020302020302020302020302020302020302020302020302020302020302020302020300A2020202D322E343435342020202D302E3832353020202020302E303030302043202020302020302020302020302020302020302020302020302020302020302020302020300A2020202D312E373330392020202D312E3233373520202020302E303030302043202020302020302020302020302020302020302020302020302020302020302020302020300A2020202D312E303136342020202D302E3832353020202020302E303030302043202020302020302020302020302020302020302020302020302020302020302020302020300A2020202D302E333032302020202D312E3233373520202020302E303030302043202020302020302020302020302020302020302020302020302020302020302020302020300A20202020302E343132352020202D302E3832353020202020302E303030302043202020302020302020302020302020302020302020302020302020302020302020302020300A20202020312E313237302020202D312E3233373520202020302E303030302043202020302020302020302020302020302020302020302020302020302020302020302020300A20202020312E383431342020202D302E3832353020202020302E303030302043202020302020302020302020302020302020302020302020302020302020302020302020300A20202020322E353535392020202D312E3233373520202020302E303030302043202020302020302020302020302020302020302020302020302020302020302020302020300A20202020332E323730342020202D302E3832353020202020302E303030302043202020302020302020302020302020302020302020302020302020302020302020302020300A20202020332E393834392020202D312E3233373520202020302E303030302043202020302020302020302020302020302020302020302020302020302020302020302020300A20202020342E363939332020202D302E3832353020202020302E303030302043202020302020302020302020302020302020302020302020302020302020302020302020300A2020202D322E3434353420202020312E3635303020202020302E30303030204F202020302020302020302020302020302020302020302020302020302020302020302020300A2020202D332E3837343320202020312E3635303020202020302E30303030204F202020302020302020302020302020302020302020302020302020302020302020302020300A2020202D332E383734332020202D302E3030303020202020302E30303030204F202020302020302020302020302020302020302020302020302020302020302020302020300A2020202D332E383734332020202D302E3832353020202020302E303030302053692020302020302020302020302020302020302020302020302020302020302020302020300A2020202D332E303439332020202D302E3832353020202020302E303030302043202020302020302020302020302020302020302020302020302020302020302020302020300A2020202D332E383734332020202D312E3635303020202020302E303030302043202020302020302020302020302020302020302020302020302020302020302020302020300A2020202D342E363939332020202D302E3832353020202020302E303030302043202020302020302020302020302020302020302020302020302020302020302020302020300A2020202D342E3538383820202020312E3233373520202020302E303030302043202020302020302020302020302020302020302020302020302020302020302020302020300A2020312020322020312020302020202020200A2020322020332020312020302020202020200A2020332020342020312020302020202020200A2020342020352020312020302020202020200A2020352020362020312020302020202020200A2020362020372020312020302020202020200A2020372020382020312020302020202020200A2020382020392020312020302020202020200A2020392031302020312020302020202020200A2031302031312020312020302020202020200A2031312031322020312020302020202020200A2031322031332020312020302020202020200A2031332031342020312020302020202020200A2020312031352020322020302020202020200A2020312031362020312020302020202020200A2031372031382020312020302020202020200A2031382031392020312020302020202020200A2031382032302020312020302020202020200A2031382032312020312020302020202020200A2020322031372020312020302020202020200A2031362032322020312020302020202020200A4D2020454E44
Contributor: HAYASHI A, DEPT. OF CHEMISTRY, FAC. OF SCI. AND TECHNOLOGY, KINKI UNIV.
InstType: EI
InstName: SHIMADZU LKB-9000B
IoniMethod: _ENERGY 70 eV
IonPolarity: pos
Date: 2010-10-09 19:48:36+02:00
Num Peaks: 141
35 45 36 25 37 18 38 9 39 36 40 88 41 227 42 3 43 238 44 49 
45 82 46 1 47 135 48 57 49 43 50 3 51 10 53 19 54 19 55 19 
56 50 57 194 58 25 59 18 60 20 61 24 65 22 66 1 67 62 68 24 
69 213 70 3 71 59 72 26 73 999 74 10 75 257 76 49 77 26 78 1 
79 15 80 7 81 66 82 2 83 484 84 23 85 301 86 1 87 57 88 10 
89 481 90 4 91 79 92 9 93 23 94 1 95 57 96 12 97 187 98 2 
99 15 101 53 102 9 103 24 104 52 105 35 106 5 107 2 108 8 109 27 
110 8 111 7 112 10 113 12 115 35 116 2 117 23 118 10 119 43 120 1 
121 17 122 11 123 15 124 1 125 23 127 8 129 125 130 2 131 35 132 10 
133 3 135 1 137 5 143 15 145 24 146 3 147 8 148 8 149 410 150 4 
151 6 157 9 159 109 160 2 161 17 162 18 163 5 171 1 173 6 179 6 
185 12 187 1 191 1 197 9 199 7 201 1 205 18 206 5 207 2 221 0 
223 21 243 6 255 7 257 5 269 13 270 9 271 951 272 1 273 219 274 9 
281 1 283 0 287 45 288 12 289 4 313 1 314 11 315 332 316 84 317 2 
330 4 
