Name: OXALIC ACID DIBUTYL ESTER
MW: 202
Formula: C10H18O4
Synonym: MassBank: JP001295
Synonym: OXALIC ACID DIBUTYL ESTER
Synonym: ETHANEDIOIC ACID DIBUTYL ESTER
Structure: 303037385F455448414E4544494F49432041434944204449425554594C2045535445522E6D6F6C0A20204368656D447261773130303131303231353332440A2031342031332020302020302020302020302020302020302020302020303939392056323030300A2020202D302E353736382020202D302E3030353220202020302E303030302043202020302020302020302020302020302020302020302020302020302020302020302020300A20202020302E323438322020202D302E3030353220202020302E303030302043202020302020302020302020302020302020302020302020302020302020302020302020300A2020202D302E3938393320202020302E3730393320202020302E30303030204F202020302020302020302020302020302020302020302020302020302020302020302020300A2020202D302E393839332020202D302E3731393720202020302E30303030204F202020302020302020302020302020302020302020302020302020302020302020302020300A20202020302E3634323120202020302E3731393720202020302E30303030204F202020302020302020302020302020302020302020302020302020302020302020302020300A20202020302E373934382020202D302E3638383320202020302E30303030204F202020302020302020302020302020302020302020302020302020302020302020302020300A2020202D312E383134332020202D302E3731393720202020302E303030302043202020302020302020302020302020302020302020302020302020302020302020302020300A2020202D322E323236372020202D302E3030353220202020302E303030302043202020302020302020302020302020302020302020302020302020302020302020302020300A2020202D332E303531372020202D302E3030353220202020302E303030302043202020302020302020302020302020302020302020302020302020302020302020302020300A2020202D332E3436343220202020302E3730393320202020302E303030302043202020302020302020302020302020302020302020302020302020302020302020302020300A20202020312E363430342020202D302E3638383320202020302E303030302043202020302020302020302020302020302020302020302020302020302020302020302020300A20202020322E313536302020202D302E3032383320202020302E303030302043202020302020302020302020302020302020302020302020302020302020302020302020300A20202020322E393339382020202D302E3034383920202020302E303030302043202020302020302020302020302020302020302020302020302020302020302020302020300A20202020332E3436343220202020302E3538373920202020302E303030302043202020302020302020302020302020302020302020302020302020302020302020302020300A2020312020322020312020302020202020200A2020312020332020322020302020202020200A2020312020342020312020302020202020200A2020322020352020322020302020202020200A2020322020362020312020302020202020200A2020372020382020312020302020202020200A2020382020392020312020302020202020200A2020392031302020312020302020202020200A2020342020372020312020302020202020200A2031312031322020312020302020202020200A2031322031332020312020302020202020200A2031332031342020312020302020202020200A2020362031312020312020302020202020200A4D2020454E44
Contributor: TAJIMA S, GUNMA COLLEGE OF TECHNOLOGY
InstType: EI
InstName: HITACHI RMU-7M
IoniMethod: _ENERGY 70 eV
IonPolarity: pos
Date: 2010-10-09 19:48:36+02:00
Num Peaks: 16
27 91 28 53 29 432 30 13 31 55 39 47 40 10 41 493 42 38 43 58 
44 25 55 67 56 267 57 999 58 43 73 10 
