Name: MassBank: JP004376
MW: 136
Formula: C9H12O
Synonym: MassBank: JP004376
Synonym: 4,5,6,7-TETRAHYDRO-3-METHYLBENZOFURAN
Structure: 342C352C362C372D5445545241485944524F2D332D4D455448594C42454E5A4F465552414E2E6D6F6C0A20204368656D447261773130313831303136353132440A2031302031312020302020302020302020302020302020302020302020303939392056323030300A2020202D312E313835342020202D302E3533383520202020302E30303030204F202020302020302020302020302020302020302020302020302020302020302020302020300A2020202D312E3237313620202020302E3238323020202020302E303030302043202020302020302020302020302020302020302020302020302020302020302020302020300A2020202D302E3531373920202020302E3631373520202020302E303030302043202020302020302020302020302020302020302020302020302020302020302020302020300A20202020302E3033343120202020302E3030343420202020302E303030302043202020302020302020302020302020302020302020302020302020302020302020302020300A2020202D302E333738342020202D302E3731303020202020302E303030302043202020302020302020302020302020302020302020302020302020302020302020302020300A20202020302E3835393120202020302E3030343420202020302E303030302043202020302020302020302020302020302020302020302020302020302020302020302020300A20202020312E323731362020202D302E3731303020202020302E303030302043202020302020302020302020302020302020302020302020302020302020302020302020300A20202020302E383539312020202D312E3432343520202020302E303030302043202020302020302020302020302020302020302020302020302020302020302020302020300A20202020302E303334312020202D312E3432343520202020302E303030302043202020302020302020302020302020302020302020302020302020302020302020302020300A2020202D302E3334363420202020312E3432343520202020302E303030302043202020302020302020302020302020302020302020302020302020302020302020302020300A2020312020322020312020302020202020200A2020322020332020322020302020202020200A2020332020342020312020302020202020200A2020342020352020322020302020202020200A2020312020352020312020302020202020200A2020362020372020312020302020202020200A2020372020382020312020302020202020200A2020382020392020312020302020202020200A2020352020392020312020302020202020200A2020342020362020312020302020202020200A2020332031302020312020302020202020200A4D2020454E44
Contributor: HAGIWARA H, CHEM. RES. INST. OF NON-AQUEOUS SOLUTIONS, TOHOKU UNIV.
InstType: EI
InstName: JEOL JMS-DX-300
IoniMethod: _ENERGY 70 eV
IonPolarity: pos
Date: 2010-10-09 19:48:36+02:00
Num Peaks: 42
27 78 29 27 38 14 39 124 41 75 43 19 50 21 51 66 52 37 53 53 
54 12 55 18 63 26 65 59 66 42 67 55 68 24 77 111 78 35 79 245 
80 67 81 18 89 17 91 101 92 24 93 84 94 21 95 50 103 18 105 47 
107 80 108 999 109 96 115 13 117 25 118 12 121 58 133 10 134 13 135 117 
136 579 137 59 
