Name: MassBank: JP009822
MW: 188
Formula: C14H20
Synonym: MassBank: JP009822
Synonym: 1,1,2,3,3-PENTAMETHYLINDAN
Structure: 312C312C322C332C332D50454E54414D455448594C494E44414E2E6D6F6C0A20204368656D447261773130323330393031333432440A2031342031352020302020302020302020302020302020302020302020303939392056323030300A20202020302E3435313820202020302E3636373420202020302E303030302043202020302020302020302020302020302020302020302020302020302020302020302020300A20202020302E3933363720202020302E3030303020202020302E303030302043202020302020302020302020302020302020302020302020302020302020302020302020300A20202020302E343531382020202D302E3636373420202020302E303030302043202020302020302020302020302020302020302020302020302020302020302020302020300A2020202D302E333332382020202D302E3431323520202020302E303030302043202020302020302020302020302020302020302020302020302020302020302020302020300A2020202D312E303437332020202D302E3832353020202020302E303030302043202020302020302020302020302020302020302020302020302020302020302020302020300A2020202D312E373631372020202D302E3431323520202020302E303030302043202020302020302020302020302020302020302020302020302020302020302020302020300A2020202D312E3736313720202020302E3431323520202020302E303030302043202020302020302020302020302020302020302020302020302020302020302020302020300A2020202D312E3034373320202020302E3832353020202020302E303030302043202020302020302020302020302020302020302020302020302020302020302020302020300A2020202D302E3333323820202020302E3431323520202020302E303030302043202020302020302020302020302020302020302020302020302020302020302020302020300A20202020312E313636332020202D312E3037393920202020302E303030302043202020302020302020302020302020302020302020302020302020302020302020302020300A20202020302E313136332020202D312E3432313120202020302E303030302043202020302020302020302020302020302020302020302020302020302020302020302020300A20202020312E3736313720202020302E3030303020202020302E303030302043202020302020302020302020302020302020302020302020302020302020302020302020300A20202020302E3131363320202020312E3432313120202020302E303030302043202020302020302020302020302020302020302020302020302020302020302020302020300A20202020312E3136363320202020312E3037393920202020302E303030302043202020302020302020302020302020302020302020302020302020302020302020302020300A2020312020322020312020302020202020200A2020322020332020312020302020202020200A2020332020342020312020302020202020200A2020342020352020312020302020202020200A2020352020362020322020302020202020200A2020362020372020312020302020202020200A2020372020382020322020302020202020200A2020382020392020312020302020202020200A2020312020392020312020302020202020200A2020342020392020322020302020202020200A2020332031302020312020362020202020200A2020332031312020312020312020202020200A2020322031322020312020302020202020200A2020312031332020312020362020202020200A2020312031342020312020312020202020200A4D2020454E44
Contributor: KURARAY CO., LTD.
InstType: EI
InstName: JEOL JMS-D-300
IoniMethod: _ENERGY 70 eV
IonPolarity: pos
Date: 2010-10-09 19:48:36+02:00
Num Peaks: 37
29 16 39 27 41 35 43 5 51 22 55 14 57 138 64 2 65 28 77 34 
78 23 79 3 87 16 91 64 103 16 105 2 115 57 116 18 117 81 127 2 
128 82 129 64 130 14 131 41 132 42 141 48 142 39 143 5 144 18 145 35 
157 21 158 2 173 999 174 140 175 11 188 21 189 38 
