Name: TERT-BUTYL PHENYL ETHER
MW: 150
Formula: C10H14O
Synonym: MassBank: JP004027
Synonym: TERT-BUTYL PHENYL ETHER
Structure: 544552542D425554594C205048454E594C2045544845522E6D6F6C0A20204368656D447261773038313231303037303632440A2031312031312020302020302020302020302020302020302020302020303939392056323030300A2020202D302E333537322020202D302E3637343020202020302E30303030204F202020302020302020302020302020302020302020302020302020302020302020302020300A20202020302E333537322020202D302E3236313520202020302E303030302043202020302020302020302020302020302020302020302020302020302020302020302020300A20202020302E3335373220202020302E3536333520202020302E303030302043202020302020302020302020302020302020302020302020302020302020302020302020300A20202020312E3037313720202020302E3937363020202020302E303030302043202020302020302020302020302020302020302020302020302020302020302020302020300A20202020312E3738363220202020302E3536333520202020302E303030302043202020302020302020302020302020302020302020302020302020302020302020302020300A20202020312E373836322020202D302E3236313520202020302E303030302043202020302020302020302020302020302020302020302020302020302020302020302020300A20202020312E303731372020202D302E3637343020202020302E303030302043202020302020302020302020302020302020302020302020302020302020302020302020300A2020202D312E303731372020202D302E3236313520202020302E303030302043202020302020302020302020302020302020302020302020302020302020302020302020300A2020202D312E343834322020202D302E3937363020202020302E303030302043202020302020302020302020302020302020302020302020302020302020302020302020300A2020202D312E3738363220202020302E3135313020202020302E303030302043202020302020302020302020302020302020302020302020302020302020302020302020300A2020202D302E3635393220202020302E3435333020202020302E303030302043202020302020302020302020302020302020302020302020302020302020302020302020300A2020322020332020312020302020202020200A2020332020342020322020302020202020200A2020342020352020312020302020202020200A2020352020362020322020302020202020200A2020362020372020312020302020202020200A2020322020372020322020302020202020200A2020312020322020312020302020202020200A2020382020392020312020302020202020200A2020382031312020312020302020202020200A2020382031302020312020302020202020200A2020312020382020312020302020202020200A4D2020454E44
Contributor: MASS SPECTROSCOPY SOC. OF JAPAN (MSSJ)
InstType: EI
InstName: HITACHI RMU-6L
IoniMethod: _ENERGY 70 eV
IonPolarity: pos
Date: 2010-10-09 19:48:36+02:00
Num Peaks: 16
38 17 39 100 40 20 41 11 43 10 50 10 51 40 55 2 56 11 57 100 
65 41 66 3 67 39 68 15 94 999 135 30 
