Name: TETRA-O-ACETYL-3-DEOXY-ALPHA-D-ERYTHRO-HEX-2-ENOPYRANOSE
MW: 330
Formula: C14H18O9
Synonym: MassBank: JP002975
Synonym: TETRA-O-ACETYL-3-DEOXY-ALPHA-D-ERYTHRO-HEX-2-ENOPYRANOSE
Structure: 303437355F54455452412D4F2D41434554594C2D332D44454F58592D414C5048412D442D4552595448524F2D4845582D322D454E4F505952414E4F53452E6D6F6C0A20204368656D447261773038323031303033343832440A2032362032362020302020302020302020302020302020302020302020303939392056323030300A2020202D302E3735393620202020302E3039343220202020302E303030302043202020302020302020302020302020302020302020302020302020302020302020302020300A2020202D302E373539362020202D302E3733303820202020302E303030302043202020302020302020302020302020302020302020302020302020302020302020302020300A2020202D302E303435312020202D312E3134333320202020302E303030302043202020302020302020302020302020302020302020302020302020302020302020302020300A20202020302E363639342020202D302E3733303820202020302E303030302043202020302020302020302020302020302020302020302020302020302020302020302020300A20202020302E3636393420202020302E3039343220202020302E303030302043202020302020302020302020302020302020302020302020302020302020302020302020300A2020202D302E3034353120202020302E3530363720202020302E30303030204F202020302020302020302020302020302020302020302020302020302020302020302020300A20202020312E343636332020202D302E3131393320202020302E303030302048202020302020302020302020302020302020302020302020302020302020302020302020300A20202020312E343636332020202D302E3531373320202020302E30303030204F202020302020302020302020302020302020302020302020302020302020302020302020300A2020202D312E353536342020202D302E3131393320202020302E30303030204F202020302020302020302020302020302020302020302020302020302020302020302020300A2020202D312E3037353320202020302E3835363420202020302E303030302048202020302020302020302020302020302020302020302020302020302020302020302020300A20202020302E3938353120202020302E3835363420202020302E303030302043202020302020302020302020302020302020302020302020302020302020302020302020300A20202020302E393835312020202D312E3439333020202020302E303030302048202020302020302020302020302020302020302020302020302020302020302020302020300A2020202D312E343734302020202D312E3134333320202020302E30303030204F202020302020302020302020302020302020302020302020302020302020302020302020300A2020202D312E343734302020202D312E3936383320202020302E303030302043202020302020302020302020302020302020302020302020302020302020302020302020300A2020202D302E373539362020202D322E3338303820202020302E30303030204F202020302020302020302020302020302020302020302020302020302020302020302020300A2020202D322E313838352020202D322E3338303820202020302E303030302043202020302020302020302020302020302020302020302020302020302020302020302020300A2020202D322E3133393820202020302E3436343020202020302E303030302043202020302020302020302020302020302020302020302020302020302020302020302020300A2020202D322E3933363720202020302E3235303520202020302E30303030204F202020302020302020302020302020302020302020302020302020302020302020302020300A2020202D312E3932363320202020312E3236303920202020302E303030302043202020302020302020302020302020302020302020302020302020302020302020302020300A20202020322E303439362020202D312E3130303620202020302E303030302043202020302020302020302020302020302020302020302020302020302020302020302020300A20202020322E383436352020202D302E3838373120202020302E30303030204F202020302020302020302020302020302020302020302020302020302020302020302020300A20202020312E383336312020202D312E3839373520202020302E303030302043202020302020302020302020302020302020302020302020302020302020302020302020300A20202020312E3830333020202020302E3936343120202020302E30303030204F202020302020302020302020302020302020302020302020302020302020302020302020300A20202020322E3131383820202020312E3732363320202020302E303030302043202020302020302020302020302020302020302020302020302020302020302020302020300A20202020322E3933363720202020312E3833343020202020302E303030302043202020302020302020302020302020302020302020302020302020302020302020302020300A20202020312E3631363520202020322E3338303820202020302E30303030204F202020302020302020302020302020302020302020302020302020302020302020302020300A2020312020322020312020302020202020200A2020322020332020322020302020202020200A2020332020342020312020302020202020200A2020342020352020312020302020202020200A2020352020362020312020302020202020200A2020362020312020312020302020202020200A2020352020372020312020312020202020200A2020342020382020312020312020202020200A2020312020392020312020312020202020200A2020312031302020312020362020202020200A2020352031312020312020362020202020200A2020342031322020312020362020202020200A2020322031332020312020302020202020200A2031332031342020312020302020202020200A2031342031352020322020302020202020200A2031342031362020312020302020202020200A2020392031372020312020302020202020200A2031372031382020322020302020202020200A2031372031392020312020302020202020200A2020382032302020312020302020202020200A2032302032312020322020302020202020200A2032302032322020312020302020202020200A2031312032332020312020302020202020200A2032332032342020312020302020202020200A2032342032352020312020302020202020200A2032342032362020322020302020202020200A4D2020454E44
Contributor: SASAKI S, TOYOHASHI UNIV. OF TECH.
InstType: EI
InstName: Unknown
IoniMethod: EI
IonPolarity: pos
Date: 2010-10-09 19:48:36+02:00
Num Peaks: 28
54 50 60 350 69 320 81 19 96 130 97 800 98 999 99 20 100 50 102 150 
109 450 113 10 126 250 127 120 139 150 143 5 144 250 145 90 155 60 168 15 
169 300 185 30 186 120 210 10 211 40 228 350 271 50 288 50 
