Name: ETHYL ACETATE
CAS: 141-78-6
MW: 88
Formula: C4H8O2
Synonym: MassBank: JP007064
Synonym: ETHYL ACETATE
Structure: 310A31360A414345544943204143494420455448594C2045535445522E6D6F6C0A20204368656D447261773038313131303135343432440A2020362020352020302020302020302020302020302020302020302020303939392056323030300A20202020302E373134352020202D302E3230363220202020302E303030302043202020302020302020302020302020302020302020302020302020302020302020302020300A20202020312E343238392020202D302E3631383820202020302E303030302043202020302020302020302020302020302020302020302020302020302020302020302020300A20202020302E3731343520202020302E3631383820202020302E30303030204F202020302020302020302020302020302020302020302020302020302020302020302020300A2020202D302E303030302020202D302E3631383820202020302E30303030204F202020302020302020302020302020302020302020302020302020302020302020302020300A2020202D302E373134352020202D302E3230363220202020302E303030302043202020302020302020302020302020302020302020302020302020302020302020302020300A2020202D312E343238392020202D302E3631383820202020302E303030302043202020302020302020302020302020302020302020302020302020302020302020302020300A2020312020322020312020302020202020200A2020312020332020322020302020202020200A2020312020342020312020302020202020200A2020352020362020312020302020202020200A2020342020352020312020302020202020200A4D2020454E44
Contributor: SODA AROMATIC CO., LTD.
InstType: EI
InstName: HITACHI M-80B
IoniMethod: _ENERGY 70 eV
IonPolarity: pos
Date: 2010-10-09 19:48:36+02:00
Num Peaks: 16
14 17 15 90 26 23 27 102 28 21 29 157 30 10 31 10 42 60 43 999 
44 26 45 131 61 127 70 74 73 46 88 51 
