Name: MassBank: JP009670
MW: 198
Formula: C8H10BrN
Synonym: MassBank: JP009670
Synonym: 4-BROMO-2,6-DIMETHYLANILINE
Structure: 342D42524F4D4F2D322C362D44494D455448594C414E494C494E452E6D6F6C0A20204368656D447261773033323531303038323532440A2031302031302020302020302020302020302020302020302020302020303939392056323030300A20202020312E3635303020202020302E3030303020202020302E30303030204E202020302020302020302020302020302020302020302020302020302020302020302020300A20202020302E3832353020202020302E3030303020202020302E303030302043202020302020302020302020302020302020302020302020302020302020302020302020300A20202020302E343132352020202D302E3731343520202020302E303030302043202020302020302020302020302020302020302020302020302020302020302020302020300A2020202D302E343132352020202D302E3731343520202020302E303030302043202020302020302020302020302020302020302020302020302020302020302020302020300A2020202D302E3832353020202020302E3030303020202020302E303030302043202020302020302020302020302020302020302020302020302020302020302020302020300A2020202D302E3431323520202020302E3731343520202020302E303030302043202020302020302020302020302020302020302020302020302020302020302020302020300A20202020302E3431323520202020302E3731343520202020302E303030302043202020302020302020302020302020302020302020302020302020302020302020302020300A20202020302E3832353020202020312E3432383920202020302E303030302043202020302020302020302020302020302020302020302020302020302020302020302020300A20202020302E383235302020202D312E3432383920202020302E303030302043202020302020302020302020302020302020302020302020302020302020302020302020300A2020202D312E3635303020202020302E3030303020202020302E303030302042722020302020302020302020302020302020302020302020302020302020302020302020300A2020312020322020312020302020202020200A2020322020332020312020302020202020200A2020332020342020322020302020202020200A2020342020352020312020302020202020200A2020352020362020322020302020202020200A2020362020372020312020302020202020200A2020322020372020322020302020202020200A2020372020382020312020302020202020200A2020332020392020312020302020202020200A2020352031302020312020302020202020200A4D2020454E44
Contributor: THE INSTITUTE OF SCIENTIFIC AND INDUSTRIALRESEARCH
InstType: EI
InstName: JEOL JMS-DX-300
IoniMethod: _ENERGY 70 eV
IonPolarity: pos
Date: 2010-10-09 19:48:36+02:00
Num Peaks: 51
27 33 30 29 38 18 39 8 41 28 42 60 47 33 50 3 51 70 52 57 
53 40 54 4 59 78 60 42 62 24 63 6 64 18 65 80 66 22 74 1 
75 17 76 18 77 133 78 5 79 22 80 25 82 20 89 2 90 19 91 157 
92 67 93 7 94 13 100 32 101 28 102 3 103 82 104 56 105 19 117 3 
118 80 119 78 120 736 121 7 184 42 186 39 198 140 199 999 200 229 201 967 
202 91 
