Name: MassBank: JP003267
MW: 98
Formula: C5H10N2
Synonym: MassBank: JP003267
Synonym: 2,4-DIMETHYL IMIDAZOLINE
Structure: 310A31390A322C342D44494D455448594C20494D4944415A4F4C494E452E6D6F6C0A20204368656D447261773132323030393139313332440A2020372020372020302020302020302020302020302020302020302020303939392056323030300A20202020302E373133362020202D302E3239373520202020302E303030302043202020302020302020302020302020302020302020302020302020302020302020302020300A2020202D302E303731312020202D302E3535323420202020302E30303030204E202020302020302020302020302020302020302020302020302020302020302020302020300A2020202D302E3535363020202020302E3131353020202020302E303030302043202020302020302020302020302020302020302020302020302020302020302020302020300A2020202D302E3037313120202020302E3738323420202020302E303030302043202020302020302020302020302020302020302020302020302020302020302020302020300A20202020302E3731333620202020302E3532373520202020302E30303030204E202020302020302020302020302020302020302020302020302020302020302020302020300A2020202D312E3338313020202020302E3131353020202020302E303030302043202020302020302020302020302020302020302020302020302020302020302020302020300A20202020312E333831302020202D302E3738323420202020302E303030302043202020302020302020302020302020302020302020302020302020302020302020302020300A2020312020322020322020302020202020200A2020322020332020312020302020202020200A2020332020342020312020302020202020200A2020342020352020312020302020202020200A2020312020352020312020302020202020200A2020332020362020312020302020202020200A2020312020372020312020302020202020200A4D2020454E44
Contributor: MASS SPECTROSCOPY SOC. OF JAPAN (MSSJ)
InstType: EI
InstName: HITACHI RMU-7
IoniMethod: _ENERGY 70 eV
IonPolarity: pos
Date: 2010-10-09 19:48:36+02:00
Num Peaks: 19
99 80 98 780 97 250 84 140 83 999 82 60 69 700 68 500 56 80 55 880 
54 380 53 30 52 60 44 130 43 100 42 760 41 200 40 80 39 80 
