Name: MassBank: JP004502
MW: 350
Formula: C15H26O9
Synonym: MassBank: JP004502
Synonym: 1,5,6-TRI-O-ACETYL-2,3,4-TRI-O-METHYLHEXITOL (1-D)
Synonym: 1,5,6-TRIACETOXY-2,3,4-TRIMETHOXYHEXANE (1-D)
Structure: 312C352C362D5452492D4F2D41434554594C2D322C332C342D5452492D4F2D4D455448594C48455849544F4C2028312D44292E6D6F6C0A20204368656D447261773131313630393132313432440A2032362032352020302020302020302020302020302020302020302020303939392056323030300A2020202D312E373836322020202D302E3631383820202020302E303030302043202020302020302020302020302020302020302020302020302020302020302020302020300A2020202D312E3738363220202020302E3230363220202020302E303030302043202020302020302020302020302020302020302020302020302020302020302020302020300A2020202D312E3037313720202020302E3631383820202020302E303030302043202020302020302020302020302020302020302020302020302020302020302020302020300A2020202D302E3335373220202020302E3230363220202020302E303030302043202020302020302020302020302020302020302020302020302020302020302020302020300A20202020302E3335373220202020302E3631383820202020302E303030302043202020302020302020302020302020302020302020302020302020302020302020302020300A20202020312E3037313720202020302E3230363220202020302E303030302043202020302020302020302020302020302020302020302020302020302020302020302020300A2020202D302E333537322020202D302E3631383820202020302E30303030204F202020302020302020302020302020302020302020302020302020302020302020302020300A20202020302E333537322020202D312E3033313320202020302E303030302043202020302020302020302020302020302020302020302020302020302020302020302020300A2020202D312E3037313720202020312E3434333820202020302E30303030204F202020302020302020302020302020302020302020302020302020302020302020302020300A2020202D312E3738363220202020312E3835363320202020302E303030302043202020302020302020302020302020302020302020302020302020302020302020302020300A2020202D322E3530303620202020302E3631383820202020302E30303030204F202020302020302020302020302020302020302020302020302020302020302020302020300A2020202D332E3231353120202020302E3230363220202020302E303030302043202020302020302020302020302020302020302020302020302020302020302020302020300A20202020312E3738363220202020302E3631383820202020302E30303030204F202020302020302020302020302020302020302020302020302020302020302020302020300A20202020322E3530303620202020302E3230363320202020302E303030302043202020302020302020302020302020302020302020302020302020302020302020302020300A20202020332E3231353120202020302E3631383820202020302E30303030204F202020302020302020302020302020302020302020302020302020302020302020302020300A20202020322E353030362020202D302E3631383720202020302E303030302043202020302020302020302020302020302020302020302020302020302020302020302020300A20202020302E3335373220202020312E3434333820202020302E30303030204F202020302020302020302020302020302020302020302020302020302020302020302020300A20202020312E3037313720202020312E3835363320202020302E303030302043202020302020302020302020302020302020302020302020302020302020302020302020300A20202020312E3037313720202020322E3638313220202020302E30303030204F202020302020302020302020302020302020302020302020302020302020302020302020300A20202020312E3738363220202020312E3434333820202020302E303030302043202020302020302020302020302020302020302020302020302020302020302020302020300A2020202D312E373836322020202D312E3434333820202020302E30303030204F202020302020302020302020302020302020302020302020302020302020302020302020300A2020202D302E393631322020202D302E3631383820202020302E303030302048202020302020302020302020302020302020302020302020302020302020302020302020300A2020202D322E363131322020202D302E3631383820202020302E303030302048202020312020302020302020302020302020302020302020302020302020302020302020300A2020202D312E303731372020202D312E3835363320202020302E303030302043202020302020302020302020302020302020302020302020302020302020302020302020300A2020202D312E303731372020202D322E3638313220202020302E303030302043202020302020302020302020302020302020302020302020302020302020302020302020300A2020202D302E333537322020202D312E3434333820202020302E30303030204F202020302020302020302020302020302020302020302020302020302020302020302020300A2020312020322020312020302020202020200A2020322020332020312020302020202020200A2020332020342020312020302020202020200A2020342020352020312020302020202020200A2020352020362020312020302020202020200A2020372020382020312020302020202020200A2020342020372020312020302020202020200A2020392031302020312020302020202020200A2020332020392020312020302020202020200A2031312031322020312020302020202020200A2020322031312020312020302020202020200A2031342031352020322020302020202020200A2031342031362020312020302020202020200A2031332031342020312020302020202020200A2020362031332020312020302020202020200A2031382031392020322020302020202020200A2031382032302020312020302020202020200A2031372031382020312020302020202020200A2020352031372020312020302020202020200A2020312032312020312020302020202020200A2020312032322020312020302020202020200A2020312032332020312020302020202020200A2032312032342020312020302020202020200A2032342032352020312020302020202020200A2032342032362020322020302020202020200A4D202049534F20203120203233202020320A4D2020454E44
Contributor: SEYAMA Y, DEPT. OF PHYSIOL. CHEMISTRY AND NUTRITION, FAC. OF MEDICINE, UNIV. OF TOKYO
InstType: EI
InstName: SHIMADZU LKB-9000B
IoniMethod: _ENERGY 70 eV
IonPolarity: pos
Date: 2010-10-09 19:48:36+02:00
Num Peaks: 47
41 17 42 27 43 999 44 3 45 73 46 14 59 62 60 1 69 10 70 19 
71 58 72 2 73 31 74 32 75 36 76 1 85 15 87 320 88 128 89 4 
99 384 100 57 101 111 102 85 103 71 113 69 114 13 115 1 117 59 118 744 
119 43 129 62 130 111 131 46 132 11 142 1 143 17 159 52 161 27 162 33 
163 25 173 74 174 22 189 26 190 25 233 52 234 10 
