Name: ETHYLENEGLYCOL DIMETHYL ETHER
MW: 90
Formula: C4H10O2
Synonym: MassBank: JP003709
Synonym: ETHYLENEGLYCOL DIMETHYL ETHER
Structure: 310A31360A455448594C454E45474C59434F4C2044494D455448594C2045544845522E6D6F6C0A20204368656D447261773038313131303139313332440A2020362020352020302020302020302020302020302020302020302020303939392056323030300A2020202D302E333537322020202D302E3230363320202020302E303030302043202020302020302020302020302020302020302020302020302020302020302020302020300A20202020302E3335373220202020302E3230363320202020302E303030302043202020302020302020302020302020302020302020302020302020302020302020302020300A2020202D312E3037313720202020302E3230363320202020302E30303030204F202020302020302020302020302020302020302020302020302020302020302020302020300A20202020312E303731372020202D302E3230363220202020302E30303030204F202020302020302020302020302020302020302020302020302020302020302020302020300A2020202D312E373836322020202D302E3230363220202020302E303030302043202020302020302020302020302020302020302020302020302020302020302020302020300A20202020312E3738363220202020302E3230363320202020302E303030302043202020302020302020302020302020302020302020302020302020302020302020302020300A2020312020322020312020302020202020200A2020312020332020312020302020202020200A2020322020342020312020302020202020200A2020332020352020312020302020202020200A2020342020362020312020302020202020200A4D2020454E44
Contributor: SASAKI S, TOYOHASHI UNIV. OF TECH.
InstType: EI
InstName: Unknown
IoniMethod: EI
IonPolarity: pos
Date: 2010-10-09 19:48:36+02:00
Num Peaks: 17
14 22 15 6 26 13 27 4 28 35 29 185 30 17 31 1 42 13 43 60 
44 7 45 999 46 22 58 65 59 28 60 11 90 108 
