Name: COPROSTEROL
MW: 388
Formula: C27H48O
Synonym: MassBank: JP003428
Synonym: COPROSTEROL
Structure: 434F50524F535445524F4C2E6D6F6C0A20204368656D447261773039313531303034343032440A2033352033382020302020302020302020302020302020302020302020303939392056323030300A2020202D332E333830392020202D312E3438343220202020302E303030302043202020302020302020302020302020302020302020302020302020302020302020302020300A2020202D332E333830392020202D322E3330393220202020302E303030302043202020302020302020302020302020302020302020302020302020302020302020302020300A2020202D322E363636342020202D322E3732313720202020302E303030302043202020302020302020302020302020302020302020302020302020302020302020302020300A2020202D312E393532302020202D322E3330393220202020302E303030302043202020302020302020302020302020302020302020302020302020302020302020302020300A2020202D312E393532302020202D312E3438343220202020302E303030302043202020302020302020302020302020302020302020302020302020302020302020302020300A2020202D322E363636342020202D312E3037313720202020302E303030302043202020302020302020302020302020302020302020302020302020302020302020302020300A2020202D312E323337352020202D322E3732313720202020302E303030302043202020302020302020302020302020302020302020302020302020302020302020302020300A2020202D302E353233302020202D322E3330393220202020302E303030302043202020302020302020302020302020302020302020302020302020302020302020302020300A2020202D302E353233302020202D312E3438343220202020302E303030302043202020302020302020302020302020302020302020302020302020302020302020302020300A2020202D312E323337352020202D312E3037313720202020302E303030302043202020302020302020302020302020302020302020302020302020302020302020302020300A20202020302E313931342020202D312E3037313720202020302E303030302043202020302020302020302020302020302020302020302020302020302020302020302020300A20202020302E313931342020202D302E3234363720202020302E303030302043202020302020302020302020302020302020302020302020302020302020302020302020300A2020202D302E3532333020202020302E3136353820202020302E303030302043202020302020302020302020302020302020302020302020302020302020302020302020300A2020202D312E323337352020202D302E3234363720202020302E303030302043202020302020302020302020302020302020302020302020302020302020302020302020300A20202020312E363230342020202D312E3037313720202020302E303030302043202020302020302020302020302020302020302020302020302020302020302020302020300A20202020312E363230342020202D302E3234363720202020302E303030302043202020302020302020302020302020302020302020302020302020302020302020302020300A20202020302E3930353920202020302E3136353820202020302E303030302043202020302020302020302020302020302020302020302020302020302020302020302020300A20202020302E3930353920202020302E3939303820202020302E303030302043202020302020302020302020302020302020302020302020302020302020302020302020300A2020202D332E353934342020202D332E3130363120202020302E30303030204F202020302020302020302020302020302020302020302020302020302020302020302020300A2020202D312E323337352020202D312E3839363720202020302E303030302043202020302020302020302020302020302020302020302020302020302020302020302020300A20202020302E313931342020202D312E3839363720202020302E303030302048202020302020302020302020302020302020302020302020302020302020302020302020300A20202020302E3139313420202020302E3537383320202020302E303030302043202020302020302020302020302020302020302020302020302020302020302020302020300A2020202D342E323035392020202D322E3330393220202020302E303030302048202020302020302020302020302020302020302020302020302020302020302020302020300A2020202D312E393532302020202D302E3635393220202020302E303030302048202020302020302020302020302020302020302020302020302020302020302020302020300A20202020312E3438393320202020302E3734393120202020302E303030302048202020302020302020302020302020302020302020302020302020302020302020302020300A20202020302E363033392020202D312E3738363220202020302E303030302048202020302020302020302020302020302020302020302020302020302020302020302020300A20202020302E3930353920202020312E3831353820202020302E303030302048202020302020302020302020302020302020302020302020302020302020302020302020300A20202020312E3733303920202020302E3939303820202020302E303030302043202020302020302020302020302020302020302020302020302020302020302020302020300A20202020302E3038303920202020302E3939303820202020302E303030302043202020302020302020302020302020302020302020302020302020302020302020302020300A20202020322E3134333420202020312E3730353320202020302E303030302043202020302020302020302020302020302020302020302020302020302020302020302020300A20202020322E3936383420202020312E3730353320202020302E303030302043202020302020302020302020302020302020302020302020302020302020302020302020300A2020202D312E393532302020202D332E3133343220202020302E303030302048202020302020302020302020302020302020302020302020302020302020302020302020300A20202020332E3338303920202020322E3431393820202020302E303030302043202020302020302020302020302020302020302020302020302020302020302020302020300A20202020342E3230353920202020322E3431393820202020302E303030302043202020302020302020302020302020302020302020302020302020302020302020302020300A20202020322E3936383420202020332E3133343220202020302E303030302043202020302020302020302020302020302020302020302020302020302020302020302020300A2020312020322020312020302020202020200A2020322020332020312020302020202020200A2020332020342020312020302020202020200A2020342020352020312020302020202020200A2020352020362020312020302020202020200A2020362020312020312020302020202020200A2020342020372020312020302020202020200A2020372020382020312020302020202020200A2020382020392020312020302020202020200A2020392031302020312020302020202020200A2031302020352020312020302020202020200A2020392031312020312020302020202020200A2031312031322020312020302020202020200A2031322031332020312020302020202020200A2031332031342020312020302020202020200A2031342031302020312020302020202020200A2031352031362020312020302020202020200A2031362031372020312020302020202020200A2031372031322020312020302020202020200A2031372031382020312020302020202020200A2020322031392020312020312020202020200A2020352032302020312020312020202020200A2020392032312020312020312020202020200A2031322032322020312020312020202020200A2020322032332020312020362020202020200A2031302032342020312020362020202020200A2031372032352020312020362020202020200A2031312032362020312020362020202020200A2031382032372020312020312020202020200A2031382032382020312020302020202020200A2031382032392020312020302020202020200A2032382033302020312020302020202020200A2033302033312020312020302020202020200A2031312031352020312020302020202020200A2020342033322020312020312020202020200A2033312033332020312020302020202020200A2033332033342020312020302020202020200A2033332033352020312020302020202020200A4D2020454E44
Contributor: KOGA M, UNIV. OF OCCUPATIONAL AND ENVIRONMENTAL HEALTH
InstType: EI
InstName: JEOL JMS-01-SG-2
IoniMethod: _ENERGY 75 eV
IonPolarity: pos
Date: 2010-10-09 19:48:36+02:00
Num Peaks: 33
43 325 44 433 55 318 57 215 67 215 69 185 79 185 81 29 83 113 91 136 
93 210 95 28 105 136 107 242 108 217 109 18 121 154 122 109 124 160 133 10 
135 122 147 124 149 219 215 30 216 136 217 142 233 456 234 29 355 143 370 169 
373 347 388 999 389 303 
