Name: N-(CYCLOHEXYLCARBAMOYL)-2-RYRROLIDONE
MW: 210
Formula: C11H18N2O2
Synonym: MassBank: JP004166
Synonym: N-(CYCLOHEXYLCARBAMOYL)-2-RYRROLIDONE
Structure: 303832335F4E2D284359434C4F484558594C43415242414D4F594C292D322D525952524F4C49444F4E452E6D6F6C0A20204368656D447261773039303631303230313232440A2031352031362020302020302020302020302020302020302020302020303939392056323030300A2020202D322E343339302020202D302E3237333820202020302E303030302043202020302020302020302020302020302020302020302020302020302020302020302020300A2020202D322E343339302020202D312E3039383820202020302E303030302043202020302020302020302020302020302020302020302020302020302020302020302020300A2020202D312E373234362020202D312E3531313320202020302E303030302043202020302020302020302020302020302020302020302020302020302020302020302020300A2020202D312E303130312020202D312E3039383820202020302E303030302043202020302020302020302020302020302020302020302020302020302020302020302020300A2020202D312E303130312020202D302E3237333820202020302E303030302043202020302020302020302020302020302020302020302020302020302020302020302020300A2020202D312E3732343620202020302E3133383720202020302E303030302043202020302020302020302020302020302020302020302020302020302020302020302020300A2020202D302E3239353620202020302E3133383720202020302E30303030204E202020302020302020302020302020302020302020302020302020302020302020302020300A20202020302E343138392020202D302E3237333820202020302E303030302043202020302020302020302020302020302020302020302020302020302020302020302020300A20202020312E3133333320202020302E3133383720202020302E30303030204E202020302020302020302020302020302020302020302020302020302020302020302020300A20202020302E343138392020202D312E3039383820202020302E30303030204F202020302020302020302020302020302020302020302020302020302020302020302020300A20202020312E383837302020202D302E3139363820202020302E303030302043202020302020302020302020302020302020302020302020302020302020302020302020300A20202020322E3433393020202020302E3431363320202020302E303030302043202020302020302020302020302020302020302020302020302020302020302020302020300A20202020322E3032363520202020312E3133303820202020302E303030302043202020302020302020302020302020302020302020302020302020302020302020302020300A20202020312E3231393620202020302E3935393220202020302E303030302043202020302020302020302020302020302020302020302020302020302020302020302020300A20202020302E3630363520202020312E3531313320202020302E30303030204F202020302020302020302020302020302020302020302020302020302020302020302020300A2020312020322020312020302020202020200A2020322020332020312020302020202020200A2020332020342020312020302020202020200A2020342020352020312020302020202020200A2020352020362020312020302020202020200A2020362020312020312020302020202020200A2020352020372020312020302020202020200A2020372020382020312020302020202020200A2020382020392020312020302020202020200A2020382031302020322020302020202020200A2020392031312020312020302020202020200A2031312031322020312020302020202020200A2031322031332020312020302020202020200A2031332031342020312020302020202020200A2031342020392020312020302020202020200A2031342031352020322020302020202020200A4D2020454E44
Contributor: MASS SPECTROSCOPY SOC. OF JAPAN (MSSJ)
InstType: EI
InstName: HITACHI RMU-6E
IoniMethod: _ENERGY 70 eV
IonPolarity: pos
Date: 2010-10-09 19:48:36+02:00
Num Peaks: 117
26 88 27 366 28 656 29 21 30 340 31 6 32 21 35 1 36 5 37 16 
38 40 39 33 40 152 41 999 42 546 43 19 44 47 45 2 46 5 47 3 
48 14 49 12 50 20 51 4 52 44 53 96 54 358 55 30 56 698 57 67 
58 17 59 0 60 2 61 3 62 5 63 1 64 6 65 19 66 21 67 63 
68 124 69 430 70 90 71 1 72 3 73 2 74 2 75 0 76 2 77 19 
78 10 79 4 80 48 81 90 82 550 83 18 84 190 85 600 86 290 87 2 
88 1 89 1 90 4 91 0 92 2 93 2 94 2 95 1 96 134 97 514 
98 590 99 5 100 6 108 5 109 2 110 2 111 6 112 150 113 9 114 0 
118 4 119 2 120 3 124 9 125 110 126 20 127 3 128 1 129 340 130 22 
131 2 138 1 139 2 140 2 141 19 142 1 143 4 144 1 153 4 154 2 
155 4 156 1 166 1 167 36 168 39 169 4 170 1 171 0 172 1 180 1 
181 16 182 0 209 3 210 84 211 16 212 0 213 1 
