Name: MassBank: JP007804
MW: 155
Formula: C7H9NOS
Synonym: MassBank: JP007804
Synonym: 5-ACETYL-2,4-DIMETHYLTHIAZOLE
Structure: 352D41434554594C2D322C342D44494D455448594C544849415A4F4C452E6D6F6C0A20204368656D447261773034323331303033353932440A2031302031302020302020302020302020302020302020302020302020303939392056323030300A20202020302E3133353220202020302E3934343820202020302E303030302053202020302020302020302020302020302020302020302020302020302020302020302020300A20202020302E3931393820202020302E3638393820202020302E303030302043202020302020302020302020302020302020302020302020302020302020302020302020300A20202020302E393139382020202D302E3133353220202020302E30303030204E202020302020302020302020302020302020302020302020302020302020302020302020300A20202020302E313335322020202D302E3339303120202020302E303030302043202020302020302020302020302020302020302020302020302020302020302020302020300A2020202D302E3334393720202020302E3237373320202020302E303030302043202020302020302020302020302020302020302020302020302020302020302020302020300A2020202D302E313139382020202D312E3137343720202020302E303030302043202020302020302020302020302020302020302020302020302020302020302020302020300A20202020312E3538373220202020312E3137343720202020302E303030302043202020302020302020302020302020302020302020302020302020302020302020302020300A2020202D312E3137343720202020302E3237373320202020302E303030302043202020302020302020302020302020302020302020302020302020302020302020302020300A2020202D312E353837322020202D302E3433373220202020302E30303030204F202020302020302020302020302020302020302020302020302020302020302020302020300A2020202D312E3538373220202020302E3939313820202020302E303030302043202020302020302020302020302020302020302020302020302020302020302020302020300A2020312020322020312020302020202020200A2020322020332020322020302020202020200A2020332020342020312020302020202020200A2020342020352020322020302020202020200A2020312020352020312020302020202020200A2020342020362020312020302020202020200A2020322020372020312020302020202020200A2020382020392020322020302020202020200A2020382031302020312020302020202020200A2020352020382020312020302020202020200A4D2020454E44
Contributor: HASHIMOTO K, KYOTO COLLEGE OF PHARMACY
InstType: EI
InstName: HITACHI M-80
IoniMethod: _ENERGY 20 eV
IonPolarity: pos
Date: 2010-10-09 19:48:36+02:00
Num Peaks: 25
39 10 42 69 43 999 44 39 45 111 59 12 70 10 71 451 72 340 73 38 
74 19 84 10 85 10 86 20 90 29 112 359 113 183 114 186 115 10 140 529 
141 140 142 81 155 490 156 157 157 78 
