Name: MassBank: JP007760
MW: 139
Formula: C8H13NO
Synonym: MassBank: JP007760
Synonym: 2,4-DIETHYL-5-METHLOXAZOLE
Structure: 322C342D4449455448594C2D352D4D4554484C4F58415A4F4C452E6D6F6C0A20204368656D447261773132323030393138333432440A2031302031302020302020302020302020302020302020302020302020303939392056323030300A20202020302E343932312020202D302E3538363220202020302E30303030204E202020302020302020302020302020302020302020302020302020302020302020302020300A20202020302E3730353720202020302E3231303720202020302E303030302043202020302020302020302020302020302020302020302020302020302020302020302020300A20202020302E3031333820202020302E3636303120202020302E30303030204F202020302020302020302020302020302020302020302020302020302020302020302020300A2020202D302E3632373420202020302E3134303920202020302E303030302043202020302020302020302020302020302020302020302020302020302020302020302020300A2020202D302E333331372020202D302E3632393320202020302E303030302043202020302020302020302020302020302020302020302020302020302020302020302020300A20202020312E3437353920202020302E3530363420202020302E303030302043202020302020302020302020302020302020302020302020302020302020302020302020300A20202020312E3630343920202020312E3332313220202020302E303030302043202020302020302020302020302020302020302020302020302020302020302020302020300A2020202D312E3432343320202020302E3335343420202020302E303030302043202020302020302020302020302020302020302020302020302020302020302020302020300A2020202D302E373831312020202D312E3332313220202020302E303030302043202020302020302020302020302020302020302020302020302020302020302020302020300A2020202D312E363034392020202D312E3237383120202020302E303030302043202020302020302020302020302020302020302020302020302020302020302020302020300A2020312020322020322020302020202020200A2020322020332020312020302020202020200A2020332020342020312020302020202020200A2020342020352020322020302020202020200A2020352020312020312020302020202020200A2020322020362020312020302020202020200A2020362020372020312020302020202020200A2020342020382020312020302020202020200A2020352020392020312020302020202020200A2020392031302020312020302020202020200A4D2020454E44
Contributor: HASHIMOTO K, KYOTO COLLEGE OF PHARMACY
InstType: EI
InstName: HITACHI M-80
IoniMethod: _ENERGY 20 eV
IonPolarity: pos
Date: 2010-10-09 19:48:36+02:00
Num Peaks: 20
41 129 42 20 43 491 54 21 55 52 56 670 57 59 68 12 69 821 70 50 
82 50 83 21 84 209 96 160 110 21 124 999 125 180 138 312 139 800 140 150 
