Name: 3-BROMO-4-HYDROXYBENZALDEHYDE
MW: 199
Formula: C7H5BrO2
Synonym: MassBank: JP006760
Synonym: 3-BROMO-4-HYDROXYBENZALDEHYDE
Structure: 332D42524F4D4F2D342D485944524F585942454E5A414C4445485944452E6D6F6C0A20204368656D447261773032323231303134323032440A2031302031302020302020302020302020302020302020302020302020303939392056323030300A20202020312E303731372020202D302E3832353020202020302E303030302043202020302020302020302020302020302020302020302020302020302020302020302020300A20202020302E333537322020202D302E3431323520202020302E303030302043202020302020302020302020302020302020302020302020302020302020302020302020300A2020202D302E333537322020202D302E3832353020202020302E303030302043202020302020302020302020302020302020302020302020302020302020302020302020300A2020202D312E303731372020202D302E3431323520202020302E303030302043202020302020302020302020302020302020302020302020302020302020302020302020300A2020202D312E3037313720202020302E3431323520202020302E303030302043202020302020302020302020302020302020302020302020302020302020302020302020300A2020202D302E3335373220202020302E3832353020202020302E303030302043202020302020302020302020302020302020302020302020302020302020302020302020300A20202020302E3335373220202020302E3431323520202020302E303030302043202020302020302020302020302020302020302020302020302020302020302020302020300A20202020312E373836322020202D302E3431323520202020302E30303030204F202020302020302020302020302020302020302020302020302020302020302020302020300A2020202D312E3738363220202020302E3832353020202020302E30303030204F202020302020302020302020302020302020302020302020302020302020302020302020300A2020202D312E373836322020202D302E3832353020202020302E303030302042722020302020302020302020302020302020302020302020302020302020302020302020300A2020312020322020312020302020202020200A2020322020332020312020302020202020200A2020332020342020322020302020202020200A2020342020352020312020302020202020200A2020352020362020322020302020202020200A2020362020372020312020302020202020200A2020322020372020322020302020202020200A2020312020382020322020302020202020200A2020352020392020312020302020202020200A2020342031302020312020302020202020200A4D2020454E44
Contributor: MASS SPECTROSCOPY SOC. OF JAPAN (MSSJ)
InstType: EI
InstName: HITACHI RMS-4
IoniMethod: _ENERGY 70 eV
IonPolarity: pos
Date: 2010-10-09 19:48:36+02:00
Num Peaks: 80
40 39 41 42 42 42 43 3 44 16 45 24 46 36 48 3 49 120 50 220 
51 105 52 3 53 470 54 36 55 32 56 1 57 17 60 80 61 360 62 60 
63 999 64 360 65 360 66 11 67 28 68 14 69 17 71.5 2 72 17 73 78 
74 18 76 2 77 95 78 12 79 100 80 15 81 100 82 140 83 14 84 1 
85 17 86 45 87 36 89 1 90 47 91 140 92 330 93 8 94 17 95 12 
104 17 105 1 106 14 116 19 117 62 118 2 119 80 120 42 121 53 122 4 
131 14 133 14 141 19 142 2 143 130 144 24 145 120 146 1 149 24 169 12 
170 22 171 12 172 61 173 120 174 28 199 28 200 320 201 260 202 300 203 39 
