Name: ETHYLPENTAMETHYLDISILANE
MW: 160
Formula: C7H20Si2
Synonym: MassBank: JP004799
Synonym: ETHYLPENTAMETHYLDISILANE
Structure: 310A32320A455448594C50454E54414D455448594C444953494C414E452E6D6F6C0A20204368656D447261773038313131303139313732440A2020392020382020302020302020302020302020302020302020302020303939392056323030300A2020202D302E3230363320202020302E3431323520202020302E303030302053692020302020302020302020302020302020302020302020302020302020302020302020300A2020202D302E323036332020202D302E3431323520202020302E303030302053692020302020302020302020302020302020302020302020302020302020302020302020300A2020202D312E3033313320202020302E3431323520202020302E303030302043202020302020302020302020302020302020302020302020302020302020302020302020300A2020202D302E3230363320202020312E3233373520202020302E303030302043202020302020302020302020302020302020302020302020302020302020302020302020300A20202020302E3631383720202020302E3431323520202020302E303030302043202020302020302020302020302020302020302020302020302020302020302020302020300A2020202D312E303331332020202D302E3431323520202020302E303030302043202020302020302020302020302020302020302020302020302020302020302020302020300A2020202D302E323036332020202D312E3233373520202020302E303030302043202020302020302020302020302020302020302020302020302020302020302020302020300A20202020302E363138372020202D302E3431323520202020302E303030302043202020302020302020302020302020302020302020302020302020302020302020302020300A20202020312E303331332020202D312E3132373020202020302E303030302043202020302020302020302020302020302020302020302020302020302020302020302020300A2020312020322020312020302020202020200A2020312020332020312020302020202020200A2020312020342020312020302020202020200A2020312020352020312020302020202020200A2020322020362020312020302020202020200A2020322020372020312020302020202020200A2020382020392020312020302020202020200A2020322020382020312020302020202020200A4D2020454E44
Contributor: MASS SPECTROSCOPY SOC. OF JAPAN (MSSJ)
InstType: EI
InstName: JEOL JMS-D-3000
IoniMethod: _ENERGY 70 eV
IonPolarity: pos
Date: 2010-10-09 19:48:36+02:00
Num Peaks: 36
43 89 44 23 45 121 55 14 57 17 58 66 59 667 60 52 61 26 69 11 
71 15 72 31 73 999 74 91 75 40 85 53 86 85 87 725 88 74 89 28 
99 12 101 21 115 30 116 10 117 391 118 60 119 31 129 14 131 325 132 52 
133 27 145 118 146 21 160 251 161 46 162 21 
