Name: MassBank: JP002040
MW: 154
Formula: C6H6N2O3
Synonym: MassBank: JP002040
Synonym: 5-ACETYL-3,4-DIHYDRO-6-HYDROXYPYRIMIDIN-4-ONE
Structure: 352D41434554594C2D332C342D4449485944524F2D362D485944524F5859505952494D4944494E2D342D4F4E452E6D6F6C0A20204368656D447261773034323331303033353932440A2031312031312020302020302020302020302020302020302020302020303939392056323030300A20202020312E3434333820202020302E3030303020202020302E303030302043202020302020302020302020302020302020302020302020302020302020302020302020300A20202020312E303331332020202D302E3731343520202020302E30303030204E202020302020302020302020302020302020302020302020302020302020302020302020300A20202020302E323036332020202D302E3731343520202020302E303030302043202020302020302020302020302020302020302020302020302020302020302020302020300A2020202D302E3230363320202020302E3030303020202020302E303030302043202020302020302020302020302020302020302020302020302020302020302020302020300A20202020302E3230363220202020302E3731343520202020302E303030302043202020302020302020302020302020302020302020302020302020302020302020302020300A20202020312E3033313320202020302E3731343520202020302E30303030204E202020302020302020302020302020302020302020302020302020302020302020302020300A2020202D302E323036322020202D312E3432383920202020302E30303030204F202020302020302020302020302020302020302020302020302020302020302020302020300A2020202D302E3230363320202020312E3432383920202020302E30303030204F202020302020302020302020302020302020302020302020302020302020302020302020300A2020202D312E3033313220202020302E3030303020202020302E303030302043202020302020302020302020302020302020302020302020302020302020302020302020300A2020202D312E343433382020202D302E3731343520202020302E30303030204F202020302020302020302020302020302020302020302020302020302020302020302020300A2020202D312E3434333720202020302E3731343520202020302E303030302043202020302020302020302020302020302020302020302020302020302020302020302020300A2020312020322020312020302020202020200A2020322020332020312020302020202020200A2020332020342020312020302020202020200A2020342020352020322020302020202020200A2020352020362020312020302020202020200A2020312020362020322020302020202020200A2020332020372020322020302020202020200A2020352020382020312020302020202020200A2020392031302020322020302020202020200A2020392031312020312020302020202020200A2020342020392020312020302020202020200A4D2020454E44
Contributor: SASAKI S, TOYOHASHI UNIV. OF TECH.
InstType: EI
InstName: MS-902
IoniMethod: _ENERGY 70 eV
IonPolarity: pos
Date: 2010-10-09 19:48:36+02:00
Num Peaks: 35
36 43 38 13 39 19 40 2 41 28 42 40 43 181 44 16 45 10 53 12 
55 19 56 2 57 23 66 13 67 20 68 4 69 143 70 13 71 269 83 3 
84 59 85 16 92 22 111 1 112 89 125 19 126 13 137 2 139 999 140 57 
141 10 151 1 153 73 154 489 155 55 
