Name: ETHYL-2-METHYL-5-(N-METHYLPIPERAZINYLCARBAMOYL)PENTANOATE
MW: 270
Formula: C14H26N2O3
Synonym: MassBank: JP009921
Synonym: ETHYL-2-METHYL-5-(N-METHYLPIPERAZINYLCARBAMOYL)PENTANOATE
Structure: 303831355F455448594C2D322D4D455448594C2D352D284E2D4D455448594C5049504552415A494E594C43415242414D4F594C2950454E54414E4F4154452E6D6F6C0A20204368656D447261773130323031303137343632440A2031382031382020302020302020302020302020302020302020302020303939392056323030300A20202020312E303331362020202D312E3738363520202020302E303030302043202020302020302020302020302020302020302020302020302020302020302020302020300A20202020302E323036362020202D312E3738363520202020302E303030302043202020302020302020302020302020302020302020302020302020302020302020302020300A2020202D302E323035392020202D312E3037323020202020302E303030302043202020302020302020302020302020302020302020302020302020302020302020302020300A20202020302E323036362020202D302E3335373620202020302E303030302043202020302020302020302020302020302020302020302020302020302020302020302020300A2020202D302E3230353920202020302E3335363920202020302E303030302043202020302020302020302020302020302020302020302020302020302020302020302020300A20202020312E343434312020202D322E3530313020202020302E30303030204F202020302020302020302020302020302020302020302020302020302020302020302020300A20202020312E343434312020202D312E3037323020202020302E30303030204F202020302020302020302020302020302020302020302020302020302020302020302020300A2020202D312E3033303920202020302E3335363920202020302E303030302043202020302020302020302020302020302020302020302020302020302020302020302020300A2020202D312E343433342020202D302E3335373620202020302E30303030204F202020302020302020302020302020302020302020302020302020302020302020302020300A2020202D312E3434333420202020312E3037313420202020302E30303030204E202020302020302020302020302020302020302020302020302020302020302020302020300A2020202D322E3236393120202020312E3037323120202020302E303030302043202020302020302020302020302020302020302020302020302020302020302020302020300A2020202D322E3638313620202020312E3738363520202020302E303030302043202020302020302020302020302020302020302020302020302020302020302020302020300A2020202D322E3236383620202020322E3530303020202020302E30303030204E202020302020302020302020302020302020302020302020302020302020302020302020300A2020202D312E3434343220202020322E3530313020202020302E303030302043202020302020302020302020302020302020302020302020302020302020302020302020300A2020202D312E3033313620202020312E3738363520202020302E303030302043202020302020302020302020302020302020302020302020302020302020302020302020300A2020202D302E323035392020202D322E3530313020202020302E303030302043202020302020302020302020302020302020302020302020302020302020302020302020300A20202020322E323639312020202D312E3037323020202020302E303030302043202020302020302020302020302020302020302020302020302020302020302020302020300A20202020322E363831362020202D302E3335373620202020302E303030302043202020302020302020302020302020302020302020302020302020302020302020302020300A2020312020322020312020302020202020200A2020322020332020312020302020202020200A2020332020342020312020302020202020200A2020342020352020312020302020202020200A2020312020362020322020302020202020200A2020312020372020312020302020202020200A2020382020392020322020302020202020200A2031302031312020312020302020202020200A2031312031322020312020302020202020200A2031322031332020312020302020202020200A2031332031342020312020302020202020200A2031342031352020312020302020202020200A2031302031352020312020302020202020200A2020352020382020312020302020202020200A2020322031362020312020302020202020200A2031372031382020312020302020202020200A2020372031372020312020302020202020200A2031302020382020312020302020202020200A4D2020454E44
Contributor: KURARAY CO., LTD.
InstType: EI
InstName: JEOL JMS-D-300
IoniMethod: _ENERGY 70 eV
IonPolarity: pos
Date: 2010-10-09 19:48:36+02:00
Num Peaks: 44
27 23 28 63 29 47 36 1 41 77 42 127 43 138 44 8 55 92 56 198 
57 111 58 35 69 98 70 999 71 156 72 2 82 19 83 545 84 69 85 3 
97 64 98 69 99 531 100 5 101 188 112 61 113 19 115 2 125 13 126 111 
127 45 142 3 143 59 155 30 169 81 171 9 197 86 198 16 213 81 214 2 
225 313 226 45 270 109 271 17 
