Name: ALLYL 2-FUROATE
CAS: 4208-49-5
MW: 152
Formula: C8H8O3
Synonym: MassBank: JP009047
Synonym: ALLYL 2-FUROATE
Structure: 414C4C594C20322D4655524F4154452E6D6F6C0A20204368656D447261773031303331303133353432440A2031312031312020302020302020302020302020302020302020302020303939392056323030300A2020202D312E3231393620202020302E3934333220202020302E30303030204F202020302020302020302020302020302020302020302020302020302020302020302020300A2020202D312E3133333320202020302E3132323720202020302E303030302043202020302020302020302020302020302020302020302020302020302020302020302020300A2020202D312E383837302020202D302E3231323820202020302E303030302043202020302020302020302020302020302020302020302020302020302020302020302020300A2020202D322E3433393020202020302E3430303320202020302E303030302043202020302020302020302020302020302020302020302020302020302020302020302020300A2020202D322E3032363520202020312E3131343820202020302E303030302043202020302020302020302020302020302020302020302020302020302020302020302020300A2020202D302E343138392020202D302E3238393820202020302E303030302043202020302020302020302020302020302020302020302020302020302020302020302020300A2020202D302E343138392020202D312E3131343820202020302E30303030204F202020302020302020302020302020302020302020302020302020302020302020302020300A20202020302E3239353620202020302E3132323720202020302E30303030204F202020302020302020302020302020302020302020302020302020302020302020302020300A20202020312E303130312020202D302E3238393820202020302E303030302043202020302020302020302020302020302020302020302020302020302020302020302020300A20202020312E3732343620202020302E3132323720202020302E303030302043202020302020302020302020302020302020302020302020302020302020302020302020300A20202020322E343339302020202D302E3238393820202020302E303030302043202020302020302020302020302020302020302020302020302020302020302020302020300A2020312020322020312020302020202020200A2020322020332020322020302020202020200A2020332020342020312020302020202020200A2020342020352020322020302020202020200A2020312020352020312020302020202020200A2020322020362020312020302020202020200A2020362020372020322020302020202020200A2020362020382020312020302020202020200A2020392031302020312020302020202020200A2031302031312020322020302020202020200A2020382020392020312020302020202020200A4D2020454E44
Contributor: SODA AROMATIC CO., LTD.
InstType: EI
InstName: HITACHI M-80B
IoniMethod: _ENERGY 70 eV
IonPolarity: pos
Date: 2010-10-09 19:48:36+02:00
Num Peaks: 23
26 12 27 33 29 25 37 22 38 61 39 263 41 128 53 10 57 23 66 11 
67 17 68 50 77 11 79 38 80 11 81 11 95 999 96 77 107 11 108 34 
112 12 123 19 152 84 
