Name: MassBank: JP000510
MW: 130
Formula: C7H18N2
Synonym: MassBank: JP000510
Synonym: 1,1-DIETHYL-2-PROPYLHYDRAZINE
Structure: 310A32320A312C312D4449455448594C2D322D50524F50594C48594452415A494E452E6D6F6C0A20204368656D447261773130323330393130323032440A2020392020382020302020302020302020302020302020302020302020303939392056323030300A20202020302E303030392020202D302E3335383020202020302E30303030204E202020302020302020302020302020302020302020302020302020302020302020302020300A20202020302E383235392020202D302E3335373020202020302E30303030204E202020302020302020302020302020302020302020302020302020302020302020302020300A20202020312E3233373520202020302E3335383020202020302E303030302043202020302020302020302020302020302020302020302020302020302020302020302020300A20202020302E3832343120202020312E3037323020202020302E303030302043202020302020302020302020302020302020302020302020302020302020302020302020300A20202020312E3233353720202020312E3738363920202020302E303030302043202020302020302020302020302020302020302020302020302020302020302020302020300A2020202D302E343130372020202D312E3037333020202020302E303030302043202020302020302020302020302020302020302020302020302020302020302020302020300A20202020302E303032372020202D312E3738363920202020302E303030302043202020302020302020302020302020302020302020302020302020302020302020302020300A2020202D302E3431323520202020302E3335363020202020302E303030302043202020302020302020302020302020302020302020302020302020302020302020302020300A2020202D312E3233373520202020302E3335343920202020302E303030302043202020302020302020302020302020302020302020302020302020302020302020302020300A2020312020322020312020302020202020200A2020332020342020312020302020202020200A2020342020352020312020302020202020200A2020322020332020312020302020202020200A2020362020372020312020302020202020200A2020312020362020312020302020202020200A2020382020392020312020302020202020200A2020312020382020312020302020202020200A4D2020454E44
Contributor: SASAKI S, TOYOHASHI UNIV. OF TECH.
InstType: EI
InstName: SHIMADZU LKB-2091
IoniMethod: _ENERGY 70 eV
IonPolarity: pos
Date: 2010-10-09 19:48:36+02:00
Num Peaks: 39
27 206 28 142 29 222 30 24 31 158 32 24 39 25 40 1 41 119 42 206 
43 174 44 27 45 56 46 14 54 11 55 1 56 103 57 58 58 285 59 57 
60 35 70 22 71 33 72 8 73 143 74 9 85 17 86 1 87 999 88 60 
99 5 101 21 102 27 113 10 115 222 116 2 129 10 130 556 131 67 
