Name: GLYCERYL DIACETATE
MW: 176
Formula: C7H12O5
Synonym: MassBank: JP003355
Synonym: GLYCERYL DIACETATE
Structure: 303634305F474C59434552594C204449414345544154452E6D6F6C0A20204368656D447261773039303631303139333332440A2031322031312020302020302020302020302020302020302020302020303939392056323030300A2020202D312E3037303320202020302E3430393720202020302E30303030204F202020302020302020302020302020302020302020302020302020302020302020302020300A2020202D302E333537362020202D302E3030303020202020302E303030302043202020302020302020302020302020302020302020302020302020302020302020302020300A20202020302E3335363920202020302E3431323520202020302E303030302043202020302020302020302020302020302020302020302020302020302020302020302020300A20202020312E303732372020202D302E3030303020202020302E30303030204F202020302020302020302020302020302020302020302020302020302020302020302020300A2020202D312E373836352020202D302E3832353020202020302E30303030204F202020302020302020302020302020302020302020302020302020302020302020302020300A2020202D312E373836352020202D302E3030303020202020302E303030302043202020302020302020302020302020302020302020302020302020302020302020302020300A2020202D322E3530313020202020302E3431323520202020302E303030302043202020302020302020302020302020302020302020302020302020302020302020302020300A20202020312E3738363620202020312E3233373520202020302E30303030204F202020302020302020302020302020302020302020302020302020302020302020302020300A20202020312E3738363520202020302E3431323520202020302E303030302043202020302020302020302020302020302020302020302020302020302020302020302020300A20202020322E3530313020202020302E3030303020202020302E303030302043202020302020302020302020302020302020302020302020302020302020302020302020300A2020202D302E333537362020202D302E3832353020202020302E303030302043202020302020302020302020302020302020302020302020302020302020302020302020300A20202020302E333536392020202D312E3233373520202020302E30303030204F202020302020302020302020302020302020302020302020302020302020302020302020300A2020362020312020312020302020202020200A2020312020322020312020302020202020200A2020322020332020312020302020202020200A2020332020342020312020302020202020200A2020342020392020312020302020202020200A2020322031312020312020302020202020200A2020352020362020322020302020202020200A2020362020372020312020302020202020200A2020382020392020322020302020202020200A2020392031302020312020302020202020200A2031312031322020312020302020202020200A4D2020454E44
Contributor: KOGA M, UNIV. OF OCCUPATIONAL AND ENVIRONMENTAL HEALTH
InstType: EI
InstName: JEOL JMS-01-SG-2
IoniMethod: _ENERGY 75 eV
IonPolarity: pos
Date: 2010-10-09 19:48:36+02:00
Num Peaks: 16
45 55 55 51 56 74 59 35 60 307 73 106 74 242 86 16 103 999 104 50 
115 104 116 17 117 51 145 334 146 21 159 100 
