Name: 1-BROMO-4-CHLOROBENZENE
CAS: 106-39-8
MW: 189
Formula: C6H4BrCl
Synonym: MassBank: JP004822
Synonym: 1-BROMO-4-CHLOROBENZENE
Structure: 310A32310A312D42524F4D4F2D342D43484C4F524F42454E5A454E452E6D6F6C0A20204368656D447261773131313730393233333432440A2020382020382020302020302020302020302020302020302020302020303939392056323030300A2020202D302E3832353020202020302E3030303020202020302E303030302043202020302020302020302020302020302020302020302020302020302020302020302020300A2020202D302E3431323520202020302E3731343520202020302E303030302043202020302020302020302020302020302020302020302020302020302020302020302020300A20202020302E3431323520202020302E3731343520202020302E303030302043202020302020302020302020302020302020302020302020302020302020302020302020300A20202020302E383235302020202D302E3030303020202020302E303030302043202020302020302020302020302020302020302020302020302020302020302020302020300A20202020302E343132352020202D302E3731343520202020302E303030302043202020302020302020302020302020302020302020302020302020302020302020302020300A2020202D302E343132352020202D302E3731343520202020302E303030302043202020302020302020302020302020302020302020302020302020302020302020302020300A20202020312E363530302020202D302E3030303020202020302E3030303020436C2020302020302020302020302020302020302020302020302020302020302020302020300A2020202D312E3635303020202020302E3030303020202020302E303030302042722020302020302020302020302020302020302020302020302020302020302020302020300A2020312020322020312020302020202020200A2020322020332020322020302020202020200A2020332020342020312020302020202020200A2020342020352020322020302020202020200A2020352020362020312020302020202020200A2020312020362020322020302020202020200A2020342020372020312020302020202020200A2020312020382020312020302020202020200A4D2020454E44
Contributor: MASS SPECTROSCOPY SOC. OF JAPAN (MSSJ)
InstType: EI
InstName: JEOL JMS-D-3000
IoniMethod: _ENERGY 70 eV
IonPolarity: pos
Date: 2010-10-09 19:48:36+02:00
Num Peaks: 36
40 11 42 13 43 128 45 67 49 24 50 149 51 39 55 30 56 11 58 56 
59 97 61 14 73 41 74 148 75 319 76 62 77 19 78 17 84 14 85 24 
95 48 96 67 97 16 110 15 111 653 112 48 113 203 114 15 155 12 157 11 
190 780 191 56 192 999 193 68 194 251 195 17 
