Name: MassBank: JP007885
MW: 312
Formula: C22H20N2
Synonym: MassBank: JP007885
Synonym: 3-(2-AMINOETHYL)-1,2-DIPHENYLINDOLE
Structure: 332D28322D414D494E4F455448594C292D312C322D44495048454E594C494E444F4C452E6D6F6C0A20204368656D447261773032323231303039333532440A2032342032372020302020302020302020302020302020302020302020303939392056323030300A2020202D302E333233312020202D302E3535333820202020302E30303030204E202020302020302020302020302020302020302020302020302020302020302020302020300A20202020302E3031323520202020302E3139393920202020302E303030302043202020302020302020302020302020302020302020302020302020302020302020302020300A20202020302E3833333020202020302E3131333720202020302E303030302043202020302020302020302020302020302020302020302020302020302020302020302020300A20202020312E303034352020202D302E3639333320202020302E303030302043202020302020302020302020302020302020302020302020302020302020302020302020300A20202020312E373139302020202D312E3130353820202020302E303030302043202020302020302020302020302020302020302020302020302020302020302020302020300A20202020312E373139302020202D312E3933303820202020302E303030302043202020302020302020302020302020302020302020302020302020302020302020302020300A20202020312E303034352020202D322E3334333320202020302E303030302043202020302020302020302020302020302020302020302020302020302020302020302020300A20202020302E323930302020202D312E3933303820202020302E303030302043202020302020302020302020302020302020302020302020302020302020302020302020300A20202020302E323930302020202D312E3130353820202020302E303030302043202020302020302020302020302020302020302020302020302020302020302020302020300A2020202D302E3430303020202020302E3931343420202020302E303030302043202020302020302020302020302020302020302020302020302020302020302020302020300A2020202D312E3232353020202020302E3931343420202020302E303030302043202020302020302020302020302020302020302020302020302020302020302020302020300A2020202D312E3633373520202020312E3632383820202020302E303030302043202020302020302020302020302020302020302020302020302020302020302020302020300A2020202D312E3232353020202020322E3334333320202020302E303030302043202020302020302020302020302020302020302020302020302020302020302020302020300A2020202D302E3430303020202020322E3334333320202020302E303030302043202020302020302020302020302020302020302020302020302020302020302020302020300A20202020302E3031323520202020312E3632383820202020302E303030302043202020302020302020302020302020302020302020302020302020302020302020302020300A2020202D312E313330312020202D302E3732353320202020302E303030302043202020302020302020302020302020302020302020302020302020302020302020302020300A2020202D312E333835302020202D312E3530393920202020302E303030302043202020302020302020302020302020302020302020302020302020302020302020302020300A2020202D322E313932302020202D312E3638313520202020302E303030302043202020302020302020302020302020302020302020302020302020302020302020302020300A2020202D322E373434302020202D312E3036383420202020302E303030302043202020302020302020302020302020302020302020302020302020302020302020302020300A2020202D322E343839312020202D302E3238333720202020302E303030302043202020302020302020302020302020302020302020302020302020302020302020302020300A2020202D312E363832312020202D302E3131323220202020302E303030302043202020302020302020302020302020302020302020302020302020302020302020302020300A20202020312E3338353020202020302E3732363820202020302E303030302043202020302020302020302020302020302020302020302020302020302020302020302020300A20202020322E3139323020202020302E3535353220202020302E303030302043202020302020302020302020302020302020302020302020302020302020302020302020300A20202020322E3734343020202020312E3136383320202020302E30303030204E202020302020302020302020302020302020302020302020302020302020302020302020300A2020312020322020312020302020202020200A2020322020332020322020302020202020200A2020332020342020312020302020202020200A2020342020352020312020302020202020200A2020352020362020322020302020202020200A2020362020372020312020302020202020200A2020372020382020322020302020202020200A2020382020392020312020302020202020200A2020312020392020312020302020202020200A2020342020392020322020302020202020200A2031302031312020312020302020202020200A2031312031322020322020302020202020200A2031322031332020312020302020202020200A2031332031342020322020302020202020200A2031342031352020312020302020202020200A2031302031352020322020302020202020200A2020322031302020312020302020202020200A2031362031372020312020302020202020200A2031372031382020322020302020202020200A2031382031392020312020302020202020200A2031392032302020322020302020202020200A2032302032312020312020302020202020200A2031362032312020322020302020202020200A2020312031362020312020302020202020200A2032322032332020312020302020202020200A2032332032342020312020302020202020200A2020332032322020312020302020202020200A4D2020454E44
Contributor: SASAKI S, TOYOHASHI UNIV. OF TECH.
InstType: EI
InstName: MX-1303
IoniMethod: _ENERGY 50 eV
IonPolarity: pos
Date: 2010-10-09 19:48:36+02:00
Num Peaks: 57
26 18 27 40 29 18 30 4 39 21 40 16 41 33 42 1 43 42 51 27 
55 22 57 2 67 11 69 13 77 93 78 1 91 12 102 10 104 149 105 2 
115 10 128 13 151 13 152 2 165 24 176 26 177 39 178 10 179 120 180 25 
203 11 204 20 205 52 206 31 216 13 217 1 239 12 252 24 253 15 254 3 
265 26 266 24 267 50 268 1 278 66 279 35 280 240 281 14 282 999 284 408 
285 69 293 1 294 19 295 12 310 24 312 9 313 27 
