Name: 6-METHYL-5-OCTEN-2-ONE
MW: 140
Formula: C9H16O
Synonym: MassBank: JP008405
Synonym: 6-METHYL-5-OCTEN-2-ONE
Structure: 362D4D455448594C2D352D4F4354454E2D322D4F4E452E6D6F6C0A20204368656D447261773035313931303132343332440A2031302020392020302020302020302020302020302020302020302020303939392056323030300A20202020322E313433342020202D302E3230363220202020302E303030302043202020302020302020302020302020302020302020302020302020302020302020302020300A20202020312E3432383920202020302E3230363320202020302E303030302043202020302020302020302020302020302020302020302020302020302020302020302020300A20202020302E373134352020202D302E3230363220202020302E303030302043202020302020302020302020302020302020302020302020302020302020302020302020300A2020202D302E3030303020202020302E3230363320202020302E303030302043202020302020302020302020302020302020302020302020302020302020302020302020300A2020202D302E373134352020202D302E3230363220202020302E303030302043202020302020302020302020302020302020302020302020302020302020302020302020300A2020202D312E3432383920202020302E3230363320202020302E303030302043202020302020302020302020302020302020302020302020302020302020302020302020300A2020202D322E313433342020202D302E3230363320202020302E303030302043202020302020302020302020302020302020302020302020302020302020302020302020300A2020202D322E313433342020202D312E3033313320202020302E303030302043202020302020302020302020302020302020302020302020302020302020302020302020300A20202020312E3432383920202020312E3033313320202020302E30303030204F202020302020302020302020302020302020302020302020302020302020302020302020300A2020202D312E3432383920202020312E3033313220202020302E303030302043202020302020302020302020302020302020302020302020302020302020302020302020300A2020312020322020312020302020202020200A2020322020332020312020302020202020200A2020332020342020312020302020202020200A2020342020352020312020302020202020200A2020352020362020322020302020202020200A2020362020372020312020302020202020200A2020372020382020312020302020202020200A2020322020392020322020302020202020200A2020362031302020312020302020202020200A4D2020454E44
Contributor: SODA AROMATIC CO., LTD.
InstType: EI
InstName: HITACHI M-80B
IoniMethod: _ENERGY 70 eV
IonPolarity: pos
Date: 2010-10-09 19:48:36+02:00
Num Peaks: 37
15 60 27 158 29 112 39 179 40 31 41 319 42 42 43 999 44 17 45 13 
51 29 52 13 53 86 54 36 55 592 56 36 57 17 58 64 65 18 67 315 
68 26 69 47 70 71 71 88 77 15 79 25 81 69 82 388 83 88 93 20 
97 24 107 30 111 89 122 114 123 10 125 15 140 19 
