Name: 3-METHYL-1-PARA-TOLYL-2-TRIMETHYLSILOXY-2-BUTENE
MW: 248
Formula: C15H24OSi
Synonym: MassBank: JP002415
Synonym: 3-METHYL-1-PARA-TOLYL-2-TRIMETHYLSILOXY-2-BUTENE
Structure: 332D4D455448594C2D312D504152412D544F4C594C2D322D5452494D455448594C53494C4F58592D322D425554454E452E6D6F6C0A20204368656D447261773032323231303233323232440A2031372031372020302020302020302020302020302020302020302020303939392056323030300A2020202D302E3030303020202020302E3637343020202020302E303030302043202020302020302020302020302020302020302020302020302020302020302020302020300A20202020302E3731343520202020302E3236313520202020302E303030302043202020302020302020302020302020302020302020302020302020302020302020302020300A20202020302E373134352020202D302E3536333520202020302E303030302043202020302020302020302020302020302020302020302020302020302020302020302020300A20202020312E343238392020202D302E3937363020202020302E303030302043202020302020302020302020302020302020302020302020302020302020302020302020300A20202020312E3432383920202020302E3637343020202020302E30303030204F202020302020302020302020302020302020302020302020302020302020302020302020300A20202020322E3134333420202020302E3236313520202020302E303030302053692020302020302020302020302020302020302020302020302020302020302020302020300A20202020312E373330392020202D302E3435333020202020302E303030302043202020302020302020302020302020302020302020302020302020302020302020302020300A20202020322E3535353920202020302E3937363020202020302E303030302043202020302020302020302020302020302020302020302020302020302020302020302020300A20202020322E383537392020202D302E3135313020202020302E303030302043202020302020302020302020302020302020302020302020302020302020302020302020300A2020202D302E3731343520202020302E3236313520202020302E303030302043202020302020302020302020302020302020302020302020302020302020302020302020300A2020202D302E373134352020202D302E3536333520202020302E303030302043202020302020302020302020302020302020302020302020302020302020302020302020300A2020202D322E313433342020202D302E3536333520202020302E303030302043202020302020302020302020302020302020302020302020302020302020302020302020300A2020202D312E3432383920202020302E3637343020202020302E303030302043202020302020302020302020302020302020302020302020302020302020302020302020300A2020202D312E343238392020202D302E3937363020202020302E303030302043202020302020302020302020302020302020302020302020302020302020302020302020300A2020202D322E3134333420202020302E3236313520202020302E303030302043202020302020302020302020302020302020302020302020302020302020302020302020300A2020202D322E383537392020202D302E3937363020202020302E303030302043202020302020302020302020302020302020302020302020302020302020302020302020300A2020202D302E303030302020202D302E3937363020202020302E303030302043202020302020302020302020302020302020302020302020302020302020302020302020300A2020312020322020312020302020202020200A2020322020332020322020302020202020200A2020332020342020312020302020202020200A2020352020362020312020302020202020200A2020362020372020312020302020202020200A2020362020382020312020302020202020200A2020362020392020312020302020202020200A2020322020352020312020302020202020200A2031302031312020312020302020202020200A2031302031332020322020302020202020200A2031312031342020322020302020202020200A2031322031342020312020302020202020200A2031322031352020322020302020202020200A2031332031352020312020302020202020200A2031322031362020312020302020202020200A2020312031302020312020302020202020200A2020332031372020312020302020202020200A4D2020454E44
Contributor: MASS SPECTROSCOPY SOC. OF JAPAN (MSSJ)
InstType: EI
InstName: JEOL JMS-D-3000
IoniMethod: _ENERGY 70 eV
IonPolarity: pos
Date: 2010-10-09 19:48:36+02:00
Num Peaks: 27
41 48 42 23 43 49 45 159 47 27 70 35 71 29 73 999 74 85 75 444 
76 35 77 43 105 81 119 69 128 27 141 70 142 30 143 193 144 28 157 45 
159 71 191 41 233 156 234 35 248 455 249 96 250 27 
