Name: ISOAMYL ALCOHOL
MW: 88
Formula: C5H12O
Synonym: MassBank: JP006844
Synonym: ISOAMYL ALCOHOL
Synonym: 3-METHYLBUTANOL
Structure: 310A31360A49534F414D594C20414C434F484F4C2E6D6F6C0A20204368656D447261773033323031303135313932440A2020362020352020302020302020302020302020302020302020302020303939392056323030300A20202020302E3731343520202020302E3230363220202020302E303030302043202020302020302020302020302020302020302020302020302020302020302020302020300A2020202D302E3030303020202020302E3631383820202020302E303030302043202020302020302020302020302020302020302020302020302020302020302020302020300A2020202D302E3731343520202020302E3230363220202020302E303030302043202020302020302020302020302020302020302020302020302020302020302020302020300A2020202D302E373134352020202D302E3631383820202020302E303030302043202020302020302020302020302020302020302020302020302020302020302020302020300A2020202D312E3432383920202020302E3631383820202020302E303030302043202020302020302020302020302020302020302020302020302020302020302020302020300A20202020312E3432383920202020302E3631383820202020302E30303030204F202020302020302020302020302020302020302020302020302020302020302020302020300A2020312020322020312020302020202020200A2020322020332020312020302020202020200A2020332020342020312020302020202020200A2020332020352020312020302020202020200A2020312020362020312020302020202020200A4D2020454E44
Contributor: TAJIMA S, GUNMA COLLEGE OF TECHNOLOGY
InstType: EI
InstName: HITACHI M-80B
IoniMethod: _ENERGY 70 eV
IonPolarity: pos
Date: 2010-10-09 19:48:36+02:00
Num Peaks: 30
15 51 19 21 26 30 27 351 28 104 29 494 30 17 31 478 38 28 39 341 
40 51 41 840 42 770 43 659 44 57 45 178 46 68 47 12 50 15 51 19 
53 43 54 16 55 999 56 324 57 476 58 23 59 15 69 56 70 751 71 59 
