Name: MassBank: JP000412
MW: 144
Formula: C6H16N4
Synonym: MassBank: JP000412
Synonym: 1,1-DIETHYL-4,4-DIMETHYL-2-TETRAZENE
Structure: 312C312D4449455448594C2D342C342D44494D455448594C2D322D54455452415A454E452E6D6F6C0A20204368656D447261773130323330393130323132440A2031302020392020302020302020302020302020302020302020302020303939392056323030300A20202020302E363332322020202D302E3031353620202020302E30303030204E202020302020302020302020302020302020302020302020302020302020302020302020300A2020202D302E313932382020202D302E3030353220202020302E30303030204E202020302020302020302020302020302020302020302020302020302020302020302020300A2020202D302E363134322020202D302E3731343420202020302E30303030204E202020302020302020302020302020302020302020302020302020302020302020302020300A2020202D312E343339312020202D302E3730343020202020302E30303030204E202020302020302020302020302020302020302020302020302020302020302020302020300A2020202D312E383630362020202D312E3431333320202020302E303030302043202020302020302020302020302020302020302020302020302020302020302020302020300A2020202D312E3834323620202020302E3031353620202020302E303030302043202020302020302020302020302020302020302020302020302020302020302020302020300A20202020312E3035333620202020302E3639333720202020302E303030302043202020302020302020302020302020302020302020302020302020302020302020302020300A20202020302E3635303220202020312E3431333320202020302E303030302043202020302020302020302020302020302020302020302020302020302020302020302020300A20202020312E303335372020202D302E3733353220202020302E303030302043202020302020302020302020302020302020302020302020302020302020302020302020300A20202020312E383630362020202D302E3734353520202020302E303030302043202020302020302020302020302020302020302020302020302020302020302020302020300A2020312020322020312020302020202020200A2020322020332020322020302020202020200A2020332020342020312020302020202020200A2020342020352020312020302020202020200A2020342020362020312020302020202020200A2020372020382020312020302020202020200A2020312020372020312020302020202020200A2020392031302020312020302020202020200A2020312020392020312020302020202020200A4D2020454E44
Contributor: SASAKI S, TOYOHASHI UNIV. OF TECH.
InstType: EI
InstName: SHIMADZU LKB-2091
IoniMethod: _ENERGY 70 eV
IonPolarity: pos
Date: 2010-10-09 19:48:36+02:00
Num Peaks: 34
29 400 30 75 31 6 39 1 40 14 41 28 42 254 43 35 44 999 45 54 
46 9 55 1 56 34 57 35 58 77 59 16 60 16 70 7 71 7 72 18 
73 12 83 14 84 5 85 1 87 16 98 14 99 4 100 1 101 8 115 5 
129 21 130 1 144 682 145 43 
