Name: 4-ETHYL-2-ISOBUTYL-5-METHYLOXAZOLE
MW: 167
Formula: C10H17NO
Synonym: MassBank: JP007758
Synonym: 4-ETHYL-2-ISOBUTYL-5-METHYLOXAZOLE
Structure: 342D455448594C2D322D49534F425554594C2D352D4D455448594C4F58415A4F4C452E6D6F6C0A20204368656D447261773033323531303231353232440A2031322031322020302020302020302020302020302020302020302020303939392056323030300A20202020302E3037323920202020302E3232383820202020302E30303030204F202020302020302020302020302020302020302020302020302020302020302020302020300A20202020302E313539322020202D302E3539313720202020302E303030302043202020302020302020302020302020302020302020302020302020302020302020302020300A2020202D302E353934352020202D302E3932373220202020302E30303030204E202020302020302020302020302020302020302020302020302020302020302020302020300A2020202D312E313436352020202D302E3331343120202020302E303030302043202020302020302020302020302020302020302020302020302020302020302020302020300A2020202D302E3733343020202020302E3430303420202020302E303030302043202020302020302020302020302020302020302020302020302020302020302020302020300A2020202D312E3036393620202020312E3135343020202020302E303030302043202020302020302020302020302020302020302020302020302020302020302020302020300A20202020302E383733362020202D312E3030343220202020302E303030302043202020302020302020302020302020302020302020302020302020302020302020302020300A20202020312E353838312020202D302E3539313720202020302E303030302043202020302020302020302020302020302020302020302020302020302020302020302020300A20202020312E3538383120202020302E3233333320202020302E303030302043202020302020302020302020302020302020302020302020302020302020302020302020300A20202020322E333032362020202D312E3030343220202020302E303030302043202020302020302020302020302020302020302020302020302020302020302020302020300A2020202D312E393637302020202D302E3430303420202020302E303030302043202020302020302020302020302020302020302020302020302020302020302020302020300A2020202D322E333032362020202D312E3135343020202020302E303030302043202020302020302020302020302020302020302020302020302020302020302020302020300A2020312020322020312020302020202020200A2020322020332020322020302020202020200A2020332020342020312020302020202020200A2020342020352020322020302020202020200A2020312020352020312020302020202020200A2020352020362020312020302020202020200A2020372020382020312020302020202020200A2020382020392020312020302020202020200A2020382031302020312020302020202020200A2020322020372020312020302020202020200A2031312031322020312020302020202020200A2020342031312020312020302020202020200A4D2020454E44
Contributor: HASHIMOTO K, KYOTO COLLEGE OF PHARMACY
InstType: EI
InstName: HITACHI M-80
IoniMethod: _ENERGY 20 eV
IonPolarity: pos
Date: 2010-10-09 19:48:36+02:00
Num Peaks: 26
41 81 42 80 43 509 54 120 55 41 56 20 57 60 68 10 69 84 70 11 
82 227 83 25 84 178 94 29 96 246 97 10 110 318 111 11 124 695 125 999 
126 239 152 457 153 57 166 157 167 432 168 82 
