Name: CHLOROMETHANE
CAS: 74-87-3
MW: 49
Formula: CH3Cl
Synonym: MassBank: JP000969
Synonym: CHLOROMETHANE
Structure: 310A380A43484C4F524F4D455448414E452E6D6F6C0A20204368656D447261773039303731303034343032440A2020322020312020302020302020302020302020302020302020302020303939392056323030300A2020202D302E3431323520202020302E3030303020202020302E303030302043202020302020302020302020302020302020302020302020302020302020302020302020300A20202020302E3431323520202020302E3030303020202020302E3030303020436C2020302020302020302020302020302020302020302020302020302020302020302020300A2020312020322020312020302020202020200A4D2020454E44
Contributor: KOGA M, UNIV. OF OCCUPATIONAL AND ENVIRONMENTAL HEALTH
InstType: EI
InstName: JEOL JMS-01-SG
IoniMethod: _ENERGY 70 eV
IonPolarity: pos
Date: 2010-10-09 19:48:36+02:00
Num Peaks: 8
35 84 37 30 47 119 48 5 49 133 50 999 51 46 52 342 
