Name: MassBank: JP001285
MW: 164
Formula: C10H12O2
Synonym: MassBank: JP001285
Synonym: (1,1,1,2,3,3,3-2H7)ISOPROPYL BENZOATE
Synonym: ISOPROPYL BENZOATE (1,1,1,2,3,3,3-D7)
Structure: 28312C312C312C322C332C332C332D3248372949534F50524F50594C2042454E5A4F4154452E6D6F6C0A20204368656D447261773130303630393135343032440A2031392031392020302020302020302020302020302020302020302020303939392056323030300A2020202D312E3137383920202020302E3336363920202020302E303030302043202020302020302020302020302020302020302020302020302020302020302020302020300A2020202D302E3436343420202020302E3737393420202020302E30303030204F202020302020302020302020302020302020302020302020302020302020302020302020300A20202020302E3235303120202020302E3336363920202020302E303030302043202020302020302020302020302020302020302020302020302020302020302020302020300A20202020312E313738392020202D302E3136393420202020302E303030302043202020302020302020302020302020302020302020302020302020302020302020302020300A20202020312E383933332020202D302E3538313920202020302E303030302048202020312020302020302020302020302020302020302020302020302020302020302020300A20202020312E3539313420202020302E3534353120202020302E303030302048202020312020302020302020302020302020302020302020302020302020302020302020300A20202020302E373636342020202D302E3838333920202020302E303030302048202020312020302020302020302020302020302020302020302020302020302020302020300A20202020302E3738363320202020312E3239353720202020302E303030302043202020302020302020302020302020302020302020302020302020302020302020302020300A2020202D302E313632342020202D302E3334373620202020302E303030302048202020312020302020302020302020302020302020302020302020302020302020302020300A2020202D312E3839333320202020302E3737393420202020302E30303030204F202020302020302020302020302020302020302020302020302020302020302020302020300A2020202D312E313738392020202D302E3435383120202020302E303030302043202020302020302020302020302020302020302020302020302020302020302020302020300A2020202D312E383933332020202D302E3837303620202020302E303030302043202020302020302020302020302020302020302020302020302020302020302020302020300A2020202D312E383933332020202D312E3639353620202020302E303030302043202020302020302020302020302020302020302020302020302020302020302020302020300A2020202D312E313738392020202D322E3130383120202020302E303030302043202020302020302020302020302020302020302020302020302020302020302020302020300A2020202D302E343634342020202D312E3639353620202020302E303030302043202020302020302020302020302020302020302020302020302020302020302020302020300A2020202D302E343634342020202D302E3837303620202020302E303030302043202020302020302020302020302020302020302020302020302020302020302020302020300A20202020312E3631313320202020312E3239353720202020302E303030302048202020312020302020302020302020302020302020302020302020302020302020302020300A20202020302E3031313120202020312E3537373820202020302E303030302048202020312020302020302020302020302020302020302020302020302020302020302020300A20202020302E3932393620202020322E3130383120202020302E303030302048202020312020302020302020302020302020302020302020302020302020302020302020300A2020312020322020312020302020202020200A2020322020332020312020302020202020200A2020332020342020312020302020202020200A2020342020352020312020302020202020200A2020342020362020312020302020202020200A2020342020372020312020302020202020200A2020332020382020312020302020202020200A2020332020392020312020302020202020200A2020312031302020322020302020202020200A2020312031312020312020302020202020200A2031312031322020322020302020202020200A2031322031332020312020302020202020200A2031332031342020322020302020202020200A2031342031352020312020302020202020200A2031352031362020322020302020202020200A2031362031312020312020302020202020200A2020382031372020312020302020202020200A2020382031382020312020302020202020200A2020382031392020312020302020202020200A4D202049534F20203720202035202020322020203620202032202020372020203220202039202020322020313720202032202031382020203220203139202020320A4D2020454E44
Contributor: TAJIMA S, GUNMA COLLEGE OF TECHNOLOGY
InstType: EI
InstName: HITACHI RMU-7M
IoniMethod: _ENERGY 70 eV
IonPolarity: pos
Date: 2010-10-09 19:48:36+02:00
Num Peaks: 25
18 19 30 51 42 17 46 82 48 19 50 161 51 140 66 200 76 19 77 315 
78 32 79 18 81 13 105 999 106 131 107 38 122 34 123 209 124 19 125 264 
126 19 152 14 153 20 171 110 172 11 
