Name: PROTOCATECHUIC ACID METHYLESTER
CAS: 2150-43-8
MW: 168
Formula: C8H8O4
Synonym: MassBank: JP004568
Synonym: PROTOCATECHUIC ACID METHYLESTER
Synonym: METHYL 3,4-DIHYDROXYBENZOATE
Structure: 50524F544F4341544543485549432041434944204D455448594C45535445522E6D6F6C0A20204368656D447261773038313231303036323332440A2031322031322020302020302020302020302020302020302020302020303939392056323030300A2020202D312E3434333720202020302E3030303020202020302E303030302043202020302020302020302020302020302020302020302020302020302020302020302020300A2020202D302E3631383720202020302E3030303020202020302E303030302043202020302020302020302020302020302020302020302020302020302020302020302020300A2020202D302E3230363220202020302E3731343520202020302E303030302043202020302020302020302020302020302020302020302020302020302020302020302020300A20202020302E3631383820202020302E3731343520202020302E303030302043202020302020302020302020302020302020302020302020302020302020302020302020300A20202020312E3033313320202020312E3432383920202020302E30303030204F202020302020302020302020302020302020302020302020302020302020302020302020300A20202020312E303331332020202D302E3030303020202020302E303030302043202020302020302020302020302020302020302020302020302020302020302020302020300A20202020312E383536332020202D302E3030303020202020302E30303030204F202020302020302020302020302020302020302020302020302020302020302020302020300A20202020302E363138382020202D302E3731343520202020302E303030302043202020302020302020302020302020302020302020302020302020302020302020302020300A2020202D302E323036322020202D302E3731343520202020302E303030302043202020302020302020302020302020302020302020302020302020302020302020302020300A2020202D312E3835363320202020302E3731343520202020302E30303030204F202020302020302020302020302020302020302020302020302020302020302020302020300A2020202D312E383536332020202D302E3731343520202020302E30303030204F202020302020302020302020302020302020302020302020302020302020302020302020300A2020202D312E343433372020202D312E3432383920202020302E303030302043202020302020302020302020302020302020302020302020302020302020302020302020300A2020312020322020312020302020202020200A2020322020332020312020302020202020200A2020332020342020322020302020202020200A2020342020352020312020302020202020200A2020342020362020312020302020202020200A2020362020372020312020302020202020200A2020362020382020322020302020202020200A2020382020392020312020302020202020200A2020322020392020322020302020202020200A2020312031302020322020302020202020200A2020312031312020312020302020202020200A2031312031322020312020302020202020200A4D2020454E44
Contributor: HAYASHI A, DEPT. OF CHEMISTRY, FAC. OF SCI. AND TECHNOLOGY, KINKI UNIV.
InstType: EI
InstName: SHIMADZU LKB-9000B
IoniMethod: _ENERGY 70 eV
IonPolarity: pos
Date: 2010-10-09 19:48:36+02:00
Num Peaks: 38
37 5 38 10 39 19 41 1 49 7 50 36 51 72 52 6 53 52 54 8 
55 39 59 1 61 8 62 21 63 41 64 1 66 5 77 9 79 44 80 2 
81 89 82 7 91 19 107 2 108 32 109 197 110 23 111 1 123 23 136 21 
137 999 138 9 139 19 151 15 166 19 167 2 168 372 169 34 
