Name: 3-AMINOPROPYLMETHYLDIETHOXYSILANE
MW: 191
Formula: C8H21NO2Si
Synonym: MassBank: JP005428
Synonym: 3-AMINOPROPYLMETHYLDIETHOXYSILANE
Structure: 332D414D494E4F50524F50594C4D455448594C44494554484F585953494C414E452E6D6F6C0A20204368656D447261773032323231303134303432440A2031322031312020302020302020302020302020302020302020302020303939392056323030300A2020202D302E343533302020202D302E3331363820202020302E303030302053692020302020302020302020302020302020302020302020302020302020302020302020300A2020202D302E3435333020202020302E3530383220202020302E30303030204F202020302020302020302020302020302020302020302020302020302020302020302020300A20202020302E3236313520202020302E3932303720202020302E303030302043202020302020302020302020302020302020302020302020302020302020302020302020300A20202020302E3236313520202020312E3734353720202020302E303030302043202020302020302020302020302020302020302020302020302020302020302020302020300A2020202D312E323738302020202D302E3331363820202020302E30303030204F202020302020302020302020302020302020302020302020302020302020302020302020300A2020202D312E363930352020202D312E3033313320202020302E303030302043202020302020302020302020302020302020302020302020302020302020302020302020300A2020202D312E323738302020202D312E3734353720202020302E303030302043202020302020302020302020302020302020302020302020302020302020302020302020300A20202020302E333732302020202D302E3331363820202020302E303030302043202020302020302020302020302020302020302020302020302020302020302020302020300A2020202D302E343533302020202D312E3134313820202020302E303030302043202020302020302020302020302020302020302020302020302020302020302020302020300A20202020302E323631352020202D312E3535343320202020302E303030302043202020302020302020302020302020302020302020302020302020302020302020302020300A20202020302E393736302020202D312E3134313820202020302E303030302043202020302020302020302020302020302020302020302020302020302020302020302020300A20202020312E363930352020202D312E3535343320202020302E30303030204E202020302020302020302020302020302020302020302020302020302020302020302020300A2020332020342020312020302020202020200A2020322020332020312020302020202020200A2020312020322020312020302020202020200A2020362020372020312020302020202020200A2020352020362020312020302020202020200A2020312020352020312020302020202020200A2020312020382020312020302020202020200A2020392031302020312020302020202020200A2031302031312020312020302020202020200A2031312031322020312020302020202020200A2020312020392020312020302020202020200A4D2020454E44
Contributor: TAJIMA S, GUNMA COLLEGE OF TECHNOLOGY
InstType: EI
InstName: HITACHI RMU-7M
IoniMethod: _ENERGY 70 eV
IonPolarity: pos
Date: 2010-10-09 19:48:36+02:00
Num Peaks: 70
15 11 27 28 28 50 29 31 30 534 31 65 41 12 43 32 44 62 45 142 
46 17 47 11 56 29 57 22 58 27 59 26 60 43 61 134 62 33 63 23 
71 14 72 14 73 110 74 25 75 28 76 90 77 339 78 71 79 16 86 17 
87 28 88 121 89 283 90 72 91 28 98 47 99 16 100 150 101 43 102 80 
103 34 104 339 105 312 106 77 107 16 115 11 116 155 117 120 118 100 119 38 
120 31 130 141 131 27 132 16 133 999 134 366 135 71 136 14 144 44 145 329 
146 157 147 37 148 56 149 73 150 26 159 16 162 127 163 25 176 66 192 15 
