Name: SEC-BUTYLHYDRAZINE
MW: 88
Formula: C4H12N2
Synonym: MassBank: JP000369
Synonym: SEC-BUTYLHYDRAZINE
Structure: 310A31360A5345432D425554594C48594452415A494E452E6D6F6C0A20204368656D447261773038313231303036343232440A2020362020352020302020302020302020302020302020302020302020303939392056323030300A20202020302E3230363220202020302E3731343520202020302E30303030204E202020302020302020302020302020302020302020302020302020302020302020302020300A20202020312E3033313320202020302E3731343520202020302E30303030204E202020302020302020302020302020302020302020302020302020302020302020302020300A2020202D302E3230363320202020302E3030303020202020302E303030302043202020302020302020302020302020302020302020302020302020302020302020302020300A20202020302E323036322020202D302E3731343520202020302E303030302043202020302020302020302020302020302020302020302020302020302020302020302020300A20202020312E303331332020202D302E3731343520202020302E303030302043202020302020302020302020302020302020302020302020302020302020302020302020300A2020202D312E3033313320202020302E3030303020202020302E303030302043202020302020302020302020302020302020302020302020302020302020302020302020300A2020312020322020312020302020202020200A2020332020342020312020302020202020200A2020342020352020312020302020202020200A2020332020362020312020302020202020200A2020312020332020312020302020202020200A4D2020454E44
Contributor: SASAKI S, TOYOHASHI UNIV. OF TECH.
InstType: EI
InstName: SHIMADZU LKB-2091
IoniMethod: _ENERGY 70 eV
IonPolarity: pos
Date: 2010-10-09 19:48:36+02:00
Num Peaks: 34
26 21 27 142 28 177 29 29 30 92 31 169 32 430 33 2 38 8 39 77 
40 15 41 19 42 300 43 64 44 45 45 37 46 8 51 7 53 11 54 1 
55 26 56 77 57 55 58 3 59 999 60 48 70 13 71 1 72 8 73 108 
74 6 87 1 88 200 89 50 
