Name: UROCANIC ACID
CAS: 104-98-3
MW: 138
Formula: C6H6N2O2
Synonym: MassBank: JP009499
Synonym: UROCANIC ACID
Synonym: 4-IMIDAZOLE-ACRYLIC ACID
Structure: 55524F43414E494320414349442E6D6F6C0A20204368656D447261773034323031303131303232440A2031302031302020302020302020302020302020302020302020302020303939392056323030300A20202020312E3336373320202020302E3238393820202020302E303030302043202020302020302020302020302020302020302020302020302020302020302020302020300A20202020302E363532392020202D302E3132323720202020302E303030302043202020302020302020302020302020302020302020302020302020302020302020302020300A2020202D302E3036313620202020302E3238393820202020302E303030302043202020302020302020302020302020302020302020302020302020302020302020302020300A2020202D302E373736312020202D302E3132323720202020302E303030302043202020302020302020302020302020302020302020302020302020302020302020302020300A2020202D302E383632332020202D302E3934333220202020302E30303030204E202020302020302020302020302020302020302020302020302020302020302020302020300A2020202D312E363639332020202D312E3131343820202020302E303030302043202020302020302020302020302020302020302020302020302020302020302020302020300A2020202D322E303831382020202D302E3430303320202020302E30303030204E202020302020302020302020302020302020302020302020302020302020302020302020300A2020202D312E3532393820202020302E3231323820202020302E303030302043202020302020302020302020302020302020302020302020302020302020302020302020300A20202020312E3336373320202020312E3131343820202020302E30303030204F202020302020302020302020302020302020302020302020302020302020302020302020300A20202020322E303831382020202D302E3132323720202020302E30303030204F202020302020302020302020302020302020302020302020302020302020302020302020300A2020312020322020312020302020202020200A2020322020332020322020302020202020200A2020332020342020312020302020202020200A2020342020352020312020302020202020200A2020352020362020322020302020202020200A2020362020372020312020302020202020200A2020372020382020312020302020202020200A2020342020382020322020302020202020200A2020312020392020322020302020202020200A2020312031302020312020302020202020200A4D2020454E44
Contributor: NARA WOMEN'S UNIVERSITY
InstType: EI
InstName: HITACHI M-80
IoniMethod: _ENERGY 70 eV
IonPolarity: pos
Date: 2010-10-09 19:48:36+02:00
Num Peaks: 43
17 11 18 44 26 25 27 49 28 323 29 46 37 69 38 222 39 504 40 145 
41 90 42 15 44 12 45 115 50 19 51 23 52 55 53 27 54 56 55 92 
63 16 64 51 65 153 66 211 67 59 68 221 69 18 81 44 82 23 83 14 
84 19 92 213 93 715 94 999 95 72 109 26 110 21 119 11 120 292 121 138 
122 10 138 565 139 68 
