Name: 2-HYDROXY-2-PHENYL-1'-DIETHOXYPHOSPHORYLETHYLMETHYLKETONE
MW: 300
Formula: C14H21O5P
Synonym: MassBank: JP009361
Synonym: 2-HYDROXY-2-PHENYL-1'-DIETHOXYPHOSPHORYLETHYLMETHYLKETONE
Structure: 322D485944524F58592D322D5048454E594C2D31272D44494554484F585950484F5350484F52594C455448594C4D455448594C4B45544F4E452E6D6F6C0A20204368656D447261773031323131303134333132440A2032302032302020302020302020302020302020302020302020302020303939392056323030300A20202020322E3135383220202020312E3434333720202020302E303030302043202020302020302020302020302020302020302020302020302020302020302020302020300A20202020322E3135383220202020302E3631383820202020302E303030302043202020302020302020302020302020302020302020302020302020302020302020302020300A20202020312E3434333720202020302E3230363220202020302E30303030204F202020302020302020302020302020302020302020302020302020302020302020302020300A20202020312E343433372020202D302E3631383720202020302E303030302050202020302020302020302020302020302020302020302020302020302020302020302020300A20202020312E343433372020202D312E3434333720202020302E30303030204F202020302020302020302020302020302020302020302020302020302020302020302020300A20202020302E363138382020202D302E3631383720202020302E303030302043202020302020302020302020302020302020302020302020302020302020302020302020300A20202020322E323638382020202D302E3631383720202020302E30303030204F202020302020302020302020302020302020302020302020302020302020302020302020300A20202020302E3230363220202020302E3039353720202020302E303030302043202020302020302020302020302020302020302020302020302020302020302020302020300A2020202D302E3631383720202020302E3039353720202020302E303030302043202020302020302020302020302020302020302020302020302020302020302020302020300A2020202D312E303331332020202D302E3631383820202020302E303030302043202020302020302020302020302020302020302020302020302020302020302020302020300A20202020322E363831332020202D312E3333333220202020302E303030302043202020302020302020302020302020302020302020302020302020302020302020302020300A20202020332E353036332020202D312E3333333220202020302E303030302043202020302020302020302020302020302020302020302020302020302020302020302020300A2020202D312E383536322020202D302E3631383820202020302E303030302043202020302020302020302020302020302020302020302020302020302020302020302020300A2020202D322E323638372020202D312E3333333220202020302E303030302043202020302020302020302020302020302020302020302020302020302020302020302020300A2020202D332E303933372020202D312E3333333220202020302E303030302043202020302020302020302020302020302020302020302020302020302020302020302020300A2020202D332E353036332020202D302E3631383720202020302E303030302043202020302020302020302020302020302020302020302020302020302020302020302020300A2020202D332E3039333820202020302E3039353720202020302E303030302043202020302020302020302020302020302020302020302020302020302020302020302020300A2020202D322E3236383720202020302E3039353720202020302E303030302043202020302020302020302020302020302020302020302020302020302020302020302020300A2020202D302E363138382020202D312E3333333220202020302E30303030204F202020302020302020302020302020302020302020302020302020302020302020302020300A20202020302E3631383720202020302E3831303220202020302E30303030204F202020302020302020302020302020302020302020302020302020302020302020302020300A2020322020332020312020302020202020200A2020342020352020322020302020202020200A2020342020362020312020302020202020200A2020342020372020312020302020202020200A2020392031302020312020302020202020200A2020382020392020312020302020202020200A2020362020382020312020302020202020200A2031312031322020312020302020202020200A2020372031312020312020302020202020200A2020332020342020312020302020202020200A2020312020322020312020302020202020200A2031332031342020312020302020202020200A2031342031352020322020302020202020200A2031352031362020312020302020202020200A2031362031372020322020302020202020200A2031372031382020312020302020202020200A2031332031382020322020302020202020200A2031302031332020312020302020202020200A2031302031392020312020302020202020200A2020382032302020322020302020202020200A4D2020454E44
Contributor: KANEMASA S, INST. OF ADVANCED MATERIAL STUDY KYUSHU UNIV.
InstType: EI
InstName: JEOL JMS-01-SG-2
IoniMethod: _ENERGY 75 eV
IonPolarity: pos
Date: 2010-10-09 19:48:36+02:00
Num Peaks: 34
38 135 41 110 42 232 44 85 47 103 50 120 51 355 52 76 65 177 77 999 
78 334 79 844 81 478 91 184 96 224 97 204 103 175 104 114 105 295 107 326 
109 368 121 90 123 195 125 144 137 82 139 73 152 82 166 40 167 59 179 58 
194 33 195 36 283 17 300 11 
