Name: CAFFEIC ACID
MW: 180
Formula: C9H8O4
Synonym: MassBank: JP004107
Synonym: CAFFEIC ACID
Structure: 4341464645494320414349442E6D6F6C0A20204368656D447261773039303631303039343232440A2031332031332020302020302020302020302020302020302020302020303939392056323030300A2020202D312E3738363220202020302E3431323520202020302E303030302043202020302020302020302020302020302020302020302020302020302020302020302020300A2020202D312E3037313720202020302E3030303020202020302E303030302043202020302020302020302020302020302020302020302020302020302020302020302020300A2020202D302E3335373220202020302E3431323520202020302E303030302043202020302020302020302020302020302020302020302020302020302020302020302020300A20202020302E3335373220202020302E3030303020202020302E303030302043202020302020302020302020302020302020302020302020302020302020302020302020300A20202020312E3037313720202020302E3431323520202020302E303030302043202020302020302020302020302020302020302020302020302020302020302020302020300A20202020312E3738363220202020302E3030303020202020302E303030302043202020302020302020302020302020302020302020302020302020302020302020302020300A20202020322E3530303620202020302E3431323520202020302E30303030204F202020302020302020302020302020302020302020302020302020302020302020302020300A20202020312E373836322020202D302E3832353020202020302E303030302043202020302020302020302020302020302020302020302020302020302020302020302020300A20202020322E353030362020202D312E3233373520202020302E30303030204F202020302020302020302020302020302020302020302020302020302020302020302020300A20202020312E303731372020202D312E3233373520202020302E303030302043202020302020302020302020302020302020302020302020302020302020302020302020300A20202020302E333537322020202D302E3832353020202020302E303030302043202020302020302020302020302020302020302020302020302020302020302020302020300A2020202D312E3738363220202020312E3233373520202020302E30303030204F202020302020302020302020302020302020302020302020302020302020302020302020300A2020202D322E3530303620202020302E3030303020202020302E30303030204F202020302020302020302020302020302020302020302020302020302020302020302020300A2020312020322020312020302020202020200A2020322020332020322020302020202020200A2020332020342020312020302020202020200A2020342020352020312020302020202020200A2020352020362020322020302020202020200A2020362020372020312020302020202020200A2020362020382020312020302020202020200A2020382020392020312020302020202020200A2020382031302020322020302020202020200A2031302031312020312020302020202020200A2020342031312020322020302020202020200A2020312031322020322020302020202020200A2020312031332020312020302020202020200A4D2020454E44
Contributor: YAMAMOTO M, DEP. CHEMISTRY, FAC. SCIENCE, NARA WOMEN'S UNIV.
InstType: EI
InstName: HITACHI RMU-6E
IoniMethod: _ENERGY 70 eV
IonPolarity: pos
Date: 2010-10-09 19:48:36+02:00
Num Peaks: 77
16 20 18 24 26 26 27 111 28 49 29 47 37 17 38 5 39 179 40 27 
41 28 43 4 44 455 44.5 35 45 42 50 9 51 178 52 75 53 137 53.5 3 
54 29 55 90 61 17 62 9 63 158 64 51 65 35 66 2 67 75 67.5 38 
68 42 69 4 74 17 75 19 76 17 77 15 78 83 79 89 80 20 81 3 
81.5 29 87 16 88 48 89 31 90 114 91 21 92 17 93 2 95 15 105 38 
106 55 107 8 108 16 109 12 110 72 111 8 117 107 118 23 119 22 123 7 
133 35 134 319 135 217 136 74 137 72 138 20 139 13 145 7 151 14 152 20 
162 45 163 29 164 30 179 156 180 999 181 11 182 16 
