Name: 2-METHYL-2-PENTENAL
MW: 98
Formula: C6H10O
Synonym: MassBank: JP008676
Synonym: 2-METHYL-2-PENTENAL
Structure: 310A31380A322D4D455448594C2D322D50454E54454E414C2E6D6F6C0A20204368656D447261773031323231303033313232440A2020372020362020302020302020302020302020302020302020302020303939392056323030300A2020202D312E303331332020202D302E3030303020202020302E303030302043202020302020302020302020302020302020302020302020302020302020302020302020300A2020202D302E323036332020202D302E3030303020202020302E303030302043202020302020302020302020302020302020302020302020302020302020302020302020300A20202020302E323036322020202D302E3731343520202020302E303030302043202020302020302020302020302020302020302020302020302020302020302020302020300A20202020312E303331332020202D302E3731343520202020302E303030302043202020302020302020302020302020302020302020302020302020302020302020302020300A20202020312E3434333820202020302E3030303020202020302E303030302043202020302020302020302020302020302020302020302020302020302020302020302020300A2020202D312E343433382020202D302E3731343520202020302E30303030204F202020302020302020302020302020302020302020302020302020302020302020302020300A20202020302E3230363220202020302E3731343520202020302E303030302043202020302020302020302020302020302020302020302020302020302020302020302020300A2020312020322020312020302020202020200A2020322020332020322020302020202020200A2020332020342020312020302020202020200A2020342020352020312020302020202020200A2020312020362020322020302020202020200A2020322020372020312020302020202020200A4D2020454E44
Contributor: SODA AROMATIC CO., LTD.
InstType: EI
InstName: HITACHI M-80B
IoniMethod: _ENERGY 70 eV
IonPolarity: pos
Date: 2010-10-09 19:48:36+02:00
Num Peaks: 32
15 20 26 32 27 264 28 39 29 151 37 17 38 49 39 430 40 52 41 999 
42 118 43 126 50 42 51 57 52 20 53 128 54 34 55 269 56 47 57 19 
58 18 62 12 63 15 65 21 67 50 69 353 70 29 79 48 83 160 97 53 
98 517 99 36 
