Name: PARA-CRESOL METHYL ETHER
MW: 122
Formula: C8H10O
Synonym: MassBank: JP001145
Synonym: PARA-CRESOL METHYL ETHER
Synonym: METHYL PARA-TOLYL ETHER
Structure: 310A32330A504152412D435245534F4C204D455448594C2045544845522E6D6F6C0A20204368656D447261773038313231303034313932440A2020392020392020302020302020302020302020302020302020302020303939392056323030300A2020202D302E3631383720202020302E3030303020202020302E303030302043202020302020302020302020302020302020302020302020302020302020302020302020300A2020202D302E3230363220202020302E3731343520202020302E303030302043202020302020302020302020302020302020302020302020302020302020302020302020300A20202020302E3631383820202020302E3731343520202020302E303030302043202020302020302020302020302020302020302020302020302020302020302020302020300A20202020312E303331332020202D302E3030303020202020302E303030302043202020302020302020302020302020302020302020302020302020302020302020302020300A20202020302E363138382020202D302E3731343520202020302E303030302043202020302020302020302020302020302020302020302020302020302020302020302020300A2020202D302E323036322020202D302E3731343520202020302E303030302043202020302020302020302020302020302020302020302020302020302020302020302020300A20202020312E383536332020202D302E3030303020202020302E303030302043202020302020302020302020302020302020302020302020302020302020302020302020300A2020202D312E3434333720202020302E3030303020202020302E30303030204F202020302020302020302020302020302020302020302020302020302020302020302020300A2020202D312E3835363320202020302E3731343520202020302E303030302043202020302020302020302020302020302020302020302020302020302020302020302020300A2020312020322020312020302020202020200A2020322020332020322020302020202020200A2020332020342020312020302020202020200A2020342020352020322020302020202020200A2020352020362020312020302020202020200A2020312020362020322020302020202020200A2020342020372020312020302020202020200A2020312020382020312020302020202020200A2020382020392020312020302020202020200A4D2020454E44
Contributor: NAKAYAMA M, MASS SPECTROSCOPY SOC. OF JAPAN (MSSJ)
InstType: EI
InstName: HITACHI RMS-4
IoniMethod: _ENERGY 80 eV
IonPolarity: pos
Date: 2010-10-09 19:48:36+02:00
Num Peaks: 58
15 185 16 31 17 103 18 267 25 31 26 133 27 564 28 185 29 56 30 26 
31 20 32 46 37 77 38 154 39 523 40 51 41 92 42 31 43 46 49 46 
50 236 51 421 52 252 53 190 54 26 55 31 57 20 59 31 61 51 62 87 
63 169 64 51 65 195 66 26 67 20 74 41 75 31 76 26 77 784 78 241 
79 518 80 46 81 20 89 46 90 46 91 302 92 133 93 46 94 20 105 26 
106 26 107 406 108 108 109 26 120 20 121 374 122 999 123 108 
