Name: 2-(1-BENZYLOXY)PROPYLCYCLOPENTANONE
MW: 232
Formula: C15H20O2
Synonym: MassBank: JP002280
Synonym: 2-(1-BENZYLOXY)PROPYLCYCLOPENTANONE
Structure: 322D28312D42454E5A594C4F58592950524F50594C4359434C4F50454E54414E4F4E452E6D6F6C0A20204368656D447261773132323130393035323932440A2031372031382020302020302020302020302020302020302020302020303939392056323030300A20202020322E3234343220202020302E3132393320202020302E303030302043202020302020302020302020302020302020302020302020302020302020302020302020300A20202020312E343930362020202D302E3230363320202020302E303030302043202020302020302020302020302020302020302020302020302020302020302020302020300A20202020312E353736382020202D312E3032363720202020302E303030302043202020302020302020302020302020302020302020302020302020302020302020302020300A20202020322E333833382020202D312E3139383320202020302E303030302043202020302020302020302020302020302020302020302020302020302020302020302020300A20202020322E373936332020202D302E3438333820202020302E303030302043202020302020302020302020302020302020302020302020302020302020302020302020300A20202020302E3737363120202020302E3230363220202020302E303030302043202020302020302020302020302020302020302020302020302020302020302020302020300A20202020302E3737363120202020312E3033313320202020302E303030302043202020302020302020302020302020302020302020302020302020302020302020302020300A20202020302E3036313620202020312E3434333820202020302E303030302043202020302020302020302020302020302020302020302020302020302020302020302020300A20202020302E303631362020202D302E3230363220202020302E30303030204F202020302020302020302020302020302020302020302020302020302020302020302020300A2020202D302E3635323920202020302E3230363220202020302E303030302043202020302020302020302020302020302020302020302020302020302020302020302020300A2020202D312E333637332020202D302E3230363320202020302E303030302043202020302020302020302020302020302020302020302020302020302020302020302020300A2020202D312E333637332020202D312E3033313320202020302E303030302043202020302020302020302020302020302020302020302020302020302020302020302020300A2020202D322E303831382020202D312E3434333820202020302E303030302043202020302020302020302020302020302020302020302020302020302020302020302020300A2020202D322E373936332020202D312E3033313320202020302E303030302043202020302020302020302020302020302020302020302020302020302020302020302020300A2020202D322E373936332020202D302E3230363320202020302E303030302043202020302020302020302020302020302020302020302020302020302020302020302020300A2020202D322E3038313820202020302E3230363320202020302E303030302043202020302020302020302020302020302020302020302020302020302020302020302020300A20202020322E3431353820202020302E3933363320202020302E30303030204F202020302020302020302020302020302020302020302020302020302020302020302020300A2020312020322020312020302020202020200A2020322020332020312020302020202020200A2020332020342020312020302020202020200A2020342020352020312020302020202020200A2020312020352020312020302020202020200A2020362020372020312020302020202020200A2020372020382020312020302020202020200A2031302031312020312020302020202020200A2031312031322020312020302020202020200A2031322031332020322020302020202020200A2031332031342020312020302020202020200A2031342031352020322020302020202020200A2031352031362020312020302020202020200A2031312031362020322020302020202020200A2020392031302020312020302020202020200A2020362020392020312020302020202020200A2020322020362020312020302020202020200A2020312031372020322020302020202020200A4D2020454E44
Contributor: MASS SPECTROSCOPY SOC. OF JAPAN (MSSJ)
InstType: EI
InstName: JEOL JMS-D-3000
IoniMethod: _ENERGY 20 eV
IonPolarity: pos
Date: 2010-10-09 19:48:36+02:00
Num Peaks: 31
55 37 57 41 67 47 68 34 79 67 81 37 82 25 83 44 84 47 91 761 
92 80 95 63 96 33 97 691 98 91 105 36 106 44 107 123 108 169 109 31 
111 92 124 116 125 173 126 999 127 92 150 66 151 31 174 24 203 74 204 10 
232 4 
