Name: P-CHLOROANILINE
MW: 127
Formula: C6H6ClN
Synonym: MassBank: JP005270
Synonym: P-CHLOROANILINE
Synonym: 4-CHLOROANILINE
Structure: 310A32310A502D43484C4F524F414E494C494E452E6D6F6C0A20204368656D447261773033323531303131303632440A2020382020382020302020302020302020302020302020302020302020303939392056323030300A2020202D312E3635303020202020302E3030303020202020302E30303030204E202020302020302020302020302020302020302020302020302020302020302020302020300A2020202D302E3832353020202020302E3030303020202020302E303030302043202020302020302020302020302020302020302020302020302020302020302020302020300A2020202D302E3431323520202020302E3731343520202020302E303030302043202020302020302020302020302020302020302020302020302020302020302020302020300A20202020302E3431323520202020302E3731343520202020302E303030302043202020302020302020302020302020302020302020302020302020302020302020302020300A20202020302E383235302020202D302E3030303020202020302E303030302043202020302020302020302020302020302020302020302020302020302020302020302020300A20202020302E343132352020202D302E3731343520202020302E303030302043202020302020302020302020302020302020302020302020302020302020302020302020300A2020202D302E343132352020202D302E3731343520202020302E303030302043202020302020302020302020302020302020302020302020302020302020302020302020300A20202020312E363530302020202D302E3030303020202020302E3030303020436C2020302020302020302020302020302020302020302020302020302020302020302020300A2020312020322020312020302020202020200A2020322020332020312020302020202020200A2020332020342020322020302020202020200A2020342020352020312020302020202020200A2020352020362020322020302020202020200A2020362020372020312020302020202020200A2020322020372020322020302020202020200A2020352020382020312020302020202020200A4D2020454E44
Contributor: YAMAMOTO M, DEP. CHEMISTRY, FAC. SCIENCE, NARA WOMEN'S UNIV.
InstType: EI
InstName: HITACHI RMU-6M
IoniMethod: _ENERGY 70 eV
IonPolarity: pos
Date: 2010-10-09 19:48:36+02:00
Num Peaks: 37
37 36 38 38 39 76 40 14 41 39 42 11 44 14 445 18 45.5 86 50 28 
51 18 52 40 55 10 61 25 62 36 63 73 63.5 67 64 56 64.5 22 65 240 
66 30 73 37 74 14 75 18 90 21 91 48 92 168 93 12 99 59 100 82 
101 27 102 27 126 21 127 999 128 74 129 317 130 24 
