Name: MassBank: JP000941
CAS: 75-35-4
MW: 95
Formula: C2H2Cl2
Synonym: MassBank: JP000941
Synonym: 1,1-DICHLOROETHYLENE
Structure: 310A31320A312C312D444943484C4F524F455448594C454E452E6D6F6C0A20204368656D447261773130323330393039343332440A2020342020332020302020302020302020302020302020302020302020303939392056323030300A20202020302E3230363220202020302E3030303020202020302E303030302043202020302020302020302020302020302020302020302020302020302020302020302020300A20202020302E3631383820202020302E3731343520202020302E303030302043202020302020302020302020302020302020302020302020302020302020302020302020300A20202020302E363138382020202D302E3731343520202020302E3030303020436C2020302020302020302020302020302020302020302020302020302020302020302020300A2020202D302E3631383820202020302E3030303020202020302E3030303020436C2020302020302020302020302020302020302020302020302020302020302020302020300A2020312020322020322020302020202020200A2020312020332020312020302020202020200A2020312020342020312020302020202020200A4D2020454E44
Contributor: KOGA M, UNIV. OF OCCUPATIONAL AND ENVIRONMENTAL HEALTH
InstType: EI
InstName: JEOL JMS-01-SG
IoniMethod: _ENERGY 70 eV
IonPolarity: pos
Date: 2010-10-09 19:48:36+02:00
Num Peaks: 13
35 92 36 23 37 35 47 6 49 28 59 39 60 189 61 999 62 84 63 319 
96 443 98 29 100 41 
