Name: MassBank: JP005373
MW: 280
Formula: C18H32O2
Synonym: MassBank: JP005373
Synonym: (Z,Z)-7,11-HEXADECADIENYL ACETATE
Structure: 285A2C5A292D372C31312D48455841444543414449454E594C20414345544154452E6D6F6C0A20204368656D447261773130323230393232303532440A2032342032332020302020302020302020302020302020302020302020303939392056323030300A20202020332E3039333820202020312E3432383920202020302E303030302043202020302020302020302020302020302020302020302020302020302020302020302020300A20202020322E3236383820202020312E3432383920202020302E303030302043202020302020302020302020302020302020302020302020302020302020302020302020300A20202020312E3835363320202020302E3731343520202020302E303030302043202020302020302020302020302020302020302020302020302020302020302020302020300A20202020312E3033313320202020302E3731343520202020302E303030302043202020302020302020302020302020302020302020302020302020302020302020302020300A20202020302E3631383720202020312E3432383920202020302E303030302043202020302020302020302020302020302020302020302020302020302020302020302020300A2020202D302E3230363320202020312E3432383920202020302E303030302043202020302020302020302020302020302020302020302020302020302020302020302020300A20202020312E3033313220202020322E3134333420202020302E303030302048202020302020302020302020302020302020302020302020302020302020302020302020300A20202020312E3835363320202020322E3134333420202020302E303030302048202020302020302020302020302020302020302020302020302020302020302020302020300A20202020332E3530363320202020322E3134333420202020302E303030302048202020302020302020302020302020302020302020302020302020302020302020302020300A20202020332E3530363320202020302E3731343520202020302E303030302043202020302020302020302020302020302020302020302020302020302020302020302020300A2020202D302E3631383820202020302E3731343520202020302E303030302043202020302020302020302020302020302020302020302020302020302020302020302020300A2020202D302E3631383820202020322E3134333420202020302E303030302048202020302020302020302020302020302020302020302020302020302020302020302020300A20202020342E3333313320202020302E3731343520202020302E303030302043202020302020302020302020302020302020302020302020302020302020302020302020300A20202020342E3734333820202020312E3432383920202020302E303030302043202020302020302020302020302020302020302020302020302020302020302020302020300A20202020352E3536383820202020312E3432383920202020302E303030302043202020302020302020302020302020302020302020302020302020302020302020302020300A2020202D312E3434333720202020302E3731343520202020302E303030302043202020302020302020302020302020302020302020302020302020302020302020302020300A2020202D312E383536332020202D302E3030303020202020302E303030302043202020302020302020302020302020302020302020302020302020302020302020302020300A2020202D322E363831332020202D302E3030303020202020302E303030302043202020302020302020302020302020302020302020302020302020302020302020302020300A2020202D332E303933382020202D302E3731343520202020302E303030302043202020302020302020302020302020302020302020302020302020302020302020302020300A2020202D332E393138382020202D302E3731343520202020302E303030302043202020302020302020302020302020302020302020302020302020302020302020302020300A2020202D342E333331332020202D312E3432383920202020302E30303030204F202020302020302020302020302020302020302020302020302020302020302020302020300A2020202D352E313536332020202D312E3432383920202020302E303030302043202020302020302020302020302020302020302020302020302020302020302020302020300A2020202D352E353638382020202D322E3134333420202020302E30303030204F202020302020302020302020302020302020302020302020302020302020302020302020300A2020202D352E353638382020202D302E3731343520202020302E303030302043202020302020302020302020302020302020302020302020302020302020302020302020300A2020312020322020322020302020202020200A2020322020332020312020302020202020200A2020332020342020312020302020202020200A2020342020352020312020302020202020200A2020352020362020322020302020202020200A2020352020372020312020302020202020200A2020322020382020312020302020202020200A2020312020392020312020302020202020200A2020312031302020312020302020202020200A2020362031312020312020302020202020200A2020362031322020312020302020202020200A2031302031332020312020302020202020200A2031332031342020312020302020202020200A2031342031352020312020302020202020200A2031362031312020312020302020202020200A2031372031362020312020302020202020200A2031382031372020312020302020202020200A2031392031382020312020302020202020200A2032302031392020312020302020202020200A2032312032302020312020302020202020200A2032322032312020312020302020202020200A2032332032322020322020302020202020200A2032322032342020312020302020202020200A4D2020454E44
Contributor: YAMAOKA R, KYOTO INSTITUTE OF TECHNOLOGY
InstType: EI
InstName: SHIMADZU QP-1000
IoniMethod: _ENERGY 20 eV
IonPolarity: pos
Date: 2010-10-09 19:48:36+02:00
Num Peaks: 64
43 48 44 235 45 13 46 2 54 237 55 999 56 52 57 6 61 39 66 46 
67 481 68 25 69 181 70 19 71 26 78 1 79 90 80 153 81 703 82 40 
83 88 85 12 93 149 94 15 95 308 96 420 97 240 98 2 107 135 108 85 
109 114 110 16 111 31 121 224 122 183 123 19 124 186 125 31 134 29 135 15 
136 143 137 109 138 100 139 2 148 25 149 148 150 86 151 3 152 25 162 14 
163 97 164 6 165 12 177 33 178 17 191 2 192 16 219 16 220 116 221 3 
223 11 237 16 280 54 281 12 
