Name: CAUCALOL DIACETATE
MW: 338
Formula: C19H30O5
Synonym: MassBank: JP000326
Synonym: CAUCALOL DIACETATE
Structure: 43415543414C4F4C204449414345544154452E6D6F6C0A20204368656D447261773039303631303231343732440A2032382032392020302020302020302020302020302020302020302020303939392056323030300A20202020302E393033362020202D302E3237333920202020302E303030302043202020302020302020302020302020302020302020302020302020302020302020302020300A20202020302E393033362020202D312E3039383920202020302E303030302043202020302020302020302020302020302020302020302020302020302020302020302020300A20202020312E363138312020202D312E3531313420202020302E303030302043202020302020302020302020302020302020302020302020302020302020302020302020300A20202020322E333332362020202D312E3039383920202020302E303030302043202020302020302020302020302020302020302020302020302020302020302020302020300A20202020322E333332362020202D302E3237333920202020302E303030302043202020302020302020302020302020302020302020302020302020302020302020302020300A20202020312E3631383120202020302E3133383620202020302E303030302043202020302020302020302020302020302020302020302020302020302020302020302020300A20202020302E3235383620202020302E3234303520202020302E303030302043202020302020302020302020302020302020302020302020302020302020302020302020300A2020202D302E3534353720202020302E3035363920202020302E303030302043202020302020302020302020302020302020302020302020302020302020302020302020300A2020202D302E393033362020202D302E3638363420202020302E303030302043202020302020302020302020302020302020302020302020302020302020302020302020300A2020202D302E353435372020202D312E3432393720202020302E303030302043202020302020302020302020302020302020302020302020302020302020302020302020300A20202020302E323538362020202D312E3631333320202020302E303030302043202020302020302020302020302020302020302020302020302020302020302020302020300A20202020332E303437312020202D302E3638363420202020302E30303030204F202020302020302020302020302020302020302020302020302020302020302020302020300A20202020322E3734353120202020302E3434303620202020302E303030302043202020302020302020302020302020302020302020302020302020302020302020302020300A20202020302E3034353120202020312E3033373420202020302E30303030204F202020302020302020302020302020302020302020302020302020302020302020302020300A2020202D302E3534353720202020302E3838313920202020302E303030302043202020302020302020302020302020302020302020302020302020302020302020302020300A2020202D312E343837302020202D302E3130333020202020302E303030302048202020302020302020302020302020302020302020302020302020302020302020302020300A2020202D312E303630312020202D322E3037343720202020302E303030302048202020302020302020302020302020302020302020302020302020302020302020302020300A20202020302E343432322020202D322E3431373620202020302E303030302043202020302020302020302020302020302020302020302020302020302020302020302020300A2020202D312E363138312020202D312E3039383920202020302E30303030204F202020302020302020302020302020302020302020302020302020302020302020302020300A20202020302E3834323020202020302E3832333820202020302E303030302048202020302020302020302020302020302020302020302020302020302020302020302020300A2020202D312E3236303220202020302E3436393420202020302E303030302043202020302020302020302020302020302020302020302020302020302020302020302020300A20202020322E373435312020202D312E3831333420202020302E303030302048202020302020302020302020302020302020302020302020302020302020302020302020300A20202020302E3632383520202020312E3632303720202020302E303030302043202020302020302020302020302020302020302020302020302020302020302020302020300A20202020302E3431343920202020322E3431373620202020302E30303030204F202020302020302020302020302020302020302020302020302020302020302020302020300A20202020312E3432353420202020312E3430373220202020302E303030302043202020302020302020302020302020302020302020302020302020302020302020302020300A2020202D322E333332362020202D302E3638363420202020302E303030302043202020302020302020302020302020302020302020302020302020302020302020302020300A2020202D332E303437312020202D312E3039383920202020302E303030302043202020302020302020302020302020302020302020302020302020302020302020302020300A2020202D322E3333323620202020302E3133383620202020302E30303030204F202020302020302020302020302020302020302020302020302020302020302020302020300A2020322020332020312020302020202020200A2020332020342020312020302020202020200A2020342020352020312020302020202020200A2020352020362020312020302020202020200A2020362020312020312020302020202020200A2020312020372020312020302020202020200A2020372020382020312020302020202020200A2020382020392020312020302020202020200A2020392031302020312020302020202020200A2031302031312020322020302020202020200A2031312020322020312020302020202020200A2020342031322020312020302020202020200A2031322020352020312020302020202020200A2020352031332020312020312020202020200A2020372031342020312020312020202020200A2020382031352020312020312020202020200A2020392031362020312020312020202020200A2031302031372020312020302020202020200A2031312031382020312020302020202020200A2020392031392020312020362020202020200A2020372032302020312020362020202020200A2020382032312020312020362020202020200A2020342032322020312020362020202020200A2031342032332020312020302020202020200A2032332032342020322020302020202020200A2032332032352020312020302020202020200A2031392032362020312020302020202020200A2032362032372020312020302020202020200A2032362032382020322020302020202020200A4D2020454E44
Contributor: SASAKI S, TOYOHASHI UNIV. OF TECH.
InstType: EI
InstName: HITACHI RMU-6D
IoniMethod: _ENERGY 70 eV
IonPolarity: pos
Date: 2010-10-09 19:48:36+02:00
Num Peaks: 164
41 230 42 25 43 999 44 2 45 30 50 25 51 80 52 1 53 90 54 70 
55 780 56 1 57 195 58 25 59 45 60 8 61 35 62 10 63 25 64 2 
65 130 66 50 67 420 68 11 69 475 70 65 71 220 72 9 73 20 74 5 
75 15 76 0 77 260 78 120 79 355 80 16 81 545 82 335 83 330 84 31 
85 175 87 10 89 10 90 3 91 75 92 345 93 128 94 34 95 125 96 250 
97 50 99 5 100 35 101 30 102 10 103 1 104 15 105 225 106 80 107 4 
109 780 110 175 111 235 112 9 113 15 114 30 115 55 116 2 117 75 118 45 
119 190 120 9 121 240 122 155 123 155 124 1 125 135 126 110 127 15 128 0 
129 30 130 20 131 75 132 5 133 160 134 50 135 175 136 1 137 105 138 55 
139 65 140 4 141 15 142 15 143 38 144 0 145 10 146 35 147 235 148 8 
149 100 150 55 151 85 152 1 153 60 154 65 155 25 156 2 157 53 158 25 
159 20 160 8 161 115 162 65 163 40 164 2 165 25 166 15 167 55 168 2 
169 18 170 10 171 20 172 3 173 30 174 55 175 175 176 0 177 20 178 10 
179 10 180 1 185 60 186 8 187 10 188 1 189 45 190 45 191 20 192 0 
193 15 200 43 201 25 202 1 204 13 206 85 207 7 208 1 209 15 211 7 
212 7 216 1 217 20 218 157 219 50 220 0 221 15 222 8 236 40 237 0 
238 10 278 32 279 10 338 15 
