Name: MassBank: JP004275
MW: 104
Formula: C4H8O3
Synonym: MassBank: JP004275
Synonym: METHYL METHOXYACETATE (1,1,1-D3)
Synonym: METHOXYACETIC ACID METHYL ESTER (1,1,1-D3)
Structure: 303835305F4D455448594C204D4554484F5859414345544154452028312C312C312D4433292E6D6F6C0A20204368656D447261773039303631303230323232440A2031302020392020302020302020302020302020302020302020302020303939392056323030300A20202020302E3530383220202020302E3431323420202020302E303030302043202020302020302020302020302020302020302020302020302020302020302020302020300A20202020302E3530383220202020312E3233373520202020302E30303030204F202020302020302020302020302020302020302020302020302020302020302020302020300A20202020312E323232372020202D302E3030303020202020302E303030302043202020302020302020302020302020302020302020302020302020302020302020302020300A2020202D302E3530383220202020302E3431323420202020302E30303030204F202020302020302020302020302020302020302020302020302020302020302020302020300A2020202D312E323232372020202D302E3030303020202020302E303030302043202020302020302020302020302020302020302020302020302020302020302020302020300A20202020312E323232372020202D302E3832353020202020302E30303030204F202020302020302020302020302020302020302020302020302020302020302020302020300A2020202D302E383130322020202D302E3731343420202020302E303030302048202020312020302020302020302020302020302020302020302020302020302020302020300A2020202D312E393337312020202D302E3431323520202020302E303030302048202020312020302020302020302020302020302020302020302020302020302020302020300A2020202D312E3633353120202020302E3731343420202020302E303030302048202020312020302020302020302020302020302020302020302020302020302020302020300A20202020312E393337312020202D312E3233373520202020302E303030302043202020302020302020302020302020302020302020302020302020302020302020302020300A2020312020322020322020302020202020200A2020312020332020312020302020202020200A2020342020352020312020302020202020200A2020332020362020312020302020202020200A2020352020372020312020302020202020200A2020352020382020312020302020202020200A2020352020392020312020302020202020200A2020342020312020312020302020202020200A2020362031302020312020302020202020200A4D202049534F2020332020203720202032202020382020203220202039202020320A4D2020454E44
Contributor: TAJIMA S, GUNMA COLLEGE OF TECHNOLOGY
InstType: EI
InstName: HITACHI RMU-7M
IoniMethod: _ENERGY 70 eV
IonPolarity: pos
Date: 2010-10-09 19:48:36+02:00
Num Peaks: 19
14 29 15 172 16 18 18 153 28 40 29 287 30 63 31 29 32 22 33 43 
42 86 43 41 44 136 45 999 46 22 48 83 62 29 77 255 78 57 
