Name: OCTAMETHYLCYCLOTETRASILOXANE
MW: 296
Formula: C8H24O4Si4
Synonym: MassBank: JP006080
Synonym: OCTAMETHYLCYCLOTETRASILOXANE
Structure: 4F4354414D455448594C4359434C4F544554524153494C4F58414E452E6D6F6C0A20204368656D447261773038313231303033313932440A2031362031362020302020302020302020302020302020302020302020303939392056323030300A20202020302E3939353920202020302E3431323520202020302E303030302053692020302020302020302020302020302020302020302020302020302020302020302020300A20202020302E393935392020202D302E3431323520202020302E30303030204F202020302020302020302020302020302020302020302020302020302020302020302020300A20202020302E343132352020202D302E3939353920202020302E303030302053692020302020302020302020302020302020302020302020302020302020302020302020300A2020202D302E343132352020202D302E3939353920202020302E30303030204F202020302020302020302020302020302020302020302020302020302020302020302020300A2020202D302E393935392020202D302E3431323520202020302E303030302053692020302020302020302020302020302020302020302020302020302020302020302020300A2020202D302E3939353920202020302E3431323520202020302E30303030204F202020302020302020302020302020302020302020302020302020302020302020302020300A2020202D302E3431323520202020302E3939353920202020302E303030302053692020302020302020302020302020302020302020302020302020302020302020302020300A20202020302E3431323520202020302E3939353920202020302E30303030204F202020302020302020302020302020302020302020302020302020302020302020302020300A20202020312E3430383420202020312E3132373020202020302E303030302043202020302020302020302020302020302020302020302020302020302020302020302020300A20202020312E3739323820202020302E3139393020202020302E303030302043202020302020302020302020302020302020302020302020302020302020302020302020300A20202020312E313237302020202D312E3430383420202020302E303030302043202020302020302020302020302020302020302020302020302020302020302020302020300A20202020302E313939302020202D312E3739323820202020302E303030302043202020302020302020302020302020302020302020302020302020302020302020302020300A2020202D312E343038342020202D312E3132373020202020302E303030302043202020302020302020302020302020302020302020302020302020302020302020302020300A2020202D312E373932382020202D302E3139393020202020302E303030302043202020302020302020302020302020302020302020302020302020302020302020302020300A2020202D312E3132373020202020312E3430383420202020302E303030302043202020302020302020302020302020302020302020302020302020302020302020302020300A2020202D302E3139393020202020312E3739323820202020302E303030302043202020302020302020302020302020302020302020302020302020302020302020302020300A2020312020322020312020302020202020200A2020322020332020312020302020202020200A2020332020342020312020302020202020200A2020342020352020312020302020202020200A2020352020362020312020302020202020200A2020362020372020312020302020202020200A2020372020382020312020302020202020200A2020312020382020312020302020202020200A2020312020392020312020302020202020200A2020312031302020312020302020202020200A2020332031312020312020302020202020200A2020332031322020312020302020202020200A2020352031332020312020302020202020200A2020352031342020312020302020202020200A2020372031352020312020302020202020200A2020372031362020312020302020202020200A4D2020454E44
Contributor: HASHIMOTO K, KYOTO COLLEGE OF PHARMACY
InstType: EI
InstName: HITACHI M-80
IoniMethod: _ENERGY 20 eV
IonPolarity: pos
Date: 2010-10-09 19:48:36+02:00
Num Peaks: 12
207 10 249 21 251 19 265 52 266 14 267 15 281 999 282 283 283 177 284 36 
285 12 296 0 
