Name: BETA-PATCHOULENE
MW: 204
Formula: C15H24
Synonym: MassBank: JP002844
Synonym: BETA-PATCHOULENE
Structure: 424554412D50415443484F554C454E452E6D6F6C0A20204368656D447261773039303531303137343032440A2031372031392020302020302020302020302020302020302020302020303939392056323030300A2020202D312E3731303920202020302E3431323520202020302E303030302043202020302020302020302020302020302020302020302020302020302020302020302020300A2020202D312E373130392020202D302E3431323520202020302E303030302043202020302020302020302020302020302020302020302020302020302020302020302020300A2020202D312E303635382020202D302E3932363920202020302E303030302043202020302020302020302020302020302020302020302020302020302020302020302020300A2020202D302E323631352020202D302E3734333320202020302E303030302043202020302020302020302020302020302020302020302020302020302020302020302020300A20202020302E303936342020202D302E3030303020202020302E303030302043202020302020302020302020302020302020302020302020302020302020302020302020300A2020202D302E3236313520202020302E3734333320202020302E303030302043202020302020302020302020302020302020302020302020302020302020302020302020300A2020202D312E3036353820202020302E3932363920202020302E303030302043202020302020302020302020302020302020302020302020302020302020302020302020300A20202020302E3931343020202020302E3131303720202020302E303030302043202020302020302020302020302020302020302020302020302020302020302020302020300A20202020312E3036313320202020302E3932323520202020302E303030302043202020302020302020302020302020302020302020302020302020302020302020302020300A20202020302E3333343820202020312E3331333420202020302E303030302043202020302020302020302020302020302020302020302020302020302020302020302020300A20202020312E313237352020202D302E3638363120202020302E303030302048202020302020302020302020302020302020302020302020302020302020302020302020300A2020202D312E3234393420202020312E3733313220202020302E303030302043202020302020302020302020302020302020302020302020302020302020302020302020300A2020202D312E323439342020202D312E3733313220202020302E303030302048202020302020302020302020302020302020302020302020302020302020302020302020300A20202020312E373130392020202D302E3130323820202020302E303030302043202020302020302020302020302020302020302020302020302020302020302020302020300A2020202D302E3835323320202020302E3133303020202020302E303030302043202020302020302020302020302020302020302020302020302020302020302020302020300A2020202D312E353636382020202D302E3238323520202020302E303030302043202020302020302020302020302020302020302020302020302020302020302020302020300A2020202D302E323639302020202D302E3435333420202020302E303030302043202020302020302020302020302020302020302020302020302020302020302020302020300A2020312020322020312020302020202020200A2020322020332020312020302020202020200A2020332020342020312020302020202020200A2020342020352020312020302020202020200A2020352020362020322020302020202020200A2020362020372020312020302020202020200A2020372020312020312020302020202020200A2020352020382020312020302020202020200A2020382020392020312020302020202020200A2020392031302020312020302020202020200A2031302020362020312020302020202020200A2020382031312020312020312020202020200A2020372031322020312020312020202020200A2020332031332020312020312020202020200A2020382031342020312020362020202020200A2020372031352020312020362020202020200A2020332031352020312020362020202020200A2031352031362020312020362020202020200A2031352031372020312020362020202020200A4D2020454E44
Contributor: SASAKI S, TOYOHASHI UNIV. OF TECH.
InstType: EI
InstName: Unknown
IoniMethod: EI
IonPolarity: pos
Date: 2010-10-09 19:48:36+02:00
Num Peaks: 114
26 10 27 103 29 127 31 2 37 5 39 140 40 20 41 46 42 27 43 125 
50 12 51 5 52 23 53 133 54 13 55 28 56 20 57 38 58 8 59 1 
63 21 64 21 65 95 66 3 67 117 68 15 69 177 70 2 71 27 72 10 
73 5 74 1 75 15 76 10 77 217 78 6 79 251 80 35 81 143 82 2 
83 21 84 8 85 8 87 1 88 10 89 15 90 8 91 39 92 70 93 500 
94 83 95 13 96 63 97 10 101 5 102 1 103 45 104 30 105 537 106 1 
107 297 108 121 109 53 110 0 115 80 116 41 117 90 118 3 119 717 120 113 
121 110 122 4 123 20 127 25 128 55 129 6 130 33 131 77 132 25 133 3 
134 103 135 320 136 61 137 1 141 15 142 10 143 15 144 1 145 71 146 18 
147 225 148 1 149 21 150 5 157 5 159 3 160 25 161 999 162 163 163 0 
173 8 174 5 175 80 176 4 177 10 187 6 188 12 189 9 190 141 191 10 
202 5 204 5 205 87 206 5 
