Name: 7-CHLOR0-4-HYDROXYBENZOPYLIMIDINE
MW: 180
Formula: C8H5ClN2O
Synonym: MassBank: JP008259
Synonym: 7-CHLOR0-4-HYDROXYBENZOPYLIMIDINE
Structure: 372D43484C4F52302D342D485944524F585942454E5A4F50594C494D4944494E452E6D6F6C0A20204368656D447261773035323131303033333232440A2031322031332020302020302020302020302020302020302020302020303939392056323030300A2020202D312E3037313720202020302E3832353020202020302E303030302043202020302020302020302020302020302020302020302020302020302020302020302020300A2020202D312E3037313720202020302E3030303020202020302E303030302043202020302020302020302020302020302020302020302020302020302020302020302020300A2020202D302E333537322020202D302E3431323520202020302E303030302043202020302020302020302020302020302020302020302020302020302020302020302020300A20202020302E3335373220202020302E3030303020202020302E303030302043202020302020302020302020302020302020302020302020302020302020302020302020300A20202020302E3335373220202020302E3832353020202020302E303030302043202020302020302020302020302020302020302020302020302020302020302020302020300A2020202D302E3335373220202020312E3233373520202020302E303030302043202020302020302020302020302020302020302020302020302020302020302020302020300A20202020312E303731372020202D302E3431323520202020302E303030302043202020302020302020302020302020302020302020302020302020302020302020302020300A20202020312E3738363220202020302E3030303020202020302E30303030204E202020302020302020302020302020302020302020302020302020302020302020302020300A20202020312E3738363220202020302E3832353020202020302E303030302043202020302020302020302020302020302020302020302020302020302020302020302020300A20202020312E3037313720202020312E3233373520202020302E30303030204E202020302020302020302020302020302020302020302020302020302020302020302020300A2020202D312E3738363220202020312E3233373520202020302E3030303020436C2020302020302020302020302020302020302020302020302020302020302020302020300A20202020312E303731372020202D312E3233373520202020302E30303030204F202020302020302020302020302020302020302020302020302020302020302020302020300A2020312020322020322020302020202020200A2020322020332020312020302020202020200A2020332020342020322020302020202020200A2020342020352020312020302020202020200A2020352020362020322020302020202020200A2020362020312020312020302020202020200A2020342020372020312020302020202020200A2020372020382020322020302020202020200A2020382020392020312020302020202020200A2020392031302020322020302020202020200A2031302020352020312020302020202020200A2020312031312020312020302020202020200A2020372031322020312020302020202020200A4D2020454E44
Contributor: UBE SCIENTIFIC ANALYSIS LABORATORY
InstType: EI
InstName: HITACHI M-60
IoniMethod: _ENERGY 70 eV
IonPolarity: pos
Date: 2010-10-09 19:48:36+02:00
Num Peaks: 49
28 42 29 11 37 39 38 44 39 24 45 11 49 18 50 38 52 17 53 12 
61 39 62 87 63 138 64 36 73 62 74 63 75 73 76 57 77 16 87 16 
88 31 89 30 90 93 91 13 97 18 98 45 99 12 100 17 110 31 116 10 
117 81 118 26 124 137 125 72 126 172 127 32 128 43 145 95 151 32 152 110 
153 145 154 50 155 45 178 18 179 372 180 999 181 210 182 343 183 32 
