Name: 2-BUTYLFURAN
CAS: 4466-24-4
MW: 124
Formula: C8H12O
Synonym: MassBank: JP007730
Synonym: 2-BUTYLFURAN
Structure: 310A32330A322D425554594C465552414E2E6D6F6C0A20204368656D447261773031303331303130323032440A2020392020392020302020302020302020302020302020302020302020303939392056323030300A2020202D312E3532393820202020302E3632353320202020302E30303030204F202020302020302020302020302020302020302020302020302020302020302020302020300A2020202D302E3737363120202020302E3238393820202020302E303030302043202020302020302020302020302020302020302020302020302020302020302020302020300A2020202D302E383632332020202D302E3533303720202020302E303030302043202020302020302020302020302020302020302020302020302020302020302020302020300A2020202D312E363639332020202D302E3730323320202020302E303030302043202020302020302020302020302020302020302020302020302020302020302020302020300A2020202D322E3038313820202020302E3031323220202020302E303030302043202020302020302020302020302020302020302020302020302020302020302020302020300A2020202D302E3036313620202020302E3730323320202020302E303030302043202020302020302020302020302020302020302020302020302020302020302020302020300A20202020302E3635323920202020302E3238393820202020302E303030302043202020302020302020302020302020302020302020302020302020302020302020302020300A20202020312E3336373320202020302E3730323320202020302E303030302043202020302020302020302020302020302020302020302020302020302020302020302020300A20202020322E3038313820202020302E3238393820202020302E303030302043202020302020302020302020302020302020302020302020302020302020302020302020300A2020312020322020312020302020202020200A2020322020332020322020302020202020200A2020332020342020312020302020202020200A2020342020352020322020302020202020200A2020312020352020312020302020202020200A2020362020372020312020302020202020200A2020372020382020312020302020202020200A2020382020392020312020302020202020200A2020322020362020312020302020202020200A4D2020454E44
Contributor: HASHIMOTO K, KYOTO COLLEGE OF PHARMACY
InstType: EI
InstName: HITACHI M-80
IoniMethod: _ENERGY 20 eV
IonPolarity: pos
Date: 2010-10-09 19:48:36+02:00
Num Peaks: 21
27 40 29 20 39 30 41 70 43 17 53 209 55 18 66 10 67 39 68 39 
69 10 79 10 80 20 81 999 82 278 83 20 94 10 95 50 96 10 124 280 
125 20 
