Name: ISOCAPRONITRILE
MW: 97
Formula: C6H11N
Synonym: MassBank: JP004005
Synonym: ISOCAPRONITRILE
Structure: 310A31380A49534F434150524F4E495452494C452E6D6F6C0A20204368656D447261773038313131303231313832440A2020372020362020302020302020302020302020302020302020302020303939392056323030300A20202020312E3033313220202020302E3030303020202020302E303030302043202020302020302020302020302020302020302020302020302020302020302020302020300A20202020302E3631383720202020302E3731343520202020302E303030302043202020302020302020302020302020302020302020302020302020302020302020302020300A2020202D302E3230363320202020302E3731343520202020302E303030302043202020302020302020302020302020302020302020302020302020302020302020302020300A2020202D302E363138382020202D302E3030303020202020302E303030302043202020302020302020302020302020302020302020302020302020302020302020302020300A2020202D302E323036332020202D302E3731343520202020302E303030302043202020302020302020302020302020302020302020302020302020302020302020302020300A2020202D312E343433382020202D302E3030303020202020302E303030302043202020302020302020302020302020302020302020302020302020302020302020302020300A20202020312E343433382020202D302E3731343520202020302E30303030204E202020302020302020302020302020302020302020302020302020302020302020302020300A2020312020322020312020302020202020200A2020322020332020312020302020202020200A2020332020342020312020302020202020200A2020342020352020312020302020202020200A2020342020362020312020302020202020200A2020312020372020332020302020202020200A4D2020454E44
Contributor: MASS SPECTROSCOPY SOC. OF JAPAN (MSSJ)
InstType: EI
InstName: HITACHI RMU-6L
IoniMethod: _ENERGY 70 eV
IonPolarity: pos
Date: 2010-10-09 19:48:36+02:00
Num Peaks: 27
13 15 14 20 15 126 26 8 27 382 28 113 29 209 37 3 38 39 39 293 
40 59 41 52 42 70 43 453 44 15 50 2 51 34 52 33 53 50 55 999 
56 54 57 270 58 11 69 2 81 13 82 131 96 95 
