Name: MassBank: JP006718
MW: 231
Formula: C14H17NO2
Synonym: MassBank: JP006718
Synonym: N-(2,2-DIDEUTERO-3-PHENYLPROPIONYL)PIPERIDIN-2-ONE
Structure: 313138375F4E2D28322C322D44494445555445524F2D332D5048454E594C50524F50494F4E594C2950495045524944494E2D322D4F4E452E6D6F6C0A20204368656D447261773039303731303131333432440A2031392032302020302020302020302020302020302020302020302020303939392056323030300A2020202D312E343238332020202D302E3030303920202020302E30303030204E202020302020302020302020302020302020302020302020302020302020302020302020300A2020202D322E313433342020202D302E3431323320202020302E303030302043202020302020302020302020302020302020302020302020302020302020302020302020300A2020202D322E3835373920202020302E3030303220202020302E303030302043202020302020302020302020302020302020302020302020302020302020302020302020300A2020202D322E3835373920202020302E3832353120202020302E303030302043202020302020302020302020302020302020302020302020302020302020302020302020300A2020202D322E3134333420202020312E3233373620202020302E303030302043202020302020302020302020302020302020302020302020302020302020302020302020300A2020202D312E3432383920202020302E3832353120202020302E303030302043202020302020302020302020302020302020302020302020302020302020302020302020300A2020202D322E313432342020202D312E3233373620202020302E30303030204F202020302020302020302020302020302020302020302020302020302020302020302020300A2020202D302E373134352020202D302E3431323320202020302E303030302043202020302020302020302020302020302020302020302020302020302020302020302020300A2020202D302E373134352020202D312E3233373620202020302E30303030204F202020302020302020302020302020302020302020302020302020302020302020302020300A2020202D302E3030303020202020302E3030303220202020302E303030302043202020302020302020302020302020302020302020302020302020302020302020302020300A2020202D302E3431313420202020302E3731343120202020302E303030302048202020312020302020302020302020302020302020302020302020302020302020302020300A20202020302E3731343420202020302E3431323720202020302E303030302043202020302020302020302020302020302020302020302020302020302020302020302020300A20202020302E343133352020202D302E3731353220202020302E303030302048202020312020302020302020302020302020302020302020302020302020302020302020300A20202020312E3432383920202020302E3030303220202020302E303030302043202020302020302020302020302020302020302020302020302020302020302020302020300A20202020312E343238392020202D302E3832343820202020302E303030302043202020302020302020302020302020302020302020302020302020302020302020302020300A20202020322E313433342020202D312E3233373320202020302E303030302043202020302020302020302020302020302020302020302020302020302020302020302020300A20202020322E383537392020202D302E3832343820202020302E303030302043202020302020302020302020302020302020302020302020302020302020302020302020300A20202020322E3835373920202020302E3030303220202020302E303030302043202020302020302020302020302020302020302020302020302020302020302020302020300A20202020322E3134333420202020302E3431323720202020302E303030302043202020302020302020302020302020302020302020302020302020302020302020302020300A2020312020322020312020302020202020200A2020322020332020312020302020202020200A2020332020342020312020302020202020200A2020342020352020312020302020202020200A2020352020362020312020302020202020200A2020312020362020312020302020202020200A2020322020372020322020302020202020200A2020382020392020322020302020202020200A2020382031302020312020302020202020200A2031302031312020312020312020202020200A2031302031322020312020302020202020200A2031302031332020312020312020202020200A2020312020382020312020302020202020200A2031322031342020312020302020202020200A2031342031352020322020302020202020200A2031352031362020312020302020202020200A2031362031372020322020302020202020200A2031372031382020312020302020202020200A2031382031392020322020302020202020200A2031342031392020312020302020202020200A4D202049534F202032202031312020203220203133202020320A4D2020454E44
Contributor: MASS SPECTROSCOPY SOC. OF JAPAN (MSSJ)
InstType: EI
InstName: HITACHI RMU-6G
IoniMethod: _ENERGY 20 eV
IonPolarity: pos
Date: 2010-10-09 19:48:36+02:00
Num Peaks: 18
55 50 58 70 71 80 91 190 98 90 99 160 100 290 101 999 102 120 105 110 
106 800 107 230 114 170 132 80 133 80 233 360 234 60 235 10 
