Name: META-CRESOL DEUTEROMETHYL ETHER
MW: 122
Formula: C8H10O
Synonym: MassBank: JP001144
Synonym: META-CRESOL DEUTEROMETHYL ETHER
Synonym: (2H3)METHYL META-TOLYL ETHER
Structure: 28324833294D455448594C204D4554412D544F4C594C2045544845522E6D6F6C0A20204368656D447261773130323030393133313032440A2031322031322020302020302020302020302020302020302020302020303939392056323030300A2020202D302E373134332020202D302E3536333520202020302E303030302043202020302020302020302020302020302020302020302020302020302020302020302020300A2020202D302E373134332020202D312E3338383520202020302E303030302043202020302020302020302020302020302020302020302020302020302020302020302020300A20202020302E303030322020202D312E3830313020202020302E303030302043202020302020302020302020302020302020302020302020302020302020302020302020300A20202020302E373134362020202D312E3338383520202020302E303030302043202020302020302020302020302020302020302020302020302020302020302020302020300A20202020302E373134362020202D302E3536333520202020302E303030302043202020302020302020302020302020302020302020302020302020302020302020302020300A20202020302E303030322020202D302E3135313020202020302E303030302043202020302020302020302020302020302020302020302020302020302020302020302020300A20202020302E3030303220202020302E3637343020202020302E30303030204F202020302020302020302020302020302020302020302020302020302020302020302020300A2020202D302E3731343320202020312E3038363520202020302E303030302043202020302020302020302020302020302020302020302020302020302020302020302020300A2020202D312E3132363820202020302E3337323020202020302E303030302048202020312020302020302020302020302020302020302020302020302020302020302020300A2020202D312E3432383820202020312E3439393020202020302E303030302048202020312020302020302020302020302020302020302020302020302020302020302020300A2020202D302E3330313820202020312E3830313020202020302E303030302048202020312020302020302020302020302020302020302020302020302020302020302020300A20202020312E343238382020202D312E3830313020202020302E303030302043202020302020302020302020302020302020302020302020302020302020302020302020300A2020312020322020322020302020202020200A2020322020332020312020302020202020200A2020332020342020322020302020202020200A2020342020352020312020302020202020200A2020352020362020322020302020202020200A2020362020312020312020302020202020200A2020362020372020312020302020202020200A2020372020382020312020302020202020200A2020382020392020312020302020202020200A2020382031302020312020302020202020200A2020382031312020312020302020202020200A2020342031322020312020302020202020200A4D202049534F2020332020203920202032202031302020203220203131202020320A4D202053545920203120202031205355500A4D2020534C4220203120202031202020310A4D202053414C20202031202031202031320A4D202053424C20202031202031202031320A4D2020534D5420202031204D650A4D2020534256202020312031322020202D372E3438323320202020362E373539310A4D2020454E44
Contributor: NAKAYAMA M, MASS SPECTROSCOPY SOC. OF JAPAN (MSSJ)
InstType: EI
InstName: HITACHI RMS-4
IoniMethod: _ENERGY 80 eV
IonPolarity: pos
Date: 2010-10-09 19:48:36+02:00
Num Peaks: 85
15 42 16 132 17 154 26 48 27 164 28 90 29 95 30 58 31 32 32 37 
37 74 38 169 39 466 40 69 41 185 42 53 43 106 44 32 45 32 46 32 
47 32 48 32 49 53 50 302 51 466 52 291 53 238 54 48 55 116 56 48 
57 69 58 37 59 26 60 26 61 79 62 159 63 314 64 122 65 238 66 90 
67 74 68 42 69 85 70 37 71 48 73 42 74 95 75 69 76 69 77 999 
78 445 79 715 80 132 81 100 82 69 83 64 84 26 85 42 86 47 87 42 
89 106 90 106 91 439 92 444 93 254 94 79 95 85 96 48 97 48 98 26 
105 64 106 260 107 408 108 286 109 85 110 37 111 32 115 42 121 64 122 127 
123 238 124 466 125 476 126 58 127 32 
