Name: PERILLA ALDEHYDE
MW: 150
Formula: C10H14O
Synonym: MassBank: JP008695
Synonym: PERILLA ALDEHYDE
Structure: 504552494C4C4120414C4445485944452E6D6F6C0A20204368656D447261773038313231303035303832440A2031312031312020302020302020302020302020302020302020302020303939392056323030300A20202020312E3635303020202020302E3030303020202020302E303030302043202020302020302020302020302020302020302020302020302020302020302020302020300A20202020302E3832353020202020302E3030303020202020302E303030302043202020302020302020302020302020302020302020302020302020302020302020302020300A20202020302E343132352020202D302E3731343520202020302E303030302043202020302020302020302020302020302020302020302020302020302020302020302020300A2020202D302E343132352020202D302E3731343520202020302E303030302043202020302020302020302020302020302020302020302020302020302020302020302020300A2020202D302E3832353020202020302E3030303020202020302E303030302043202020302020302020302020302020302020302020302020302020302020302020302020300A2020202D312E3635303020202020302E3030303020202020302E303030302043202020302020302020302020302020302020302020302020302020302020302020302020300A2020202D322E303632352020202D302E3731343520202020302E303030302043202020302020302020302020302020302020302020302020302020302020302020302020300A2020202D322E3036323520202020302E3731343520202020302E303030302043202020302020302020302020302020302020302020302020302020302020302020302020300A2020202D302E3431323520202020302E3731343520202020302E303030302043202020302020302020302020302020302020302020302020302020302020302020302020300A20202020302E3431323520202020302E3731343520202020302E303030302043202020302020302020302020302020302020302020302020302020302020302020302020300A20202020322E3036323520202020302E3731343520202020302E30303030204F202020302020302020302020302020302020302020302020302020302020302020302020300A2020312020322020312020302020202020200A2020322020332020322020302020202020200A2020332020342020312020302020202020200A2020342020352020312020302020202020200A2020352020362020312020302020202020200A2020362020372020312020302020202020200A2020362020382020322020302020202020200A2020352020392020312020302020202020200A2020392031302020312020302020202020200A2020322031302020312020302020202020200A2020312031312020322020302020202020200A4D2020454E44
Contributor: SODA AROMATIC CO., LTD.
InstType: EI
InstName: HITACHI M-80B
IoniMethod: _ENERGY 70 eV
IonPolarity: pos
Date: 2010-10-09 19:48:36+02:00
Num Peaks: 50
26 14 27 231 29 138 38 27 39 502 40 70 41 413 42 52 43 61 50 46 
51 137 52 68 53 455 54 45 55 126 63 37 65 104 66 89 67 599 68 999 
69 69 77 329 78 80 79 672 80 113 81 120 82 24 91 225 92 75 93 283 
94 116 95 135 103 25 104 14 105 113 106 133 107 397 108 155 109 65 115 22 
117 74 119 41 121 162 122 217 123 21 132 36 135 172 145 10 150 179 151 23 
