Name: MassBank: JP007027
MW: 118
Formula: C6H14O2
Synonym: MassBank: JP007027
Synonym: 2-METHYL-2,4-PENTANEDIOL
Structure: 310A32300A322D4D455448594C2D322C342D50454E54414E4544494F4C2E6D6F6C0A20204368656D447261773132323030393138353832440A2020382020372020302020302020302020302020302020302020302020303939392056323030300A2020202D302E333032302020202D302E3635393220202020302E303030302043202020302020302020302020302020302020302020302020302020302020302020302020300A2020202D302E3731343520202020302E3035353320202020302E303030302043202020302020302020302020302020302020302020302020302020302020302020302020300A20202020302E3030303020202020302E3436373820202020302E303030302043202020302020302020302020302020302020302020302020302020302020302020302020300A20202020302E3731343520202020302E3035353320202020302E303030302043202020302020302020302020302020302020302020302020302020302020302020302020300A20202020312E3432383920202020302E3436373820202020302E303030302043202020302020302020302020302020302020302020302020302020302020302020302020300A2020202D312E343238392020202D302E3335373220202020302E30303030204F202020302020302020302020302020302020302020302020302020302020302020302020300A20202020302E373134352020202D302E3736393720202020302E30303030204F202020302020302020302020302020302020302020302020302020302020302020302020300A2020202D312E3132373020202020302E3736393720202020302E303030302043202020302020302020302020302020302020302020302020302020302020302020302020300A2020312020322020312020302020202020200A2020322020332020312020302020202020200A2020332020342020312020302020202020200A2020342020352020312020302020202020200A2020322020362020312020302020202020200A2020342020372020312020302020202020200A2020322020382020312020302020202020200A4D2020454E44
Contributor: SODA AROMATIC CO., LTD.
InstType: EI
InstName: HITACHI M-80B
IoniMethod: _ENERGY 70 eV
IonPolarity: pos
Date: 2010-10-09 19:48:36+02:00
Num Peaks: 22
15 42 19 11 27 67 28 13 29 61 31 133 39 70 40 15 41 215 42 138 
43 784 44 42 45 202 55 30 56 266 57 132 58 36 59 999 60 32 61 93 
85 93 103 60 
