Name: MassBank: JP006301
CAS: 87-62-7
MW: 121
Formula: C8H11N
Synonym: MassBank: JP006301
Synonym: 2,6-DIMETHYLANILINE
Synonym: 2,6-XYLIDINE
Structure: 310A32330A322C362D44494D455448594C414E494C494E452E6D6F6C0A20204368656D447261773132323130393034343132440A2020392020392020302020302020302020302020302020302020302020303939392056323030300A2020202D312E323337352020202D302E3030303020202020302E30303030204E202020302020302020302020302020302020302020302020302020302020302020302020300A2020202D302E343132352020202D302E3030303020202020302E303030302043202020302020302020302020302020302020302020302020302020302020302020302020300A2020202D302E3030303020202020302E3731343520202020302E303030302043202020302020302020302020302020302020302020302020302020302020302020302020300A20202020302E3832353020202020302E3731343520202020302E303030302043202020302020302020302020302020302020302020302020302020302020302020302020300A20202020312E323337352020202D302E3030303020202020302E303030302043202020302020302020302020302020302020302020302020302020302020302020302020300A20202020302E383235302020202D302E3731343520202020302E303030302043202020302020302020302020302020302020302020302020302020302020302020302020300A2020202D302E303030302020202D302E3731343520202020302E303030302043202020302020302020302020302020302020302020302020302020302020302020302020300A2020202D302E343132352020202D312E3432383920202020302E303030302043202020302020302020302020302020302020302020302020302020302020302020302020300A2020202D302E3431323520202020312E3432383920202020302E303030302043202020302020302020302020302020302020302020302020302020302020302020302020300A2020312020322020312020302020202020200A2020322020332020312020302020202020200A2020332020342020322020302020202020200A2020342020352020312020302020202020200A2020352020362020322020302020202020200A2020362020372020312020302020202020200A2020322020372020322020302020202020200A2020372020382020312020302020202020200A2020332020392020312020302020202020200A4D2020454E44
Contributor: MASS SPECTROSCOPY SOC. OF JAPAN (MSSJ)
InstType: EI
InstName: HITACHI M-80
IoniMethod: _ENERGY 70 eV
IonPolarity: pos
Date: 2010-10-09 19:48:36+02:00
Num Peaks: 63
14 35 15 267 29 69 30 115 32 15 37 75 38 218 39 775 40 114 41 225 
42 211 43 28 47 22 49 20 50 231 51 408 52 399 53 240 54 196 55 28 
56 9 59 36 60 33 61 47 62 124 63 253 64 74 65 253 66 123 67 58 
68 23 74 41 75 43 76 54 77 373 78 264 79 126 80 121 81 22 85 7 
86 13 87 12 88 6 89 50 90 22 91 244 92 79 93 208 94 109 95 14 
102 29 103 118 104 92 105 44 106 999 107 85 116 5 117 16 118 43 119 25 
120 594 121 996 122 93 
