Name: 2-TRIMETHYLSILOXYPENT-2-ENOIC ACID TRIMETHYLSILYL ESTER
CAS: 55045-17-5
MW: 260
Formula: C11H24O3Si2
Synonym: MassBank: JP007471
Synonym: 2-TRIMETHYLSILOXYPENT-2-ENOIC ACID TRIMETHYLSILYL ESTER
Structure: 322D5452494D455448594C53494C4F585950454E542D322D454E4F49432041434944205452494D455448594C53494C594C2045535445522E6D6F6C0A20204368656D447261773032323131303136343532440A2031362031352020302020302020302020302020302020302020302020303939392056323030300A20202020302E3431323520202020302E3035353320202020302E303030302043202020302020302020302020302020302020302020302020302020302020302020302020300A2020202D302E303030302020202D302E3635393220202020302E303030302043202020302020302020302020302020302020302020302020302020302020302020302020300A2020202D302E383235302020202D302E3635393220202020302E303030302043202020302020302020302020302020302020302020302020302020302020302020302020300A2020202D312E323337352020202D312E3337333720202020302E303030302043202020302020302020302020302020302020302020302020302020302020302020302020300A2020202D322E303632352020202D312E3337333720202020302E303030302043202020302020302020302020302020302020302020302020302020302020302020302020300A20202020312E3233373520202020302E3035353320202020302E30303030204F202020302020302020302020302020302020302020302020302020302020302020302020300A2020202D302E3030303020202020302E3736393720202020302E30303030204F202020302020302020302020302020302020302020302020302020302020302020302020300A20202020302E343132352020202D312E3337333720202020302E30303030204F202020302020302020302020302020302020302020302020302020302020302020302020300A20202020312E323337352020202D312E3337333720202020302E303030302053692020302020302020302020302020302020302020302020302020302020302020302020300A20202020312E323337352020202D322E3139383720202020302E303030302043202020302020302020302020302020302020302020302020302020302020302020302020300A20202020312E323337352020202D302E3534383720202020302E303030302043202020302020302020302020302020302020302020302020302020302020302020302020300A20202020322E303632352020202D312E3337333720202020302E303030302043202020302020302020302020302020302020302020302020302020302020302020302020300A20202020302E3431323520202020312E3438343220202020302E303030302053692020302020302020302020302020302020302020302020302020302020302020302020300A2020202D302E3330323020202020312E3839363720202020302E303030302043202020302020302020302020302020302020302020302020302020302020302020302020300A20202020302E3832353020202020322E3139383720202020302E303030302043202020302020302020302020302020302020302020302020302020302020302020302020300A20202020312E3132373020202020312E3037313720202020302E303030302043202020302020302020302020302020302020302020302020302020302020302020302020300A2020312020322020312020302020202020200A2020322020332020322020302020202020200A2020332020342020312020302020202020200A2020342020352020312020302020202020200A2020312020362020322020302020202020200A2020312020372020312020302020202020200A2020382020392020312020302020202020200A2020392031302020312020302020202020200A2020392031312020312020302020202020200A2020392031322020312020302020202020200A2020322020382020312020302020202020200A2031332031342020312020312020202020200A2031332031352020312020302020202020200A2031332031362020312020312020202020200A2020372031332020312020302020202020200A4D2020454E44
Contributor: KOGA M, UNIV. OF OCCUPATIONAL AND ENVIRONMENTAL HEALTH
InstType: EI
InstName: JEOL JMS-01-SG
IoniMethod: _ENERGY 70 eV
IonPolarity: pos
Date: 2010-10-09 19:48:36+02:00
Num Peaks: 25
43 15 45 118 47 20 51 2 55 67 59 30 66 20 68 2 72 20 73 427 
74 25 75 7 127 36 131 25 133 36 142 4 147 999 148 154 149 97 201 4 
217 25 245 216 246 41 247 2 260 30 
