Name: MassBank: JP004562
MW: 281
Formula: C14H9Cl3
Synonym: MassBank: JP004562
Synonym: 1,1-BIS(PARA-CHLOROPHENYL)-2-CHLOROETHENE
Structure: 312C312D42495328504152412D43484C4F524F5048454E594C292D322D43484C4F524F455448454E452E6D6F6C0A20204368656D447261773130323330393033333232440A2031372031382020302020302020302020302020302020302020302020303939392056323030300A2020202D302E3030303020202020302E3230363220202020302E303030302043202020302020302020302020302020302020302020302020302020302020302020302020300A2020202D302E3030303020202020312E3033313220202020302E303030302043202020302020302020302020302020302020302020302020302020302020302020302020300A2020202D302E3731343520202020312E3434333820202020302E3030303020436C2020302020302020302020302020302020302020302020302020302020302020302020300A20202020302E373134352020202D302E3230363320202020302E303030302043202020302020302020302020302020302020302020302020302020302020302020302020300A20202020312E3432383920202020302E3230363220202020302E303030302043202020302020302020302020302020302020302020302020302020302020302020302020300A20202020322E313433342020202D302E3230363320202020302E303030302043202020302020302020302020302020302020302020302020302020302020302020302020300A20202020322E313433342020202D312E3033313220202020302E303030302043202020302020302020302020302020302020302020302020302020302020302020302020300A20202020312E343238392020202D312E3434333820202020302E303030302043202020302020302020302020302020302020302020302020302020302020302020302020300A20202020302E373134352020202D312E3033313320202020302E303030302043202020302020302020302020302020302020302020302020302020302020302020302020300A20202020322E383537392020202D312E3434333720202020302E3030303020436C2020302020302020302020302020302020302020302020302020302020302020302020300A2020202D302E373134352020202D302E3230363320202020302E303030302043202020302020302020302020302020302020302020302020302020302020302020302020300A2020202D302E373134352020202D312E3033313320202020302E303030302043202020302020302020302020302020302020302020302020302020302020302020302020300A2020202D312E343238392020202D312E3434333820202020302E303030302043202020302020302020302020302020302020302020302020302020302020302020302020300A2020202D322E313433342020202D312E3033313320202020302E303030302043202020302020302020302020302020302020302020302020302020302020302020302020300A2020202D322E313433342020202D302E3230363320202020302E303030302043202020302020302020302020302020302020302020302020302020302020302020302020300A2020202D312E3432383920202020302E3230363320202020302E303030302043202020302020302020302020302020302020302020302020302020302020302020302020300A2020202D322E383537392020202D312E3434333820202020302E3030303020436C2020302020302020302020302020302020302020302020302020302020302020302020300A2020312020322020322020302020202020200A2020322020332020312020302020202020200A2020342020352020312020302020202020200A2020352020362020322020302020202020200A2020362020372020312020302020202020200A2020372020382020322020302020202020200A2020382020392020312020302020202020200A2020342020392020322020302020202020200A2020372031302020312020302020202020200A2020312020342020312020302020202020200A2031312031322020312020302020202020200A2031322031332020322020302020202020200A2031332031342020312020302020202020200A2031342031352020322020302020202020200A2031352031362020312020302020202020200A2031312031362020322020302020202020200A2031342031372020312020302020202020200A2020312031312020312020302020202020200A4D2020454E44
Contributor: HAYASHI A, DEPT. OF CHEMISTRY, FAC. OF SCI. AND TECHNOLOGY, KINKI UNIV.
InstType: EI
InstName: SHIMADZU LKB-9000B
IoniMethod: _ENERGY 70 eV
IonPolarity: pos
Date: 2010-10-09 19:48:36+02:00
Num Peaks: 123
36 11 38 6 39 18 40 8 41 8 43 8 44 17 45 1 50 39 51 41 
55 7 57 1 61 8 62 18 63 26 67 1 69 8 70 5 73 24 74 5 
75 124 76 22 77 10 81 1 82 6 83 6 85 14 86 2 87 56 88 187 
89 29 92 1 93 34 94 14 96 7 97 1 98 22 99 38 100 13 101 4 
102 6 105 122 106 83 107 2 109 7 110 31 111 34 112 1 113 14 122 9 
123 124 124 8 125 26 126 20 127 6 133 1 135 14 136 59 137 18 138 3 
139 8 141 7 142 6 146 1 147 9 148 8 149 24 150 5 151 52 152 11 
160 11 161 1 162 7 163 15 170 7 172 1 173 13 174 39 175 73 176 36 
177 111 178 19 180 8 181 1 182 10 183 7 184 9 185 1 186 17 199 5 
207 6 208 1 209 11 210 39 211 97 212 97 213 185 214 334 215 55 216 1 
217 10 218 8 219 6 233 4 234 6 235 28 237 5 245 1 246 107 247 269 
248 107 249 17 250 34 251 28 280 9 281 2 282 999 283 166 284 919 285 15 
286 299 287 47 288 31 
