Name: 2-HEXYLTHIOPHENE
CAS: 18794-77-9
MW: 168
Formula: C10H16S
Synonym: MassBank: JP007777
Synonym: 2-HEXYLTHIOPHENE
Structure: 322D484558594C5448494F5048454E452E6D6F6C0A20204368656D447261773031323131303134323332440A2031312031312020302020302020302020302020302020302020302020303939392056323030300A2020202D312E3336303220202020302E3239353620202020302E303030302043202020302020302020302020302020302020302020302020302020302020302020302020300A2020202D312E303234372020202D302E3435383120202020302E303030302043202020302020302020302020302020302020302020302020302020302020302020302020300A2020202D312E363337382020202D312E3031303120202020302E303030302043202020302020302020302020302020302020302020302020302020302020302020302020300A2020202D322E333532332020202D302E3539373620202020302E303030302043202020302020302020302020302020302020302020302020302020302020302020302020300A2020202D322E3138303720202020302E3230393420202020302E303030302053202020302020302020302020302020302020302020302020302020302020302020302020300A2020202D302E3934373720202020312E3031303120202020302E303030302043202020302020302020302020302020302020302020302020302020302020302020302020300A2020202D302E3132323720202020312E3031303120202020302E303030302043202020302020302020302020302020302020302020302020302020302020302020302020300A20202020302E3238393820202020302E3239353620202020302E303030302043202020302020302020302020302020302020302020302020302020302020302020302020300A20202020312E3131343820202020302E3239353620202020302E303030302043202020302020302020302020302020302020302020302020302020302020302020302020300A20202020312E353237332020202D302E3431383920202020302E303030302043202020302020302020302020302020302020302020302020302020302020302020302020300A20202020322E333532332020202D302E3431383920202020302E303030302043202020302020302020302020302020302020302020302020302020302020302020302020300A2020312020322020322020302020202020200A2020322020332020312020302020202020200A2020332020342020322020302020202020200A2020342020352020312020302020202020200A2020312020352020312020302020202020200A2020362020372020312020302020202020200A2020372020382020312020302020202020200A2020382020392020312020302020202020200A2020392031302020312020302020202020200A2031302031312020312020302020202020200A2020312020362020312020302020202020200A4D2020454E44
Contributor: HASHIMOTO K, KYOTO COLLEGE OF PHARMACY
InstType: EI
InstName: HITACHI M-80
IoniMethod: _ENERGY 20 eV
IonPolarity: pos
Date: 2010-10-09 19:48:36+02:00
Num Peaks: 38
27 29 29 80 39 19 41 85 42 10 43 109 45 59 53 59 55 31 56 10 
57 20 58 10 65 10 67 22 69 10 77 20 78 11 79 10 84 73 85 40 
86 10 87 10 95 10 96 21 97 999 98 449 99 128 100 19 109 130 110 21 
111 90 112 10 125 21 135 10 139 21 168 200 169 20 170 11 
