Name: MassBank: JP007826
CAS: 875-30-9
MW: 145
Formula: C10H11N
Synonym: MassBank: JP007826
Synonym: 1,3-DIMETHYLINDOLE
Structure: 312C332D44494D455448594C494E444F4C452E6D6F6C0A20204368656D447261773131313230393131353732440A2031322031332020302020302020302020302020302020302020302020303939392056323030300A2020202D302E343531382020202D302E3636373420202020302E30303030204E202020302020302020302020302020302020302020302020302020302020302020302020300A2020202D302E3933363720202020302E3030303020202020302E303030302043202020302020302020302020302020302020302020302020302020302020302020302020300A2020202D302E3435313820202020302E3636373420202020302E303030302043202020302020302020302020302020302020302020302020302020302020302020302020300A20202020302E3333323820202020302E3431323520202020302E303030302043202020302020302020302020302020302020302020302020302020302020302020302020300A20202020312E3034373320202020302E3832353020202020302E303030302043202020302020302020302020302020302020302020302020302020302020302020302020300A20202020312E3736313720202020302E3431323520202020302E303030302043202020302020302020302020302020302020302020302020302020302020302020302020300A20202020312E373631372020202D302E3431323520202020302E303030302043202020302020302020302020302020302020302020302020302020302020302020302020300A20202020312E303437332020202D302E3832353020202020302E303030302043202020302020302020302020302020302020302020302020302020302020302020302020300A20202020302E333332382020202D302E3431323520202020302E303030302043202020302020302020302020302020302020302020302020302020302020302020302020300A2020202D302E3730363820202020312E3435323120202020302E303030302043202020302020302020302020302020302020302020302020302020302020302020302020300A2020202D302E373036382020202D312E3435323120202020302E303030302043202020302020302020302020302020302020302020302020302020302020302020302020300A2020202D312E373631372020202D302E3030303020202020302E303030302048202020302020302020302020302020302020302020302020302020302020302020302020300A2020312020322020312020302020202020200A2020322020332020322020302020202020200A2020332020342020312020302020202020200A2020342020352020312020302020202020200A2020352020362020322020302020202020200A2020362020372020312020302020202020200A2020372020382020322020302020202020200A2020382020392020312020302020202020200A2020312020392020312020302020202020200A2020342020392020322020302020202020200A2020332031302020312020302020202020200A2020312031312020312020302020202020200A2020322031322020312020302020202020200A4D2020454E44
Contributor: HASHIMOTO K, KYOTO COLLEGE OF PHARMACY
InstType: EI
InstName: HITACHI M-80
IoniMethod: _ENERGY 20 eV
IonPolarity: pos
Date: 2010-10-09 19:48:36+02:00
Num Peaks: 17
39 66 42 30 50 47 51 78 63 49 72.5 75 76 35 77 112 102 62 103 59 
115 57 116 19 129 40 130 40 144 999 145 720 146 70 
