Name: MassBank: JP001930
MW: 185
Formula: C4H12Cl2Si2
Synonym: MassBank: JP001930
Synonym: 1,2-DICHLORO-1,1,2,2-TETRAMETHYLDISILANE
Structure: 310A32300A312C322D444943484C4F524F2D312C312C322C322D54455452414D455448594C444953494C414E452E6D6F6C0A20204368656D447261773131303330393233303832440A2020382020372020302020302020302020302020302020302020302020303939392056323030300A20202020302E343132352020202D302E3030303020202020302E303030302053692020302020302020302020302020302020302020302020302020302020302020302020300A2020202D302E343132352020202D302E3030303020202020302E303030302053692020302020302020302020302020302020302020302020302020302020302020302020300A2020202D302E343132352020202D302E3832353020202020302E303030302043202020302020302020302020302020302020302020302020302020302020302020302020300A2020202D312E323337352020202D302E3030303020202020302E3030303020436C2020302020302020302020302020302020302020302020302020302020302020302020300A20202020302E3431323520202020302E3832353020202020302E303030302043202020302020302020302020302020302020302020302020302020302020302020302020300A20202020312E323337352020202D302E3030303020202020302E3030303020436C2020302020302020302020302020302020302020302020302020302020302020302020300A2020202D302E3431323520202020302E3832353020202020302E303030302043202020302020302020302020302020302020302020302020302020302020302020302020300A20202020302E343132352020202D302E3832353020202020302E303030302043202020302020302020302020302020302020302020302020302020302020302020302020300A2020312020322020312020302020202020200A2020322020332020312020302020202020200A2020322020342020312020302020202020200A2020312020352020312020302020202020200A2020312020362020312020302020202020200A2020322020372020312020302020202020200A2020312020382020312020302020202020200A4D2020454E44
Contributor: MASS SPECTROSCOPY SOC. OF JAPAN (MSSJ)
InstType: EI
InstName: JEOL JMS-D-3000
IoniMethod: _ENERGY 70 eV
IonPolarity: pos
Date: 2010-10-09 19:48:36+02:00
Num Peaks: 35
42 19 43 187 44 23 45 38 53 11 55 19 57 11 58 999 59 108 60 37 
63 91 65 115 67 32 72 19 73 696 74 81 75 128 78 15 79 15 92 18 
93 742 94 62 95 261 96 19 133 10 135 11 151 115 152 19 153 49 171 15 
173 11 186 86 187 13 188 62 190 13 
