Name: MassBank: JP008012
MW: 342
Formula: C19H34O5
Synonym: MassBank: JP008012
Synonym: (4AS,5S,8AS)-(-)-5ALPHA-(3-HYDROXYPROPYL)-8A-METHOXYMETHOXYMETHYL-5BETA-METHYL-3,4,4A,5,6,7,8,8A-OCTAHYDRONAPHTHALEN-1(2H)-ONE1-ETHYLENE ACETAL
Structure: 283441532C35532C384153292D282D292D35414C5048412D28332D485944524F585950524F50594C292D38412D4D4554484F58594D4554484F58594D455448594C2D35424554412D4D455448594C2D332C342C34412C352C362C372C382C38412D4F435441485944524F4E4150485448414C454E2D31283248292D4F4E45312D455448594C454E452041434554414C2E6D6F6C0A20204368656D447261773130323130393135303732440A2032352032372020302020302020302020302020302020302020302020303939392056323030300A2020202D322E323335372020202D302E3336303020202020302E303030302043202020302020302020302020302020302020302020302020302020302020302020302020300A2020202D322E323335372020202D312E3138353020202020302E303030302043202020302020302020302020302020302020302020302020302020302020302020302020300A2020202D312E353231332020202D312E3539373520202020302E303030302043202020302020302020302020302020302020302020302020302020302020302020302020300A2020202D302E383036382020202D312E3138353020202020302E303030302043202020302020302020302020302020302020302020302020302020302020302020302020300A2020202D302E383036382020202D302E3336303020202020302E303030302043202020302020302020302020302020302020302020302020302020302020302020302020300A2020202D312E3532313320202020302E3035323520202020302E303030302043202020302020302020302020302020302020302020302020302020302020302020302020300A2020202D302E303932332020202D312E3539373520202020302E303030302043202020302020302020302020302020302020302020302020302020302020302020302020300A20202020302E363232322020202D312E3138353020202020302E303030302043202020302020302020302020302020302020302020302020302020302020302020302020300A20202020302E363232322020202D302E3336303020202020302E303030302043202020302020302020302020302020302020302020302020302020302020302020302020300A2020202D302E3039323320202020302E3035323520202020302E303030302043202020302020302020302020302020302020302020302020302020302020302020302020300A2020202D322E313838372020202D322E3038323420202020302E30303030204F202020302020302020302020302020302020302020302020302020302020302020302020300A2020202D312E393333382020202D322E3836373020202020302E303030302043202020302020302020302020302020302020302020302020302020302020302020302020300A2020202D312E313038382020202D322E3836373020202020302E303030302043202020302020302020302020302020302020302020302020302020302020302020302020300A2020202D302E383533382020202D322E3038323420202020302E30303030204F202020302020302020302020302020302020302020302020302020302020302020302020300A2020202D302E353737362020202D322E3438343920202020302E303030302043202020302020302020302020302020302020302020302020302020302020302020302020300A2020202D302E3632323620202020302E3638343520202020302E303030302043202020302020302020302020302020302020302020302020302020302020302020302020300A2020202D312E3038393020202020302E3431353320202020302E303030302048202020302020302020302020302020302020302020302020302020302020302020302020300A20202020302E313937372020202D322E3736373120202020302E30303030204F202020302020302020302020302020302020302020302020302020302020302020302020300A20202020302E383239372020202D322E3233363820202020302E303030302043202020302020302020302020302020302020302020302020302020302020302020302020300A20202020312E363034392020202D322E3531383920202020302E30303030204F202020302020302020302020302020302020302020302020302020302020302020302020300A2020202D302E3334303520202020312E3435393820202020302E303030302043202020302020302020302020302020302020302020302020302020302020302020302020300A2020202D302E3837303820202020322E3039313820202020302E303030302043202020302020302020302020302020302020302020302020302020302020302020302020300A2020202D302E3538383620202020322E3836373020202020302E30303030204F202020302020302020302020302020302020302020302020302020302020302020302020300A20202020302E3433373320202020302E3638353520202020302E303030302043202020302020302020302020302020302020302020302020302020302020302020302020300A20202020322E323335372020202D312E3938373820202020302E303030302043202020302020302020302020302020302020302020302020302020302020302020302020300A2020312020322020312020302020202020200A2020322020332020312020302020202020200A2020332020342020312020302020202020200A2020342020352020312020302020202020200A2020352020362020312020302020202020200A2020362020312020312020302020202020200A2020342020372020312020302020202020200A2020372020382020312020302020202020200A2020382020392020312020302020202020200A2020392031302020312020302020202020200A2031302020352020312020302020202020200A2020332031312020312020302020202020200A2031312031322020312020302020202020200A2031322031332020312020302020202020200A2031332031342020312020302020202020200A2031342020332020312020302020202020200A2020342031352020312020312020202020200A2031302031362020312020362020202020200A2020352031372020312020362020202020200A2031352031382020312020302020202020200A2031382031392020312020302020202020200A2031392032302020312020302020202020200A2031362032312020312020302020202020200A2032312032322020312020302020202020200A2032322032332020312020302020202020200A2031302032342020312020312020202020200A2032302032352020312020302020202020200A4D202053545920203120202031205355500A4D2020534C4220203120202031202020310A4D202053414C20202031202031202032340A4D202053424C20202031202031202032360A4D2020534D5420202031204D650A4D2020534256202020312032362020202D362E3730353220202020362E363335340A4D202053545920203120202032205355500A4D2020534C4220203120202032202020320A4D202053414C20202032202031202032350A4D202053424C20202032202031202032370A4D2020534D5420202032204D650A4D2020534256202020322032372020202D362E3630343020202020362E353333350A4D2020454E44
Contributor: HISAHIRO HAGIWARA, CHEMICAL RESEARCH INSTITUTE OF NON-AQUEOUSSOLUTIONS TOHOKU UNIV.
InstType: EI
InstName: JEOL JMS-DX-300
IoniMethod: _ENERGY 70 eV
IonPolarity: pos
Date: 2010-10-09 19:48:36+02:00
Num Peaks: 49
39 129 40 67 41 436 42 215 43 261 44 105 45 652 53 168 54 78 55 591 
57 103 65 64 66 51 67 294 68 156 69 174 71 57 73 157 77 131 78 78 
79 246 81 223 83 70 85 135 86 507 87 344 91 179 93 184 95 222 97 75 
99 999 105 102 107 121 109 82 112 130 113 195 114 55 119 70 121 81 123 54 
125 65 132 64 134 64 149 66 218 51 222 53 280 102 296 75 342 12 
