Name: 2-METHYLTHIOCHROMONE
MW: 176
Formula: C10H8OS
Synonym: MassBank: JP009436
Synonym: 2-METHYLTHIOCHROMONE
Structure: 322D4D455448594C5448494F4348524F4D4F4E452E6D6F6C0A20204368656D447261773032323131303036303832440A2031322031332020302020302020302020302020302020302020302020303939392056323030300A20202020312E3037313720202020302E3832353020202020302E303030302043202020302020302020302020302020302020302020302020302020302020302020302020300A20202020312E3037313720202020302E3030303020202020302E303030302043202020302020302020302020302020302020302020302020302020302020302020302020300A20202020302E333537322020202D302E3431323520202020302E303030302043202020302020302020302020302020302020302020302020302020302020302020302020300A20202020302E333537322020202D312E3233373520202020302E30303030204F202020302020302020302020302020302020302020302020302020302020302020302020300A2020202D302E333537322020202D302E3030303020202020302E303030302043202020302020302020302020302020302020302020302020302020302020302020302020300A2020202D312E303731372020202D302E3431323520202020302E303030302043202020302020302020302020302020302020302020302020302020302020302020302020300A2020202D312E373836322020202D302E3030303020202020302E303030302043202020302020302020302020302020302020302020302020302020302020302020302020300A2020202D312E3738363220202020302E3832353020202020302E303030302043202020302020302020302020302020302020302020302020302020302020302020302020300A2020202D312E3037313720202020312E3233373520202020302E303030302043202020302020302020302020302020302020302020302020302020302020302020302020300A2020202D302E3335373220202020302E3832353020202020302E303030302043202020302020302020302020302020302020302020302020302020302020302020302020300A20202020302E3335373220202020312E3233373520202020302E303030302053202020302020302020302020302020302020302020302020302020302020302020302020300A20202020312E3738363220202020312E3233373520202020302E303030302043202020302020302020302020302020302020302020302020302020302020302020302020300A2020312020322020322020302020202020200A2020322020332020312020302020202020200A2020332020342020322020302020202020200A2020332020352020312020302020202020200A2020352020362020312020302020202020200A2020362020372020322020302020202020200A2020372020382020312020302020202020200A2020382020392020322020302020202020200A2020392031302020312020302020202020200A2020352031302020322020302020202020200A2031302031312020312020302020202020200A2020312031312020312020302020202020200A2020312031322020312020302020202020200A4D2020454E44
Contributor: EGUCHI S, FAC. OF SCIENCE, HIROSHIMA UNIV.
InstType: EI
InstName: HITACHI RMU-7L
IoniMethod: _ENERGY 70 eV
IonPolarity: pos
Date: 2010-10-09 19:48:36+02:00
Num Peaks: 76
40 30 41 10 44 10 45 90 46 10 47 15 50 75 51 60 52 10 53 15 
57 15 58 60 59 20 60 10 61 25 62 50 63 105 64 30 65 25 66 15 
67 70 68 10 69 265 70 15 71 50 72 30 73 45 74 105 75 30 76 50 
77 45 78 10 81 30 82 75 83 10 84 15 85 25 86 20 87 10 88 10 
89 30 90 10 91 10 92 30 93 25 94 10 95 10 101 10 102 20 103 30 
104 15 105 10 106 10 107 20 108 225 109 30 110 25 115 60 116 10 121 25 
122 10 135 10 136 330 137 45 138 20 145 10 146 20 147 520 148 525 149 75 
150 30 175 10 176 999 177 140 178 65 179 10 
