Name: VINYL BRASSYLATE
MW: 270
Formula: C15H26O4
Synonym: MassBank: JP008287
Synonym: VINYL BRASSYLATE
Structure: 56494E594C204252415353594C4154452E6D6F6C0A20204368656D447261773038313231303039323832440A2031392031382020302020302020302020302020302020302020302020303939392056323030300A2020202D332E353732342020202D302E3230363220202020302E303030302043202020302020302020302020302020302020302020302020302020302020302020302020300A2020202D322E383537392020202D302E3631383820202020302E303030302043202020302020302020302020302020302020302020302020302020302020302020302020300A2020202D322E313433342020202D302E3230363220202020302E303030302043202020302020302020302020302020302020302020302020302020302020302020302020300A2020202D312E343238392020202D302E3631383820202020302E303030302043202020302020302020302020302020302020302020302020302020302020302020302020300A2020202D302E373134352020202D302E3230363220202020302E303030302043202020302020302020302020302020302020302020302020302020302020302020302020300A20202020302E303030302020202D302E3631383820202020302E303030302043202020302020302020302020302020302020302020302020302020302020302020302020300A20202020302E373134352020202D302E3230363220202020302E303030302043202020302020302020302020302020302020302020302020302020302020302020302020300A20202020312E343238392020202D302E3631383820202020302E303030302043202020302020302020302020302020302020302020302020302020302020302020302020300A20202020322E313433342020202D302E3230363220202020302E303030302043202020302020302020302020302020302020302020302020302020302020302020302020300A20202020322E383537392020202D302E3631383720202020302E303030302043202020302020302020302020302020302020302020302020302020302020302020302020300A20202020332E353732342020202D302E3230363220202020302E303030302043202020302020302020302020302020302020302020302020302020302020302020302020300A20202020342E323836382020202D302E3631383720202020302E303030302043202020302020302020302020302020302020302020302020302020302020302020302020300A20202020352E303031332020202D302E3230363220202020302E303030302043202020302020302020302020302020302020302020302020302020302020302020302020300A2020202D332E3537323420202020302E3631383720202020302E30303030204F202020302020302020302020302020302020302020302020302020302020302020302020300A2020202D342E323836382020202D302E3631383820202020302E30303030204F202020302020302020302020302020302020302020302020302020302020302020302020300A20202020352E3030313320202020302E3631383820202020302E30303030204F202020302020302020302020302020302020302020302020302020302020302020302020300A20202020352E373135382020202D302E3631383720202020302E30303030204F202020302020302020302020302020302020302020302020302020302020302020302020300A2020202D352E303031332020202D302E3230363320202020302E303030302043202020302020302020302020302020302020302020302020302020302020302020302020300A2020202D352E373135382020202D302E3631383820202020302E303030302043202020302020302020302020302020302020302020302020302020302020302020302020300A2020312020322020312020302020202020200A2020322020332020312020302020202020200A2020332020342020312020302020202020200A2020342020352020312020302020202020200A2020352020362020312020302020202020200A2020362020372020312020302020202020200A2020372020382020312020302020202020200A2020382020392020312020302020202020200A2020392031302020312020302020202020200A2031302031312020312020302020202020200A2031312031322020312020302020202020200A2031322031332020312020302020202020200A2020312031342020322020302020202020200A2020312031352020312020302020202020200A2031332031362020322020302020202020200A2031332031372020312020302020202020200A2031382031392020322020302020202020200A2031352031382020312020302020202020200A4D2020454E44
Contributor: UBE SCIENTIFIC ANALYSIS LABORATORY
InstType: EI
InstName: HITACHI M-60
IoniMethod: _ENERGY 70 eV
IonPolarity: pos
Date: 2010-10-09 19:48:36+02:00
Num Peaks: 133
15 31 27 168 28 109 29 288 30 10 31 25 39 119 40 38 41 664 42 303 
43 386 44 55 45 106 53 51 54 89 55 999 56 174 57 125 58 84 59 37 
60 32 61 43 65 11 66 12 67 189 68 111 69 328 70 111 71 83 72 13 
73 44 74 15 77 10 79 53 80 52 81 175 82 99 83 312 84 443 85 81 
86 672 87 242 88 15 89 12 91 15 92 13 93 48 94 48 95 105 96 85 
97 196 98 798 99 470 100 50 101 30 104 42 105 24 106 14 107 57 108 29 
109 52 110 39 111 114 112 281 113 68 114 16 115 18 117 25 119 12 120 11 
121 34 122 23 123 48 124 49 125 179 126 49 127 26 129 15 133 17 134 9 
135 17 136 13 137 33 138 25 139 38 140 11 141 39 143 17 144 12 145 16 
146 12 147 20 149 74 150 13 151 18 152 30 153 11 155 92 156 15 159 35 
162 12 163 33 164 19 165 16 166 32 167 26 169 20 171 10 173 66 174 11 
180 54 181 35 182 24 183 13 187 220 188 27 191 10 197 14 208 62 209 25 
210 17 211 171 212 28 227 413 228 64 229 8 240 9 241 10 242 19 252 15 
269 6 270 53 271 10 
