Name: 1-ACETYLCYCLOHEXENE ETHYLENEACETAL
MW: 168
Formula: C10H16O2
Synonym: MassBank: JP008973
Synonym: 1-ACETYLCYCLOHEXENE ETHYLENEACETAL
Structure: 312D41434554594C4359434C4F484558454E4520455448594C454E4541434554414C2E6D6F6C0A20204368656D447261773131313730393231313132440A2031332031342020302020302020302020302020302020302020302020303939392056323030300A2020202D302E3139373220202020302E3330343220202020302E303030302043202020302020302020302020302020302020302020302020302020302020302020302020300A2020202D302E363039372020202D302E3431303220202020302E303030302043202020302020302020302020302020302020302020302020302020302020302020302020300A2020202D312E343334372020202D302E3431303220202020302E303030302043202020302020302020302020302020302020302020302020302020302020302020302020300A2020202D312E3834373220202020302E3330343220202020302E303030302043202020302020302020302020302020302020302020302020302020302020302020302020300A2020202D312E3433343720202020312E3031383720202020302E303030302043202020302020302020302020302020302020302020302020302020302020302020302020300A2020202D302E3630393720202020312E3031383720202020302E303030302043202020302020302020302020302020302020302020302020302020302020302020302020300A20202020302E3632373820202020302E3330343220202020302E303030302043202020302020302020302020302020302020302020302020302020302020302020302020300A20202020302E3534313520202020312E3132343720202020302E303030302043202020302020302020302020302020302020302020302020302020302020302020302020300A20202020302E353431352020202D302E3531363220202020302E30303030204F202020302020302020302020302020302020302020302020302020302020302020302020300A20202020312E3433343720202020302E3437353820202020302E30303030204F202020302020302020302020302020302020302020302020302020302020302020302020300A20202020312E323935322020202D302E3835313820202020302E303030302043202020302020302020302020302020302020302020302020302020302020302020302020300A20202020312E383437322020202D302E3233383720202020302E303030302043202020302020302020302020302020302020302020302020302020302020302020302020300A2020202D302E313937322020202D312E3132343720202020302E303030302048202020302020302020302020302020302020302020302020302020302020302020302020300A2020312020322020322020302020202020200A2020322020332020312020302020202020200A2020332020342020312020302020202020200A2020342020352020312020302020202020200A2020352020362020312020302020202020200A2020312020362020312020302020202020200A2020372020382020312020302020202020200A2020312020372020312020302020202020200A2031312031322020312020302020202020200A2020392031312020312020302020202020200A2031302031322020312020302020202020200A2020372020392020312020302020202020200A2020372031302020312020302020202020200A2020322031332020312020302020202020200A4D2020454E44
Contributor: YAMAMOTO M, DEP. CHEMISTRY, FAC. SCIENCE, NARA WOMEN'S UNIV.
InstType: EI
InstName: JEOL JMS-DX-300
IoniMethod: _ENERGY 70 eV
IonPolarity: pos
Date: 2010-10-09 19:48:36+02:00
Num Peaks: 32
39 108 41 112 42 31 43 86 44 22 45 33 50 13 51 40 52 27 53 95 
54 15 55 34 65 31 66 18 67 35 73 24 77 65 78 17 79 92 80 2 
81 165 82 13 86 28 87 999 88 50 91 27 93 18 95 30 109 82 125 20 
153 404 154 41 
