Name: 3-ETHOXY-6-(1-HYDROXY-5-METHYL-4-HEXENYL)-2-CYCLOHEXEN-1-ONE
MW: 252
Formula: C15H24O3
Synonym: MassBank: JP004621
Synonym: 3-ETHOXY-6-(1-HYDROXY-5-METHYL-4-HEXENYL)-2-CYCLOHEXEN-1-ONE
Structure: 332D4554484F58592D362D28312D485944524F58592D352D4D455448594C2D342D484558454E594C292D322D4359434C4F484558454E2D312D4F4E452E6D6F6C0A20204368656D447261773032323231303137323032440A2031382031382020302020302020302020302020302020302020302020303939392056323030300A20202020302E3431323520202020312E3037313720202020302E303030302043202020302020302020302020302020302020302020302020302020302020302020302020300A20202020312E3233373520202020312E3037313720202020302E303030302043202020302020302020302020302020302020302020302020302020302020302020302020300A20202020312E3635303020202020302E3335373220202020302E303030302043202020302020302020302020302020302020302020302020302020302020302020302020300A20202020312E323337352020202D302E3335373220202020302E303030302043202020302020302020302020302020302020302020302020302020302020302020302020300A20202020302E343132352020202D302E3335373220202020302E303030302043202020302020302020302020302020302020302020302020302020302020302020302020300A2020202D302E3030303020202020302E3335373220202020302E303030302043202020302020302020302020302020302020302020302020302020302020302020302020300A2020202D302E3030303020202020312E3738363220202020302E30303030204F202020302020302020302020302020302020302020302020302020302020302020302020300A2020202D302E3832353020202020302E3335373220202020302E303030302043202020302020302020302020302020302020302020302020302020302020302020302020300A2020202D312E323337352020202D302E3335373220202020302E303030302043202020302020302020302020302020302020302020302020302020302020302020302020300A2020202D322E303632352020202D302E3335373220202020302E303030302043202020302020302020302020302020302020302020302020302020302020302020302020300A2020202D322E343735302020202D312E3037313720202020302E303030302043202020302020302020302020302020302020302020302020302020302020302020302020300A2020202D332E333030302020202D312E3037313720202020302E303030302043202020302020302020302020302020302020302020302020302020302020302020302020300A2020202D332E373132352020202D312E3738363220202020302E303030302043202020302020302020302020302020302020302020302020302020302020302020302020300A2020202D332E373132352020202D302E3335373220202020302E303030302043202020302020302020302020302020302020302020302020302020302020302020302020300A2020202D312E3233373520202020312E3037313720202020302E30303030204F202020302020302020302020302020302020302020302020302020302020302020302020300A20202020322E3437353020202020302E3335373220202020302E30303030204F202020302020302020302020302020302020302020302020302020302020302020302020300A20202020322E383837352020202D302E3335373220202020302E303030302043202020302020302020302020302020302020302020302020302020302020302020302020300A20202020332E373132352020202D302E3335373220202020302E303030302043202020302020302020302020302020302020302020302020302020302020302020302020300A2020312020322020312020302020202020200A2020322020332020322020302020202020200A2020332020342020312020302020202020200A2020342020352020312020302020202020200A2020352020362020312020302020202020200A2020312020362020312020302020202020200A2020312020372020322020302020202020200A2020382020392020312020302020202020200A2020392031302020312020302020202020200A2031302031312020312020302020202020200A2031312031322020322020302020202020200A2031322031332020312020302020202020200A2031322031342020312020302020202020200A2020382031352020312020302020202020200A2020362020382020312020302020202020200A2031372031382020312020302020202020200A2031362031372020312020302020202020200A2020332031362020312020302020202020200A4D2020454E44
Contributor: KATO T, DEPT. OF CHEM., FAC. OF SCI., TOHOKU UNIV.
InstType: EI
InstName: Unknown
IoniMethod: _ENERGY 25 eV
IonPolarity: pos
Date: 2010-10-09 19:48:36+02:00
Num Peaks: 101
17 89 18 963 28 618 29 8 32 88 39 19 40 50 41 39 42 72 43 339 
44 23 45 2 53 40 55 263 56 535 57 8 58 51 66 18 67 115 68 44 
69 500 70 76 71 54 73 7 75 56 77 12 79 151 80 2 81 39 82 70 
83 38 84 58 85 65 91 19 93 34 94 36 95 191 96 104 97 146 99 3 
100 13 107 16 109 75 110 11 111 108 112 651 113 104 117 2 121 15 122 18 
123 66 124 5 125 21 135 14 137 46 138 28 139 152 140 999 141 217 142 3 
143 15 149 37 151 19 152 6 153 83 154 13 163 22 164 1 165 42 166 554 
167 95 168 1 169 562 170 75 171 11 177 4 178 21 179 33 181 13 182 6 
183 24 184 17 185 31 191 7 195 24 197 12 205 10 206 1 211 17 212 49 
213 12 219 2 234 231 235 55 239 20 241 23 242 42 243 10 252 174 253 3 
254 10 
