Name: 2-(TRIMETHYLSILYL)OXY-DODECANOIC ACID TRIMETHYLSILYL ESTER
MW: 360
Formula: C18H40O3Si2
Synonym: MassBank: JP000607
Synonym: 2-(TRIMETHYLSILYL)OXY-DODECANOIC ACID TRIMETHYLSILYL ESTER
Structure: 322D285452494D455448594C53494C594C294F58592D444F444543414E4F49432041434944205452494D455448594C53494C594C2045535445522E6D6F6C0A20204368656D447261773132323130393231323632440A2032332032322020302020302020302020302020302020302020302020303939392056323030300A2020202D302E3030303020202020312E3730353320202020302E303030302043202020302020302020302020302020302020302020302020302020302020302020302020300A20202020302E3731343520202020322E3131373820202020302E303030302043202020302020302020302020302020302020302020302020302020302020302020302020300A20202020312E3432383920202020312E3730353320202020302E303030302043202020302020302020302020302020302020302020302020302020302020302020302020300A20202020312E3432383920202020302E3838303320202020302E303030302043202020302020302020302020302020302020302020302020302020302020302020302020300A20202020302E3731343520202020302E3436373820202020302E303030302043202020302020302020302020302020302020302020302020302020302020302020302020300A20202020302E373134352020202D302E3335373220202020302E303030302043202020302020302020302020302020302020302020302020302020302020302020302020300A2020202D302E303030302020202D302E3736393720202020302E303030302043202020302020302020302020302020302020302020302020302020302020302020302020300A2020202D302E303030302020202D312E3539343720202020302E303030302043202020302020302020302020302020302020302020302020302020302020302020302020300A2020202D302E373134352020202D322E3030373220202020302E303030302043202020302020302020302020302020302020302020302020302020302020302020302020300A2020202D302E373134352020202D322E3833323220202020302E303030302043202020302020302020302020302020302020302020302020302020302020302020302020300A2020202D312E343238392020202D332E3234343720202020302E303030302043202020302020302020302020302020302020302020302020302020302020302020302020300A2020202D312E343238392020202D342E3036393720202020302E303030302043202020302020302020302020302020302020302020302020302020302020302020302020300A2020202D302E3731343520202020322E3131373820202020302E30303030204F202020302020302020302020302020302020302020302020302020302020302020302020300A2020202D302E3030303020202020302E3838303320202020302E30303030204F202020302020302020302020302020302020302020302020302020302020302020302020300A20202020302E3731343520202020322E3934323820202020302E30303030204F202020302020302020302020302020302020302020302020302020302020302020302020300A2020202D302E3030303020202020332E3335353320202020302E303030302053692020302020302020302020302020302020302020302020302020302020302020302020300A20202020302E3431323520202020342E3036393720202020302E303030302043202020302020302020302020302020302020302020302020302020302020302020302020300A2020202D302E3431323520202020322E3634303820202020302E303030302043202020302020302020302020302020302020302020302020302020302020302020302020300A2020202D302E3731343520202020332E3736373820202020302E303030302043202020302020302020302020302020302020302020302020302020302020302020302020300A2020202D302E3731343520202020302E3436373820202020302E303030302053692020302020302020302020302020302020302020302020302020302020302020302020300A2020202D302E333032302020202D302E3234363720202020302E303030302043202020302020302020302020302020302020302020302020302020302020302020302020300A2020202D312E3432383920202020302E3035353320202020302E303030302043202020302020302020302020302020302020302020302020302020302020302020302020300A2020202D312E3132373020202020312E3138323220202020302E303030302043202020302020302020302020302020302020302020302020302020302020302020302020300A2020312020322020312020302020202020200A2020322020332020312020302020202020200A2020332020342020312020302020202020200A2020342020352020312020302020202020200A2020352020362020312020302020202020200A2020362020372020312020302020202020200A2020372020382020312020302020202020200A2020382020392020312020302020202020200A2020392031302020312020302020202020200A2031302031312020312020302020202020200A2031312031322020312020302020202020200A2020312031332020322020302020202020200A2020312031342020312020302020202020200A2031362031372020312020302020202020200A2031362031382020312020302020202020200A2031362031392020312020302020202020200A2031352031362020312020302020202020200A2020322031352020312020302020202020200A2032302032312020312020312020202020200A2032302032322020312020302020202020200A2032302032332020312020312020202020200A2031342032302020312020302020202020200A4D2020454E44
Contributor: KOGA M, UNIV. OF OCCUPATIONAL AND ENVIRONMENTAL HEALTH
InstType: EI
InstName: JEOL JMS-01-SG
IoniMethod: _ENERGY 70 eV
IonPolarity: pos
Date: 2010-10-09 19:48:36+02:00
Num Peaks: 29
43 133 45 140 47 159 55 18 57 121 59 152 67 146 69 24 70 146 71 114 
73 999 75 25 77 222 81 146 82 140 83 38 91 146 95 159 97 375 103 34 
111 191 115 146 129 133 147 41 148 146 221 140 243 611 244 15 282 38 
