Name: 12-CROWN-4
CAS: 294-93-9
MW: 176
Formula: C8H16O4
Synonym: MassBank: JP006267
Synonym: 12-CROWN-4
Synonym: 1,4,7,10-TETRAOXACYCLODODECANE
Structure: 31322D43524F574E2D342E6D6F6C0A20204368656D447261773132313030393139313832440A2031322031322020302020302020302020302020302020302020302020303939392056323030300A2020202D312E3731303320202020302E3431323520202020302E303030302043202020302020302020302020302020302020302020302020302020302020302020302020300A2020202D312E373130332020202D302E3431323520202020302E303030302043202020302020302020302020302020302020302020302020302020302020302020302020300A2020202D302E393935392020202D302E3832353020202020302E30303030204F202020302020302020302020302020302020302020302020302020302020302020302020300A2020202D302E323831342020202D302E3431323520202020302E303030302043202020302020302020302020302020302020302020302020302020302020302020302020300A2020202D302E3238313420202020302E3431323520202020302E303030302043202020302020302020302020302020302020302020302020302020302020302020302020300A2020202D302E3939353920202020302E3832353020202020302E30303030204F202020302020302020302020302020302020302020302020302020302020302020302020300A20202020302E333032302020202D302E3939353920202020302E303030302043202020302020302020302020302020302020302020302020302020302020302020302020300A20202020312E313237302020202D302E3939353920202020302E30303030204F202020302020302020302020302020302020302020302020302020302020302020302020300A20202020312E373130332020202D302E3431323520202020302E303030302043202020302020302020302020302020302020302020302020302020302020302020302020300A20202020312E3731303320202020302E3431323520202020302E303030302043202020302020302020302020302020302020302020302020302020302020302020302020300A20202020312E3132373020202020302E3939353920202020302E30303030204F202020302020302020302020302020302020302020302020302020302020302020302020300A20202020302E3330323020202020302E3939353920202020302E303030302043202020302020302020302020302020302020302020302020302020302020302020302020300A2020312020322020312020302020202020200A2020322020332020312020302020202020200A2020332020342020312020302020202020200A2020352020362020312020302020202020200A2020362020312020312020302020202020200A2020342020372020312020302020202020200A2020372020382020312020302020202020200A2020382020392020312020302020202020200A2020392031302020312020302020202020200A2031302031312020312020302020202020200A2031312031322020312020302020202020200A2031322020352020312020302020202020200A4D2020454E44
Contributor: MASS SPECTROSCOPY SOC. OF JAPAN (MSSJ)
InstType: EI
InstName: HITACHI M-80
IoniMethod: _ENERGY 70 eV
IonPolarity: pos
Date: 2010-10-09 19:48:36+02:00
Num Peaks: 43
15 69 16 6 19 13 26 25 27 119 28 365 29 177 30 46 31 138 32 12 
41 33 42 114 43 496 44 313 45 999 46 24 56 14 57 89 58 165 59 114 
60 10 61 25 70 46 71 50 72 125 73 178 74 23 75 43 86 42 87 169 
88 132 89 302 90 15 100 5 101 57 102 23 103 16 104 17 105 8 117 16 
133 89 134 5 177 7 
