Name: KUWANON-C
MW: 422
Formula: C25H26O6
Synonym: MassBank: JP000165
Synonym: KUWANON-C
Structure: 303037305F4B5557414E4F4E2D432E6D6F6C0A20204368656D447261773039303331303137343432440A2033312033332020302020302020302020302020302020302020302020303939392056323030300A2020202D322E3535343920202020302E3230363220202020302E303030302043202020302020302020302020302020302020302020302020302020302020302020302020300A2020202D322E353534392020202D302E3631383820202020302E303030302043202020302020302020302020302020302020302020302020302020302020302020302020300A2020202D312E383430342020202D312E3033313320202020302E303030302043202020302020302020302020302020302020302020302020302020302020302020302020300A2020202D312E313235392020202D302E3631383820202020302E303030302043202020302020302020302020302020302020302020302020302020302020302020302020300A2020202D312E3132353920202020302E3230363220202020302E303030302043202020302020302020302020302020302020302020302020302020302020302020302020300A2020202D312E3834303420202020302E3631383820202020302E303030302043202020302020302020302020302020302020302020302020302020302020302020302020300A2020202D302E343131352020202D312E3033313320202020302E303030302043202020302020302020302020302020302020302020302020302020302020302020302020300A20202020302E333033302020202D302E3631383820202020302E303030302043202020302020302020302020302020302020302020302020302020302020302020302020300A20202020302E3330333020202020302E3230363220202020302E303030302043202020302020302020302020302020302020302020302020302020302020302020302020300A2020202D302E3431313520202020302E3631383820202020302E30303030204F202020302020302020302020302020302020302020302020302020302020302020302020300A20202020312E3132383020202020302E3230363220202020302E303030302043202020302020302020302020302020302020302020302020302020302020302020302020300A20202020312E383439352020202D302E3139333820202020302E303030302043202020302020302020302020302020302020302020302020302020302020302020302020300A20202020322E3535363720202020302E3233313120202020302E303030302043202020302020302020302020302020302020302020302020302020302020302020302020300A20202020322E3535363720202020312E3035363020202020302E303030302043202020302020302020302020302020302020302020302020302020302020302020302020300A20202020312E3834393520202020312E3435363020202020302E303030302043202020302020302020302020302020302020302020302020302020302020302020302020300A20202020312E3132383020202020312E3033313120202020302E303030302043202020302020302020302020302020302020302020302020302020302020302020302020300A20202020332E3236393420202020312E3437313620202020302E30303030204F202020302020302020302020302020302020302020302020302020302020302020302020300A20202020302E3431313820202020312E3434303620202020302E30303030204F202020302020302020302020302020302020302020302020302020302020302020302020300A2020202D302E343131352020202D312E3835363320202020302E30303030204F202020302020302020302020302020302020302020302020302020302020302020302020300A2020202D312E383430342020202D312E3835363320202020302E30303030204F202020302020302020302020302020302020302020302020302020302020302020302020300A2020202D332E3236393420202020302E3631383820202020302E30303030204F202020302020302020302020302020302020302020302020302020302020302020302020300A2020202D312E3834303420202020312E3434333820202020302E303030302043202020302020302020302020302020302020302020302020302020302020302020302020300A2020202D322E3535343920202020312E3835363320202020302E303030302043202020302020302020302020302020302020302020302020302020302020302020302020300A2020202D322E3535343920202020322E3638313220202020302E303030302043202020302020302020302020302020302020302020302020302020302020302020302020300A2020202D332E3236393420202020332E3039333820202020302E303030302043202020302020302020302020302020302020302020302020302020302020302020302020300A2020202D312E3834303420202020332E3039333820202020302E303030302043202020302020302020302020302020302020302020302020302020302020302020302020300A20202020312E303137352020202D312E3033313320202020302E303030302043202020302020302020302020302020302020302020302020302020302020302020302020300A20202020312E303137352020202D312E3835363320202020302E303030302043202020302020302020302020302020302020302020302020302020302020302020302020300A20202020312E373331392020202D322E3236383720202020302E303030302043202020302020302020302020302020302020302020302020302020302020302020302020300A20202020312E373331392020202D332E3039333820202020302E303030302043202020302020302020302020302020302020302020302020302020302020302020302020300A20202020322E343436342020202D312E3835363320202020302E303030302043202020302020302020302020302020302020302020302020302020302020302020302020300A2020312020322020322020302020202020200A2020322020332020312020302020202020200A2020332020342020322020302020202020200A2020342020352020312020302020202020200A2020352020362020322020302020202020200A2020362020312020312020302020202020200A2020342020372020312020302020202020200A2020372020382020312020302020202020200A2020382020392020322020302020202020200A2020392031302020312020302020202020200A2031302020352020312020302020202020200A2020392031312020312020302020202020200A2031312031322020322020302020202020200A2031322031332020312020302020202020200A2031332031342020322020302020202020200A2031342031352020312020302020202020200A2031352031362020322020302020202020200A2031362031312020312020302020202020200A2031342031372020312020302020202020200A2031362031382020312020302020202020200A2020372031392020322020302020202020200A2020332032302020312020302020202020200A2020312032312020312020302020202020200A2020362032322020312020302020202020200A2032322032332020312020302020202020200A2032332032342020322020302020202020200A2032342032352020312020302020202020200A2032342032362020312020302020202020200A2020382032372020312020302020202020200A2032372032382020312020302020202020200A2032382032392020322020302020202020200A2032392033302020312020302020202020200A2032392033312020312020302020202020200A4D2020454E44
Contributor: FUKUSHIMA K, INST. FOR CHEMOBIODYNAMICS, CHIBA UNIV.
InstType: EI
InstName: JEOL JMS-01-SG-2
IoniMethod: _ENERGY 70 eV
IonPolarity: pos
Date: 2010-10-09 19:48:36+02:00
Num Peaks: 46
165 164 227 10 241 45 269 12 283 16 297 37 299 17 307 17 309 22 310 27 
311 308 312 56 313 10 323 349 324 90 325 29 333 19 335 19 337 33 347 19 
349 101 350 25 351 56 354 17 361 63 362 11 363 21 365 118 366 62 367 81 
379 999 380 243 381 47 389 136 390 28 393 14 403 29 404 49 405 165 406 42 
407 57 420 20 421 65 422 804 423 235 424 52 
