Name: FLUORENE
CAS: 86-73-7
MW: 166
Formula: C13H10
Synonym: MassBank: JP001594
Synonym: FLUORENE
Structure: 464C554F52454E452E6D6F6C0A20204368656D447261773132323030393131303132440A2031332031352020302020302020302020302020302020302020302020303939392056323030300A2020202D302E3139323620202020312E3032313020202020302E303030302043202020302020302020302020302020302020302020302020302020302020302020302020300A20202020302E3536313020202020302E3638353520202020302E303030302043202020302020302020302020302020302020302020302020302020302020302020302020300A20202020312E3331343720202020312E3032313020202020302E303030302043202020302020302020302020302020302020302020302020302020302020302020302020300A20202020312E3938323220202020302E3533363120202020302E303030302043202020302020302020302020302020302020302020302020302020302020302020302020300A20202020312E383935392020202D302E3238343420202020302E303030302043202020302020302020302020302020302020302020302020302020302020302020302020300A20202020312E313432332020202D302E3631393920202020302E303030302043202020302020302020302020302020302020302020302020302020302020302020302020300A20202020302E343734382020202D302E3133353020202020302E303030302043202020302020302020302020302020302020302020302020302020302020302020302020300A2020202D302E333332322020202D302E3330363520202020302E303030302043202020302020302020302020302020302020302020302020302020302020302020302020300A2020202D302E373434372020202D312E3032313020202020302E303030302043202020302020302020302020302020302020302020302020302020302020302020302020300A2020202D312E353639372020202D312E3032313020202020302E303030302043202020302020302020302020302020302020302020302020302020302020302020302020300A2020202D312E393832322020202D302E3330363520202020302E303030302043202020302020302020302020302020302020302020302020302020302020302020302020300A2020202D312E3536393720202020302E3430373920202020302E303030302043202020302020302020302020302020302020302020302020302020302020302020302020300A2020202D302E3734343720202020302E3430373920202020302E303030302043202020302020302020302020302020302020302020302020302020302020302020302020300A2020312020322020312020302020202020200A2020322020332020312020302020202020200A2020332020342020322020302020202020200A2020342020352020312020302020202020200A2020352020362020322020302020202020200A2020362020372020312020302020202020200A2020322020372020322020302020202020200A2020372020382020312020302020202020200A2020382020392020312020302020202020200A2020392031302020322020302020202020200A2031302031312020312020302020202020200A2031312031322020322020302020202020200A2031322031332020312020302020202020200A2020382031332020322020302020202020200A2020312031332020312020302020202020200A4D2020454E44
Contributor: KOGA M, UNIV. OF OCCUPATIONAL AND ENVIRONMENTAL HEALTH
InstType: EI
InstName: VARIAN MAT-44
IoniMethod: _ENERGY 70 eV
IonPolarity: pos
Date: 2010-10-09 19:48:36+02:00
Num Peaks: 40
43 13 44 11 50 50 51 71 52 14 55 24 56 17 57 11 61 16 62 63 
63 145 64 20 65 24 68 16 69 107 70 115 74 48 75 40 76 27 77 14 
81 152 82 607 83 356 86 31 87 43 88 19 89 43 98 13 113 20 115 57 
137 13 138 11 139 67 162 26 163 151 164 152 165 886 166 999 167 151 168 26 
