Name: MassBank: JP002434
MW: 204
Formula: C15H24
Synonym: MassBank: JP002434
Synonym: 4,7,7,11BETA-TETRAMETHYL-5BETA,8ALPHA-TRICYCLO(6.3.0.0(1,5))UNDEC-3-ENE
Structure: 342C372C372C3131424554412D54455452414D455448594C2D35424554412C38414C5048412D5452494359434C4F28362E332E302E3028312C352929554E4445432D332D454E452E6D6F6C0A20204368656D447261773130313831303136343132440A2031372031392020302020302020302020302020302020302020302020303939392056323030300A20202020302E323634382020202D302E3333383020202020302E303030302043202020302020302020302020302020302020302020302020302020302020302020302020300A20202020302E353139382020202D312E3132323620202020302E303030302043202020302020302020302020302020302020302020302020302020302020302020302020300A2020202D302E313437372020202D312E3630373520202020302E303030302043202020302020302020302020302020302020302020302020302020302020302020302020300A2020202D302E383135312020202D312E3132323620202020302E303030302043202020302020302020302020302020302020302020302020302020302020302020302020300A2020202D302E353630322020202D302E3333383020202020302E303030302043202020302020302020302020302020302020302020302020302020302020302020302020300A2020202D302E3831353120202020302E3434363720202020302E303030302043202020302020302020302020302020302020302020302020302020302020302020302020300A2020202D302E3135373720202020302E3932313220202020302E303030302043202020302020302020302020302020302020302020302020302020302020302020302020300A20202020302E3531393820202020302E3434363720202020302E303030302043202020302020302020302020302020302020302020302020302020302020302020302020300A20202020312E3334343820202020302E3434363720202020302E303030302043202020302020302020302020302020302020302020302020302020302020302020302020300A20202020312E353939372020202D302E3333383020202020302E303030302043202020302020302020302020302020302020302020302020302020302020302020302020300A20202020302E393332332020202D302E3832323920202020302E303030302043202020302020302020302020302020302020302020302020302020302020302020302020300A20202020302E393332332020202D312E3634373920202020302E303030302043202020302020302020302020302020302020302020302020302020302020302020302020300A2020202D302E3734313020202020312E3530343620202020302E303030302043202020302020302020302020302020302020302020302020302020302020302020302020300A20202020302E3236313920202020312E3634373920202020302E303030302043202020302020302020302020302020302020302020302020302020302020302020302020300A2020202D312E353939372020202D312E3337373520202020302E303030302043202020302020302020302020302020302020302020302020302020302020302020302020300A2020202D312E333835322020202D302E3333383020202020302E303030302048202020302020302020302020302020302020302020302020302020302020302020302020300A20202020302E3933323320202020312E3136313120202020302E303030302048202020302020302020302020302020302020302020302020302020302020302020302020300A2020312020322020312020302020202020200A2020322020332020312020302020202020200A2020332020342020322020302020202020200A2020342020352020312020302020202020200A2020352020362020312020302020202020200A2020362020372020312020302020202020200A2020372020382020312020302020202020200A2020382020392020312020302020202020200A2020392031302020312020302020202020200A2031302031312020312020302020202020200A2020312031312020312020302020202020200A2020312020382020312020302020202020200A2020312020352020312020302020202020200A2031312031322020312020312020202020200A2020372031332020312020302020202020200A2020372031342020312020302020202020200A2020342031352020312020302020202020200A2020352031362020312020312020202020200A2020382031372020312020362020202020200A4D2020454E44
Contributor: ITO S, DEPT. OF CHEM., TOHOKU UNIV.
InstType: EI
InstName: HITACHI M-52
IoniMethod: _ENERGY 25 eV
IonPolarity: pos
Date: 2010-10-09 19:48:36+02:00
Num Peaks: 35
55 43 43 55 77 41 81 21 91 104 92 29 93 116 94 4 95 67 105 162 
106 299 107 17 108 43 109 58 119 197 120 10 121 101 122 101 123 999 124 7 
131 32 133 339 134 81 135 4 145 32 147 432 148 438 149 16 161 119 162 67 
175 46 189 81 190 125 204 583 205 78 
