Name: 1-PHENYL-5-METHYLBICYCLO(3.2.2)NON-6-EN-2ONE
MW: 226
Formula: C16H18O
Synonym: MassBank: JP004635
Synonym: 1-PHENYL-5-METHYLBICYCLO(3.2.2)NON-6-EN-2ONE
Structure: 312D5048454E594C2D352D4D455448594C42494359434C4F28332E322E32294E4F4E2D362D454E2D324F4E452E6D6F6C0A20204368656D447261773131323230393232323232440A2031372031392020302020302020302020302020302020302020302020303939392056323030300A2020202D302E303134362020202D302E3039373120202020302E303030302043202020302020302020302020302020302020302020302020302020302020302020302020300A2020202D302E3031343620202020302E3833303820202020302E303030302043202020302020302020302020302020302020302020302020302020302020302020302020300A20202020302E3739363520202020312E3239393120202020302E303030302043202020302020302020302020302020302020302020302020302020302020302020302020300A20202020312E3630383220202020302E3833303520202020302E303030302043202020302020302020302020302020302020302020302020302020302020302020302020300A20202020312E363038322020202D302E3039373120202020302E303030302043202020302020302020302020302020302020302020302020302020302020302020302020300A20202020312E3230303020202020302E3630393920202020302E303030302043202020302020302020302020302020302020302020302020302020302020302020302020300A20202020302E3338383220202020302E3630393920202020302E303030302043202020302020302020302020302020302020302020302020302020302020302020302020300A20202020302E333935352020202D302E3830373520202020302E303030302043202020302020302020302020302020302020302020302020302020302020302020302020300A20202020312E323133322020202D302E3830373520202020302E303030302043202020302020302020302020302020302020302020302020302020302020302020302020300A2020202D302E3732313920202020312E3233393220202020302E30303030204F202020302020302020302020302020302020302020302020302020302020302020302020300A20202020322E343234362020202D302E3330333220202020302E303030302043202020302020302020302020302020302020302020302020302020302020302020302020300A2020202D302E383230332020202D302E3239393320202020302E303030302043202020302020302020302020302020302020302020302020302020302020302020302020300A2020202D312E303435322020202D312E3039363920202020302E303030302043202020302020302020302020302020302020302020302020302020302020302020302020300A2020202D312E383431322020202D312E3239393120202020302E303030302043202020302020302020302020302020302020302020302020302020302020302020302020300A2020202D322E343234362020202D302E3731353720202020302E303030302043202020302020302020302020302020302020302020302020302020302020302020302020300A2020202D322E3139393720202020302E3038313920202020302E303030302043202020302020302020302020302020302020302020302020302020302020302020302020300A2020202D312E3430333720202020302E3238343120202020302E303030302043202020302020302020302020302020302020302020302020302020302020302020302020300A2020312020322020312020302020202020200A2020322020332020312020302020202020200A2020332020342020312020302020202020200A2020342020352020312020302020202020200A2020352020362020312020302020202020200A2020362020372020322020302020202020200A2020382020392020312020302020202020200A2020312020372020312020302020202020200A2020312020382020312020302020202020200A2020352020392020312020302020202020200A2020322031302020322020302020202020200A2020352031312020312020302020202020200A2031322031332020312020302020202020200A2031332031342020322020302020202020200A2031342031352020312020302020202020200A2031352031362020322020302020202020200A2031362031372020312020302020202020200A2031322031372020322020302020202020200A2020312031322020312020302020202020200A4D2020454E44
Contributor: KATO T, DEPT. OF CHEM., FAC. OF SCI., TOHOKU UNIV.
InstType: EI
InstName: HITACHI M-52
IoniMethod: _ENERGY 25 eV
IonPolarity: pos
Date: 2010-10-09 19:48:36+02:00
Num Peaks: 19
18 183 91 145 128 62 129 5 141 50 142 60 154 80 155 66 156 94 167 76 
168 215 169 42 170 999 171 148 182 79 198 8 211 80 226 458 227 81 
