Name: 2-ALLYLOXYETHANOL
MW: 102
Formula: C5H10O2
Synonym: MassBank: JP006163
Synonym: 2-ALLYLOXYETHANOL
Synonym: ETHYLENGLYCOL MONOALLYL ETHER
Structure: 310A31380A322D414C4C594C4F5859455448414E4F4C2E6D6F6C0A20204368656D447261773132323130393232303632440A2020372020362020302020302020302020302020302020302020302020303939392056323030300A2020202D312E3432383920202020302E3230363320202020302E303030302043202020302020302020302020302020302020302020302020302020302020302020302020300A2020202D302E373134352020202D302E3230363320202020302E303030302043202020302020302020302020302020302020302020302020302020302020302020302020300A20202020302E3030303020202020302E3230363320202020302E30303030204F202020302020302020302020302020302020302020302020302020302020302020302020300A20202020302E373134352020202D302E3230363220202020302E303030302043202020302020302020302020302020302020302020302020302020302020302020302020300A20202020312E3432383920202020302E3230363320202020302E303030302043202020302020302020302020302020302020302020302020302020302020302020302020300A20202020322E313433342020202D302E3230363220202020302E303030302043202020302020302020302020302020302020302020302020302020302020302020302020300A2020202D322E313433342020202D302E3230363320202020302E30303030204F202020302020302020302020302020302020302020302020302020302020302020302020300A2020312020322020312020302020202020200A2020342020352020312020302020202020200A2020352020362020322020302020202020200A2020332020342020312020302020202020200A2020322020332020312020302020202020200A2020312020372020312020302020202020200A4D2020454E44
Contributor: HASHIMOTO K, KYOTO COLLEGE OF PHARMACY
InstType: EI
InstName: HITACHI M-80
IoniMethod: _ENERGY 20 eV
IonPolarity: pos
Date: 2010-10-09 19:48:36+02:00
Num Peaks: 21
18 45 27 90 28 42 29 68 30 31 31 388 39 162 40 34 41 999 42 215 
43 116 44 56 45 296 54 10 55 33 56 30 57 152 58 397 59 68 61 16 
71 85 
