Name: MassBank: JP004698
MW: 468
Formula: C18H36O3Si6
Synonym: MassBank: JP004698
Synonym: 2,2,5,5,7,7,10,10,12,12,15,15-DODECAMETHYL-1,6,11-TRIOXA-2,5,7,10,12,15-HEXASILA-3,8,13-CYCLOPENTADECATRIYNE
Synonym: DODECAMETHYL-4,9,14-TRIOXA-3,5,8,10,13,15-HEXASILACYCLOPENTADECA-1,6,11-TRIYNE
Structure: 322C322C352C352C372C372C31302C31302C31322C31322C31352C31352D444F444543414D455448594C2D312C362C31312D5452494F58412D322C352C372C31302C31322C31352D4845584153494C412D332C382C31332D4359434C4F50454E544144454341545249594E452E6D6F6C0A20204368656D447261773132313930393039333732440A2032372032372020302020302020302020302020302020302020302020303939392056323030300A2020202D322E3536343320202020302E3430333120202020302E303030302043202020302020302020302020302020302020302020302020302020302020302020302020300A2020202D322E353634332020202D302E3432313920202020302E303030302043202020302020302020302020302020302020302020302020302020302020302020302020300A2020202D312E383439382020202D302E3833343420202020302E303030302053692020302020302020302020302020302020302020302020302020302020302020302020300A2020202D312E313335342020202D302E3432313920202020302E30303030204F202020302020302020302020302020302020302020302020302020302020302020302020300A2020202D312E3133353420202020302E3430333120202020302E30303030204F202020302020302020302020302020302020302020302020302020302020302020302020300A2020202D312E3834393820202020302E3831353620202020302E303030302053692020302020302020302020302020302020302020302020302020302020302020302020300A2020202D302E343230392020202D302E3833343420202020302E303030302053692020302020302020302020302020302020302020302020302020302020302020302020300A20202020302E323933362020202D302E3432313920202020302E303030302043202020302020302020302020302020302020302020302020302020302020302020302020300A20202020302E3239333620202020302E3430333120202020302E303030302043202020302020302020302020302020302020302020302020302020302020302020302020300A2020202D302E3432303920202020302E3831353620202020302E303030302053692020302020302020302020302020302020302020302020302020302020302020302020300A20202020302E393338362020202D302E3933363320202020302E303030302043202020302020302020302020302020302020302020302020302020302020302020302020300A20202020312E373432392020202D302E3735323720202020302E303030302053692020302020302020302020302020302020302020302020302020302020302020302020300A20202020322E313030392020202D302E3030393420202020302E30303030204F202020302020302020302020302020302020302020302020302020302020302020302020300A20202020312E3734323920202020302E3733333920202020302E303030302053692020302020302020302020302020302020302020302020302020302020302020302020300A20202020302E3933383620202020302E3931373420202020302E303030302043202020302020302020302020302020302020302020302020302020302020302020302020300A2020202D312E3433373320202020312E3533303020202020302E303030302043202020302020302020302020302020302020302020302020302020302020302020302020300A2020202D302E3030383420202020312E3533303020202020302E303030302043202020302020302020302020302020302020302020302020302020302020302020302020300A20202020322E3435373420202020312E3134363420202020302E303030302043202020302020302020302020302020302020302020302020302020302020302020302020300A20202020312E393536342020202D312E3534393620202020302E303030302043202020302020302020302020302020302020302020302020302020302020302020302020300A2020202D302E383333342020202D312E3534383920202020302E303030302043202020302020302020302020302020302020302020302020302020302020302020302020300A2020202D322E323632332020202D312E3534383920202020302E303030302043202020302020302020302020302020302020302020302020302020302020302020302020300A2020202D312E323636352020202D312E3431373820202020302E303030302043202020302020302020302020302020302020302020302020302020302020302020302020300A2020202D302E303038342020202D312E3534383920202020302E303030302043202020302020302020302020302020302020302020302020302020302020302020302020300A2020202D322E3433333220202020312E3339383920202020302E303030302043202020302020302020302020302020302020302020302020302020302020302020302020300A2020202D312E3030343320202020312E3339383920202020302E303030302043202020302020302020302020302020302020302020302020302020302020302020302020300A20202020312E3631393920202020312E3534393620202020302E303030302043202020302020302020302020302020302020302020302020302020302020302020302020300A20202020322E353634332020202D302E3832393820202020302E303030302043202020302020302020302020302020302020302020302020302020302020302020302020300A2020312020322020332020302020202020200A2020322020332020312020302020202020200A2020332020342020312020302020202020200A2020352020362020312020302020202020200A2020362020312020312020302020202020200A2020342020372020312020302020202020200A2020372020382020312020302020202020200A2020392031302020312020302020202020200A2031302020352020312020302020202020200A2020382031312020332020302020202020200A2031312031322020312020302020202020200A2031322031332020312020302020202020200A2031332031342020312020302020202020200A2031342031352020312020302020202020200A2031352020392020332020302020202020200A2020362031362020312020312020202020200A2031302031372020312020312020202020200A2031342031382020312020312020202020200A2031322031392020312020312020202020200A2020372032302020312020312020202020200A2020332032312020312020312020202020200A2020332032322020312020362020202020200A2020372032332020312020362020202020200A2020362032342020312020362020202020200A2031302032352020312020362020202020200A2031342032362020312020362020202020200A2031322032372020312020362020202020200A4D2020454E44
Contributor: MASS SPECTROSCOPY SOC. OF JAPAN (MSSJ)
InstType: EI
InstName: Unknown
IoniMethod: _ENERGY 70 eV
IonPolarity: pos
Date: 2010-10-09 19:48:36+02:00
Num Peaks: 54
45 28 59 18 73 856 74 79 75 33 83 39 97 58 117 14 131 14 133 11 
141 26 147 64 148 11 155 41 157 34 179 12 189 13 207 56 208 12 215 14 
219 59 220 28 223 12 231 12 247 13 297 15 321 13 365 128 366 51 367 33 
368 10 379 16 380 14 381 35 382 15 383 31 384 12 385 15 394 10 395 19 
396 10 423 15 437 16 438 10 453 999 454 505 455 330 456 115 457 43 468 29 
469 15 470 10 471 16 473 11 
