Name: 3-METHYL-5-NITROINDOLE
MW: 176
Formula: C9H8N2O2
Synonym: MassBank: JP000432
Synonym: 3-METHYL-5-NITROINDOLE
Structure: 332D4D455448594C2D352D4E4954524F494E444F4C452E6D6F6C0A20204368656D447261773033323031303031343532440A2031332031342020302020302020302020302020302020302020302020303939392056323030300A2020202D312E353738382020202D312E3037393920202020302E30303030204E202020302020302020302020302020302020302020302020302020302020302020302020300A2020202D322E303633372020202D302E3431323520202020302E303030302043202020302020302020302020302020302020302020302020302020302020302020302020300A2020202D312E3537383820202020302E3235343920202020302E303030302043202020302020302020302020302020302020302020302020302020302020302020302020300A2020202D302E3739343220202020302E3030303020202020302E303030302043202020302020302020302020302020302020302020302020302020302020302020302020300A2020202D302E3037393720202020302E3431323520202020302E303030302043202020302020302020302020302020302020302020302020302020302020302020302020300A20202020302E3633343820202020302E3030303020202020302E303030302043202020302020302020302020302020302020302020302020302020302020302020302020300A20202020302E363334382020202D302E3832353020202020302E303030302043202020302020302020302020302020302020302020302020302020302020302020302020300A2020202D302E303739372020202D312E3233373520202020302E303030302043202020302020302020302020302020302020302020302020302020302020302020302020300A2020202D302E373934322020202D302E3832353020202020302E303030302043202020302020302020302020302020302020302020302020302020302020302020302020300A20202020312E3334393220202020302E3431323520202020302E30303030204E202020302020332020302020302020302020302020302020302020302020302020302020300A20202020312E3334393220202020312E3233373520202020302E30303030204F202020302020302020302020302020302020302020302020302020302020302020302020300A20202020322E3036333720202020302E3030303020202020302E30303030204F202020302020352020302020302020302020302020302020302020302020302020302020300A2020202D312E3833333720202020312E3033393620202020302E303030302043202020302020302020302020302020302020302020302020302020302020302020302020300A2020312020322020312020302020202020200A2020322020332020322020302020202020200A2020332020342020312020302020202020200A2020342020352020312020302020202020200A2020352020362020322020302020202020200A2020362020372020312020302020202020200A2020372020382020322020302020202020200A2020382020392020312020302020202020200A2020312020392020312020302020202020200A2020342020392020322020302020202020200A2031302031312020322020302020202020200A2031302031322020312020302020202020200A2020362031302020312020302020202020200A2020332031332020312020302020202020200A4D202043484720203220203130202020312020313220202D310A4D2020454E44
Contributor: SASAKI S, TOYOHASHI UNIV. OF TECH.
InstType: EI
InstName: MX-1303
IoniMethod: _ENERGY 50 eV
IonPolarity: pos
Date: 2010-10-09 19:48:36+02:00
Num Peaks: 59
41 174 42 19 43 174 44 1 45 44 50 28 51 97 52 4 53 16 54 12 
55 140 56 3 57 172 60 72 61 16 62 1 63 40 64 11 65 17 67 3 
68 25 69 280 70 31 71 7 73 93 74 27 75 44 76 5 77 288 78 28 
81 96 82 2 83 48 84 19 85 31 87 1 88 10 91 17 95 25 96 1 
97 30 98 15 101 32 102 10 103 300 104 20 111 12 115 1 117 12 118 64 
128 88 129 25 130 718 131 44 137 12 146 2 175 160 176 999 177 88 
