Name: 2-CHLOROETHYL VINYL ETHER
CAS: 110-75-8
MW: 106
Formula: C4H7ClO
Synonym: MassBank: JP000934
Synonym: 2-CHLOROETHYL VINYL ETHER
Structure: 310A31360A322D43484C4F524F455448594C2056494E594C2045544845522E6D6F6C0A20204368656D447261773031303331303130343932440A2020362020352020302020302020302020302020302020302020302020303939392056323030300A20202020302E3335373220202020302E3230363320202020302E30303030204F202020302020302020302020302020302020302020302020302020302020302020302020300A20202020312E303731372020202D302E3230363320202020302E303030302043202020302020302020302020302020302020302020302020302020302020302020302020300A20202020312E3738363220202020302E3230363320202020302E303030302043202020302020302020302020302020302020302020302020302020302020302020302020300A2020202D302E333537322020202D302E3230363220202020302E303030302043202020302020302020302020302020302020302020302020302020302020302020302020300A2020202D312E3037313720202020302E3230363320202020302E303030302043202020302020302020302020302020302020302020302020302020302020302020302020300A2020202D312E373836322020202D302E3230363220202020302E3030303020436C2020302020302020302020302020302020302020302020302020302020302020302020300A2020322020332020322020302020202020200A2020312020322020312020302020202020200A2020342020352020312020302020202020200A2020352020362020312020302020202020200A2020312020342020312020302020202020200A4D2020454E44
Contributor: KOGA M, UNIV. OF OCCUPATIONAL AND ENVIRONMENTAL HEALTH
InstType: EI
InstName: JEOL JMS-01-SG
IoniMethod: _ENERGY 70 eV
IonPolarity: pos
Date: 2010-10-09 19:48:36+02:00
Num Peaks: 22
36 45 37 21 38 26 39 4 41 72 42 246 43 987 44 72 45 121 48 22 
49 128 50 3 51 41 57 218 61 33 62 24 63 999 64 93 65 334 79 3 
106 252 108 84 
