Name: MassBank: JP004885
MW: 206
Formula: C14H22O
Synonym: MassBank: JP004885
Synonym: 7-BUTYL-6,6-DIMETHYLBICYCLO(3.3.0)OCT-7-EN-2-ONE
Structure: 372D425554594C2D362C362D44494D455448594C42494359434C4F28332E332E30294F43542D372D454E2D322D4F4E452E6D6F6C0A20204368656D447261773035323131303033323932440A2031352031362020302020302020302020302020302020302020302020303939392056323030300A20202020312E323436362020202D302E3238363420202020302E303030302043202020302020302020302020302020302020302020302020302020302020302020302020300A20202020312E393134312020202D302E3737313320202020302E303030302043202020302020302020302020302020302020302020302020302020302020302020302020300A20202020322E353831352020202D302E3238363420202020302E303030302043202020302020302020302020302020302020302020302020302020302020302020302020300A20202020322E3332363620202020302E3439383320202020302E303030302043202020302020302020302020302020302020302020302020302020302020302020302020300A20202020312E3530313620202020302E3439383320202020302E303030302043202020302020302020302020302020302020302020302020302020302020302020302020300A20202020302E3833343120202020302E3938333220202020302E303030302043202020302020302020302020302020302020302020302020302020302020302020302020300A20202020302E3136363720202020302E3439383320202020302E303030302043202020302020302020302020302020302020302020302020302020302020302020302020300A20202020302E343231362020202D302E3238363420202020302E303030302043202020302020302020302020302020302020302020302020302020302020302020302020300A20202020312E393134312020202D312E3539363320202020302E30303030204F202020302020302020302020302020302020302020302020302020302020302020302020300A20202020302E3238323120202020312E3539363320202020302E303030302043202020302020302020302020302020302020302020302020302020302020302020302020300A20202020312E3338363220202020312E3539363320202020302E303030302043202020302020302020302020302020302020302020302020302020302020302020302020300A2020202D302E3631373920202020302E3735333220202020302E303030302043202020302020302020302020302020302020302020302020302020302020302020302020300A2020202D312E3230313320202020302E3136393820202020302E303030302043202020302020302020302020302020302020302020302020302020302020302020302020300A2020202D312E3939383220202020302E3338333420202020302E303030302043202020302020302020302020302020302020302020302020302020302020302020302020300A2020202D322E353831352020202D302E3230303020202020302E303030302043202020302020302020302020302020302020302020302020302020302020302020302020300A2020312020322020312020302020202020200A2020322020332020312020302020202020200A2020332020342020312020302020202020200A2020342020352020312020302020202020200A2020352020362020312020302020202020200A2020362020372020312020302020202020200A2020372020382020322020302020202020200A2020312020382020312020302020202020200A2020312020352020312020302020202020200A2020322020392020322020302020202020200A2020362031302020312020362020202020200A2020362031312020312020312020202020200A2031322031332020312020302020202020200A2031332031342020312020302020202020200A2031342031352020312020302020202020200A2020372031322020312020302020202020200A4D2020454E44
Contributor: KATO T, DEPT. OF CHEM., FAC. OF SCI., TOHOKU UNIV.
InstType: EI
InstName: Unknown
IoniMethod: _ENERGY 25 eV
IonPolarity: pos
Date: 2010-10-09 19:48:36+02:00
Num Peaks: 35
40 58 43 58 55 58 57 6 69 197 79 157 91 78 93 31 94 119 105 58 
106 58 107 45 108 999 109 177 110 58 119 78 120 58 121 177 135 136 136 78 
145 58 147 58 149 235 150 37 151 119 162 40 163 197 164 6 169 58 177 40 
178 58 181 4 191 78 206 313 207 58 
