Name: AMINOPYRINE
MW: 231
Formula: C13H17N3O
Synonym: MassBank: JP003821
Synonym: AMINOPYRINE
Structure: 414D494E4F505952494E452E6D6F6C0A20204368656D447261773038303731303033353932440A2031372031382020302020302020302020302020302020302020302020303939392056323030300A2020202D302E323531302020202D302E3034373820202020302E30303030204E202020302020302020302020302020302020302020302020302020302020302020302020300A2020202D302E3136343720202020302E3737323620202020302E30303030204E202020302020302020302020302020302020302020302020302020302020302020302020300A20202020302E3634323220202020302E3934343220202020302E303030302043202020302020302020302020302020302020302020302020302020302020302020302020300A20202020312E3035343720202020302E3232393720202020302E303030302043202020302020302020302020302020302020302020302020302020302020302020302020300A20202020302E353032372020202D302E3338333420202020302E303030302043202020302020302020302020302020302020302020302020302020302020302020302020300A20202020302E363734322020202D312E3139303420202020302E30303030204F202020302020302020302020302020302020302020302020302020302020302020302020300A2020202D302E393635352020202D302E3436303320202020302E303030302043202020302020302020302020302020302020302020302020302020302020302020302020300A2020202D302E393635352020202D312E3238353320202020302E303030302043202020302020302020302020302020302020302020302020302020302020302020302020300A2020202D312E363739392020202D312E3639373820202020302E303030302043202020302020302020302020302020302020302020302020302020302020302020302020300A2020202D322E333934342020202D312E3238353320202020302E303030302043202020302020302020302020302020302020302020302020302020302020302020302020300A2020202D322E333934342020202D302E3436303320202020302E303030302043202020302020302020302020302020302020302020302020302020302020302020302020300A2020202D312E363739392020202D302E3034373820202020302E303030302043202020302020302020302020302020302020302020302020302020302020302020302020300A20202020302E3937373820202020312E3639373820202020302E303030302043202020302020302020302020302020302020302020302020302020302020302020302020300A2020202D302E3737373820202020312E3332343720202020302E303030302043202020302020302020302020302020302020302020302020302020302020302020302020300A20202020312E3837353220202020302E3134333520202020302E30303030204E202020302020302020302020302020302020302020302020302020302020302020302020300A20202020322E3339343420202020302E3738343620202020302E303030302043202020302020302020302020302020302020302020302020302020302020302020302020300A20202020322E313730392020202D302E3632363720202020302E303030302043202020302020302020302020302020302020302020302020302020302020302020302020300A2020312020322020312020302020202020200A2020322020332020312020302020202020200A2020332020342020322020302020202020200A2020342020352020312020302020202020200A2020312020352020312020302020202020200A2020352020362020322020302020202020200A2020372020382020312020302020202020200A2020382020392020322020302020202020200A2020392031302020312020302020202020200A2031302031312020322020302020202020200A2031312031322020312020302020202020200A2020372031322020322020302020202020200A2020312020372020312020302020202020200A2020332031332020312020302020202020200A2020322031342020312020302020202020200A2031352031362020312020302020202020200A2031352031372020312020302020202020200A2020342031352020312020302020202020200A4D2020454E44
Contributor: SASAKI S, TOYOHASHI UNIV. OF TECH.
InstType: EI
InstName: Unknown
IoniMethod: _ENERGY 70 eV
IonPolarity: pos
Date: 2010-10-09 19:48:36+02:00
Num Peaks: 34
41 49 42 129 43 29 44 2 53 9 54 39 55 59 56 999 57 59 58 9 
69 9 70 6 71 79 72 19 73 4 76 2 77 84 78 4 97 359 98 4 
99 9 111 119 112 79 113 0 119 39 120 4 121 4 122 1 123 59 124 9 
230 19 231 36 232 39 233 9 
