Name: 1-BUTENE
CAS: 106-98-9
MW: 56
Formula: C4H8
Synonym: MassBank: JP001574
Synonym: 1-BUTENE
Synonym: BUTENE-1
Structure: 310A31320A312D425554454E452E6D6F6C0A20204368656D447261773131313730393233343132440A2020342020332020302020302020302020302020302020302020302020303939392056323030300A2020202D312E3037313720202020302E3230363320202020302E303030302043202020302020302020302020302020302020302020302020302020302020302020302020300A2020202D302E333537322020202D302E3230363320202020302E303030302043202020302020302020302020302020302020302020302020302020302020302020302020300A20202020302E3335373220202020302E3230363320202020302E303030302043202020302020302020302020302020302020302020302020302020302020302020302020300A20202020312E303731372020202D302E3230363220202020302E303030302043202020302020302020302020302020302020302020302020302020302020302020302020300A2020312020322020322020302020202020200A2020322020332020312020302020202020200A2020332020342020312020302020202020200A4D2020454E44
Contributor: MASS SPECTROSCOPY SOC. OF JAPAN (MSSJ)
InstType: EI
InstName: HITACHI RMU-5B
IoniMethod: _ENERGY 80 eV
IonPolarity: pos
Date: 2010-10-09 19:48:36+02:00
Num Peaks: 25
14 18 15 49 25 15 25.5 10 26 112 27 300 28 268 29 122 30 11 37 45 
38 61 39 400 40 79 41 999 42 34 49 23 50 64 51 49 52 15 53 60 
54 29 55 201 56 390 57 18 58 1 
