Name: ETHYLENEGLYCOL DIACETATE
MW: 146
Formula: C6H10O4
Synonym: MassBank: JP007152
Synonym: ETHYLENEGLYCOL DIACETATE
Structure: 455448594C454E45474C59434F4C204449414345544154452E6D6F6C0A20204368656D447261773038313131303139313332440A2031302020392020302020302020302020302020302020302020302020303939392056323030300A20202020302E3335373220202020302E3230363320202020302E303030302043202020302020302020302020302020302020302020302020302020302020302020302020300A2020202D302E333537322020202D302E3230363320202020302E303030302043202020302020302020302020302020302020302020302020302020302020302020302020300A20202020312E3738363220202020302E3230363320202020302E303030302043202020302020302020302020302020302020302020302020302020302020302020302020300A20202020322E353030362020202D302E3230363220202020302E303030302043202020302020302020302020302020302020302020302020302020302020302020302020300A20202020312E3738363220202020312E3033313320202020302E30303030204F202020302020302020302020302020302020302020302020302020302020302020302020300A20202020312E303731372020202D302E3230363220202020302E30303030204F202020302020302020302020302020302020302020302020302020302020302020302020300A2020202D312E373836322020202D302E3230363220202020302E303030302043202020302020302020302020302020302020302020302020302020302020302020302020300A2020202D322E3530303620202020302E3230363220202020302E303030302043202020302020302020302020302020302020302020302020302020302020302020302020300A2020202D312E373836322020202D312E3033313320202020302E30303030204F202020302020302020302020302020302020302020302020302020302020302020302020300A2020202D312E3037313720202020302E3230363320202020302E30303030204F202020302020302020302020302020302020302020302020302020302020302020302020300A2020312020322020312020302020202020200A2020332020342020312020302020202020200A2020332020352020322020302020202020200A2020332020362020312020302020202020200A2020312020362020312020302020202020200A2020372020382020312020302020202020200A2020372020392020322020302020202020200A2020372031302020312020302020202020200A2020322031302020312020302020202020200A4D2020454E44
Contributor: SODA AROMATIC CO., LTD.
InstType: EI
InstName: HITACHI M-80B
IoniMethod: _ENERGY 70 eV
IonPolarity: pos
Date: 2010-10-09 19:48:36+02:00
Num Peaks: 11
15 63 28 15 29 18 42 33 43 999 44 30 73 45 74 10 86 112 103 18 
116 43 
