Name: 3-METHOXYPROPYLAMINE
MW: 89
Formula: C4H11NO
Synonym: MassBank: JP005426
Synonym: 3-METHOXYPROPYLAMINE
Synonym: 3-AMINOPROPYL METHYL ETHER
Structure: 310A31360A332D4D4554484F585950524F50594C414D494E452E6D6F6C0A20204368656D447261773032323231303133353132440A2020362020352020302020302020302020302020302020302020302020303939392056323030300A20202020312E3738363220202020302E3230363320202020302E30303030204E202020302020302020302020302020302020302020302020302020302020302020302020300A20202020312E303731372020202D302E3230363320202020302E303030302043202020302020302020302020302020302020302020302020302020302020302020302020300A20202020302E3335373220202020302E3230363320202020302E303030302043202020302020302020302020302020302020302020302020302020302020302020302020300A2020202D302E333537322020202D302E3230363320202020302E303030302043202020302020302020302020302020302020302020302020302020302020302020302020300A2020202D312E3037313720202020302E3230363220202020302E30303030204F202020302020302020302020302020302020302020302020302020302020302020302020300A2020202D312E373836322020202D302E3230363320202020302E303030302043202020302020302020302020302020302020302020302020302020302020302020302020300A2020322020332020312020302020202020200A2020332020342020312020302020202020200A2020312020322020312020302020202020200A2020352020362020312020302020202020200A2020342020352020312020302020202020200A4D2020454E44
Contributor: TAJIMA S, GUNMA COLLEGE OF TECHNOLOGY
InstType: EI
InstName: HITACHI RMU-7M
IoniMethod: _ENERGY 70 eV
IonPolarity: pos
Date: 2010-10-09 19:48:36+02:00
Num Peaks: 22
15 34 18 56 27 19 28 73 29 53 30 999 31 53 33 23 39 10 41 33 
42 34 43 21 44 39 45 161 56 86 57 67 58 14 59 32 71 22 72 290 
73 14 74 41 
