Name: DICHLORODIMESITYLSILANE
CAS: 5599-27-9
MW: 336
Formula: C18H22Cl2Si
Synonym: MassBank: JP004818
Synonym: DICHLORODIMESITYLSILANE
Synonym: DICHLOROBIS(2,4,6-TRIMETHYLPHENYL)SILANE
Structure: 444943484C4F524F44494D45534954594C53494C414E452E6D6F6C0A20204368656D447261773039323131303138313432440A2032312032322020302020302020302020302020302020302020302020303939392056323030300A20202020302E3035303020202020302E3639383620202020302E303030302053692020302020302020302020302020302020302020302020302020302020302020302020300A20202020312E303631322020202D302E3134393820202020302E303030302043202020302020302020302020302020302020302020302020302020302020302020302020300A20202020312E3737353620202020302E3236323720202020302E303030302043202020302020302020302020302020302020302020302020302020302020302020302020300A20202020312E3737353620202020312E3038373720202020302E303030302043202020302020302020302020302020302020302020302020302020302020302020302020300A20202020322E343930312020202D302E3134393820202020302E303030302043202020302020302020302020302020302020302020302020302020302020302020302020300A20202020322E343930312020202D302E3937343820202020302E303030302043202020302020302020302020302020302020302020302020302020302020302020302020300A20202020332E323034362020202D312E3338373320202020302E303030302043202020302020302020302020302020302020302020302020302020302020302020302020300A20202020312E373735362020202D312E3338373320202020302E303030302043202020302020302020302020302020302020302020302020302020302020302020302020300A20202020312E303631322020202D302E3937343820202020302E303030302043202020302020302020302020302020302020302020302020302020302020302020302020300A20202020302E343239322020202D312E3530353120202020302E303030302043202020302020302020302020302020302020302020302020302020302020302020302020300A2020202D302E3837383820202020302E3136323420202020302E303030302043202020302020302020302020302020302020302020302020302020302020302020302020300A2020202D312E303232312020202D302E3635303120202020302E303030302043202020302020302020302020302020302020302020302020302020302020302020302020300A2020202D302E363039362020202D312E3336343620202020302E303030302043202020302020302020302020302020302020302020302020302020302020302020302020300A2020202D312E373937332020202D302E3933323320202020302E303030302043202020302020302020302020302020302020302020302020302020302020302020302020300A2020202D322E343239332020202D302E3430323020202020302E303030302043202020302020302020302020302020302020302020302020302020302020302020302020300A2020202D332E323034362020202D302E3638343120202020302E303030302043202020302020302020302020302020302020302020302020302020302020302020302020300A2020202D322E3238363120202020302E3431303520202020302E303030302043202020302020302020302020302020302020302020302020302020302020302020302020300A2020202D312E3531303820202020302E3639323720202020302E303030302043202020302020302020302020302020302020302020302020302020302020302020302020300A2020202D312E3336373620202020312E3530353120202020302E303030302043202020302020302020302020302020302020302020302020302020302020302020302020300A2020202D302E3434323720202020312E3336303420202020302E3030303020436C2020302020302020302020302020302020302020302020302020302020302020302020300A20202020302E3633333320202020312E3238323020202020302E3030303020436C2020302020302020302020302020302020302020302020302020302020302020302020300A2020322020332020312020302020202020200A2020332020342020312020302020202020200A2020332020352020322020302020202020200A2020352020362020312020302020202020200A2020362020372020312020302020202020200A2020362020382020322020302020202020200A2020382020392020312020302020202020200A2020392031302020312020302020202020200A2020322020392020322020302020202020200A2020312020322020312020302020202020200A2031312031322020312020302020202020200A2031322031332020312020302020202020200A2031322031342020322020302020202020200A2031342031352020312020302020202020200A2031352031362020312020302020202020200A2031352031372020322020302020202020200A2031372031382020312020302020202020200A2031382031392020312020302020202020200A2031312031382020322020302020202020200A2020312031312020312020302020202020200A2020312032302020312020302020202020200A2020312032312020312020302020202020200A4D2020454E44
Contributor: MASS SPECTROSCOPY SOC. OF JAPAN (MSSJ)
InstType: EI
InstName: JEOL JMS-D-3000
IoniMethod: _ENERGY 70 eV
IonPolarity: pos
Date: 2010-10-09 19:48:36+02:00
Num Peaks: 39
40 12 63 15 65 13 77 30 78 12 79 14 91 54 103 33 104 16 105 173 
106 16 115 30 116 11 117 67 118 150 119 93 120 999 121 105 150 18 179 10 
180 39 181 20 182 16 201 11 216 95 217 22 218 67 219 14 220 15 285 11 
321 157 322 38 323 109 324 25 325 22 336 14 337 4 338 10 339 3 
