Name: MassBank: JP006953
MW: 138
Formula: C9H14O
Synonym: MassBank: JP006953
Synonym: 3,5,5-TRIMETHYL-2-CYCLOHEXENONE
Structure: 332C352C352D5452494D455448594C2D322D4359434C4F484558454E4F4E452E6D6F6C0A20204368656D447261773032323231303030323432440A2031302031302020302020302020302020302020302020302020302020303939392056323030300A20202020302E353933392020202D302E3034393020202020302E303030302043202020302020302020302020302020302020302020302020302020302020302020302020300A20202020302E313831342020202D302E3736333520202020302E303030302043202020302020302020302020302020302020302020302020302020302020302020302020300A2020202D302E363433362020202D302E3736333520202020302E303030302043202020302020302020302020302020302020302020302020302020302020302020302020300A2020202D312E303536312020202D302E3034393020202020302E303030302043202020302020302020302020302020302020302020302020302020302020302020302020300A2020202D302E3634333620202020302E3636353520202020302E303030302043202020302020302020302020302020302020302020302020302020302020302020302020300A20202020302E3138313420202020302E3636353520202020302E303030302043202020302020302020302020302020302020302020302020302020302020302020302020300A2020202D312E3431383920202020302E3934373620202020302E303030302043202020302020302020302020302020302020302020302020302020302020302020302020300A2020202D302E3530303420202020312E3437373920202020302E303030302043202020302020302020302020302020302020302020302020302020302020302020302020300A2020202D312E303536312020202D312E3437373920202020302E303030302043202020302020302020302020302020302020302020302020302020302020302020302020300A20202020312E343138392020202D302E3034393020202020302E30303030204F202020302020302020302020302020302020302020302020302020302020302020302020300A2020312020322020312020302020202020200A2020322020332020322020302020202020200A2020332020342020312020302020202020200A2020342020352020312020302020202020200A2020352020362020312020302020202020200A2020312020362020312020302020202020200A2020352020372020312020362020202020200A2020352020382020312020312020202020200A2020332020392020312020302020202020200A2020312031302020322020302020202020200A4D2020454E44
Contributor: TAJIMA S, GUNMA COLLEGE OF TECHNOLOGY
InstType: EI
InstName: HITACHI M-80B
IoniMethod: _ENERGY 70 eV
IonPolarity: pos
Date: 2010-10-09 19:48:36+02:00
Num Peaks: 27
15 11 28 333 29 75 38 11 39 212 40 15 41 104 42 20 43 11 50 11 
51 31 52 15 53 73 54 144 55 58 65 13 67 45 69 11 77 28 79 27 
81 11 82 999 83 62 95 57 123 14 138 149 139 13 
