Name: 1-(4-METHYLPHENYL)ETHANOL
MW: 136
Formula: C9H12O
Synonym: MassBank: JP006575
Synonym: 1-(4-METHYLPHENYL)ETHANOL
Synonym: ALPHA,PARA-DIMETHYLBENZYL ALCOHOL
Structure: 312D28342D4D455448594C5048454E594C29455448414E4F4C2E6D6F6C0A20204368656D447261773131313730393137353132440A2031302031302020302020302020302020302020302020302020302020303939392056323030300A2020202D312E3434333720202020302E3030303020202020302E303030302043202020302020302020302020302020302020302020302020302020302020302020302020300A2020202D312E383536332020202D302E3731343520202020302E303030302043202020302020302020302020302020302020302020302020302020302020302020302020300A2020202D302E3631383820202020302E3030303020202020302E303030302043202020302020302020302020302020302020302020302020302020302020302020302020300A2020202D302E3230363220202020302E3731343520202020302E303030302043202020302020302020302020302020302020302020302020302020302020302020302020300A20202020302E3631383820202020302E3731343520202020302E303030302043202020302020302020302020302020302020302020302020302020302020302020302020300A20202020312E303331332020202D302E3030303020202020302E303030302043202020302020302020302020302020302020302020302020302020302020302020302020300A20202020302E363138382020202D302E3731343520202020302E303030302043202020302020302020302020302020302020302020302020302020302020302020302020300A2020202D302E323036322020202D302E3731343520202020302E303030302043202020302020302020302020302020302020302020302020302020302020302020302020300A20202020312E383536332020202D302E3030303020202020302E303030302043202020302020302020302020302020302020302020302020302020302020302020302020300A2020202D312E3835363320202020302E3731343520202020302E30303030204F202020302020302020302020302020302020302020302020302020302020302020302020300A2020312020322020312020302020202020200A2020332020342020312020302020202020200A2020342020352020322020302020202020200A2020352020362020312020302020202020200A2020362020372020322020302020202020200A2020372020382020312020302020202020200A2020332020382020322020302020202020200A2020362020392020312020302020202020200A2020312020332020312020302020202020200A2020312031302020312020302020202020200A4D2020454E44
Contributor: HISAHIRO HAGIWARA, CHEMICAL RESEARCH INSTITUTE OF NON-AQUEOUSSOLUTIONS TOHOKU UNIV.
InstType: EI
InstName: HITACHI M-80B
IoniMethod: _ENERGY 70 eV
IonPolarity: pos
Date: 2010-10-09 19:48:36+02:00
Num Peaks: 41
15 17 27 34 29 20 38 10 39 96 41 29 43 324 44 11 45 27 50 27 
51 75 52 17 53 19 60 30 62 19 63 52 64 14 65 147 66 16 67 19 
77 293 78 45 79 14 89 37 90 16 91 439 92 145 93 682 94 46 103 14 
105 10 115 28 117 28 118 16 119 71 120 14 121 999 122 92 135 20 136 391 
137 33 
