Name: MassBank: JP000456
MW: 174
Formula: C5H6BrNO
Synonym: MassBank: JP000456
Synonym: 4-BROMO-3,5-DIMETHYLISOXAZOLE
Structure: 310A32310A342D42524F4D4F2D332C352D44494D455448594C49534F58415A4F4C452E6D6F6C0A20204368656D447261773033323531303038323932440A2020382020382020302020302020302020302020302020302020302020303939392056323030300A20202020312E303437332020202D302E3431323520202020302E30303030204F202020302020302020302020302020302020302020302020302020302020302020302020300A20202020312E3034373320202020302E3431323520202020302E30303030204E202020302020302020302020302020302020302020302020302020302020302020302020300A20202020302E3236323720202020302E3636373420202020302E303030302043202020302020302020302020302020302020302020302020302020302020302020302020300A2020202D302E3232323320202020302E3030303020202020302E303030302043202020302020302020302020302020302020302020302020302020302020302020302020300A20202020302E323632372020202D302E3636373420202020302E303030302043202020302020302020302020302020302020302020302020302020302020302020302020300A20202020302E303037372020202D312E3435323120202020302E303030302043202020302020302020302020302020302020302020302020302020302020302020302020300A20202020302E3030373720202020312E3435323120202020302E303030302043202020302020302020302020302020302020302020302020302020302020302020302020300A2020202D312E3034373320202020302E3030303020202020302E303030302042722020302020302020302020302020302020302020302020302020302020302020302020300A2020312020322020312020302020202020200A2020322020332020322020302020202020200A2020332020342020312020302020202020200A2020342020352020322020302020202020200A2020312020352020312020302020202020200A2020352020362020312020302020202020200A2020332020372020312020302020202020200A2020342020382020312020302020202020200A4D2020454E44
Contributor: SASAKI S, TOYOHASHI UNIV. OF TECH.
InstType: EI
InstName: MX-1303
IoniMethod: _ENERGY 50 eV
IonPolarity: pos
Date: 2010-10-09 19:48:36+02:00
Num Peaks: 80
26 54 27 249 29 65 30 3 31 23 34 13 36 22 37 3 38 65 39 163 
40 77 41 8 42 188 43 999 45 35 48 1 50 25 51 59 52 30 53 4 
54 222 55 57 56 21 57 2 58 24 60 19 61 17 62 3 63 57 64 27 
65 46 66 42 67 26 68 42 69 19 70 1 71 12 77 16 78 14 79 2 
80 22 81 34 82 20 84 1 91 30 92 18 93 34 94 2 95 18 96 33 
97 10 99 1 99.5 15 100 19 100.5 12 101 2 102 10 105 32 106 193 107 3 
108 188 117 16 118 33 119 2 120 30 128 10 132 135 133 28 134 141 135 277 
136 15 146 7 148 65 149 10 160 116 162 11 175 324 176 40 177 324 178 22 
