Name: ORTHO-TOLUIDINE
MW: 107
Formula: C7H9N
Synonym: MassBank: JP003983
Synonym: ORTHO-TOLUIDINE
Structure: 310A32310A4F5254484F2D414D494E4F544F4C55454E452E6D6F6C0A20204368656D447261773038313231303033333132440A2020382020382020302020302020302020302020302020302020302020303939392056323030300A2020202D302E343132352020202D302E3335373220202020302E303030302043202020302020302020302020302020302020302020302020302020302020302020302020300A2020202D302E3030303020202020302E3335373220202020302E303030302043202020302020302020302020302020302020302020302020302020302020302020302020300A20202020312E323337352020202D302E3335373220202020302E303030302043202020302020302020302020302020302020302020302020302020302020302020302020300A2020202D302E303030302020202D312E3037313720202020302E303030302043202020302020302020302020302020302020302020302020302020302020302020302020300A20202020302E3832353020202020302E3335373220202020302E303030302043202020302020302020302020302020302020302020302020302020302020302020302020300A20202020302E383235302020202D312E3037313720202020302E303030302043202020302020302020302020302020302020302020302020302020302020302020302020300A2020202D312E323337352020202D302E3335373220202020302E303030302043202020302020302020302020302020302020302020302020302020302020302020302020300A2020202D302E3431323520202020312E3037313720202020302E30303030204E202020302020302020302020302020302020302020302020302020302020302020302020300A2020312020322020312020302020202020200A2020312020342020322020302020202020200A2020322020352020322020302020202020200A2020332020352020312020302020202020200A2020332020362020322020302020202020200A2020342020362020312020302020202020200A2020312020372020312020302020202020200A2020322020382020312020302020202020200A4D2020454E44
Contributor: MASS SPECTROSCOPY SOC. OF JAPAN (MSSJ)
InstType: EI
InstName: HITACHI RMU-6L
IoniMethod: _ENERGY 70 eV
IonPolarity: pos
Date: 2010-10-09 19:48:36+02:00
Num Peaks: 40
26 30 27 82 28 85 29 2 30 40 37 16 38 40 39 12 40 20 41 30 
42 19 49 2 50 59 51 87 52 86 52.5 2 53 91 53.5 48 54 82 62 2 
63 41 64 21 65 40 66 2 67 15 74 15 75 23 76 1 77 170 78 75 
79 120 80 3 89 57 90 50 91 29 104 1 105 51 106 999 107 834 108 60 
