Name: MassBank: JP002379
MW: 277
Formula: C15H19NO4
Synonym: MassBank: JP002379
Synonym: N-BENZYL-TRANS-3,4-DI(METHOXYCARBONYL)PYRROLIDINE
Synonym: DIMETHYL 1-BENZYLPYRROLIDINE-TRANS-3,4-DICARBOXYLATE
Structure: 44494D455448594C20312D42454E5A594C505952524F4C4944494E452D5452414E532D332C342D4449434152424F58594C4154452E6D6F6C0A20204368656D447261773038313131303137333932440A2032302032312020302020302020302020302020302020302020302020303939392056323030300A2020202D302E313233342020202D302E3630333920202020302E30303030204E202020302020302020302020302020302020302020302020302020302020302020302020300A2020202D302E383737312020202D302E3933393420202020302E303030302043202020302020302020302020302020302020302020302020302020302020302020302020300A2020202D312E343239312020202D302E3332363320202020302E303030302043202020302020302020302020302020302020302020302020302020302020302020302020300A2020202D312E3031363620202020302E3338383120202020302E303030302043202020302020302020302020302020302020302020302020302020302020302020302020300A2020202D302E3230393620202020302E3231363620202020302E303030302043202020302020302020302020302020302020302020302020302020302020302020302020300A2020202D322E323439362020202D302E3431323620202020302E303030302043202020302020302020302020302020302020302020302020302020302020302020302020300A2020202D322E3733343520202020302E3235343920202020302E30303030204F202020302020302020302020302020302020302020302020302020302020302020302020300A2020202D322E353835312020202D312E3136363320202020302E30303030204F202020302020302020302020302020302020302020302020302020302020302020302020300A2020202D312E3335323220202020312E3134313820202020302E303030302043202020302020302020302020302020302020302020302020302020302020302020302020300A2020202D322E3137363020202020312E3138353020202020302E30303030204F202020302020302020302020302020302020302020302020302020302020302020302020300A2020202D302E3930323820202020312E3833333720202020302E30303030204F202020302020302020302020302020302020302020302020302020302020302020302020300A20202020302E353931312020202D312E3031363420202020302E303030302043202020302020302020302020302020302020302020302020302020302020302020302020300A20202020312E333035362020202D302E3630333920202020302E303030302043202020302020302020302020302020302020302020302020302020302020302020302020300A20202020312E3330353620202020302E3232313120202020302E303030302043202020302020302020302020302020302020302020302020302020302020302020302020300A20202020322E3032303020202020302E3633333620202020302E303030302043202020302020302020302020302020302020302020302020302020302020302020302020300A20202020322E3733343520202020302E3232313120202020302E303030302043202020302020302020302020302020302020302020302020302020302020302020302020300A20202020322E373334352020202D302E3630333920202020302E303030302043202020302020302020302020302020302020302020302020302020302020302020302020300A20202020322E303230302020202D312E3031363420202020302E303030302043202020302020302020302020302020302020302020302020302020302020302020302020300A2020202D322E313030322020202D312E3833333720202020302E303030302043202020302020302020302020302020302020302020302020302020302020302020302020300A2020202D302E3037393020202020312E3739303520202020302E303030302043202020302020302020302020302020302020302020302020302020302020302020302020300A2020312020322020312020302020202020200A2020322020332020312020302020202020200A2020332020342020312020302020202020200A2020342020352020312020302020202020200A2020312020352020312020302020202020200A2020362020372020322020302020202020200A2020362020382020312020302020202020200A2020332020362020312020362020202020200A2020392031302020322020302020202020200A2020392031312020312020302020202020200A2020342020392020312020312020202020200A2031322031332020312020302020202020200A2031332031342020312020302020202020200A2031342031352020322020302020202020200A2031352031362020312020302020202020200A2031362031372020322020302020202020200A2031372031382020312020302020202020200A2031332031382020322020302020202020200A2020312031322020312020302020202020200A2020382031392020312020302020202020200A2031312032302020312020302020202020200A4D2020454E44
Contributor: MASS SPECTROSCOPY SOC. OF JAPAN (MSSJ)
InstType: EI
InstName: JEOL JMS-D-3000
IoniMethod: _ENERGY 70 eV
IonPolarity: pos
Date: 2010-10-09 19:48:36+02:00
Num Peaks: 55
42 316 43 12 44 60 45 30 51 28 53 18 55 37 59 42 63 15 65 135 
66 11 67 17 68 37 73 25 77 31 79 16 80 12 82 20 87 16 89 26 
90 14 91 999 92 123 99 18 104 17 105 33 106 17 118 20 120 29 126 124 
127 26 131 13 132 46 133 29 154 337 155 29 158 53 159 13 176 13 186 123 
187 13 190 22 191 20 200 76 216 39 218 18 221 16 222 13 244 23 246 122 
247 18 262 20 276 36 277 55 278 11 
