Name: GAMMA-UNDECALACTONE
MW: 184
Formula: C11H20O2
Synonym: MassBank: JP008731
Synonym: GAMMA-UNDECALACTONE
Structure: 47414D4D412D554E444543414C4143544F4E452E6D6F6C0A20204368656D447261773038313131303139343432440A2031332031332020302020302020302020302020302020302020302020303939392056323030300A2020202D322E373433332020202D302E3031323220202020302E303030302043202020302020302020302020302020302020302020302020302020302020302020302020300A2020202D322E3333303820202020302E3730323320202020302E303030302043202020302020302020302020302020302020302020302020302020302020302020302020300A2020202D312E3532333820202020302E3533303720202020302E303030302043202020302020302020302020302020302020302020302020302020302020302020302020300A2020202D312E343337362020202D302E3238393820202020302E303030302043202020302020302020302020302020302020302020302020302020302020302020302020300A2020202D302E373233312020202D302E3730323320202020302E303030302043202020302020302020302020302020302020302020302020302020302020302020302020300A2020202D302E303038362020202D302E3238393820202020302E303030302043202020302020302020302020302020302020302020302020302020302020302020302020300A20202020302E373035392020202D302E3730323320202020302E303030302043202020302020302020302020302020302020302020302020302020302020302020302020300A20202020312E343230332020202D302E3238393820202020302E303030302043202020302020302020302020302020302020302020302020302020302020302020302020300A20202020322E313334382020202D302E3730323320202020302E303030302043202020302020302020302020302020302020302020302020302020302020302020302020300A20202020322E383439332020202D302E3238393820202020302E303030302043202020302020302020302020302020302020302020302020302020302020302020302020300A20202020332E353633372020202D302E3730323320202020302E303030302043202020302020302020302020302020302020302020302020302020302020302020302020300A2020202D332E353633372020202D302E3039383520202020302E30303030204F202020302020302020302020302020302020302020302020302020302020302020302020300A2020202D322E313931322020202D302E3632353320202020302E30303030204F202020302020302020302020302020302020302020302020302020302020302020302020300A2020312020322020312020302020202020200A2020322020332020312020302020202020200A2020332020342020312020302020202020200A2020342020352020312020302020202020200A2020352020362020312020302020202020200A2020362020372020312020302020202020200A2020372020382020312020302020202020200A2020382020392020312020302020202020200A2020392031302020312020302020202020200A2031302031312020312020302020202020200A2020312031322020322020302020202020200A2020312031332020312020302020202020200A2020342031332020312020302020202020200A4D2020454E44
Contributor: SODA AROMATIC CO., LTD.
InstType: EI
InstName: HITACHI M-80B
IoniMethod: _ENERGY 70 eV
IonPolarity: pos
Date: 2010-10-09 19:48:36+02:00
Num Peaks: 42
27 114 28 42 29 256 39 57 40 11 41 182 42 50 43 103 44 11 53 17 
54 22 55 134 56 109 57 74 60 12 67 20 68 22 69 56 70 30 71 16 
72 21 73 14 81 18 82 19 83 26 84 39 85 999 86 37 87 11 95 14 
96 17 97 14 98 13 100 39 101 17 110 13 114 19 122 12 124 15 125 14 
127 17 128 73 
