Name: N-METHYL-N-(TERT-BUTYLDIMETHYLSILYL)ANILINE
MW: 221
Formula: C13H23NSi
Synonym: MassBank: JP001453
Synonym: N-METHYL-N-(TERT-BUTYLDIMETHYLSILYL)ANILINE
Structure: 4E2D4D455448594C2D4E2D28544552542D425554594C44494D455448594C53494C594C29414E494C494E452E6D6F6C0A20204368656D447261773038313231303032313332440A2031352031352020302020302020302020302020302020302020302020303939392056323030300A20202020302E323536362020202D302E3430383220202020302E30303030204E202020302020302020302020302020302020302020302020302020302020302020302020300A2020202D302E353638342020202D302E3430383220202020302E303030302043202020302020302020302020302020302020302020302020302020302020302020302020300A2020202D302E393830392020202D312E3132323720202020302E303030302043202020302020302020302020302020302020302020302020302020302020302020302020300A2020202D312E383035392020202D312E3132323720202020302E303030302043202020302020302020302020302020302020302020302020302020302020302020302020300A2020202D322E323138342020202D302E3430383220202020302E303030302043202020302020302020302020302020302020302020302020302020302020302020302020300A2020202D312E3830353920202020302E3330363320202020302E303030302043202020302020302020302020302020302020302020302020302020302020302020302020300A2020202D302E3938303920202020302E3330363320202020302E303030302043202020302020302020302020302020302020302020302020302020302020302020302020300A20202020302E3630353220202020302E3333393520202020302E303030302053692020302020302020302020302020302020302020302020302020302020302020302020300A20202020302E3836343720202020312E3132323720202020302E303030302043202020302020302020302020302020302020302020302020302020302020302020302020300A2020202D302E3136313520202020302E3634343120202020302E303030302043202020302020302020302020302020302020302020302020302020302020302020302020300A20202020312E3430323120202020302E3132363020202020302E303030302043202020302020302020302020302020302020302020302020302020302020302020302020300A20202020312E3536393020202020302E3933343020202020302E303030302043202020302020302020302020302020302020302020302020302020302020302020302020300A20202020312E333330322020202D302E3639353920202020302E303030302043202020302020302020302020302020302020302020302020302020302020302020302020300A20202020322E3231383420202020302E3030363420202020302E303030302043202020302020302020302020302020302020302020302020302020302020302020302020300A20202020302E373239382020202D312E3038343020202020302E303030302043202020302020302020302020302020302020302020302020302020302020302020302020300A2020312020322020312020302020202020200A2020322020332020312020302020202020200A2020332020342020322020302020202020200A2020342020352020312020302020202020200A2020352020362020322020302020202020200A2020362020372020312020302020202020200A2020322020372020322020302020202020200A2020382020392020312020302020202020200A2020382031302020312020302020202020200A2031312031322020312020302020202020200A2031312031342020312020302020202020200A2031312031332020312020302020202020200A2020382031312020312020302020202020200A2020312020382020312020302020202020200A2020312031352020312020302020202020200A4D2020454E44
Contributor: MASS SPECTROSCOPY SOC. OF JAPAN (MSSJ)
InstType: EI
InstName: JEOL JMS-D-3000
IoniMethod: _ENERGY 70 eV
IonPolarity: pos
Date: 2010-10-09 19:48:36+02:00
Num Peaks: 33
43 47 45 37 51 17 56 11 58 27 59 484 60 39 61 17 65 11 73 77 
75 43 77 47 79 10 84 24 104 48 105 20 106 54 107 34 119 27 120 14 
121 10 134 24 135 13 148 13 149 41 150 17 162 14 164 999 165 157 166 46 
206 16 221 77 222 15 
