Name: 1-ACETYL-2-METHYL-6-NITROINDOLIZINE
MW: 218
Formula: C11H10N2O3
Synonym: MassBank: JP000451
Synonym: 1-ACETYL-2-METHYL-6-NITROINDOLIZINE
Structure: 312D41434554594C2D322D4D455448594C2D362D4E4954524F494E444F4C495A494E452E6D6F6C0A20204368656D447261773131313730393231303332440A2032302032312020302020302020302020302020302020302020302020303939392056323030300A2020202D312E323839302020202D302E3334383620202020302E303030302043202020302020302020302020302020302020302020302020302020302020302020302020300A2020202D312E3632343620202020302E3430353120202020302E303030302043202020302020302020302020302020302020302020302020302020302020302020302020300A2020202D312E3031313520202020302E3935373120202020302E303030302043202020302020302020302020302020302020302020302020302020302020302020302020300A2020202D302E3239373020202020302E3534343620202020302E30303030204E202020302020302020302020302020302020302020302020302020302020302020302020300A20202020302E3438373620202020302E3739393520202020302E303030302043202020302020302020302020302020302020302020302020302020302020302020302020300A20202020312E3130303720202020302E3234373520202020302E303030302043202020302020302020302020302020302020302020302020302020302020302020302020300A20202020302E393239322020202D302E3535393520202020302E303030302043202020302020302020302020302020302020302020302020302020302020302020302020300A20202020302E313434362020202D302E3831343420202020302E303030302043202020302020302020302020302020302020302020302020302020302020302020302020300A2020202D302E343638352020202D302E3236323420202020302E303030302043202020302020302020302020302020302020302020302020302020302020302020302020300A20202020312E3838353320202020302E3530323420202020302E30303030204E202020302020332020302020302020302020302020302020302020302020302020302020300A20202020322E3031343420202020312E3331373320202020302E30303030204F202020302020302020302020302020302020302020302020302020302020302020302020300A20202020322E353236352020202D302E3031363820202020302E30303030204F202020302020352020302020302020302020302020302020302020302020302020302020300A2020202D322E3433313520202020302E3537363620202020302E303030302043202020302020302020302020302020302020302020302020302020302020302020302020300A2020202D312E373031352020202D312E3036333120202020302E303030302043202020302020302020302020302020302020302020302020302020302020302020302020300A2020202D312E323839302020202D312E3737373620202020302E30303030204F202020302020302020302020302020302020302020302020302020302020302020302020300A2020202D322E353236352020202D312E3036333120202020302E303030302043202020302020302020302020302020302020302020302020302020302020302020302020300A2020202D312E3039373720202020312E3737373620202020302E303030302048202020302020302020302020302020302020302020302020302020302020302020302020300A20202020302E3635393220202020312E3630363520202020302E303030302048202020302020302020302020302020302020302020302020302020302020302020302020300A2020202D302E303236392020202D312E3632313420202020302E303030302048202020302020302020302020302020302020302020302020302020302020302020302020300A20202020312E353432332020202D312E3131313520202020302E303030302048202020302020302020302020302020302020302020302020302020302020302020302020300A2020312020322020312020302020202020200A2020322020332020322020302020202020200A2020332020342020312020302020202020200A2020342020352020312020302020202020200A2020352020362020322020302020202020200A2020362020372020312020302020202020200A2020372020382020322020302020202020200A2020382020392020312020302020202020200A2020312020392020322020302020202020200A2020342020392020312020302020202020200A2031302031312020322020302020202020200A2031302031322020312020302020202020200A2020362031302020312020302020202020200A2020322031332020312020302020202020200A2031342031352020322020302020202020200A2031342031362020312020302020202020200A2020312031342020312020302020202020200A2020332031372020312020302020202020200A2020352031382020312020302020202020200A2020382031392020312020302020202020200A2020372032302020312020302020202020200A4D202043484720203220203130202020312020313220202D310A4D2020454E44
Contributor: SASAKI S, TOYOHASHI UNIV. OF TECH.
InstType: EI
InstName: MX-1303
IoniMethod: _ENERGY 50 eV
IonPolarity: pos
Date: 2010-10-09 19:48:36+02:00
Num Peaks: 62
41 107 42 12 43 281 44 4 45 73 50 26 51 73 52 3 53 13 55 101 
56 24 57 17 60 51 63 31 65 14 68 2 69 231 70 23 71 84 73 5 
75 18 76 37 77 113 78 8 79 12 81 73 82 15 83 4 84 14 85 39 
89 12 91 2 95 20 97 33 101 23 102 8 103 43 107 62 109 11 111 1 
115 23 116 10 117 28 128 6 129 107 130 46 136 51 137 1 142 28 143 46 
144 35 145 1 149 16 157 467 158 21 171 3 172 84 173 14 203 875 204 5 
218 999 219 73 
