Name: URETHANE
CAS: 51-79-6
MW: 89
Formula: C3H7NO2
Synonym: MassBank: JP009502
Synonym: URETHANE
Synonym: ETHYL CARBAMATE
Structure: 310A31360A455448594C2043415242414D4154452E6D6F6C0A20204368656D447261773038313131303138323532440A2020362020352020302020302020302020302020302020302020302020303939392056323030300A20202020302E373134352020202D302E3230363220202020302E303030302043202020302020302020302020302020302020302020302020302020302020302020302020300A20202020312E343238392020202D302E3631383820202020302E30303030204E202020302020302020302020302020302020302020302020302020302020302020302020300A20202020302E3731343520202020302E3631383820202020302E30303030204F202020302020302020302020302020302020302020302020302020302020302020302020300A2020202D302E303030302020202D302E3631383820202020302E30303030204F202020302020302020302020302020302020302020302020302020302020302020302020300A2020202D302E373134352020202D302E3230363320202020302E303030302043202020302020302020302020302020302020302020302020302020302020302020302020300A2020202D312E343238392020202D302E3631383820202020302E303030302043202020302020302020302020302020302020302020302020302020302020302020302020300A2020312020322020312020302020202020200A2020312020332020322020302020202020200A2020312020342020312020302020202020200A2020352020362020312020302020202020200A2020342020352020312020302020202020200A4D2020454E44
Contributor: NARA WOMEN'S UNIVERSITY
InstType: EI
InstName: HITACHI M-80
IoniMethod: _ENERGY 70 eV
IonPolarity: pos
Date: 2010-10-09 19:48:36+02:00
Num Peaks: 25
14 21 15 83 16 76 17 76 18 232 19 25 26 76 27 348 28 130 29 304 
30 49 31 305 32 15 42 27 43 128 44 999 45 615 46 73 61 62 62 797 
63 11 71 10 74 143 89 56 90 72 
