Name: MassBank: JP006654
MW: 339
Formula: C22H33N3
Synonym: MassBank: JP006654
Synonym: 2-(2-AMINO-2-METHYLPROPYL)-1-METHYL-3-(2,2,6,6-TETRAMETHYL-1,2,3,6-TETRAHYDRO-4-PYRIDYL)INDOLE
Structure: 322D28322D414D494E4F2D322D4D455448594C50524F50594C292D312D4D455448594C2D332D28322C322C362C362D54455452414D455448594C2D312C322C332C362D5445545241485944524F2D342D5059524944594C29494E444F4C452E6D6F6C0A20204368656D447261773132323130393133323232440A2032352032372020302020302020302020302020302020302020302020303939392056323030300A2020202D302E3332343120202020312E3439363020202020302E30303030204E202020302020302020302020302020302020302020302020302020302020302020302020300A2020202D302E3332343120202020302E3637313020202020302E303030302043202020302020302020302020302020302020302020302020302020302020302020302020300A20202020302E3436303620202020302E3431363020202020302E303030302043202020302020302020302020302020302020302020302020302020302020302020302020300A20202020302E3934353520202020312E3038333520202020302E303030302043202020302020302020302020302020302020302020302020302020302020302020302020300A20202020312E3736363020202020312E3136393720202020302E303030302043202020302020302020302020302020302020302020302020302020302020302020302020300A20202020322E3130313520202020312E3932333420202020302E303030302043202020302020302020302020302020302020302020302020302020302020302020302020300A20202020312E3631363620202020322E3539303820202020302E303030302043202020302020302020302020302020302020302020302020302020302020302020302020300A20202020302E3739363120202020322E3530343620202020302E303030302043202020302020302020302020302020302020302020302020302020302020302020302020300A20202020302E3436303620202020312E3735303920202020302E303030302043202020302020302020302020302020302020302020302020302020302020302020302020300A20202020302E343034302020202D312E3736363320202020302E303030302043202020302020302020302020302020302020302020302020302020302020302020302020300A20202020302E313633352020202D302E3938313720202020302E303030302043202020302020302020302020302020302020302020302020302020302020302020302020300A20202020302E373135352020202D302E3336383620202020302E303030302043202020302020302020302020302020302020302020302020302020302020302020302020300A20202020312E353232352020202D302E3534303120202020302E303030302043202020302020302020302020302020302020302020302020302020302020302020302020300A20202020312E373834342020202D312E3333373320202020302E303030302043202020302020302020302020302020302020302020302020302020302020302020302020300A20202020312E323235342020202D312E3933373820202020302E30303030204E202020302020302020302020302020302020302020302020302020302020302020302020300A20202020322E343938392020202D302E3932343820202020302E303030302043202020302020302020302020302020302020302020302020302020302020302020302020300A20202020322E323835332020202D312E3937343920202020302E303030302043202020302020302020302020302020302020302020302020302020302020302020302020300A2020202D302E333938362020202D312E3838313120202020302E303030302043202020302020302020302020302020302020302020302020302020302020302020302020300A20202020302E343034302020202D322E3539303820202020302E303030302043202020302020302020302020302020302020302020302020302020302020302020302020300A2020202D302E3939313520202020312E3938303920202020302E303030302043202020302020302020302020302020302020302020302020302020302020302020302020300A2020202D302E3939313520202020302E3138363020202020302E303030302043202020302020302020302020302020302020302020302020302020302020302020302020300A2020202D312E3734353220202020302E3532313620202020302E303030302043202020302020302020302020302020302020302020302020302020302020302020302020300A2020202D312E3430393620202020312E3237353320202020302E303030302043202020302020302020302020302020302020302020302020302020302020302020302020300A2020202D322E303830372020202D302E3233323120202020302E303030302043202020302020302020302020302020302020302020302020302020302020302020302020300A2020202D322E3439383920202020302E3835373220202020302E30303030204E202020302020302020302020302020302020302020302020302020302020302020302020300A2020312020322020312020302020202020200A2020322020332020322020302020202020200A2020332020342020312020302020202020200A2020342020352020312020302020202020200A2020352020362020322020302020202020200A2020362020372020312020302020202020200A2020372020382020322020302020202020200A2020382020392020312020302020202020200A2020312020392020312020302020202020200A2020342020392020322020302020202020200A2031302031312020312020302020202020200A2031312031322020312020302020202020200A2031322031332020322020302020202020200A2031332031342020312020302020202020200A2031342031352020312020302020202020200A2031302031352020312020302020202020200A2031342031362020312020362020202020200A2031342031372020312020312020202020200A2031302031382020312020312020202020200A2031302031392020312020362020202020200A2020332031322020312020302020202020200A2020312032302020312020302020202020200A2032312032322020312020302020202020200A2032322032332020312020302020202020200A2032322032342020312020302020202020200A2032322032352020312020302020202020200A2020322032312020312020302020202020200A4D2020454E44
Contributor: SASAKI S, TOYOHASHI UNIV. OF TECH.
InstType: EI
InstName: JEOL JMS-01-SG-2
IoniMethod: _ENERGY 75 eV
IonPolarity: pos
Date: 2010-10-09 19:48:36+02:00
Num Peaks: 20
58 999 77 10 105 21 128 1 130 20 180 27 181 27 194 5 195 42 210 90 
225 198 226 4 251 246 252 48 266 20 267 20 268 44 282 121 324 15 339 18 
