Name: 3-PHENYLPYRIDINE
MW: 155
Formula: C11H9N
Synonym: MassBank: JP002052
Synonym: 3-PHENYLPYRIDINE
Structure: 332D5048454E594C5059524944494E452E6D6F6C0A20204368656D447261773033323331303136313532440A2031322031332020302020302020302020302020302020302020302020303939392056323030300A20202020302E3832353020202020302E3731343520202020302E303030302043202020302020302020302020302020302020302020302020302020302020302020302020300A20202020302E3431323520202020302E3030303020202020302E303030302043202020302020302020302020302020302020302020302020302020302020302020302020300A20202020302E383235302020202D302E3731343520202020302E303030302043202020302020302020302020302020302020302020302020302020302020302020302020300A20202020312E363530302020202D302E3731343520202020302E303030302043202020302020302020302020302020302020302020302020302020302020302020302020300A20202020322E3036323520202020302E3030303020202020302E303030302043202020302020302020302020302020302020302020302020302020302020302020302020300A20202020312E3635303020202020302E3731343520202020302E30303030204E202020302020302020302020302020302020302020302020302020302020302020302020300A2020202D302E3431323520202020302E3030303020202020302E303030302043202020302020302020302020302020302020302020302020302020302020302020302020300A2020202D302E3832353020202020302E3731343520202020302E303030302043202020302020302020302020302020302020302020302020302020302020302020302020300A2020202D312E3635303020202020302E3731343520202020302E303030302043202020302020302020302020302020302020302020302020302020302020302020302020300A2020202D322E3036323520202020302E3030303020202020302E303030302043202020302020302020302020302020302020302020302020302020302020302020302020300A2020202D312E363530302020202D302E3731343520202020302E303030302043202020302020302020302020302020302020302020302020302020302020302020302020300A2020202D302E383235302020202D302E3731343520202020302E303030302043202020302020302020302020302020302020302020302020302020302020302020302020300A2020312020322020312020302020202020200A2020322020332020322020302020202020200A2020332020342020312020302020202020200A2020342020352020322020302020202020200A2020352020362020312020302020202020200A2020312020362020322020302020202020200A2020372020382020312020302020202020200A2020382020392020322020302020202020200A2020392031302020312020302020202020200A2031302031312020322020302020202020200A2031312031322020312020302020202020200A2020372031322020322020302020202020200A2020322020372020312020302020202020200A4D2020454E44
Contributor: SASAKI S, TOYOHASHI UNIV. OF TECH.
InstType: EI
InstName: MX-1303
IoniMethod: _ENERGY 50 eV
IonPolarity: pos
Date: 2010-10-09 19:48:36+02:00
Num Peaks: 65
40 57 42 28 43 16 45 5 51 73 52 126 53 48 54 2 55 11 56 19 
57 14 58 1 62 10 63 29 64 69 65 5 66 19 67 12 68 18 69 2 
70 12 71 10 72 10 73 1 74 15 75 54 76 58 77 7 78 85 78.5 30 
79 57 80 2 88 26 89 12 90 22 91 1 92 16 93 10 94 19 99 2 
100 14 101 19 102 35 103 12 104 26 105 15 106 13 107 2 115 10 116 58 
117 17 126 1 127 54 128 136 129 124 130 4 131 11 141 29 152 16 153 5 
154 404 155 999 156 130 157 2 171 10 
