Name: 1-ISOPROPYL-3-METHYL-2-PYRAZOLINE
MW: 126
Formula: C7H14N2
Synonym: MassBank: JP000904
Synonym: 1-ISOPROPYL-3-METHYL-2-PYRAZOLINE
Structure: 310A32330A312D49534F50524F50594C2D332D4D455448594C2D322D505952415A4F4C494E452E6D6F6C0A20204368656D447261773131313930393135353732440A2020392020392020302020302020302020302020302020302020302020303939392056323030300A2020202D302E333439372020202D302E3039313520202020302E30303030204E202020302020302020302020302020302020302020302020302020302020302020302020300A20202020302E3133353220202020302E3537363020202020302E30303030204E202020302020302020302020302020302020302020302020302020302020302020302020300A20202020302E3931393820202020302E3332313020202020302E303030302043202020302020302020302020302020302020302020302020302020302020302020302020300A20202020302E393139382020202D302E3530343020202020302E303030302043202020302020302020302020302020302020302020302020302020302020302020302020300A20202020302E313335322020202D302E3735383920202020302E303030302043202020302020302020302020302020302020302020302020302020302020302020302020300A20202020312E3538373220202020302E3830353920202020302E303030302043202020302020302020302020302020302020302020302020302020302020302020302020300A2020202D312E313734372020202D302E3039313520202020302E303030302043202020302020302020302020302020302020302020302020302020302020302020302020300A2020202D312E353837322020202D302E3830353920202020302E303030302043202020302020302020302020302020302020302020302020302020302020302020302020300A2020202D312E3538373220202020302E3632333020202020302E303030302043202020302020302020302020302020302020302020302020302020302020302020302020300A2020312020322020312020302020202020200A2020322020332020322020302020202020200A2020332020342020312020302020202020200A2020342020352020312020302020202020200A2020312020352020312020302020202020200A2020332020362020312020302020202020200A2020372020382020312020302020202020200A2020372020392020312020302020202020200A2020312020372020312020302020202020200A4D2020454E44
Contributor: SASAKI S, TOYOHASHI UNIV. OF TECH.
InstType: EI
InstName: SHIMADZU LKB-2091
IoniMethod: _ENERGY 70 eV
IonPolarity: pos
Date: 2010-10-09 19:48:36+02:00
Num Peaks: 32
26 15 27 64 28 119 29 4 30 24 39 55 40 19 41 11 42 333 43 67 
44 24 45 1 53 12 54 36 55 31 56 15 57 16 58 14 68 31 69 3 
70 36 71 14 82 16 83 24 84 45 100 14 109 11 111 999 112 86 125 22 
126 238 127 24 
