Name: ORTHO-ANISIDINE
MW: 123
Formula: C7H9NO
Synonym: MassBank: JP001818
Synonym: ORTHO-ANISIDINE
Synonym: ORTHO-METHOXYANILINE
Structure: 310A32330A4F5254484F2D4D4554484F5859414E494C494E452E6D6F6C0A20204368656D447261773038313231303033333932440A2020392020392020302020302020302020302020302020302020302020303939392056323030300A20202020302E3230363320202020312E3037313720202020302E30303030204E202020302020302020302020302020302020302020302020302020302020302020302020300A2020202D302E3230363220202020302E3335373220202020302E303030302043202020302020302020302020302020302020302020302020302020302020302020302020300A20202020302E323036332020202D302E3335373220202020302E303030302043202020302020302020302020302020302020302020302020302020302020302020302020300A2020202D302E323036322020202D312E3037313720202020302E303030302043202020302020302020302020302020302020302020302020302020302020302020302020300A2020202D312E303331322020202D312E3037313720202020302E303030302043202020302020302020302020302020302020302020302020302020302020302020302020300A2020202D312E343433382020202D302E3335373220202020302E303030302043202020302020302020302020302020302020302020302020302020302020302020302020300A2020202D312E3033313320202020302E3335373220202020302E303030302043202020302020302020302020302020302020302020302020302020302020302020302020300A20202020312E303331332020202D302E3335373220202020302E30303030204F202020302020302020302020302020302020302020302020302020302020302020302020300A20202020312E343433382020202D312E3037313720202020302E303030302043202020302020302020302020302020302020302020302020302020302020302020302020300A2020312020322020312020302020202020200A2020322020332020312020302020202020200A2020332020342020322020302020202020200A2020342020352020312020302020202020200A2020352020362020322020302020202020200A2020362020372020312020302020202020200A2020322020372020322020302020202020200A2020382020392020312020302020202020200A2020332020382020312020302020202020200A4D2020454E44
Contributor: TAJIMA S, GUNMA COLLEGE OF TECHNOLOGY
InstType: EI
InstName: HITACHI RMU-7M
IoniMethod: _ENERGY 70 eV
IonPolarity: pos
Date: 2010-10-09 19:48:36+02:00
Num Peaks: 34
15 24 26 14 27 60 28 78 29 13 37 13 38 35 38.5 11 39 103 40 12 
41 31 50 37 51 67 52 136 53 207 54 37 62 15 63 37 64 23 65 128 
66 25 77 21 78 25 79 21 80 676 81 46 91 10 92 60 93 21 94 19 
108 999 109 76 123 859 124 74 
