Name: MassBank: JP009889
MW: 214
Formula: C11H18O4
Synonym: MassBank: JP009889
Synonym: METHYL 3,5-DIHYDRO-3-ETHENYL-5-METHYL-6-HEPTENOATE
Structure: 303830335F4D455448594C20332C352D4449485944524F58592D332D455448454E594C2D352D4D455448594C2D362D48455054454E4F4154452E6D6F6C0A20204368656D447261773130323031303137333832440A2031352031342020302020302020302020302020302020302020302020303939392056323030300A2020202D312E3532363920202020302E3438383720202020302E303030302043202020302020302020302020302020302020302020302020302020302020302020302020300A2020202D302E3731343520202020302E3633323020202020302E303030302043202020302020302020302020302020302020302020302020302020302020302020302020300A2020202D302E3138343220202020302E3030303020202020302E303030302043202020302020302020302020302020302020302020302020302020302020302020302020300A20202020302E353330332020202D302E3431323520202020302E303030302043202020302020302020302020302020302020302020302020302020302020302020302020300A20202020312E3234343820202020302E3030303020202020302E303030302043202020302020302020302020302020302020302020302020302020302020302020302020300A20202020312E3234343820202020302E3832353020202020302E303030302043202020302020302020302020302020302020302020302020302020302020302020302020300A20202020302E3533303320202020312E3233373520202020302E303030302043202020302020302020302020302020302020302020302020302020302020302020302020300A2020202D322E3035373220202020312E3132303720202020302E30303030204F202020302020302020302020302020302020302020302020302020302020302020302020300A2020202D312E383039312020202D302E3238363520202020302E30303030204F202020302020302020302020302020302020302020302020302020302020302020302020300A20202020322E3035373220202020302E3134333320202020302E303030302043202020302020302020302020302020302020302020302020302020302020302020302020300A2020202D302E383938362020202D302E3431323520202020302E303030302043202020302020302020302020302020302020302020302020302020302020302020302020300A2020202D302E383938362020202D312E3233373520202020302E303030302043202020302020302020302020302020302020302020302020302020302020302020302020300A2020202D312E323738382020202D302E3931383520202020302E303030302043202020302020302020302020302020302020302020302020302020302020302020302020300A20202020302E3334363120202020302E3633323020202020302E30303030204F202020302020302020302020302020302020302020302020302020302020302020302020300A20202020312E353236392020202D302E3737353220202020302E30303030204F202020302020302020302020302020302020302020302020302020302020302020302020300A2020312020322020312020302020202020200A2020322020332020312020302020202020200A2020332020342020312020302020202020200A2020342020352020312020302020202020200A2020352020362020312020302020202020200A2020362020372020322020302020202020200A2020312020382020322020302020202020200A2020312020392020312020302020202020200A2020352031302020312020302020202020200A2031312031322020322020302020202020200A2020332031312020312020302020202020200A2020392031332020312020302020202020200A2020332031342020312020302020202020200A2020352031352020312020302020202020200A4D2020454E44
Contributor: KURARAY CO., LTD.
InstType: EI
InstName: JEOL JMS-D-300
IoniMethod: _ENERGY 70 eV
IonPolarity: pos
Date: 2010-10-09 19:48:36+02:00
Num Peaks: 62
27 45 28 63 29 42 39 66 41 148 42 62 43 999 44 48 53 30 54 20 
55 140 56 28 57 38 58 20 59 95 67 63 68 77 69 120 70 56 71 128 
73 20 74 28 79 48 80 28 81 90 84 142 85 85 93 30 94 83 95 124 
96 20 97 180 98 614 99 105 101 46 111 220 112 263 113 100 117 28 122 70 
123 32 125 155 126 210 127 38 129 66 130 26 139 110 140 298 141 303 142 20 
143 90 144 53 154 320 155 206 156 15 165 57 171 55 172 172 173 15 182 20 
183 40 214 22 
