Name: (N-TRIFLUOROACETYLAMINO)METHYLPHOSPHONIC ACID DIBUTYL ESTER
MW: 319
Formula: C11H21F3NO4P
Synonym: MassBank: JP004538
Synonym: (N-TRIFLUOROACETYLAMINO)METHYLPHOSPHONIC ACID DIBUTYL ESTER
Structure: 284E2D545249464C554F524F41434554594C414D494E4F294D455448594C50484F5350484F4E49432041434944204449425554594C2045535445522E6D6F6C0A20204368656D447261773130323230393137313532440A2032302031392020302020302020302020302020302020302020302020303939392056323030300A2020202D322E3433343520202020322E3130333020202020302E303030302046202020302020302020302020302020302020302020302020302020302020302020302020300A2020202D312E3630393520202020322E3130333020202020302E303030302043202020302020302020302020302020302020302020302020302020302020302020302020300A2020202D302E3738343520202020322E3130333020202020302E303030302043202020302020302020302020302020302020302020302020302020302020302020302020300A2020202D312E3630393520202020322E3932383020202020302E303030302046202020302020302020302020302020302020302020302020302020302020302020302020300A2020202D312E3630393520202020312E3237383020202020302E303030302046202020302020302020302020302020302020302020302020302020302020302020302020300A2020202D302E3337323020202020312E3338383520202020302E30303030204E202020302020302020302020302020302020302020302020302020302020302020302020300A2020202D302E3337323020202020322E3831373420202020302E30303030204F202020302020302020302020302020302020302020302020302020302020302020302020300A2020202D302E3738343520202020302E3637343020202020302E303030302043202020302020302020302020302020302020302020302020302020302020302020302020300A2020202D302E333732302020202D302E3034303520202020302E303030302050202020302020302020302020302020302020302020302020302020302020302020302020300A20202020302E303430352020202D302E3735343920202020302E30303030204F202020302020302020302020302020302020302020302020302020302020302020302020300A20202020302E3334323420202020302E3337323020202020302E30303030204F202020302020302020302020302020302020302020302020302020302020302020302020300A2020202D312E303836352020202D302E3435333020202020302E30303030204F202020302020302020302020302020302020302020302020302020302020302020302020300A20202020302E383635352020202D302E3735343920202020302E303030302043202020302020302020302020302020302020302020302020302020302020302020302020300A20202020312E323738302020202D302E3034303520202020302E303030302043202020302020302020302020302020302020302020302020302020302020302020302020300A20202020322E313033302020202D302E3034303520202020302E303030302043202020302020302020302020302020302020302020302020302020302020302020302020300A20202020322E3531353520202020302E3637343020202020302E303030302043202020302020302020302020302020302020302020302020302020302020302020302020300A2020202D312E303836352020202D312E3237383020202020302E303030302043202020302020302020302020302020302020302020302020302020302020302020302020300A2020202D312E383031302020202D312E3639303520202020302E303030302043202020302020302020302020302020302020302020302020302020302020302020302020300A2020202D312E383031302020202D322E3531353520202020302E303030302043202020302020302020302020302020302020302020302020302020302020302020302020300A2020202D322E353135352020202D322E3932383020202020302E303030302043202020302020302020302020302020302020302020302020302020302020302020302020300A2020312020322020312020302020202020200A2020322020332020312020302020202020200A2020322020342020312020312020202020200A2020322020352020312020312020202020200A2020332020362020312020302020202020200A2020332020372020322020302020202020200A2020362020382020312020302020202020200A2020382020392020312020302020202020200A2020392031302020312020302020202020200A2020392031312020322020302020202020200A2020392031322020312020302020202020200A2031302031332020312020302020202020200A2031332031342020312020302020202020200A2031342031352020312020302020202020200A2031352031362020312020302020202020200A2031322031372020312020302020202020200A2031372031382020312020302020202020200A2031382031392020312020302020202020200A2031392032302020312020302020202020200A4D2020454E44
Contributor: HAYASHI A, DEPT. OF CHEMISTRY, FAC. OF SCI. AND TECHNOLOGY, KINKI UNIV.
InstType: EI
InstName: SHIMADZU LKB-9000B
IoniMethod: _ENERGY 70 eV
IonPolarity: pos
Date: 2010-10-09 19:48:36+02:00
Num Peaks: 66
56 12 57 48 65 18 69 4 78 45 82 41 83 280 84 5 86 33 94 65 
95 19 96 3 97 32 98 10 99 132 106 2 109 686 110 105 111 24 112 3 
113 35 119 12 121 13 122 9 123 61 124 12 125 13 126 82 127 261 128 14 
136 12 137 39 138 757 139 186 140 16 150 2 155 35 165 20 169 14 178 5 
187 81 188 12 189 22 190 95 191 57 192 14 194 131 195 1 199 14 206 18 
207 999 208 99 209 138 210 29 211 15 234 7 235 18 236 22 246 92 250 10 
251 10 263 71 264 524 265 4 320 134 321 17 
