Name: PHNYLTRIMETHYLAMMONIUM BROMIDE
MW: 215
Formula: C9H14BrN
Synonym: MassBank: JP004525
Synonym: PHNYLTRIMETHYLAMMONIUM BROMIDE
Structure: 303738305F50484E594C5452494D455448594C414D4D4F4E49554D2042524F4D4944452E6D6F6C0A20204368656D447261773038323031303130313732440A2031312031302020302020302020302020302020302020302020302020303939392056323030300A20202020302E3832353020202020302E3030303020202020302E30303030204E202020302020332020302020302020302020302020302020302020302020302020302020300A20202020302E3832353020202020302E3832353020202020302E303030302043202020302020302020302020302020302020302020302020302020302020302020302020300A20202020312E3635303020202020302E3030303020202020302E303030302043202020302020302020302020302020302020302020302020302020302020302020302020300A20202020302E383235302020202D302E3832353020202020302E303030302043202020302020302020302020302020302020302020302020302020302020302020302020300A20202020302E3030303020202020302E3030303020202020302E303030302043202020302020302020302020302020302020302020302020302020302020302020302020300A2020202D302E343132352020202D302E3731343520202020302E303030302043202020302020302020302020302020302020302020302020302020302020302020302020300A2020202D312E323337352020202D302E3731343520202020302E303030302043202020302020302020302020302020302020302020302020302020302020302020302020300A2020202D312E3635303020202020302E3030303020202020302E303030302043202020302020302020302020302020302020302020302020302020302020302020302020300A2020202D312E3233373520202020302E3731343520202020302E303030302043202020302020302020302020302020302020302020302020302020302020302020302020300A2020202D302E3431323520202020302E3731343520202020302E303030302043202020302020302020302020302020302020302020302020302020302020302020302020300A20202020302E323431362020202D302E3538333420202020302E303030302042722020302020352020302020302020302020302020302020302020302020302020302020300A2020312020322020312020302020202020200A2020312020332020312020302020202020200A2020312020342020312020302020202020200A2020352020362020312020302020202020200A2020362020372020322020302020202020200A2020372020382020312020302020202020200A2020382020392020322020302020202020200A2020392031302020312020302020202020200A2020352031302020322020302020202020200A2020312020352020312020302020202020200A4D202043484720203220202031202020312020313120202D310A4D2020454E44
Contributor: ISA K, DEPT. OF CHEM., FAC. OF EDUC., FUKUI UNIV.
InstType: EI
InstName: JEOL JMS-01-SG
IoniMethod: _ENERGY 15 eV
IonPolarity: pos
Date: 2010-10-09 19:48:36+02:00
Num Peaks: 14
42 180 44 170 58 280 77 3 79 180 91 190 94 190 104 2 105 270 120 999 
121 740 134 3 135 160 136 30 
