Name: METHYLPROPYLSILANE
MW: 88
Formula: C4H12Si
Synonym: MassBank: JP005986
Synonym: METHYLPROPYLSILANE
Structure: 310A31340A4D455448594C50524F50594C53494C414E452E6D6F6C0A20204368656D447261773038313231303030353532440A2020352020342020302020302020302020302020302020302020302020303939392056323030300A2020202D302E3731343520202020302E3230363320202020302E303030302053692020302020302020302020302020302020302020302020302020302020302020302020300A2020202D302E303030302020202D302E3230363320202020302E303030302043202020302020302020302020302020302020302020302020302020302020302020302020300A20202020302E3731343520202020302E3230363320202020302E303030302043202020302020302020302020302020302020302020302020302020302020302020302020300A20202020312E343238392020202D302E3230363220202020302E303030302043202020302020302020302020302020302020302020302020302020302020302020302020300A2020202D312E343238392020202D302E3230363220202020302E303030302043202020302020302020302020302020302020302020302020302020302020302020302020300A2020322020332020312020302020202020200A2020332020342020312020302020202020200A2020312020322020312020302020202020200A2020312020352020312020302020202020200A4D2020454E44
Contributor: YAMAMOTO M, DEP. CHEMISTRY, FAC. SCIENCE, NARA WOMEN'S UNIV.
InstType: EI
InstName: HITACHI RMU-6M
IoniMethod: _ENERGY 20 eV
IonPolarity: pos
Date: 2010-10-09 19:48:36+02:00
Num Peaks: 24
28 26 31 11 41 36 42 16 43 94 44 614 45 999 46 7 47 32 58 409 
59 523 60 4 61 17 70 17 71 65 72 10 73 496 74 41 75 17 85 2 
86 578 87 245 88 236 89 25 
