Name: MassBank: JP011154
MW: 232
Formula: C12H9ClN2O
Synonym: MassBank: JP011154
Synonym: TRANS-(3'-CHLORO-N,N,O)AZOXYBENZENE
Structure: 303338345F5452414E532D2833272D43484C4F524F2D4E2C4E2C4F29415A4F585942454E5A454E452E6D6F6C0A20204368656D447261773038323031303032323732440A2031362031372020302020302020302020302020302020302020302020303939392056323030300A2020202D322E363831332020202D302E3030303120202020302E303030302043202020302020302020302020302020302020302020302020302020302020302020302020300A2020202D322E3236383820202020302E3731343420202020302E303030302043202020302020302020302020302020302020302020302020302020302020302020302020300A2020202D312E3434333820202020302E3731343420202020302E303030302043202020302020302020302020302020302020302020302020302020302020302020302020300A2020202D312E303331322020202D302E3030303120202020302E303030302043202020302020302020302020302020302020302020302020302020302020302020302020300A2020202D312E343433382020202D302E3731343520202020302E303030302043202020302020302020302020302020302020302020302020302020302020302020302020300A2020202D322E323638382020202D302E3731343520202020302E303030302043202020302020302020302020302020302020302020302020302020302020302020302020300A2020202D302E323036322020202D302E3030303120202020302E30303030204E202020302020332020302020302020302020302020302020302020302020302020302020300A20202020302E323036332020202D302E3731343520202020302E30303030204F202020302020352020302020302020302020302020302020302020302020302020302020300A20202020302E3230363320202020302E3731343420202020302E30303030204E202020302020352020302020302020302020302020302020302020302020302020302020300A20202020312E3033313320202020302E3731343420202020302E303030302043202020302020302020302020302020302020302020302020302020302020302020302020300A20202020312E3434333720202020302E3030303020202020302E303030302043202020302020302020302020302020302020302020302020302020302020302020302020300A20202020322E3236383820202020302E3030303020202020302E303030302043202020302020302020302020302020302020302020302020302020302020302020302020300A20202020322E3638313320202020302E3731343420202020302E303030302043202020302020302020302020302020302020302020302020302020302020302020302020300A20202020322E3236383820202020312E3432383920202020302E303030302043202020302020302020302020302020302020302020302020302020302020302020302020300A20202020312E3434333720202020312E3432383920202020302E303030302043202020302020302020302020302020302020302020302020302020302020302020302020300A2020202D322E363831332020202D312E3432383920202020302E3030303020436C2020302020302020302020302020302020302020302020302020302020302020302020300A2020312020322020312020302020202020200A2020322020332020322020302020202020200A2020332020342020312020302020202020200A2020342020352020322020302020202020200A2020352020362020312020302020202020200A2020312020362020322020302020202020200A2020372020382020342020302020202020200A2020372020392020342020302020202020200A2020342020372020312020302020202020200A2020392031302020312020302020202020200A2031302031312020322020302020202020200A2031312031322020312020302020202020200A2031322031332020322020302020202020200A2031332031342020312020302020202020200A2031342031352020322020302020202020200A2031352031302020312020302020202020200A2020362031362020312020302020202020200A4D202043484720203320202037202020312020203820202D312020203920202D310A4D2020454E44
Contributor: SAWADA M, THE INST. OF SCIENTIFIC AND INDUSTRIALRESEARCH OSAKA UNIV.
InstType: EI
InstName: JEOL JMS-DX-300
IoniMethod: _ENERGY 70 eV
IonPolarity: pos
Date: 2010-10-09 19:48:36+02:00
Num Peaks: 121
31 35 33 35 34 133 35 18 36 152 37 30 38 106 39 189 40 739 41 108 
42 46 43 149 44 607 45 26 49 17 50 224 51 581 52 71 53 17 54 16 
55 58 56 33 57 41 58 11 60 20 61 73 62 71 63 244 64 219 65 105 
66 48 67 27 68 15 69 23 70 28 71 24 72 14 73 55 74 85 75 298 
76 121 77 944 78 271 79 32 81 17 82 11 83 23 84 18 85 40 87 18 
88 18 89 54 90 212 91 604 92 87 93 99 94 28 95 15 97 20 98 38 
99 206 100 29 101 69 102 16 103 13 104 60 105 677 106 72 107 96 108 13 
109 12 110 12 111 388 112 50 113 125 114 18 115 102 116 18 117 14 118 11 
119 20 125 67 126 32 127 168 128 30 129 50 133 11 135 10 139 113 140 35 
141 186 142 31 149 27 150 12 151 31 152 111 153 39 154 12 155 15 166 21 
167 28 168 105 169 154 170 27 175 18 182 30 197 245 198 68 203 111 204 59 
205 41 206 21 216 398 217 72 218 142 219 23 231 38 232 999 233 207 234 359 
235 67 
