Name: MassBank: JP012016
MW: 174
Formula: C8H22Si2
Synonym: MassBank: JP012016
Synonym: 1,1,2,2-TETRAETHYLDISILANE
Structure: 312C312C322C322D5445545241455448594C444953494C414E452E6D6F6C0A20204368656D447261773130323330393031303832440A2031302020392020302020302020302020302020302020302020302020303939392056323030300A20202020302E3431323520202020302E3030303020202020302E303030302053692020302020302020302020302020302020302020302020302020302020302020302020300A2020202D302E343132352020202D302E3030303020202020302E303030302053692020302020302020302020302020302020302020302020302020302020302020302020300A2020202D302E383235302020202D302E3731343520202020302E303030302043202020302020302020302020302020302020302020302020302020302020302020302020300A2020202D302E343132352020202D312E3432383920202020302E303030302043202020302020302020302020302020302020302020302020302020302020302020302020300A2020202D302E3832353020202020302E3731343520202020302E303030302043202020302020302020302020302020302020302020302020302020302020302020302020300A2020202D312E3635303020202020302E3731343520202020302E303030302043202020302020302020302020302020302020302020302020302020302020302020302020300A20202020302E3832353020202020302E3731343520202020302E303030302043202020302020302020302020302020302020302020302020302020302020302020302020300A20202020302E3431323520202020312E3432383920202020302E303030302043202020302020302020302020302020302020302020302020302020302020302020302020300A20202020302E383235302020202D302E3731343520202020302E303030302043202020302020302020302020302020302020302020302020302020302020302020302020300A20202020312E363530302020202D302E3731343520202020302E303030302043202020302020302020302020302020302020302020302020302020302020302020302020300A2020312020322020312020302020202020200A2020332020342020312020302020202020200A2020322020332020312020302020202020200A2020352020362020312020302020202020200A2020322020352020312020302020202020200A2020372020382020312020302020202020200A2020312020372020312020302020202020200A2020392031302020312020302020202020200A2020312020392020312020302020202020200A4D2020454E44
Contributor: YAMAMOTO M, DEP. CHEMISTRY, FAC. SCIENCE, NARA WOMEN'S UNIV.
InstType: EI
InstName: HITACHI RMU-6M
IoniMethod: _ENERGY 70 eV
IonPolarity: pos
Date: 2010-10-09 19:48:36+02:00
Num Peaks: 53
26 11 27 38 28 39 29 125 30 19 31 281 32 22 42 10 43 182 44 22 
45 93 53 31 55 99 56 65 57 318 58 682 59 864 60 101 61 121 62 15 
63 10 68 45 69 15 71 34 72 12 73 29 74 10 75 19 81 22 83 29 
84 17 85 79 86 999 87 864 88 178 89 498 90 69 91 38 103 14 114 34 
115 180 116 108 117 420 118 69 119 31 144 45 145 254 146 48 147 22 173 22 
174 511 175 98 176 45 
