Name: MassBank: JP011078
CAS: 57-71-6
MW: 101
Formula: C4H7NO2
Synonym: MassBank: JP011078
Synonym: 2,3-BUTANEDIONE MONOXIME
Structure: 310A31380A322C332D425554414E4544494F4E45204D4F4E4F58494D452E6D6F6C0A20204368656D447261773132323030393131313932440A2020372020362020302020302020302020302020302020302020302020303939392056323030300A2020202D302E3431323520202020312E3037313720202020302E303030302043202020302020302020302020302020302020302020302020302020302020302020302020300A2020202D302E3030303020202020302E3335373220202020302E303030302043202020302020302020302020302020302020302020302020302020302020302020302020300A2020202D302E343132352020202D302E3335373220202020302E303030302043202020302020302020302020302020302020302020302020302020302020302020302020300A2020202D312E323337352020202D302E3335373220202020302E303030302043202020302020302020302020302020302020302020302020302020302020302020302020300A2020202D302E303030302020202D312E3037313720202020302E30303030204F202020302020302020302020302020302020302020302020302020302020302020302020300A20202020302E3832353020202020302E3335373220202020302E30303030204E202020302020302020302020302020302020302020302020302020302020302020302020300A20202020312E323337352020202D302E3335373220202020302E30303030204F202020302020302020302020302020302020302020302020302020302020302020302020300A2020312020322020312020302020202020200A2020322020332020312020302020202020200A2020332020342020312020302020202020200A2020332020352020322020302020202020200A2020362020372020312020302020202020200A2020322020362020322020302020202020200A4D2020454E44
Contributor: YAMAMOTO M, DEP. CHEMISTRY, FAC. SCIENCE, NARA WOMEN'S UNIV.
InstType: EI
InstName: HITACHI M-80
IoniMethod: _ENERGY 70 eV
IonPolarity: pos
Date: 2010-10-09 19:48:36+02:00
Num Peaks: 17
14 21 15 133 26 17 27 29 28 37 29 13 30 16 31 28 38 10 39 19 
40 43 41 46 42 151 43 999 44 24 58 57 101 139 
