Name: MassBank: JP011820
MW: 539
Formula: C31H45NO5Si
Synonym: MassBank: JP011820
Synonym: (E)-(2R,3S)-2-((1'S)-1'-TERT-BUTYLDIMETHYLSILOXYETHYL)-3-(N-BENZYL-TERT-BUTYLOXYCARBONYLAMINO)-5-PHENYL-4-PENTENOIC ACID
Structure: 2845292D2832522C3353292D322D2828312753292D31272D544552542D425554594C44494D455448594C53494C4F5859455448594C292D332D284E2D42454E5A594C2D544552542D425554594C4F5859434152424F4E594C414D494E4F292D352D5048454E594C2D342D50454E54454E4F494320414349442E6D6F6C0A20204368656D447261773130323230393035333232440A2034332034342020302020302020302020302020302020302020302020303939392056323030300A2020202D332E333831352020202D332E3137343820202020302E303030302043202020302020302020302020302020302020302020302020302020302020302020302020300A2020202D332E303939342020202D322E3339393620202020302E303030302043202020302020302020302020302020302020302020302020302020302020302020302020300A2020202D322E383137322020202D312E3632343320202020302E303030302053692020302020302020302020302020302020302020302020302020302020302020302020300A2020202D322E353335302020202D302E3834393120202020302E30303030204F202020302020302020302020302020302020302020302020302020302020302020302020300A2020202D312E373232362020202D302E3730353820202020302E303030302043202020302020302020302020302020302020302020302020302020302020302020302020300A2020202D302E363537332020202D302E3538313320202020302E303030302043202020302020302020302020302020302020302020302020302020302020302020302020300A20202020302E313632312020202D302E3438353620202020302E303030302043202020302020302020302020302020302020302020302020302020302020302020302020300A2020202D332E383734362020202D322E3131373420202020302E303030302043202020302020302020302020302020302020302020302020302020302020302020302020300A2020202D322E333234312020202D322E3638313820202020302E303030302043202020302020302020302020302020302020302020302020302020302020302020302020300A2020202D332E353932342020202D312E3334323220202020302E303030302043202020302020302020302020302020302020302020302020302020302020302020302020300A2020202D322E303431392020202D312E3930363520202020302E303030302043202020302020302020302020302020302020302020302020302020302020302020302020300A2020202D312E3836353820202020302E3130363620202020302E303030302048202020302020302020302020302020302020302020302020302020302020302020302020300A2020202D312E353739332020202D312E3531383320202020302E303030302043202020302020302020302020302020302020302020302020302020302020302020302020300A2020202D302E353631352020202D312E3430303820202020302E303030302048202020302020302020302020302020302020302020302020302020302020302020302020300A20202020302E393837312020202D302E3438353620202020302E303030302043202020302020302020302020302020302020302020302020302020302020302020302020300A2020202D302E3032343120202020302E3537303620202020302E30303030204E202020302020302020302020302020302020302020302020302020302020302020302020300A20202020302E323130312020202D312E3330393220202020302E303030302048202020302020302020302020302020302020302020302020302020302020302020302020300A20202020312E333939362020202D312E3230303020202020302E303030302043202020302020302020302020302020302020302020302020302020302020302020302020300A20202020312E3339393620202020302E3232383920202020302E303030302048202020302020302020302020302020302020302020302020302020302020302020302020300A20202020322E323234362020202D312E3230303020202020302E303030302043202020302020302020302020302020302020302020302020302020302020302020302020300A20202020302E393837312020202D312E3931343520202020302E303030302048202020302020302020302020302020302020302020302020302020302020302020302020300A20202020322E363337312020202D312E3931343520202020302E303030302043202020302020302020302020302020302020302020302020302020302020302020302020300A20202020332E343632312020202D312E3931343520202020302E303030302043202020302020302020302020302020302020302020302020302020302020302020302020300A20202020332E383734362020202D312E3230303020202020302E303030302043202020302020302020302020302020302020302020302020302020302020302020302020300A20202020332E343632312020202D302E3438353620202020302E303030302043202020302020302020302020302020302020302020302020302020302020302020302020300A20202020322E363337312020202D302E3438353620202020302E303030302043202020302020302020302020302020302020302020302020302020302020302020302020300A20202020302E3530363220202020312E3230323620202020302E303030302043202020302020302020302020302020302020302020302020302020302020302020302020300A2020202D302E3832313020202020302E3738343220202020302E303030302043202020302020302020302020302020302020302020302020302020302020302020302020300A2020202D312E3033343520202020312E3538313120202020302E303030302043202020302020302020302020302020302020302020302020302020302020302020302020300A20202020302E3135373520202020312E3935303320202020302E30303030204F202020302020302020302020302020302020302020302020302020302020302020302020300A20202020312E3333313220202020312E3230323620202020302E30303030204F202020302020302020302020302020302020302020302020302020302020302020302020300A20202020312E3734333720202020312E3931373120202020302E303030302043202020302020302020302020302020302020302020302020302020302020302020302020300A20202020322E3135363220202020322E3633313620202020302E303030302043202020302020302020302020302020302020302020302020302020302020302020302020300A20202020312E3032393220202020322E3332393620202020302E303030302043202020302020302020302020302020302020302020302020302020302020302020302020300A20202020322E3435383120202020312E3530343620202020302E303030302043202020302020302020302020302020302020302020302020302020302020302020302020300A2020202D302E3435313220202020322E3136343420202020302E303030302043202020302020302020302020302020302020302020302020302020302020302020302020300A2020202D302E3636343720202020322E3936313320202020302E303030302043202020302020302020302020302020302020302020302020302020302020302020302020300A2020202D312E3436313620202020332E3137343820202020302E303030302043202020302020302020302020302020302020302020302020302020302020302020302020300A2020202D322E3034353020202020322E3539313520202020302E303030302043202020302020302020302020302020302020302020302020302020302020302020302020300A2020202D312E3833313420202020312E3739343620202020302E303030302043202020302020302020302020302020302020302020302020302020302020302020302020300A2020202D302E383730302020202D302E3038323920202020302E303030302043202020302020302020302020302020302020302020302020302020302020302020302020300A2020202D302E313535352020202D302E3439353420202020302E30303030204F202020302020302020302020302020302020302020302020302020302020302020302020300A2020202D312E353832372020202D302E3439343420202020302E30303030204F202020302020302020302020302020302020302020302020302020302020302020302020300A2020312020322020312020302020202020200A2020322020332020312020302020202020200A2020332020342020312020302020202020200A2020342020352020312020302020202020200A2020352020362020312020302020202020200A2020362020372020312020302020202020200A2020322020382020312020312020202020200A2020322020392020312020312020202020200A2020332031302020312020302020202020200A2020332031312020312020302020202020200A2020352031322020312020312020202020200A2020352031332020312020312020202020200A2020362031342020312020312020202020200A2020372031352020312020302020202020200A2020372031362020312020312020202020200A2020372031372020312020312020202020200A2031352031382020322020302020202020200A2031352031392020312020302020202020200A2031382032302020312020302020202020200A2031382032312020312020302020202020200A2032302032322020322020302020202020200A2032322032332020312020302020202020200A2032332032342020322020302020202020200A2032342032352020312020302020202020200A2032352032362020322020302020202020200A2032362032302020312020302020202020200A2031362032372020312020302020202020200A2031362032382020312020302020202020200A2032382032392020312020302020202020200A2032372033302020322020302020202020200A2032372033312020312020302020202020200A2033312033322020312020302020202020200A2033322033332020312020302020202020200A2033322033342020312020312020202020200A2033322033352020312020312020202020200A2032392033362020322020302020202020200A2033362033372020312020302020202020200A2033372033382020322020302020202020200A2033382033392020312020302020202020200A2033392034302020322020302020202020200A2034302032392020312020302020202020200A2020362034312020312020312020202020200A2034312034322020322020302020202020200A2034312034332020312020302020202020200A4D202053545920203120202031205355500A4D2020534C4220203120202031202020310A4D202053414C202020312020332020343120203432202034330A4D202053424C20202031202031202034320A4D2020534D542020203120434F4F480A4D2020534256202020312034322020202D362E3939353520202020382E333432330A4D2020454E44
Contributor: YOSHINORI Y, FAC. SCIENCE, TOHOKU UNIV.
InstType: EI
InstName: Unknown
IoniMethod: _ENERGY 20 eV
IonPolarity: pos
Date: 2010-10-09 19:48:36+02:00
Num Peaks: 36
344 16 348 206 349 54 350 17 351 117 352 34 374 34 381 17 382 257 383 76 
384 36 389 26 394 32 408 24 424 20 425 24 426 643 427 202 428 75 429 17 
433 46 439 26 440 19 465 22 466 80 467 31 468 32 482 38 483 999 484 370 
485 106 486 23 494 19 539 244 540 107 541 43 
