Name: MassBank: JP010979
MW: 284
Formula: C15H24O5
Synonym: MassBank: JP010979
Synonym: 1-HYDROXY-7,8-DIMETHOXY-3,3,4,4-TETRAMETHYL-10-OXATRICYCLO(5.2.1.0(2,5))DECAN-6-ONE
Structure: 312D485944524F58592D372C382D44494D4554484F58592D332C332C342C342D54455452414D455448594C2D31302D4F58415452494359434C4F28352E322E312E3028322C352929444543414E2D362D4F4E452E6D6F6C0A20204368656D447261773131313930393134333932440A2032302032322020302020302020302020302020302020302020302020303939392056323030300A2020202D302E3238393920202020312E3230343420202020302E303030302043202020302020302020302020302020302020302020302020302020302020302020302020300A2020202D312E3032393420202020302E3834323720202020302E303030302043202020302020302020302020302020302020302020302020302020302020302020302020300A2020202D312E3230383920202020302E3033373520202020302E303030302043202020302020302020302020302020302020302020302020302020302020302020302020300A2020202D302E363931342020202D302E3630353020202020302E303030302043202020302020302020302020302020302020302020302020302020302020302020302020300A20202020302E313333362020202D302E3630303820202020302E303030302043202020302020302020302020302020302020302020302020302020302020302020302020300A20202020302E3634343820202020302E3034363720202020302E303030302043202020302020302020302020302020302020302020302020302020302020302020302020300A20202020302E3435373220202020302E3835303120202020302E303030302043202020302020302020302020302020302020302020302020302020302020302020302020300A20202020312E3434383220202020302E3233343320202020302E303030302043202020302020302020302020302020302020302020302020302020302020302020302020300A20202020312E3236303620202020312E3033373720202020302E303030302043202020302020302020302020302020302020302020302020302020302020302020302020300A2020202D302E3133303120202020302E3339333720202020302E30303030204F202020302020302020302020302020302020302020302020302020302020302020302020300A2020202D302E3238393920202020322E3032393420202020302E30303030204F202020302020302020302020302020302020302020302020302020302020302020302020300A2020202D312E303435362020202D312E3335303020202020302E30303030204F202020302020302020302020302020302020302020302020302020302020302020302020300A2020202D302E353737352020202D322E3032393420202020302E303030302043202020302020302020302020302020302020302020302020302020302020302020302020300A20202020302E343935332020202D312E3334323320202020302E30303030204F202020302020302020302020302020302020302020302020302020302020302020302020300A2020202D322E303132332020202D302E3135303120202020302E30303030204F202020302020302020302020302020302020302020302020302020302020302020302020300A2020202D322E323531362020202D302E3933393720202020302E303030302043202020302020302020302020302020302020302020302020302020302020302020302020300A20202020322E3036343020202020312E3232353320202020302E303030302043202020302020302020302020302020302020302020302020302020302020302020302020300A20202020312E363335382020202D302E3536393120202020302E303030302043202020302020302020302020302020302020302020302020302020302020302020302020300A20202020312E3037333020202020312E3834313120202020302E303030302043202020302020302020302020302020302020302020302020302020302020302020302020300A20202020322E3235313620202020302E3432313920202020302E303030302043202020302020302020302020302020302020302020302020302020302020302020302020300A2020312020322020312020302020202020200A2020322020332020312020302020202020200A2020332020342020312020302020202020200A2020342020352020312020302020202020200A2020352020362020312020302020202020200A2020362020372020312020302020202020200A2020372020312020312020302020202020200A2020362020382020312020302020202020200A2020382020392020312020302020202020200A2020392020372020312020302020202020200A2020312031302020312020302020202020200A2020342031302020312020302020202020200A2020312031312020312020302020202020200A2020342031322020312020302020202020200A2031322031332020312020302020202020200A2020352031342020322020302020202020200A2020332031352020312020302020202020200A2031352031362020312020302020202020200A2020392031372020312020312020202020200A2020382031382020312020312020202020200A2020392031392020312020362020202020200A2020382032302020312020362020202020200A4D2020454E44
Contributor: TAKESHITA H, INST. OF ADVANCED MATERIAL STUDY KYUSHU UNIV.
InstType: EI
InstName: JEOL JMS-01-SG-2
IoniMethod: _ENERGY 75 eV
IonPolarity: pos
Date: 2010-10-09 19:48:36+02:00
Num Peaks: 61
39 236 41 524 43 410 53 188 55 482 57 322 59 247 67 246 69 259 71 147 
75 253 77 113 79 118 81 110 83 813 84 292 87 106 91 103 93 79 95 323 
97 263 101 232 103 96 104 657 107 80 109 210 110 138 111 81 117 603 118 103 
123 157 127 78 135 102 136 27 137 65 138 37 139 55 141 45 149 62 151 29 
153 554 154 69 155 36 157 34 163 54 167 49 168 27 169 73 177 36 180 32 
181 68 195 25 201 999 202 117 209 60 221 30 223 32 238 74 241 67 269 30 
284 26 
