Name: MassBank: JP011658
MW: 112
Formula: C4H4N2O2
Synonym: MassBank: JP011658
Synonym: PYRAZINE-N,N'-DIOXIDE
Structure: 310A32320A505952415A494E452D4E2C4E272D44494F584944452E6D6F6C0A20204368656D447261773038313231303036323532440A2020382020382020302020302020302020302020302020302020302020303939392056323030300A20202020302E343132352020202D302E3731343520202020302E303030302043202020302020302020302020302020302020302020302020302020302020302020302020300A2020202D302E343132352020202D302E3731343520202020302E303030302043202020302020302020302020302020302020302020302020302020302020302020302020300A20202020302E3832353020202020302E3030303020202020302E30303030204E202020302020332020302020302020302020302020302020302020302020302020302020300A2020202D302E3832353020202020302E3030303020202020302E30303030204E202020302020332020302020302020302020302020302020302020302020302020302020300A2020202D302E3431323520202020302E3731343520202020302E303030302043202020302020302020302020302020302020302020302020302020302020302020302020300A20202020302E3431323520202020302E3731343520202020302E303030302043202020302020302020302020302020302020302020302020302020302020302020302020300A20202020312E3635303020202020302E3030303020202020302E30303030204F202020302020352020302020302020302020302020302020302020302020302020302020300A2020202D312E3635303020202020302E3030303020202020302E30303030204F202020302020352020302020302020302020302020302020302020302020302020302020300A2020312020322020322020302020202020200A2020312020332020312020302020202020200A2020322020342020312020302020202020200A2020342020352020322020302020202020200A2020352020362020312020302020202020200A2020332020362020322020302020202020200A2020332020372020312020302020202020200A2020342020382020312020302020202020200A4D2020434847202034202020332020203120202034202020312020203720202D312020203820202D310A4D2020454E44
Contributor: YAMAMOTO M, DEP. CHEMISTRY, FAC. SCIENCE, NARA WOMEN'S UNIV.
InstType: EI
InstName: HITACHI M-2500
IoniMethod: _ENERGY 70 eV
IonPolarity: pos
Date: 2010-10-09 19:48:36+02:00
Num Peaks: 27
16 22 17 29 25 12 26 97 27 30 28 116 29 89 30 283 37 12 39 40 
40 93 41 94 42 12 46 61 51 26 52 109 53 35 55 19 56 25 67 11 
68 11 80 14 85 15 95 14 96 70 112 999 113 124 
