Name: MassBank: JP011008
MW: 186
Formula: C7H6O6
Synonym: MassBank: JP011008
Synonym: 3,4,6,7-TETRAHYDROXYTROPOLONE
Structure: 332C342C362C372D5445545241485944524F585954524F504F4C4F4E452E6D6F6C0A20204368656D447261773032323131303231353432440A2031332031332020302020302020302020302020302020302020302020303939392056323030300A2020202D312E3638373820202020302E3030303020202020302E30303030204F202020302020302020302020302020302020302020302020302020302020302020302020300A2020202D302E3836323820202020302E3030303020202020302E303030302043202020302020302020302020302020302020302020302020302020302020302020302020300A2020202D302E3530343820202020302E3734333320202020302E303030302043202020302020302020302020302020302020302020302020302020302020302020302020300A20202020302E3239393520202020302E3932363920202020302E303030302043202020302020302020302020302020302020302020302020302020302020302020302020300A20202020302E3934343520202020302E3431323520202020302E303030302043202020302020302020302020302020302020302020302020302020302020302020302020300A20202020302E393434352020202D302E3431323520202020302E303030302043202020302020302020302020302020302020302020302020302020302020302020302020300A20202020302E323939352020202D302E3932363920202020302E303030302043202020302020302020302020302020302020302020302020302020302020302020302020300A2020202D302E353034382020202D302E3734333320202020302E303030302043202020302020302020302020302020302020302020302020302020302020302020302020300A2020202D312E303139322020202D312E3338383320202020302E30303030204F202020302020302020302020302020302020302020302020302020302020302020302020300A2020202D312E3031393220202020312E3338383320202020302E30303030204F202020302020302020302020302020302020302020302020302020302020302020302020300A20202020302E3438333120202020312E3733313220202020302E30303030204F202020302020302020302020302020302020302020302020302020302020302020302020300A20202020312E363837382020202D302E3737303520202020302E30303030204F202020302020302020302020302020302020302020302020302020302020302020302020300A20202020302E343833312020202D312E3733313220202020302E30303030204F202020302020302020302020302020302020302020302020302020302020302020302020300A2020312020322020322020302020202020200A2020322020332020312020302020202020200A2020332020342020322020302020202020200A2020342020352020312020302020202020200A2020352020362020322020302020202020200A2020362020372020312020302020202020200A2020372020382020322020302020202020200A2020322020382020312020302020202020200A2020382020392020312020302020202020200A2020332031302020312020302020202020200A2020342031312020312020302020202020200A2020362031322020312020302020202020200A2020372031332020312020302020202020200A4D2020454E44
Contributor: TAKESHITA H, INST. OF ADVANCED MATERIAL STUDY KYUSHU UNIV.
InstType: EI
InstName: JEOL JMS-01-SG-2
IoniMethod: _ENERGY 75 eV
IonPolarity: pos
Date: 2010-10-09 19:48:36+02:00
Num Peaks: 34
40 43 42 44 43 94 44 82 53 128 54 64 55 96 56 40 57 25 58 45 
66 134 67 35 69 219 70 62 71 96 83 68 84 110 87 25 93 29 94 100 
95 21 112 77 113 238 114 25 122 25 129 76 139 26 140 106 157 69 158 806 
159 67 185 26 186 999 187 109 
