Name: MassBank: JP010923
MW: 152
Formula: C8H8O3
Synonym: MassBank: JP010923
Synonym: 1,3-BENZODIOXOLE-5-METHANOL
Structure: 312C332D42454E5A4F44494F584F4C452D352D4D455448414E4F4C2E6D6F6C0A20204368656D447261773131313130393230343332440A2031312031322020302020302020302020302020302020302020302020303939392056323030300A2020202D312E353738382020202D302E3636373420202020302E30303030204F202020302020302020302020302020302020302020302020302020302020302020302020300A2020202D322E3036333720202020302E3030303020202020302E303030302043202020302020302020302020302020302020302020302020302020302020302020302020300A2020202D312E3537383820202020302E3636373420202020302E30303030204F202020302020302020302020302020302020302020302020302020302020302020302020300A2020202D302E3739343220202020302E3431323520202020302E303030302043202020302020302020302020302020302020302020302020302020302020302020302020300A2020202D302E373934322020202D302E3431323520202020302E303030302043202020302020302020302020302020302020302020302020302020302020302020302020300A2020202D302E3037393720202020302E3832353020202020302E303030302043202020302020302020302020302020302020302020302020302020302020302020302020300A20202020302E3633343820202020302E3431323520202020302E303030302043202020302020302020302020302020302020302020302020302020302020302020302020300A20202020302E363334382020202D302E3431323520202020302E303030302043202020302020302020302020302020302020302020302020302020302020302020302020300A2020202D302E303739372020202D302E3832353020202020302E303030302043202020302020302020302020302020302020302020302020302020302020302020302020300A20202020312E3334393220202020302E3832353020202020302E303030302043202020302020302020302020302020302020302020302020302020302020302020302020300A20202020322E3036333720202020302E3431323520202020302E30303030204F202020302020302020302020302020302020302020302020302020302020302020302020300A2020312020322020312020302020202020200A2020322020332020312020302020202020200A2020332020342020312020302020202020200A2020342020352020312020302020202020200A2020312020352020312020302020202020200A2020362020372020312020302020202020200A2020372020382020322020302020202020200A2020382020392020312020302020202020200A2020352020392020322020302020202020200A2020342020362020322020302020202020200A2031302031312020312020302020202020200A2020372031302020312020302020202020200A4D2020454E44
Contributor: KURARAY CO., LTD.
InstType: EI
InstName: JEOL JMS-D-300
IoniMethod: _ENERGY 70 eV
IonPolarity: pos
Date: 2010-10-09 19:48:36+02:00
Num Peaks: 39
29 40 31 25 38 35 39 134 40 41 50 50 51 103 53 55 55 28 61 27 
62 57 63 103 64 33 65 277 66 101 67 25 74 24 75 75 76 23 77 155 
78 19 79 20 91 39 93 453 94 158 95 23 105 68 119 23 121 133 122 206 
123 218 124 19 135 509 136 57 149 161 150 117 151 391 152 999 153 119 
