Name: MassBank: JP011862
MW: 291
Formula: C13H13N3O5
Synonym: MassBank: JP011862
Synonym: 5-METHYL-2,3-DIMETHOXYCARBONYL-5,6-DIHYDROPYRROLO(1,2-D)(1,2,4)TRIAZOCIN-6-ONE
Structure: 352D4D455448594C2D322C332D44494D4554484F5859434152424F4E594C2D352C362D4449485944524F505952524F4C4F28312C322D442928312C322C3429545249415A4F43494E2D362D4F4E452E6D6F6C0A20204368656D447261773034323331303037303032440A2032312032322020302020302020302020302020302020302020302020303939392056323030300A20202020302E3938353520202020302E3131383320202020302E303030302043202020302020302020302020302020302020302020302020302020302020302020302020300A20202020302E3430323120202020302E3730313720202020302E303030302043202020302020302020302020302020302020302020302020302020302020302020302020300A2020202D302E3432323920202020302E3730313720202020302E303030302043202020302020302020302020302020302020302020302020302020302020302020302020300A2020202D312E3030363320202020302E3131383320202020302E303030302043202020302020302020302020302020302020302020302020302020302020302020302020300A2020202D312E303036332020202D302E3730363720202020302E30303030204E202020302020302020302020302020302020302020302020302020302020302020302020300A2020202D302E343232392020202D312E3239303120202020302E303030302043202020302020302020302020302020302020302020302020302020302020302020302020300A20202020302E343032312020202D312E3239303120202020302E30303030204E202020302020302020302020302020302020302020302020302020302020302020302020300A20202020302E393835352020202D302E3730363720202020302E30303030204E202020302020302020302020302020302020302020302020302020302020302020302020300A2020202D312E373930392020202D302E3936313620202020302E303030302043202020302020302020302020302020302020302020302020302020302020302020302020300A2020202D322E323735382020202D302E3239343220202020302E303030302043202020302020302020302020302020302020302020302020302020302020302020302020300A2020202D312E3739303920202020302E3337333220202020302E303030302043202020302020302020302020302020302020302020302020302020302020302020302020300A2020202D302E373338362020202D322E3035323320202020302E30303030204F202020302020302020302020302020302020302020302020302020302020302020302020300A20202020312E3739303920202020302E3239363920202020302E303030302043202020302020302020302020302020302020302020302020302020302020302020302020300A20202020322E3035393520202020312E3037363920202020302E30303030204F202020302020302020302020302020302020302020302020302020302020302020302020300A20202020322E323735382020202D302E3337303620202020302E30303030204F202020302020302020302020302020302020302020302020302020302020302020302020300A20202020312E393430332020202D312E3132343320202020302E303030302043202020302020302020302020302020302020302020302020302020302020302020302020300A20202020302E3732323920202020312E3436383920202020302E303030302043202020302020302020302020302020302020302020302020302020302020302020302020300A20202020312E3533323620202020312E3539323920202020302E30303030204F202020302020302020302020302020302020302020302020302020302020302020302020300A20202020302E3133393620202020322E3035323320202020302E30303030204F202020302020302020302020302020302020302020302020302020302020302020302020300A2020202D302E3635353820202020312E3835373720202020302E303030302043202020302020302020302020302020302020302020302020302020302020302020302020300A20202020302E373137382020202D322E3035323320202020302E303030302043202020302020302020302020302020302020302020302020302020302020302020302020300A2020312020322020312020302020202020200A2020322020332020322020302020202020200A2020332020342020312020302020202020200A2020342020352020312020302020202020200A2020352020362020312020302020202020200A2020362020372020312020302020202020200A2020372020382020312020302020202020200A2020312020382020322020302020202020200A2020392031302020322020302020202020200A2031302031312020312020302020202020200A2020342031312020322020302020202020200A2020352020392020312020302020202020200A2020362031322020322020302020202020200A2031332031342020322020302020202020200A2031352031362020312020302020202020200A2031332031352020312020302020202020200A2020312031332020312020302020202020200A2031372031382020322020302020202020200A2031392032302020312020302020202020200A2031372031392020312020302020202020200A2020322031372020312020302020202020200A2020372032312020312020302020202020200A4D2020454E44
Contributor: YOSHIKI O, FAC, TECHNOLOGY, OSAKA UNIV.
InstType: EI
InstName: Unknown
IoniMethod: _ENERGY 70 eV
IonPolarity: pos
Date: 2010-10-09 19:48:36+02:00
Num Peaks: 137
50 144 51 308 52 191 53 142 54 49 55 60 56 234 57 111 58 44 59 999 
60 30 61 63 62 289 63 427 64 203 65 149 66 103 67 57 68 28 69 35 
70 13 71 19 72 62 73 21 74 71 75 151 76 182 77 229 78 163 79 94 
80 107 81 24 82 19 83 16 84 10 85 12 86 11 87 30 88 104 89 253 
90 283 91 106 92 82 93 40 94 49 95 19 96 10 99 10 100 13 101 18 
102 152 103 295 104 273 105 87 106 77 107 30 108 11 109 10 111 11 115 41 
116 262 117 251 118 156 119 189 120 44 121 12 129 111 130 133 131 192 132 133 
133 52 134 20 135 46 143 13 144 336 145 140 146 283 147 97 148 45 149 100 
150 11 157 17 158 54 159 116 160 144 161 43 162 61 163 14 171 19 172 113 
173 114 174 144 175 113 176 81 177 189 178 25 182 15 186 28 187 17 188 50 
189 108 190 124 191 29 192 179 193 21 200 372 201 90 202 29 203 43 204 175 
205 70 206 496 207 65 214 11 216 32 217 43 218 36 219 11 220 297 221 44 
230 158 231 598 232 344 233 61 234 17 235 15 247 13 248 25 260 100 261 19 
263 63 264 11 276 11 290 20 291 654 292 105 293 17 
