Name: MassBank: JP010630
MW: 290
Formula: C20H34O
Synonym: MassBank: JP010630
Synonym: (1R,2E,4R,7E,11E)-4-HYDROXYCEMBRA-2,7,11-TRIENE
Synonym: THUMBERGOL
Structure: 2831522C32452C34522C37452C313145292D342D485944524F585943454D4252412D322C372C31312D545249454E452E6D6F6C0A20204368656D447261773130313930393132353932440A2032362032362020302020302020302020302020302020302020302020303939392056323030300A2020202D312E3539333320202020302E3132333120202020302E303030302043202020302020302020302020302020302020302020302020302020302020302020302020300A2020202D312E353933332020202D302E3730313920202020302E303030302043202020302020302020302020302020302020302020302020302020302020302020302020300A2020202D312E303039392020202D312E3238353320202020302E303030302043202020302020302020302020302020302020302020302020302020302020302020302020300A2020202D302E313834392020202D312E3238353320202020302E303030302043202020302020302020302020302020302020302020302020302020302020302020302020300A20202020302E333938342020202D302E3730313920202020302E303030302043202020302020302020302020302020302020302020302020302020302020302020302020300A20202020302E3339383420202020302E3132333120202020302E303030302043202020302020302020302020302020302020302020302020302020302020302020302020300A2020202D302E3138343920202020302E3730363420202020302E303030302043202020302020302020302020302020302020302020302020302020302020302020302020300A2020202D312E3030393920202020302E3730363420202020302E303030302043202020302020302020302020302020302020302020302020302020302020302020302020300A20202020302E393831382020202D312E3238353320202020302E303030302043202020302020302020302020302020302020302020302020302020302020302020302020300A20202020312E383036382020202D312E3238353320202020302E303030302043202020302020302020302020302020302020302020302020302020302020302020302020300A20202020322E333930322020202D302E3730313920202020302E303030302043202020302020302020302020302020302020302020302020302020302020302020302020300A20202020322E3339303220202020302E3132333120202020302E303030302043202020302020302020302020302020302020302020302020302020302020302020302020300A20202020312E3830363820202020302E3730363420202020302E303030302043202020302020302020302020302020302020302020302020302020302020302020302020300A20202020302E3938313820202020302E3730363420202020302E303030302043202020302020302020302020302020302020302020302020302020302020302020302020300A2020202D312E3539333320202020312E3238393820202020302E303030302043202020302020302020302020302020302020302020302020302020302020302020302020300A2020202D302E3539373420202020312E3432303220202020302E303030302048202020302020302020302020302020302020302020302020302020302020302020302020300A2020202D302E373934382020202D322E3038363720202020302E30303030204F202020302020302020302020302020302020302020302020302020302020302020302020300A2020202D302E373934382020202D302E3039323120202020302E303030302048202020302020302020302020302020302020302020302020302020302020302020302020300A2020202D322E333037312020202D312E3131343420202020302E303030302048202020302020302020302020302020302020302020302020302020302020302020302020300A20202020302E353732322020202D322E3030343620202020302E303030302048202020302020302020302020302020302020302020302020302020302020302020302020300A20202020312E333937322020202D302E3031303020202020302E303030302048202020302020302020302020302020302020302020302020302020302020302020302020300A2020202D312E3337393820202020322E3038363720202020302E303030302043202020302020302020302020302020302020302020302020302020302020302020302020300A2020202D322E3339303220202020312E3037363320202020302E303030302043202020302020302020302020302020302020302020302020302020302020302020302020300A20202020312E353933302020202D302E3438373420202020302E303030302043202020302020302020302020302020302020302020302020302020302020302020302020300A20202020302E3736383020202020312E3530333620202020302E303030302043202020302020302020302020302020302020302020302020302020302020302020302020300A2020202D312E343232342020202D312E3939383620202020302E303030302043202020302020302020302020302020302020302020302020302020302020302020302020300A2020312020322020322020302020202020200A2020322020332020312020302020202020200A2020332020342020312020302020202020200A2020342020352020312020302020202020200A2020362020372020312020302020202020200A2020372020382020312020302020202020200A2020382020312020312020302020202020200A2020352020392020312020302020202020200A2020392031302020322020302020202020200A2031302031312020312020302020202020200A2031312031322020312020302020202020200A2031322031332020312020302020202020200A2031332031342020322020302020202020200A2031342020362020312020302020202020200A2020382031352020312020362020202020200A2020382031362020312020312020202020200A2020332031372020312020312020202020200A2020312031382020312020302020202020200A2020322031392020312020302020202020200A2020392032302020312020302020202020200A2031332032312020312020302020202020200A2031352032322020312020302020202020200A2031352032332020312020302020202020200A2031302032342020312020302020202020200A2031342032352020312020302020202020200A2020332032362020312020362020202020200A4D202053545920203120202031205355500A4D2020534C4220203120202031202020310A4D202053414C20202031202031202032340A4D202053424C20202031202031202032340A4D2020534D5420202031204D650A4D2020534256202020312032342020202D372E3539363920202020362E313339310A4D202053545920203120202032205355500A4D2020534C4220203120202032202020320A4D202053414C20202032202031202032350A4D202053424C20202032202031202032350A4D2020534D5420202032204D650A4D2020534256202020322032352020202D372E3539363920202020362E313338330A4D202053545920203120202033205355500A4D2020534C4220203120202033202020330A4D202053414C20202033202031202032360A4D202053424C20202033202031202032360A4D2020534D5420202033204D650A4D2020534256202020332032362020202D372E3739353520202020342E363237390A4D2020454E44
Contributor: EGUCHI S, FAC. OF SCIENCE, HIROSHIMA UNIV.
InstType: EI
InstName: HITACHI RMU-6L
IoniMethod: _ENERGY 70 eV
IonPolarity: pos
Date: 2010-10-09 19:48:36+02:00
Num Peaks: 122
41 792 42 56 43 861 45 4 47 42 53 222 54 56 55 64 56 56 57 194 
58 28 59 4 65 97 66 28 67 514 68 19 69 583 70 83 71 361 72 3 
77 181 78 56 79 417 80 17 81 999 82 208 83 194 84 8 85 111 91 236 
92 83 93 58 94 194 95 556 96 139 97 33 98 69 99 28 105 347 106 10 
107 556 108 278 109 611 110 11 111 125 119 319 120 139 121 61 122 181 123 375 
124 111 125 13 126 97 127 28 131 83 132 5 133 333 134 236 135 430 136 32 
137 278 138 83 139 194 140 5 145 111 146 69 147 417 148 21 149 333 150 139 
151 125 152 6 153 28 159 139 160 69 161 28 162 125 163 194 164 139 165 10 
166 28 173 139 174 28 175 10 176 56 177 125 178 28 179 4 187 140 188 69 
189 292 190 13 191 111 192 14 201 97 202 7 203 69 204 56 205 83 206 3 
207 96 208 21 215 69 216 1 217 55 218 14 219 56 229 28 230 97 231 14 
232 69 233 1 247 125 248 20 257 111 258 2 272 264 273 83 275 42 276 1 
289 97 290 15 
