Name: 2-(HYDROXY(2-NITROPHENYL)METHYL)TROPONE
MW: 257
Formula: C14H11NO4
Synonym: MassBank: JP010987
Synonym: 2-(HYDROXY(2-NITROPHENYL)METHYL)TROPONE
Structure: 322D28485944524F585928322D4E4954524F5048454E594C294D455448594C2954524F504F4E452E6D6F6C0A20204368656D447261773132323130393230353232440A2031392032302020302020302020302020302020302020302020302020303939392056323030300A2020202D302E353839392020202D302E3738303020202020302E30303030204F202020302020302020302020302020302020302020302020302020302020302020302020300A2020202D312E313034332020202D302E3133353020202020302E303030302043202020302020302020302020302020302020302020302020302020302020302020302020300A2020202D312E393038362020202D302E3331383620202020302E303030302043202020302020302020302020302020302020302020302020302020302020302020302020300A2020202D322E3535333620202020302E3139353820202020302E303030302043202020302020302020302020302020302020302020302020302020302020302020302020300A2020202D322E3535333620202020312E3032303820202020302E303030302043202020302020302020302020302020302020302020302020302020302020302020302020300A2020202D312E3930383620202020312E3533353120202020302E303030302043202020302020302020302020302020302020302020302020302020302020302020302020300A2020202D312E3130343320202020312E3335313620202020302E303030302043202020302020302020302020302020302020302020302020302020302020302020302020300A2020202D302E3734363420202020302E3630383320202020302E303030302043202020302020302020302020302020302020302020302020302020302020302020302020300A20202020302E3037383620202020302E3630383320202020302E303030302043202020302020302020302020302020302020302020302020302020302020302020302020300A20202020302E343931312020202D302E3130363220202020302E303030302043202020302020302020302020302020302020302020302020302020302020302020302020300A20202020312E333136312020202D302E3130363220202020302E303030302043202020302020302020302020302020302020302020302020302020302020302020302020300A20202020312E373238362020202D302E3832303720202020302E303030302043202020302020302020302020302020302020302020302020302020302020302020302020300A20202020312E333136312020202D312E3533353120202020302E303030302043202020302020302020302020302020302020302020302020302020302020302020302020300A20202020302E343931312020202D312E3533353120202020302E303030302043202020302020302020302020302020302020302020302020302020302020302020302020300A20202020302E303738362020202D302E3832303720202020302E303030302043202020302020302020302020302020302020302020302020302020302020302020302020300A20202020312E3732383620202020302E3630383320202020302E30303030204E202020302020332020302020302020302020302020302020302020302020302020302020300A20202020322E3535333620202020302E3630383320202020302E30303030204F202020302020302020302020302020302020302020302020302020302020302020302020300A20202020312E3331363120202020312E3332323720202020302E30303030204F202020302020352020302020302020302020302020302020302020302020302020302020300A20202020302E3439313120202020312E3332323720202020302E30303030204F202020302020302020302020302020302020302020302020302020302020302020302020300A2020312020322020322020302020202020200A2020322020332020312020302020202020200A2020332020342020322020302020202020200A2020342020352020312020302020202020200A2020352020362020322020302020202020200A2020362020372020312020302020202020200A2020372020382020322020302020202020200A2020322020382020312020302020202020200A2031302031312020312020302020202020200A2031312031322020322020302020202020200A2031322031332020312020302020202020200A2031332031342020322020302020202020200A2031342031352020312020302020202020200A2031302031352020322020302020202020200A2031362031372020322020302020202020200A2031362031382020312020302020202020200A2031312031362020312020302020202020200A2020392031302020312020302020202020200A2020392031392020312020302020202020200A2020382020392020312020302020202020200A4D202043484720203220203136202020312020313820202D310A4D2020454E44
Contributor: TAKESHITA H, INST. OF ADVANCED MATERIAL STUDY KYUSHU UNIV.
InstType: EI
InstName: JEOL JMS-01-SG-2
IoniMethod: _ENERGY 75 eV
IonPolarity: pos
Date: 2010-10-09 19:48:36+02:00
Num Peaks: 46
38 238 50 191 51 496 52 158 62 174 64 243 76 218 77 999 78 232 79 144 
89 136 104 121 105 484 107 131 133 137 135 198 152 283 153 188 154 218 165 162 
166 324 167 617 168 158 169 121 181 443 182 254 183 154 184 38 185 40 193 18 
194 127 195 381 196 137 197 29 198 32 209 88 210 61 211 387 212 80 213 10 
222 74 223 36 238 34 239 25 240 17 257 64 
