Name: METHYL BETA-D-TALOPYRANOSIDE
MW: 194
Formula: C7H14O6
Synonym: MassBank: JP011151
Synonym: METHYL BETA-D-TALOPYRANOSIDE
Structure: 313032315F4D455448594C20424554412D442D54414C4F505952414E4F534944452E6D6F6C0A20204368656D447261773130323031303139343932440A2031382031382020302020302020302020302020302020302020302020303939392056323030300A2020202D312E3331323220202020302E3933323320202020302E303030302043202020302020302020302020302020302020302020302020302020302020302020302020300A2020202D322E3530323020202020302E3032363220202020302E303030302043202020302020302020302020302020302020302020302020302020302020302020302020300A2020202D312E333132322020202D302E3836373920202020302E303030302043202020302020302020302020302020302020302020302020302020302020302020302020300A20202020302E353530302020202D302E3836373920202020302E303030302043202020302020302020302020302020302020302020302020302020302020302020302020300A20202020312E3738373520202020302E3032363220202020302E303030302043202020302020302020302020302020302020302020302020302020302020302020302020300A20202020302E3535303020202020302E3933323320202020302E30303030204F202020302020302020302020302020302020302020302020302020302020302020302020300A2020202D322E3530323020202020302E3738363820202020302E303030302048202020302020302020302020302020302020302020302020302020302020302020302020300A2020202D322E353032302020202D302E3836373920202020302E30303030204F202020302020302020302020302020302020302020302020302020302020302020302020300A20202020312E3738373520202020302E3838323220202020302E303030302048202020302020302020302020302020302020302020302020302020302020302020302020300A20202020312E373837352020202D302E3738363820202020302E303030302043202020302020302020302020302020302020302020302020302020302020302020302020300A20202020302E353530302020202D302E3036393120202020302E303030302048202020302020302020302020302020302020302020302020302020302020302020302020300A20202020302E353530302020202D312E3639323920202020302E30303030204F202020302020302020302020302020302020302020302020302020302020302020302020300A2020202D312E333132322020202D312E3639323920202020302E30303030204F202020302020302020302020302020302020302020302020302020302020302020302020300A2020202D312E333132322020202D302E3131363820202020302E303030302048202020302020302020302020302020302020302020302020302020302020302020302020300A2020202D312E3331323220202020312E3639323920202020302E303030302048202020302020302020302020302020302020302020302020302020302020302020302020300A2020202D312E3332343120202020302E3333363220202020302E30303030204F202020302020302020302020302020302020302020302020302020302020302020302020300A20202020322E353032302020202D312E3139393320202020302E30303030204F202020302020302020302020302020302020302020302020302020302020302020302020300A2020202D302E3532343520202020302E3133333220202020302E303030302043202020302020302020302020302020302020302020302020302020302020302020302020300A2020312020322020312020302020202020200A2020322020332020312020312020202020200A2020332020342020312020312020202020200A2020352020342020312020312020202020200A2020352020362020312020302020202020200A2020312020362020312020302020202020200A2020322020372020312020302020202020200A2020322020382020312020302020202020200A2020352020392020312020302020202020200A2020352031302020312020302020202020200A2020342031312020312020302020202020200A2020342031322020312020302020202020200A2020332031332020312020302020202020200A2020332031342020312020302020202020200A2020312031352020312020302020202020200A2020312031362020312020302020202020200A2031302031372020312020302020202020200A2031362031382020312020302020202020200A4D2020454E44
Contributor: SAWADA M, THE INST. OF SCIENTIFIC AND INDUSTRIALRESEARCH OSAKA UNIV.
InstType: EI
InstName: JEOL JMS-DX-300
IoniMethod: _ENERGY 70 eV
IonPolarity: pos
Date: 2010-10-09 19:48:36+02:00
Num Peaks: 68
26 13 27 82 30 46 33 81 34 51 39 33 40 70 41 69 42 122 43 200 
44 147 45 218 46 89 47 28 48 10 53 10 54 21 55 105 56 190 57 501 
58 396 59 110 60 657 61 999 62 670 63 48 68 14 69 82 70 99 71 347 
72 223 73 363 74 924 75 788 76 192 77 41 81 10 85 67 86 47 87 203 
88 184 89 37 90 17 91 16 92 11 97 57 98 104 99 49 100 10 101 17 
102 16 103 100 104 79 105 41 116 51 117 81 118 36 121 24 122 30 123 13 
131 11 132 18 133 39 134 54 135 28 144 48 145 57 146 17 
