Name: MassBank: JP011713
MW: 336
Formula: C16H32Si4
Synonym: MassBank: JP011713
Synonym: 1,2,5,6-TERTAETHYL-1,2,5,6-TETRAMETHYL-1,2,5,6-TETRASILACYCLOOCTA-3,7-DIYNE
Structure: 312C322C352C362D5445525441455448594C2D312C322C352C362D54455452414D455448594C2D312C322C352C362D544554524153494C414359434C4F4F4354412D332C372D4449594E452E6D6F6C0A20204368656D447261773130323330393133343432440A2032302032302020302020302020302020302020302020302020302020303939392056323030300A2020202D302E3934333620202020302E3431333020202020302E303030302043202020302020302020302020302020302020302020302020302020302020302020302020300A2020202D302E393432362020202D302E3431323020202020302E303030302053692020302020302020302020302020302020302020302020302020302020302020302020300A2020202D302E333630322020202D302E3939353720202020302E303030302053692020302020302020302020302020302020302020302020302020302020302020302020300A20202020302E343634382020202D302E3939353420202020302E303030302043202020302020302020302020302020302020302020302020302020302020302020302020300A20202020312E303438312020202D302E3431323020202020302E303030302043202020302020302020302020302020302020302020302020302020302020302020302020300A20202020312E3034383320202020302E3431333120202020302E303030302053692020302020302020302020302020302020302020302020302020302020302020302020300A20202020302E3436343820202020302E3939353420202020302E303030302053692020302020302020302020302020302020302020302020302020302020302020302020300A2020202D302E3336303220202020302E3939363420202020302E303030302043202020302020302020302020302020302020302020302020302020302020302020302020300A20202020302E3138323920202020312E3737303720202020302E303030302043202020302020302020302020302020302020302020302020302020302020302020302020300A20202020312E3039363620202020312E3532353920202020302E303030302043202020302020302020302020302020302020302020302020302020302020302020302020300A20202020312E3436303820202020312E3132373620202020302E303030302043202020302020302020302020302020302020302020302020302020302020302020302020300A20202020312E3834353420202020302E3139393620202020302E303030302043202020302020302020302020302020302020302020302020302020302020302020302020300A2020202D302E3632393520202020312E3931343320202020302E303030302043202020302020302020302020302020302020302020302020302020302020302020302020300A20202020322E3238353520202020312E3132373620202020302E303030302043202020302020302020302020302020302020302020302020302020302020302020302020300A2020202D312E373138302020202D302E3133303220202020302E303030302043202020302020302020302020302020302020302020302020302020302020302020302020300A2020202D312E343733312020202D312E3034333820202020302E303030302043202020302020302020302020302020302020302020302020302020302020302020302020300A2020202D322E323835352020202D302E3930303220202020302E303030302043202020302020302020302020302020302020302020302020302020302020302020302020300A2020202D302E393932362020202D312E3532353620202020302E303030302043202020302020302020302020302020302020302020302020302020302020302020302020300A2020202D302E303738312020202D312E3737313020202020302E303030302043202020302020302020302020302020302020302020302020302020302020302020302020300A20202020302E373334332020202D312E3931343320202020302E303030302043202020302020302020302020302020302020302020302020302020302020302020302020300A2020312020322020312020302020202020200A2020322020332020312020302020202020200A2020332020342020312020302020202020200A2020342020352020332020302020202020200A2020352020362020312020302020202020200A2020362020372020312020302020202020200A2020372020382020312020302020202020200A2020382020312020332020302020202020200A2020372020392020312020302020202020200A2020372031302020312020302020202020200A2020362031312020312020302020202020200A2020362031322020312020302020202020200A2020392031332020312020302020202020200A2031312031342020312020302020202020200A2020322031352020312020302020202020200A2020322031362020312020302020202020200A2031362031372020312020302020202020200A2020332031382020312020302020202020200A2020332031392020312020302020202020200A2031392032302020312020302020202020200A4D2020454E44
Contributor: FAC. TECHNOLOGY, HIROSHIMA UNIV.
InstType: EI
InstName: SHIMADZU QP-1000
IoniMethod: _ENERGY 70 eV
IonPolarity: pos
Date: 2010-10-09 19:48:36+02:00
Num Peaks: 95
54 32 56 64 57 11 58 53 60 999 61 64 62 21 67 96 68 11 69 234 
70 32 71 106 73 638 74 43 75 11 81 138 82 21 83 245 84 32 85 202 
86 21 87 149 88 11 93 96 95 106 96 43 97 255 98 32 99 117 100 11 
101 64 104 11 107 21 109 106 110 21 111 245 112 170 113 170 114 21 115 32 
135 11 137 53 139 85 140 53 141 74 149 21 159 32 153 64 155 32 157 11 
161 11 163 21 165 32 167 32 168 11 169 32 171 21 175 11 177 21 179 32 
181 43 183 32 191 21 193 32 195 32 197 21 205 11 207 32 209 32 211 11 
219 11 221 21 223 106 224 32 225 32 235 21 237 43 249 21 251 277 252 96 
253 53 265 64 266 11 277 11 279 277 280 106 281 53 293 53 307 223 308 106 
309 43 321 21 336 340 337 128 338 64 
