Name: MassBank: JP011041
MW: 262
Formula: C11H12Cl2O3
Synonym: MassBank: JP011041
Synonym: 4,6-BIS(CHLOROMETHYL)-2,5-DIMETHOXYTROPONE
Structure: 342C362D4249532843484C4F524F4D455448594C292D322C352D44494D4554484F585954524F504F4E452E6D6F6C0A20204368656D447261773130313831303137323132440A2031362031362020302020302020302020302020302020302020302020303939392056323030300A2020202D312E3535333220202020302E3737303520202020302E30303030204F202020302020302020302020302020302020302020302020302020302020302020302020300A2020202D302E3830393920202020302E3431323520202020302E303030302043202020302020302020302020302020302020302020302020302020302020302020302020300A2020202D302E3136343920202020302E3932363920202020302E303030302043202020302020302020302020302020302020302020302020302020302020302020302020300A20202020302E3633393420202020302E3734333320202020302E303030302043202020302020302020302020302020302020302020302020302020302020302020302020300A20202020302E3939373420202020302E3030303020202020302E303030302043202020302020302020302020302020302020302020302020302020302020302020302020300A20202020302E363339342020202D302E3734333320202020302E303030302043202020302020302020302020302020302020302020302020302020302020302020302020300A2020202D302E313634392020202D302E3932363920202020302E303030302043202020302020302020302020302020302020302020302020302020302020302020302020300A2020202D302E383039392020202D302E3431323520202020302E303030302043202020302020302020302020302020302020302020302020302020302020302020302020300A20202020312E3832323420202020302E3030303020202020302E30303030204F202020302020302020302020302020302020302020302020302020302020302020302020300A20202020322E323334392020202D302E3731343520202020302E303030302043202020302020302020302020302020302020302020302020302020302020302020302020300A2020202D312E353533322020202D302E3737303520202020302E30303030204F202020302020302020302020302020302020302020302020302020302020302020302020300A2020202D322E323334392020202D302E3330353720202020302E303030302043202020302020302020302020302020302020302020302020302020302020302020302020300A20202020312E3135333820202020312E3338383320202020302E303030302043202020302020302020302020302020302020302020302020302020302020302020302020300A20202020302E3835323420202020322E3135363320202020302E3030303020436C2020302020302020302020302020302020302020302020302020302020302020302020300A20202020312E313533382020202D312E3338383320202020302E303030302043202020302020302020302020302020302020302020302020302020302020302020302020300A20202020302E383532342020202D322E3135363320202020302E3030303020436C2020302020302020302020302020302020302020302020302020302020302020302020300A2020312020322020322020302020202020200A2020322020332020312020302020202020200A2020332020342020322020302020202020200A2020342020352020312020302020202020200A2020352020362020322020302020202020200A2020362020372020312020302020202020200A2020372020382020322020302020202020200A2020322020382020312020302020202020200A2020392031302020312020302020202020200A2020352020392020312020302020202020200A2031312031322020312020302020202020200A2020382031312020312020302020202020200A2031332031342020312020302020202020200A2020342031332020312020302020202020200A2031352031362020312020302020202020200A2020362031352020312020302020202020200A4D2020454E44
Contributor: TAKESHITA H, INST. OF ADVANCED MATERIAL STUDY KYUSHU UNIV.
InstType: EI
InstName: JEOL JMS-01-SG-2
IoniMethod: _ENERGY 75 eV
IonPolarity: pos
Date: 2010-10-09 19:48:36+02:00
Num Peaks: 44
38 255 39 999 49 286 50 180 51 238 52 93 53 120 62 89 63 147 65 85 
66 92 67 290 73 148 74 73 77 241 78 101 89 77 91 153 102 74 103 61 
105 61 121 82 155 67 156 23 157 24 158 11 162 15 163 12 169 32 171 16 
183 35 184 12 185 21 199 25 201 11 219 41 220 11 221 28 227 16 231 11 
234 16 262 39 263 22 264 33 
