Name: MassBank: JP010124
MW: 240
Formula: C15H28O2
Synonym: MassBank: JP010124
Synonym: 3,7,11-TRIMETHYL-1,10-DODECADIENE-3,7-DIOL
Structure: 332C372C31312D5452494D455448594C2D312C31302D444F444543414449454E452D332C372D44494F4C2E6D6F6C0A20204368656D447261773032323231303033313432440A2031372031362020302020302020302020302020302020302020302020303939392056323030300A20202020332E3634323420202020302E3030303020202020302E303030302043202020302020302020302020302020302020302020302020302020302020302020302020300A20202020332E323239392020202D302E3731343520202020302E303030302043202020302020302020302020302020302020302020302020302020302020302020302020300A20202020322E343034392020202D302E3731343520202020302E303030302043202020302020302020302020302020302020302020302020302020302020302020302020300A20202020312E353739392020202D302E3731343520202020302E303030302043202020302020302020302020302020302020302020302020302020302020302020302020300A20202020312E3136373420202020302E3030303020202020302E303030302043202020302020302020302020302020302020302020302020302020302020302020302020300A20202020302E3334323420202020302E3030303020202020302E303030302043202020302020302020302020302020302020302020302020302020302020302020302020300A2020202D302E3037303120202020302E3731343520202020302E303030302043202020302020302020302020302020302020302020302020302020302020302020302020300A2020202D302E3738343520202020302E3330323020202020302E303030302043202020302020302020302020302020302020302020302020302020302020302020302020300A2020202D312E3439393020202020302E3731343520202020302E303030302043202020302020302020302020302020302020302020302020302020302020302020302020300A2020202D322E3231333520202020302E3330323020202020302E303030302043202020302020302020302020302020302020302020302020302020302020302020302020300A2020202D322E3932383020202020302E3731343520202020302E303030302043202020302020302020302020302020302020302020302020302020302020302020302020300A2020202D332E3634323420202020302E3330323020202020302E303030302043202020302020302020302020302020302020302020302020302020302020302020302020300A20202020322E3430343920202020302E3131303520202020302E30303030204F202020302020302020302020302020302020302020302020302020302020302020302020300A2020202D302E3438323620202020312E3432383920202020302E30303030204F202020302020302020302020302020302020302020302020302020302020302020302020300A2020202D322E3932383020202020312E3533393520202020302E303030302043202020302020302020302020302020302020302020302020302020302020302020302020300A20202020302E3634343420202020312E3132373020202020302E303030302043202020302020302020302020302020302020302020302020302020302020302020302020300A20202020322E343034392020202D312E3533393520202020302E303030302043202020302020302020302020302020302020302020302020302020302020302020302020300A2020312020322020322020302020202020200A2020322020332020312020302020202020200A2020332020342020312020302020202020200A2020342020352020312020302020202020200A2020352020362020312020302020202020200A2020362020372020312020302020202020200A2020372020382020312020302020202020200A2020382020392020312020302020202020200A2020392031302020312020302020202020200A2031302031312020322020302020202020200A2031312031322020312020302020202020200A2020332031332020312020302020202020200A2020372031342020312020302020202020200A2031312031352020312020302020202020200A2020372031362020312020302020202020200A2020332031372020312020302020202020200A4D2020454E44
Contributor: KURARAY CO., LTD.
InstType: EI
InstName: JEOL JMS-D-300
IoniMethod: _ENERGY 70 eV
IonPolarity: pos
Date: 2010-10-09 19:48:36+02:00
Num Peaks: 69
27 70 29 90 39 60 41 49 42 40 43 900 44 40 45 3 53 80 55 270 
56 50 57 9 58 94 59 75 67 220 68 25 69 999 70 110 71 600 72 5 
79 110 80 150 81 960 82 39 83 240 84 50 85 80 91 4 92 40 93 370 
94 90 95 23 96 90 97 80 105 90 106 3 107 250 108 210 109 590 110 8 
111 90 119 80 120 20 121 38 122 190 123 110 124 40 125 9 126 80 127 60 
133 80 134 4 135 230 136 80 137 40 139 20 140 30 143 30 147 50 148 6 
149 40 152 20 161 120 162 3 177 20 179 30 189 110 204 9 207 20 
