Name: MassBank: JP010424
MW: 261
Formula: C14H12ClNO2
Synonym: MassBank: JP010424
Synonym: N-(4-CHLOROPHENYL)-1-CYCLOHEXENE-1,2-DICARBOXIMIDE
Structure: 4E2D28342D43484C4F524F5048454E594C292D312D4359434C4F484558454E452D312C322D4449434152424F58494D4944452E6D6F6C0A20204368656D447261773038313231303031313832440A2031382032302020302020302020302020302020302020302020302020303939392056323030300A20202020312E353730332020202D302E3431323520202020302E303030302043202020302020302020302020302020302020302020302020302020302020302020302020300A20202020312E3537303320202020302E3431323520202020302E303030302043202020302020302020302020302020302020302020302020302020302020302020302020300A20202020322E3238343820202020302E3832353020202020302E303030302043202020302020302020302020302020302020302020302020302020302020302020302020300A20202020322E3939393220202020302E3431323520202020302E303030302043202020302020302020302020302020302020302020302020302020302020302020302020300A20202020322E393939322020202D302E3431323520202020302E303030302043202020302020302020302020302020302020302020302020302020302020302020302020300A20202020322E323834382020202D302E3832353020202020302E303030302043202020302020302020302020302020302020302020302020302020302020302020302020300A20202020302E373835372020202D302E3636373420202020302E303030302043202020302020302020302020302020302020302020302020302020302020302020302020300A20202020302E353330372020202D312E3435323120202020302E30303030204F202020302020302020302020302020302020302020302020302020302020302020302020300A20202020302E333030382020202D302E3030303020202020302E30303030204E202020302020302020302020302020302020302020302020302020302020302020302020300A20202020302E3738353720202020302E3636373420202020302E303030302043202020302020302020302020302020302020302020302020302020302020302020302020300A20202020302E3533303720202020312E3435323120202020302E30303030204F202020302020302020302020302020302020302020302020302020302020302020302020300A2020202D302E353234322020202D302E3030303020202020302E303030302043202020302020302020302020302020302020302020302020302020302020302020302020300A2020202D302E393336372020202D302E3731343520202020302E303030302043202020302020302020302020302020302020302020302020302020302020302020302020300A2020202D312E373631372020202D302E3731343520202020302E303030302043202020302020302020302020302020302020302020302020302020302020302020302020300A2020202D322E313734322020202D302E3030303020202020302E303030302043202020302020302020302020302020302020302020302020302020302020302020302020300A2020202D312E3736313720202020302E3731343520202020302E303030302043202020302020302020302020302020302020302020302020302020302020302020302020300A2020202D302E3933363720202020302E3731343520202020302E303030302043202020302020302020302020302020302020302020302020302020302020302020302020300A2020202D322E393939322020202D302E3030303020202020302E3030303020436C2020302020302020302020302020302020302020302020302020302020302020302020300A2020322020332020312020302020202020200A2020332020342020312020302020202020200A2020342020352020312020302020202020200A2020352020362020312020302020202020200A2020312020362020312020302020202020200A2020312020322020312020302020202020200A2020372020382020322020302020202020200A2020372020392020312020302020202020200A2020392031302020312020302020202020200A2031302031312020322020302020202020200A2020312020372020312020302020202020200A2020322031302020312020302020202020200A2031322031332020312020302020202020200A2031332031342020322020302020202020200A2031342031352020312020302020202020200A2031352031362020322020302020202020200A2031362031372020312020302020202020200A2031322031372020322020302020202020200A2031352031382020312020302020202020200A2020392031322020312020302020202020200A4D2020454E44
Contributor: UOEH
InstType: EI
InstName: JEOL JMS-DX-303
IoniMethod: _ENERGY 70 eV
IonPolarity: pos
Date: 2010-10-09 19:48:36+02:00
Num Peaks: 45
39 21 50 12 51 30 52 58 53 14 63 17 65 10 66 10 75 17 77 70 
78 19 79 162 80 88 90 19 99 17 107 59 108 93 111 21 125 20 127 14 
138 18 153 20 155 10 167 26 170 18 177 12 180 18 181 14 182 148 183 26 
188 19 190 11 198 26 204 11 216 46 217 43 218 21 219 18 232 20 233 16 
260 19 261 999 262 172 263 360 264 56 
