Name: MassBank: JP011807
MW: 370
Formula: C17H26N2O5S
Synonym: MassBank: JP011807
Synonym: METHYL 2-(N-((BORNANE-10,2-SULTAM)-12-CARBAMOYL)AMINO)-4-PENTENOATE
Structure: 313130395F4D455448594C20322D284E2D2828424F524E414E452D31302C322D53554C54414D292D31322D43415242414D4F594C29414D494E4F292D342D50454E54454E4F4154452E6D6F6C0A20204368656D447261773130323031303230323132440A2032372032392020302020302020302020302020302020302020302020303939392056323030300A2020202D332E353338382020202D302E3338343320202020302E303030302043202020302020302020302020302020302020302020302020302020302020302020302020300A2020202D322E3832343320202020302E3032383220202020302E303030302043202020302020302020302020302020302020302020302020302020302020302020302020300A2020202D322E313039392020202D302E3338343320202020302E303030302043202020302020302020302020302020302020302020302020302020302020302020302020300A2020202D312E3339353420202020302E3032383220202020302E303030302043202020302020302020302020302020302020302020302020302020302020302020302020300A2020202D302E363830392020202D302E3338343320202020302E30303030204E202020302020302020302020302020302020302020302020302020302020302020302020300A20202020302E3033333520202020302E3032383220202020302E303030302043202020302020302020302020302020302020302020302020302020302020302020302020300A20202020302E373438302020202D302E3338343320202020302E30303030204E202020302020302020302020302020302020302020302020302020302020302020302020300A2020202D322E3832343320202020302E3835333220202020302E303030302043202020302020302020302020302020302020302020302020302020302020302020302020300A2020202D312E3339353420202020302E3835333220202020302E303030302043202020302020302020302020302020302020302020302020302020302020302020302020300A2020202D322E3130393920202020312E3236353720202020302E30303030204F202020302020302020302020302020302020302020302020302020302020302020302020300A2020202D322E3130393920202020322E3039303720202020302E303030302043202020302020302020302020302020302020302020302020302020302020302020302020300A2020202D302E3638303920202020312E3236353720202020302E30303030204F202020302020302020302020302020302020302020302020302020302020302020302020300A20202020302E3033333520202020302E3835333220202020302E30303030204F202020302020302020302020302020302020302020302020302020302020302020302020300A20202020302E383334322020202D312E3230343720202020302E303030302043202020302020302020302020302020302020302020302020302020302020302020302020300A20202020312E363431322020202D312E3337363320202020302E303030302043202020302020302020302020302020302020302020302020302020302020302020302020300A20202020322E303533372020202D302E3636313820202020302E303030302043202020302020302020302020302020302020302020302020302020302020302020302020300A20202020312E353031372020202D302E3034383720202020302E303030302053202020302020302020302020302020302020302020302020302020302020302020302020300A20202020312E3637333220202020302E3735383320202020302E30303030204F202020302020302020302020302020302020302020302020302020302020302020302020300A20202020322E3239383620202020302E3136343820202020302E30303030204F202020302020302020302020302020302020302020302020302020302020302020302020300A20202020322E303533372020202D322E3039303720202020302E303030302043202020302020302020302020302020302020302020302020302020302020302020302020300A20202020322E383738372020202D322E3039303720202020302E303030302043202020302020302020302020302020302020302020302020302020302020302020302020300A20202020332E323931322020202D312E3337363320202020302E303030302043202020302020302020302020302020302020302020302020302020302020302020302020300A20202020322E383738372020202D302E3636313820202020302E303030302043202020302020302020302020302020302020302020302020302020302020302020302020300A20202020322E373134362020202D312E3135353620202020302E303030302043202020302020302020302020302020302020302020302020302020302020302020302020300A20202020312E303930312020202D312E3939303220202020302E303030302048202020302020302020302020302020302020302020302020302020302020302020302020300A20202020332E343639332020202D302E3832323520202020302E303030302043202020302020302020302020302020302020302020302020302020302020302020302020300A20202020332E353338382020202D312E3139313520202020302E303030302043202020302020302020302020302020302020302020302020302020302020302020302020300A2020312020322020322020302020202020200A2020322020332020312020302020202020200A2020332020342020312020302020202020200A2020342020352020312020302020202020200A2020352020362020312020302020202020200A2020362020372020312020302020202020200A2020322020382020312020302020202020200A2020342020392020312020302020202020200A2020392031302020312020302020202020200A2031302031312020312020302020202020200A2020392031322020322020302020202020200A2020362031332020322020302020202020200A2020372031342020312020302020202020200A2031342031352020312020302020202020200A2031352031362020312020302020202020200A2031362031372020312020302020202020200A2031372020372020312020302020202020200A2031372031382020322020302020202020200A2031372031392020322020302020202020200A2031352032302020312020302020202020200A2032302032312020312020302020202020200A2032312032322020312020302020202020200A2032332031362020312020302020202020200A2031362032342020312020312020202020200A2032312032342020312020312020202020200A2032332032322020312020302020202020200A2031352032352020312020362020202020200A2032342032362020312020302020202020200A2032342032372020312020302020202020200A4D2020454E44
Contributor: YOSHINORI Y, FAC. SCIENCE, TOHOKU UNIV.
InstType: EI
InstName: Unknown
IoniMethod: _ENERGY 20 eV
IonPolarity: pos
Date: 2010-10-09 19:48:36+02:00
Num Peaks: 31
193 20 194 13 201 22 203 10 212 20 214 13 221 10 226 134 227 18 229 88 
236 16 242 351 243 49 244 267 245 26 253 24 286 84 287 10 308 10 310 27 
311 501 312 89 313 37 317 21 329 999 330 141 331 68 339 24 344 14 370 173 
371 31 
