Name: MassBank: JP010611
MW: 116
Formula: C6H16Si
Synonym: MassBank: JP010611
Synonym: METHYLPENTYLSILANE (2,2-D2)
Structure: 310A32330A4D455448594C50454E54594C53494C414E452028322C322D4432292E6D6F6C0A20204368656D447261773038313231303030353432440A2020392020382020302020302020302020302020302020302020302020303939392056323030300A20202020312E343834322020202D302E3731343520202020302E303030302053692020302020302020302020302020302020302020302020302020302020302020302020300A20202020302E363539322020202D302E3731343520202020302E303030302043202020302020302020302020302020302020302020302020302020302020302020302020300A20202020302E3234363720202020302E3030303020202020302E303030302043202020302020302020302020302020302020302020302020302020302020302020302020300A2020202D302E343637382020202D302E3431323520202020302E303030302043202020302020302020302020302020302020302020302020302020302020302020302020300A2020202D312E313832322020202D302E3030303020202020302E303030302043202020302020302020302020302020302020302020302020302020302020302020302020300A2020202D312E383936372020202D302E3431323520202020302E303030302043202020302020302020302020302020302020302020302020302020302020302020302020300A20202020312E3839363720202020302E3030303020202020302E303030302043202020302020302020302020302020302020302020302020302020302020302020302020300A2020202D302E3136353820202020302E3731343520202020302E303030302048202020312020302020302020302020302020302020302020302020302020302020302020300A20202020302E3936313220202020302E3431323520202020302E303030302048202020312020302020302020302020302020302020302020302020302020302020302020300A2020322020332020312020302020202020200A2020332020342020312020302020202020200A2020342020352020312020302020202020200A2020352020362020312020302020202020200A2020312020322020312020302020202020200A2020312020372020312020302020202020200A2020332020382020312020302020202020200A2020332020392020312020302020202020200A4D202049534F202032202020382020203220202039202020320A4D2020454E44
Contributor: YAMAMOTO M, DEP. CHEMISTRY, FAC. SCIENCE, NARA WOMEN'S UNIV.
InstType: EI
InstName: HITACHI RMU-6M
IoniMethod: _ENERGY 70 eV
IonPolarity: pos
Date: 2010-10-09 19:48:36+02:00
Num Peaks: 43
15 10 27 81 28 28 29 5 31 12 32 17 39 47 41 9 42 81 43 79 
44 85 45 30 46 417 47 321 48 35 55 5 56 15 57 12 58 52 59 12 
60 122 61 62 69 14 70 5 71 48 72 54 73 73 74 7 75 999 76 87 
77 39 85 2 86 107 87 152 88 37 89 3 90 56 100 10 103 25 115 11 
116 46 117 12 118 37 
