Name: 1-BUTANEBORONIC ACID
CAS: 4426-47-5
MW: 102
Formula: C4H11BO2
Synonym: MassBank: JP011656
Synonym: 1-BUTANEBORONIC ACID
Synonym: BUTYLBORONIC ACID
Structure: 310A31380A312D425554414E45424F524F4E494320414349442E6D6F6C0A20204368656D447261773131313730393233333932440A2020372020362020302020302020302020302020302020302020302020303939392056323030300A2020202D302E333537322020202D302E3631383820202020302E303030302043202020302020302020302020302020302020302020302020302020302020302020302020300A20202020302E333537322020202D302E3230363220202020302E303030302043202020302020302020302020302020302020302020302020302020302020302020302020300A20202020312E303731372020202D302E3631383820202020302E303030302043202020302020302020302020302020302020302020302020302020302020302020302020300A20202020312E373836322020202D302E3230363320202020302E303030302043202020302020302020302020302020302020302020302020302020302020302020302020300A2020202D312E303731372020202D302E3230363220202020302E303030302042202020302020302020302020302020302020302020302020302020302020302020302020300A2020202D312E3037313720202020302E3631383820202020302E30303030204F202020302020302020302020302020302020302020302020302020302020302020302020300A2020202D312E373836322020202D302E3631383720202020302E30303030204F202020302020302020302020302020302020302020302020302020302020302020302020300A2020312020322020312020302020202020200A2020322020332020312020302020202020200A2020332020342020312020302020202020200A2020352020362020312020302020202020200A2020352020372020312020302020202020200A2020312020352020312020302020202020200A4D2020454E44
Contributor: YAMAMOTO M, DEP. CHEMISTRY, FAC. SCIENCE, NARA WOMEN'S UNIV.
InstType: EI
InstName: HITACHI M-2500
IoniMethod: _ENERGY 70 eV
IonPolarity: pos
Date: 2010-10-09 19:48:36+02:00
Num Peaks: 28
26 10 27 64 28 42 29 58 39 46 41 107 42 51 43 122 44 256 45 999 
53 10 54 13 55 56 56 453 57 63 59 20 60 82 61 14 72 201 73 733 
74 32 84 29 85 43 86 10 87 33 101 16 102 48 103 14 
