Name: TRANS-ORTHO-METHOXYCINNAMIC ACID
MW: 178
Formula: C10H10O3
Synonym: MassBank: JP010446
Synonym: TRANS-ORTHO-METHOXYCINNAMIC ACID
Structure: 5452414E532D4F5254484F2D4D4554484F585943494E4E414D494320414349442E6D6F6C0A20204368656D447261773038313231303038313332440A2031332031332020302020302020302020302020302020302020302020303939392056323030300A2020202D312E363530302020202D312E3037313720202020302E303030302043202020302020302020302020302020302020302020302020302020302020302020302020300A2020202D302E383235302020202D312E3037313720202020302E303030302043202020302020302020302020302020302020302020302020302020302020302020302020300A2020202D302E343132352020202D302E3335373220202020302E303030302043202020302020302020302020302020302020302020302020302020302020302020302020300A20202020302E343132352020202D302E3335373220202020302E303030302043202020302020302020302020302020302020302020302020302020302020302020302020300A20202020302E3832353020202020302E3335373220202020302E303030302043202020302020302020302020302020302020302020302020302020302020302020302020300A20202020312E3635303020202020302E3335373220202020302E303030302043202020302020302020302020302020302020302020302020302020302020302020302020300A20202020322E303632352020202D302E3335373220202020302E303030302043202020302020302020302020302020302020302020302020302020302020302020302020300A20202020312E363530302020202D312E3037313720202020302E303030302043202020302020302020302020302020302020302020302020302020302020302020302020300A20202020302E383235302020202D312E3037313720202020302E303030302043202020302020302020302020302020302020302020302020302020302020302020302020300A2020202D322E303632352020202D312E3738363220202020302E30303030204F202020302020302020302020302020302020302020302020302020302020302020302020300A2020202D322E303632352020202D302E3335373220202020302E30303030204F202020302020302020302020302020302020302020302020302020302020302020302020300A20202020302E3431323520202020312E3037313720202020302E30303030204F202020302020302020302020302020302020302020302020302020302020302020302020300A20202020302E3832353020202020312E3738363220202020302E303030302043202020302020302020302020302020302020302020302020302020302020302020302020300A2020312020322020312020302020202020200A2020322020332020322020302020202020200A2020332020342020312020302020202020200A2020342020352020312020302020202020200A2020352020362020322020302020202020200A2020362020372020312020302020202020200A2020372020382020322020302020202020200A2020382020392020312020302020202020200A2020342020392020322020302020202020200A2020312031302020322020302020202020200A2020312031312020312020302020202020200A2031322031332020312020302020202020200A2020352031322020312020302020202020200A4D2020454E44
Contributor: TAJIMA S, GUNMA COLLEGE OF TECHNOLOGY
InstType: EI
InstName: HITACHI M-80A
IoniMethod: _ENERGY 70 eV
IonPolarity: pos
Date: 2010-10-09 19:48:36+02:00
Num Peaks: 72
15 251 26 33 27 79 28 13 29 74 30 11 31 18 37 26 38 77 39 219 
40 23 41 24 43 35 44 18 45 203 49 12 50 118 51 218 52 48 53 61 
55 39 61 29 62 97 63 267 64 80 65 151 66 21 74 64 75 80 76 47 
77 278 78 108 79 118 80 10 85 23 86 16 87 20 88 14 89 243 90 161 
91 657 92 67 94 75 101 28 102 59 103 174 104 45 105 150 106 22 107 43 
115 22 117 10 118 419 119 239 120 24 131 229 132 101 133 49 134 12 135 18 
146 89 147 798 148 80 149 11 160 10 161 82 162 13 163 23 177 25 178 999 
179 116 180 12 
