Name: MassBank: JP011671
MW: 354
Formula: C16H36Cl2Si2
Synonym: MassBank: JP011671
Synonym: TETRA(N-BUTYL)-1,2-DICHLORODISILANE
Structure: 5445545241284E2D425554594C292D312C322D444943484C4F524F444953494C414E452E6D6F6C0A20204368656D447261773038313231303037313232440A2032302031392020302020302020302020302020302020302020302020303939392056323030300A2020202D302E363138382020202D302E3038323520202020302E303030302053692020302020302020302020302020302020302020302020302020302020302020302020300A2020202D302E363138382020202D312E3135353020202020302E303030302053692020302020302020302020302020302020302020302020302020302020302020302020300A2020202D312E343433382020202D312E3135353020202020302E3030303020436C2020302020302020302020302020302020302020302020302020302020302020302020300A20202020302E323036322020202D302E3038323520202020302E3030303020436C2020302020302020302020302020302020302020302020302020302020302020302020300A2020202D312E343433382020202D302E3038323520202020302E303030302043202020302020302020302020302020302020302020302020302020302020302020302020300A2020202D312E3835363320202020302E3633323020202020302E303030302043202020302020302020302020302020302020302020302020302020302020302020302020300A2020202D312E3434333820202020312E3334363420202020302E303030302043202020302020302020302020302020302020302020302020302020302020302020302020300A2020202D312E3835363320202020322E3036303920202020302E303030302043202020302020302020302020302020302020302020302020302020302020302020302020300A2020202D302E3631383820202020302E3734323520202020302E303030302043202020302020302020302020302020302020302020302020302020302020302020302020300A20202020302E3039353720202020312E3135353020202020302E303030302043202020302020302020302020302020302020302020302020302020302020302020302020300A20202020302E3039353720202020312E3938303020202020302E303030302043202020302020302020302020302020302020302020302020302020302020302020302020300A20202020302E3831303220202020322E3339323520202020302E303030302043202020302020302020302020302020302020302020302020302020302020302020302020300A20202020302E323036322020202D312E3135353020202020302E303030302043202020302020302020302020302020302020302020302020302020302020302020302020300A20202020302E363138382020202D302E3434303520202020302E303030302043202020302020302020302020302020302020302020302020302020302020302020302020300A20202020312E343433372020202D302E3434303520202020302E303030302043202020302020302020302020302020302020302020302020302020302020302020302020300A20202020312E383536332020202D312E3135353020202020302E303030302043202020302020302020302020302020302020302020302020302020302020302020302020300A2020202D302E363138382020202D312E3938303020202020302E303030302043202020302020302020302020302020302020302020302020302020302020302020302020300A20202020302E303935372020202D322E3339323520202020302E303030302043202020302020302020302020302020302020302020302020302020302020302020302020300A20202020302E383130322020202D312E3938303020202020302E303030302043202020302020302020302020302020302020302020302020302020302020302020302020300A20202020312E353234372020202D322E3339323520202020302E303030302043202020302020302020302020302020302020302020302020302020302020302020302020300A2020312020322020312020302020202020200A2020322020332020312020302020202020200A2020312020342020312020302020202020200A2020352020362020312020302020202020200A2020362020372020312020302020202020200A2020372020382020312020302020202020200A2020312020352020312020302020202020200A2020392031302020312020302020202020200A2031302031312020312020302020202020200A2031312031322020312020302020202020200A2020312020392020312020302020202020200A2031332031342020312020302020202020200A2031342031352020312020302020202020200A2031352031362020312020302020202020200A2020322031332020312020302020202020200A2031372031382020312020302020202020200A2031382031392020312020302020202020200A2031392032302020312020302020202020200A2020322031372020312020302020202020200A4D2020454E44
Contributor: FAC. TECHNOLOGY, HIROSHIMA UNIV.
InstType: EI
InstName: SHIMADZU QP-1000
IoniMethod: _ENERGY 70 eV
IonPolarity: pos
Date: 2010-10-09 19:48:36+02:00
Num Peaks: 66
55 181 56 43 57 117 58 128 59 234 60 11 63 106 65 74 67 21 69 11 
71 64 72 181 73 53 78 21 79 191 80 11 81 64 83 43 84 53 85 245 
86 447 87 117 88 11 91 32 92 43 93 213 94 21 95 74 99 106 100 160 
101 74 103 11 105 32 107 21 112 32 113 138 114 999 115 117 116 21 119 53 
121 234 122 21 123 85 127 21 129 32 131 21 135 53 137 11 140 74 141 21 
142 234 143 117 144 21 145 21 147 21 148 64 149 21 150 21 157 21 159 11 
176 128 177 149 178 64 179 43 185 53 187 21 
