Name: 3-(TRIFLUOROMETHYL)CINNAMIC ACID
MW: 216
Formula: C10H7F3O2
Synonym: MassBank: JP011252
Synonym: 3-(TRIFLUOROMETHYL)CINNAMIC ACID
Structure: 332D28545249464C554F524F4D455448594C2943494E4E414D494320414349442E6D6F6C0A20204368656D447261773032323231303133323532440A2031352031352020302020302020302020302020302020302020302020303939392056323030300A20202020322E313433342020202D302E3431323520202020302E303030302043202020302020302020302020302020302020302020302020302020302020302020302020300A20202020312E343238392020202D302E3030303020202020302E303030302043202020302020302020302020302020302020302020302020302020302020302020302020300A20202020302E373134352020202D302E3431323520202020302E303030302043202020302020302020302020302020302020302020302020302020302020302020302020300A2020202D302E303030302020202D302E3030303020202020302E303030302043202020302020302020302020302020302020302020302020302020302020302020302020300A2020202D302E373134352020202D302E3431323520202020302E303030302043202020302020302020302020302020302020302020302020302020302020302020302020300A2020202D312E343238392020202D302E3030303020202020302E303030302043202020302020302020302020302020302020302020302020302020302020302020302020300A2020202D312E3432383920202020302E3832353020202020302E303030302043202020302020302020302020302020302020302020302020302020302020302020302020300A2020202D302E3731343520202020312E3233373520202020302E303030302043202020302020302020302020302020302020302020302020302020302020302020302020300A20202020302E3030303020202020302E3832353020202020302E303030302043202020302020302020302020302020302020302020302020302020302020302020302020300A20202020322E313433342020202D312E3233373520202020302E30303030204F202020302020302020302020302020302020302020302020302020302020302020302020300A20202020322E383537392020202D302E3030303020202020302E30303030204F202020302020302020302020302020302020302020302020302020302020302020302020300A2020202D322E313433342020202D302E3431323520202020302E303030302043202020302020302020302020302020302020302020302020302020302020302020302020300A2020202D312E373330392020202D312E3132373020202020302E303030302046202020302020302020302020302020302020302020302020302020302020302020302020300A2020202D322E383537392020202D302E3832353020202020302E303030302046202020302020302020302020302020302020302020302020302020302020302020302020300A2020202D322E3535353920202020302E3330323020202020302E303030302046202020302020302020302020302020302020302020302020302020302020302020302020300A2020312020322020312020302020202020200A2020322020332020322020302020202020200A2020332020342020312020302020202020200A2020342020352020312020302020202020200A2020352020362020322020302020202020200A2020362020372020312020302020202020200A2020372020382020322020302020202020200A2020382020392020312020302020202020200A2020342020392020322020302020202020200A2020312031302020322020302020202020200A2020312031312020312020302020202020200A2031322031332020312020312020202020200A2031322031342020312020302020202020200A2031322031352020312020312020202020200A2020362031322020312020302020202020200A4D2020454E44
Contributor: MASS SPECTROSCOPY SOC. OF JAPAN (MSSJ)
InstType: EI
InstName: SHIMADZU QP-1000EX
IoniMethod: _ENERGY 20 eV
IonPolarity: pos
Date: 2010-10-09 19:48:36+02:00
Num Peaks: 40
42 44 43 30 44 22 45 36 54 30 55 25 69 36 71 41 77 25 91 107 
101 22 102 93 103 44 119 79 120 30 127 36 140 33 145 55 147 189 148 25 
151 411 152 47 159 88 167 27 168 49 169 52 170 181 171 249 172 33 173 27 
175 38 188 44 197 88 198 90 199 288 200 30 215 811 216 999 217 112 218 9 
