Name: METHYL DICHLOROPYRUVATE
MW: 169
Formula: C4H4Cl2O3
Synonym: MassBank: JP010565
Synonym: METHYL DICHLOROPYRUVATE
Structure: 310A32320A4D455448594C20444943484C4F524F50595255564154452E6D6F6C0A20204368656D447261773038313231303030313832440A2020392020382020302020302020302020302020302020302020302020303939392056323030300A2020202D302E323036332020202D302E3731343520202020302E303030302043202020302020302020302020302020302020302020302020302020302020302020302020300A20202020302E3230363320202020302E3030303020202020302E303030302043202020302020302020302020302020302020302020302020302020302020302020302020300A20202020312E3033313220202020302E3030303020202020302E30303030204F202020302020302020302020302020302020302020302020302020302020302020302020300A2020202D302E3230363320202020302E3731343520202020302E303030302043202020302020302020302020302020302020302020302020302020302020302020302020300A2020202D312E303331332020202D302E3731343520202020302E30303030204F202020302020302020302020302020302020302020302020302020302020302020302020300A20202020302E323036332020202D312E3432383920202020302E30303030204F202020302020302020302020302020302020302020302020302020302020302020302020300A2020202D312E3033313320202020302E3731343520202020302E3030303020436C2020302020302020302020302020302020302020302020302020302020302020302020300A20202020302E3230363220202020312E3432383920202020302E3030303020436C2020302020302020302020302020302020302020302020302020302020302020302020300A20202020312E303331332020202D312E3432383920202020302E303030302043202020302020302020302020302020302020302020302020302020302020302020302020300A2020312020322020312020302020202020200A2020322020332020322020302020202020200A2020322020342020312020302020202020200A2020312020352020322020302020202020200A2020312020362020312020302020202020200A2020342020372020312020302020202020200A2020342020382020312020302020202020200A2020362020392020312020302020202020200A4D2020454E44
Contributor: NARA WOMEN'S UNIVERSITY
InstType: EI
InstName: HITACHI M-80
IoniMethod: _ENERGY 12 eV
IonPolarity: pos
Date: 2010-10-09 19:48:36+02:00
Num Peaks: 39
15 179 18 29 19 13 29 118 31 85 32 33 36 77 38 23 42 246 43 116 
44 26 45 70 47 51 48 13 49 102 50 22 51 39 59 999 60 138 61 15 
63 24 75 11 76 76 77 360 78 34 79 122 83 105 85 66 95 34 105 27 
109 11 111 19 113 10 117 73 129 21 131 14 136 31 137 22 138 12 
