Name: MassBank: JP010296
MW: 322
Formula: C18H14N2O4
Synonym: MassBank: JP010296
Synonym: (E)-3-PARA-NITROPHENYLMETHYLENE-1-PARA-TOLYL-2,5-PYRROLIDINEDIONE
Structure: 2845292D332D504152412D4E4954524F5048454E594C4D455448594C454E452D312D504152412D544F4C594C2D322C352D505952524F4C4944494E4544494F4E452E6D6F6C0A20204368656D447261773130323230393136333732440A2032352032372020302020302020302020302020302020302020302020303939392056323030300A20202020302E303634322020202D302E3430383020202020302E303030302043202020302020302020302020302020302020302020302020302020302020302020302020300A20202020302E3135303420202020302E3431323520202020302E303030302043202020302020302020302020302020302020302020302020302020302020302020302020300A2020202D302E3630333320202020302E3734383120202020302E303030302043202020302020302020302020302020302020302020302020302020302020302020302020300A2020202D312E3135353320202020302E3133353020202020302E30303030204E202020302020302020302020302020302020302020302020302020302020302020302020300A2020202D302E373432382020202D302E3537393520202020302E303030302043202020302020302020302020302020302020302020302020302020302020302020302020300A2020202D312E303738342020202D312E3333333220202020302E30303030204F202020302020302020302020302020302020302020302020302020302020302020302020300A2020202D312E3937353820202020302E3232313220202020302E303030302043202020302020302020302020302020302020302020302020302020302020302020302020300A2020202D302E3737343820202020312E3535353020202020302E30303030204F202020302020302020302020302020302020302020302020302020302020302020302020300A2020202D322E3331313320202020302E3937343920202020302E303030302043202020302020302020302020302020302020302020302020302020302020302020302020300A2020202D332E3133313820202020312E3036313120202020302E303030302043202020302020302020302020302020302020302020302020302020302020302020302020300A2020202D332E3631363720202020302E3339333720202020302E303030302043202020302020302020302020302020302020302020302020302020302020302020302020300A2020202D332E323831322020202D302E3336303020202020302E303030302043202020302020302020302020302020302020302020302020302020302020302020302020300A2020202D322E343630372020202D302E3434363220202020302E303030302043202020302020302020302020302020302020302020302020302020302020302020302020300A2020202D342E3433373220202020302E3437393920202020302E303030302043202020302020302020302020302020302020302020302020302020302020302020302020300A20202020302E3836343920202020302E3832353020202020302E303030302043202020302020302020302020302020302020302020302020302020302020302020302020300A20202020312E3537393320202020302E3431323520202020302E303030302043202020302020302020302020302020302020302020302020302020302020302020302020300A20202020302E3836343920202020312E3635303020202020302E303030302048202020302020302020302020302020302020302020302020302020302020302020302020300A20202020312E353739332020202D302E3431323520202020302E303030302043202020302020302020302020302020302020302020302020302020302020302020302020300A20202020322E323933382020202D302E3832353020202020302E303030302043202020302020302020302020302020302020302020302020302020302020302020302020300A20202020332E303038332020202D302E3431323520202020302E303030302043202020302020302020302020302020302020302020302020302020302020302020302020300A20202020332E3030383320202020302E3431323520202020302E303030302043202020302020302020302020302020302020302020302020302020302020302020302020300A20202020322E3239333820202020302E3832353020202020302E303030302043202020302020302020302020302020302020302020302020302020302020302020302020300A20202020332E373232382020202D302E3832353020202020302E30303030204E202020302020332020302020302020302020302020302020302020302020302020302020300A20202020342E343337322020202D302E3431323520202020302E30303030204F202020302020302020302020302020302020302020302020302020302020302020302020300A20202020332E373232382020202D312E3635303020202020302E30303030204F202020302020352020302020302020302020302020302020302020302020302020302020300A2020312020322020312020302020202020200A2020322020332020312020302020202020200A2020332020342020312020302020202020200A2020342020352020312020302020202020200A2020352020312020312020302020202020200A2020352020362020322020302020202020200A2020342020372020312020302020202020200A2020332020382020322020302020202020200A2020372020392020322020302020202020200A2020392031302020312020302020202020200A2031302031312020322020302020202020200A2031312031322020312020302020202020200A2031322031332020322020302020202020200A2031332020372020312020302020202020200A2031312031342020312020302020202020200A2020322031352020322020302020202020200A2031352031362020312020302020202020200A2031352031372020312020302020202020200A2031362031382020322020302020202020200A2031382031392020312020302020202020200A2031392032302020322020302020202020200A2032302032312020312020302020202020200A2032312032322020322020302020202020200A2032322031362020312020302020202020200A2032302032332020312020302020202020200A2032332032342020322020302020202020200A2032332032352020342020302020202020200A4D202043484720203220203233202020312020323520202D310A4D2020454E44
Contributor: KANEMASA S, INST. OF ADVANCED MATERIAL STUDY KYUSHU UNIV.
InstType: EI
InstName: JEOL JMS-01-SG-2
IoniMethod: _ENERGY 75 eV
IonPolarity: pos
Date: 2010-10-09 19:48:36+02:00
Num Peaks: 27
39 62 41 65 43 76 44 99 55 62 57 92 62 73 64 72 76 138 89 89 
91 81 103 68 104 79 105 83 107 60 113 66 114 99 115 318 131 132 132 106 
133 111 160 71 161 848 162 86 292 71 322 999 323 205 
