Name: METHYL (2R)-2-(N-((4S)-4-(1-METHYLETHYL)-2-OXAZOLIDINONE-3-CARBAMOYL)AMINO)-4-PENTENOATE
MW: 284
Formula: C13H20N2O5
Synonym: MassBank: JP011815
Synonym: METHYL (2R)-2-(N-((4S)-4-(1-METHYLETHYL)-2-OXAZOLIDINONE-3-CARBAMOYL)AMINO)-4-PENTENOATE
Structure: 313131365F4D455448594C20283252292D322D284E2D28283453292D342D28312D4D455448594C455448594C292D322D4F58415A4F4C4944494E4F4E452D332D43415242414D4F594C29414D494E4F292D342D50454E54454E4F4154452E6D6F6C0A20204368656D447261773130323031303230323732440A2032312032312020302020302020302020302020302020302020302020303939392056323030300A20202020312E3537313320202020302E3133313120202020302E303030302043202020302020302020302020302020302020302020302020302020302020302020302020300A20202020312E313538382020202D302E3538333320202020302E303030302043202020302020302020302020302020302020302020302020302020302020302020302020300A20202020312E353731332020202D312E3239373820202020302E303030302043202020302020302020302020302020302020302020302020302020302020302020302020300A20202020322E333936332020202D312E3239373820202020302E303030302043202020302020302020302020302020302020302020302020302020302020302020302020300A20202020322E383038382020202D302E3538333320202020302E303030302043202020302020302020302020302020302020302020302020302020302020302020302020300A20202020322E3339363320202020302E3133313120202020302E30303030204F202020302020302020302020302020302020302020302020302020302020302020302020300A20202020312E3135383820202020302E3834353620202020302E30303030204F202020302020302020302020302020302020302020302020302020302020302020302020300A20202020302E353236382020202D302E3035333020202020302E30303030204E202020302020302020302020302020302020302020302020302020302020302020302020300A2020202D302E323438342020202D302E3333353220202020302E303030302043202020302020302020302020302020302020302020302020302020302020302020302020300A2020202D302E333931372020202D312E3134373720202020302E30303030204F202020302020302020302020302020302020302020302020302020302020302020302020300A2020202D312E3538383220202020312E3332383120202020302E30303030204F202020302020302020302020302020302020302020302020302020302020302020302020300A2020202D302E3833313320202020312E3033313520202020302E303030302043202020302020302020302020302020302020302020302020302020302020302020302020300A2020202D302E3838303420202020302E3139353220202020302E30303030204E202020302020302020302020302020302020302020302020302020302020302020302020300A2020202D312E363832302020202D302E3030333420202020302E303030302043202020302020302020302020302020302020302020302020302020302020302020302020300A2020202D322E3131393120202020302E3639363320202020302E303030302043202020302020302020302020302020302020302020302020302020302020302020302020300A2020202D302E3131363920202020312E3434343020202020302E30303030204F202020302020302020302020302020302020302020302020302020302020302020302020300A2020202D312E393931372020202D302E3736383120202020302E303030302043202020302020302020302020302020302020302020302020302020302020302020302020300A2020202D312E353138372020202D312E3434343020202020302E303030302043202020302020302020302020302020302020302020302020302020302020302020302020300A2020202D322E383038382020202D302E3838323220202020302E303030302043202020302020302020302020302020302020302020302020302020302020302020302020300A20202020302E3333333820202020302E3834353620202020302E303030302043202020302020302020302020302020302020302020302020302020302020302020302020300A20202020302E353236382020202D312E3131333620202020302E303030302048202020302020302020302020302020302020302020302020302020302020302020302020300A2020322020312020312020312020202020200A2020322020332020312020302020202020200A2020332020342020312020302020202020200A2020342020352020322020302020202020200A2020312020362020322020302020202020200A2020312020372020312020302020202020200A2020392031302020322020302020202020200A2031312031322020312020302020202020200A2031322031332020312020302020202020200A2031332031342020312020302020202020200A2031342031352020312020302020202020200A2031312031352020312020302020202020200A2031322031362020322020302020202020200A2031372031382020312020302020202020200A2031372031392020312020302020202020200A2031342031372020312020312020202020200A2020382020392020312020302020202020200A2020322020382020312020302020202020200A2020372032302020312020302020202020200A2031332020392020312020302020202020200A2020322032312020312020312020202020200A4D2020454E44
Contributor: YOSHINORI Y, FAC. SCIENCE, TOHOKU UNIV.
InstType: EI
InstName: Unknown
IoniMethod: _ENERGY 20 eV
IonPolarity: pos
Date: 2010-10-09 19:48:36+02:00
Num Peaks: 16
96 18 112 75 120 10 128 21 132 16 156 16 170 15 182 37 225 449 226 57 
232 20 243 999 244 125 245 16 253 12 284 89 
