Name: MassBank: JP011587
MW: 114
Formula: C6H14Si
Synonym: MassBank: JP011587
Synonym: 1,1-DIMETHYL-SILACYCLOPENTANE (2,2,5,5-D4)
Structure: 312C312D44494D455448594C2D53494C414359434C4F50454E54414E452028322C322C352C352D4434292E6D6F6C0A20204368656D447261773130323330393130353332440A2031312031312020302020302020302020302020302020302020302020303939392056323030300A2020202D302E3030313320202020302E3332383120202020302E303030302053692020302020302020302020302020302020302020302020302020302020302020302020300A20202020302E363636392020202D302E3135353820202020302E303030302043202020302020302020302020302020302020302020302020302020302020302020302020300A20202020302E343133322020202D302E3934303820202020302E303030302043202020302020302020302020302020302020302020302020302020302020302020302020300A2020202D302E343131382020202D302E3934323120202020302E303030302043202020302020302020302020302020302020302020302020302020302020302020302020300A2020202D302E363638302020202D302E3135373920202020302E303030302043202020302020302020302020302020302020302020302020302020302020302020302020300A2020202D312E343231312020202D302E3439343620202020302E303030302048202020312020302020302020302020302020302020302020302020302020302020302020300A2020202D312E3038313620202020302E3535363020202020302E303030302048202020312020302020302020302020302020302020302020302020302020302020302020300A20202020312E3037383320202020302E3535393420202020302E303030302048202020312020302020302020302020302020302020302020302020302020302020302020300A20202020312E343231312020202D302E3439303120202020302E303030302048202020312020302020302020302020302020302020302020302020302020302020302020300A2020202D302E3535343320202020302E3934303320202020302E303030302043202020302020302020302020302020302020302020302020302020302020302020302020300A20202020302E3534393820202020302E3934323120202020302E303030302043202020302020302020302020302020302020302020302020302020302020302020302020300A2020312020322020312020302020202020200A2020322020332020312020302020202020200A2020332020342020312020302020202020200A2020342020352020312020302020202020200A2020312020352020312020302020202020200A2020352020362020312020312020202020200A2020352020372020312020362020202020200A2020322020382020312020312020202020200A2020322020392020312020362020202020200A2020312031302020312020362020202020200A2020312031312020312020312020202020200A4D202049534F20203420202036202020322020203720202032202020382020203220202039202020320A4D2020454E44
Contributor: YAMAMOTO M, DEP. CHEMISTRY, FAC. SCIENCE, NARA WOMEN'S UNIV.
InstType: EI
InstName: HITACHI RMU-6M
IoniMethod: _ENERGY 70 eV
IonPolarity: pos
Date: 2010-10-09 19:48:36+02:00
Num Peaks: 46
27 18 28 33 29 81 30 24 31 45 32 22 33 16 40 22 41 17 42 50 
43 282 44 76 45 78 46 61 47 26 53 27 54 19 55 31 56 34 57 40 
58 580 59 175 60 96 61 69 62 32 71 20 72 71 73 173 74 118 75 35 
76 15 86 23 87 36 88 999 89 108 90 46 99 17 100 44 101 42 102 20 
103 468 104 58 105 22 118 231 119 31 120 11 
