Name: MassBank: JP010931
MW: 155
Formula: C9H17NO
Synonym: MassBank: JP010931
Synonym: 2,2,6,6-TETRAMETHYL-4-PIPERIDONE
Structure: 322C322C362C362D54455452414D455448594C2D342D504950455249444F4E452E6D6F6C0A20204368656D447261773132323030393036323432440A2031312031312020302020302020302020302020302020302020302020303939392056323030300A2020202D302E3030303020202020312E3035363120202020302E30303030204E202020302020302020302020302020302020302020302020302020302020302020302020300A20202020302E3731343520202020302E3634333620202020302E303030302043202020302020302020302020302020302020302020302020302020302020302020302020300A20202020302E373134352020202D302E3138313420202020302E303030302043202020302020302020302020302020302020302020302020302020302020302020302020300A2020202D302E303030302020202D302E3539333920202020302E303030302043202020302020302020302020302020302020302020302020302020302020302020302020300A2020202D302E373134352020202D302E3138313420202020302E303030302043202020302020302020302020302020302020302020302020302020302020302020302020300A2020202D302E3731343520202020302E3634333620202020302E303030302043202020302020302020302020302020302020302020302020302020302020302020302020300A2020202D302E303030302020202D312E3431383920202020302E30303030204F202020302020302020302020302020302020302020302020302020302020302020302020300A2020202D312E3532363920202020302E3530303420202020302E303030302043202020302020302020302020302020302020302020302020302020302020302020302020300A2020202D302E3939363620202020312E3431383920202020302E303030302043202020302020302020302020302020302020302020302020302020302020302020302020300A20202020302E3939363620202020312E3431383920202020302E303030302043202020302020302020302020302020302020302020302020302020302020302020302020300A20202020312E3532363920202020302E3530303420202020302E303030302043202020302020302020302020302020302020302020302020302020302020302020302020300A2020312020322020312020302020202020200A2020322020332020312020302020202020200A2020332020342020312020302020202020200A2020342020352020312020302020202020200A2020352020362020312020302020202020200A2020312020362020312020302020202020200A2020342020372020322020302020202020200A2020362020382020312020362020202020200A2020362020392020312020312020202020200A2020322031302020312020362020202020200A2020322031312020312020312020202020200A4D2020454E44
Contributor: KURARAY CO., LTD.
InstType: EI
InstName: JEOL JMS-D-300
IoniMethod: _ENERGY 70 eV
IonPolarity: pos
Date: 2010-10-09 19:48:36+02:00
Num Peaks: 40
27 32 29 45 30 15 39 58 40 12 41 123 42 461 43 153 51 4 53 15 
54 10 55 188 56 120 57 67 58 626 59 21 62 9 67 4 68 5 70 25 
71 2 81 4 82 10 83 842 84 300 85 12 86 9 95 3 96 12 97 9 
98 194 99 25 112 71 122 6 123 5 124 11 140 999 141 94 155 84 156 6 
