Name: IPRODIONE
MW: 329
Formula: C13H13Cl2N3O3
Synonym: MassBank: JP010741
Synonym: IPRODIONE
Synonym: 3-(3,5-DICHLOROPHENYL)-N-ISOPROPYL-2,4-DIOXO-1-IMIDAZOLIDINECARBOXAMIDE
Structure: 4950524F44494F4E452E6D6F6C0A20204368656D447261773032323231303039353932440A2032312032322020302020302020302020302020302020302020302020303939392056323030300A2020202D302E323234342020202D302E3530373320202020302E303030302043202020302020302020302020302020302020302020302020302020302020302020302020300A2020202D302E3737363420202020302E3130353820202020302E30303030204E202020302020302020302020302020302020302020302020302020302020302020302020300A2020202D302E3336333920202020302E3832303320202020302E303030302043202020302020302020302020302020302020302020302020302020302020302020302020300A20202020302E3434333120202020302E3634383820202020302E303030302043202020302020302020302020302020302020302020302020302020302020302020302020300A20202020302E353239332020202D302E3137313720202020302E30303030204E202020302020302020302020302020302020302020302020302020302020302020302020300A20202020312E323433382020202D302E3538343220202020302E303030302043202020302020302020302020302020302020302020302020302020302020302020302020300A20202020312E323433382020202D312E3430393220202020302E30303030204F202020302020302020302020302020302020302020302020302020302020302020302020300A20202020312E393538332020202D302E3137313720202020302E30303030204E202020302020302020302020302020302020302020302020302020302020302020302020300A2020202D302E3639393520202020312E3537343020202020302E30303030204F202020302020302020302020302020302020302020302020302020302020302020302020300A2020202D302E333935392020202D312E3331343220202020302E30303030204F202020302020302020302020302020302020302020302020302020302020302020302020300A20202020322E363732372020202D302E3538343220202020302E303030302043202020302020302020302020302020302020302020302020302020302020302020302020300A20202020332E333837322020202D302E3137313720202020302E303030302043202020302020302020302020302020302020302020302020302020302020302020302020300A20202020322E363732372020202D312E3430393220202020302E303030302043202020302020302020302020302020302020302020302020302020302020302020302020300A2020202D312E3539363920202020302E3031393620202020302E303030302043202020302020302020302020302020302020302020302020302020302020302020302020300A2020202D312E393332342020202D302E3733343120202020302E303030302043202020302020302020302020302020302020302020302020302020302020302020302020300A2020202D322E373532392020202D302E3832303320202020302E303030302043202020302020302020302020302020302020302020302020302020302020302020302020300A2020202D332E323337382020202D302E3135323920202020302E303030302043202020302020302020302020302020302020302020302020302020302020302020302020300A2020202D322E3930323320202020302E3630303820202020302E303030302043202020302020302020302020302020302020302020302020302020302020302020302020300A2020202D322E3038313820202020302E3638373020202020302E303030302043202020302020302020302020302020302020302020302020302020302020302020302020300A2020202D332E3338373220202020312E3236383220202020302E3030303020436C2020302020302020302020302020302020302020302020302020302020302020302020300A2020202D332E303838352020202D312E3537343020202020302E3030303020436C2020302020302020302020302020302020302020302020302020302020302020302020300A2020312020322020312020302020202020200A2020322020332020312020302020202020200A2020332020342020312020302020202020200A2020342020352020312020302020202020200A2020312020352020312020302020202020200A2020362020372020322020302020202020200A2020362020382020312020302020202020200A2020352020362020312020302020202020200A2020332020392020322020302020202020200A2020312031302020322020302020202020200A2031312031322020312020302020202020200A2031312031332020312020302020202020200A2020382031312020312020302020202020200A2031342031352020312020302020202020200A2031352031362020322020302020202020200A2031362031372020312020302020202020200A2031372031382020322020302020202020200A2031382031392020312020302020202020200A2031342031392020322020302020202020200A2031382032302020312020302020202020200A2031362032312020312020302020202020200A2020322031342020312020302020202020200A4D2020454E44
Contributor: HASHIMOTO K, KYOTO COLLEGE OF PHARMACY
InstType: EI
InstName: HITACHI M-80
IoniMethod: _ENERGY 20 eV
IonPolarity: pos
Date: 2010-10-09 19:48:36+02:00
Num Peaks: 49
29 22 30 43 41 19 42 43 43 209 44 95 56 200 57 16 58 469 59 17 
70 213 84 46 85 21 86 19 99 16 124 13 160 15 161 33 162 14 163 18 
175 12 181 19 187 324 188 135 189 222 190 92 191 44 192 15 216 126 217 17 
218 77 220 14 244 234 245 182 246 164 247 115 248 36 249 18 271 72 273 46 
314 999 315 146 316 651 317 90 318 113 319 15 329 57 330 12 331 37 
