Name: MassBank: JP010548
CAS: 91-55-4
MW: 145
Formula: C10H11N
Synonym: MassBank: JP010548
Synonym: 2,3-DIMETHYLINDOLE
Structure: 322C332D44494D455448594C494E444F4C452E6D6F6C0A20204368656D447261773132323030393132303332440A2031312031322020302020302020302020302020302020302020302020303939392056323030300A2020202D302E343531382020202D302E3938313020202020302E30303030204E202020302020302020302020302020302020302020302020302020302020302020302020300A2020202D302E393336372020202D302E3331333520202020302E303030302043202020302020302020302020302020302020302020302020302020302020302020302020300A2020202D302E3435313820202020302E3335333920202020302E303030302043202020302020302020302020302020302020302020302020302020302020302020302020300A20202020302E3333323820202020302E3039393020202020302E303030302043202020302020302020302020302020302020302020302020302020302020302020302020300A20202020312E3034373320202020302E3531313520202020302E303030302043202020302020302020302020302020302020302020302020302020302020302020302020300A20202020312E3736313720202020302E3039393020202020302E303030302043202020302020302020302020302020302020302020302020302020302020302020302020300A20202020312E373631372020202D302E3732363020202020302E303030302043202020302020302020302020302020302020302020302020302020302020302020302020300A20202020312E303437332020202D312E3133383520202020302E303030302043202020302020302020302020302020302020302020302020302020302020302020302020300A20202020302E333332382020202D302E3732363020202020302E303030302043202020302020302020302020302020302020302020302020302020302020302020302020300A2020202D302E3730363820202020312E3133383520202020302E303030302043202020302020302020302020302020302020302020302020302020302020302020302020300A2020202D312E373631372020202D302E3331333520202020302E303030302043202020302020302020302020302020302020302020302020302020302020302020302020300A2020312020322020312020302020202020200A2020322020332020322020302020202020200A2020332020342020312020302020202020200A2020342020352020312020302020202020200A2020352020362020322020302020202020200A2020362020372020312020302020202020200A2020372020382020322020302020202020200A2020382020392020312020302020202020200A2020312020392020312020302020202020200A2020342020392020322020302020202020200A2020332031302020312020302020202020200A2020322031312020312020302020202020200A4D2020454E44
Contributor: NARA WOMEN'S UNIVERSITY
InstType: EI
InstName: HITACHI M-80
IoniMethod: _ENERGY 70 eV
IonPolarity: pos
Date: 2010-10-09 19:48:36+02:00
Num Peaks: 37
40 17 51 18 52 32 53 15 59 18 62 12 63 28 64 12 65 37 71 12 
72 48 73 27 74 19 75 27 76 27 77 94 78 18 89 21 90 12 91 22 
101 17 102 53 103 54 104 16 115 77 116 26 117 36 127 11 128 44 129 18 
130 436 131 49 142 29 143 128 144 999 145 828 146 85 
