Name: 4-METHOXY-2-METHYL-3-TRIMETHYLSILYLMETHYL-1-OCTENE
MW: 242
Formula: C14H30OSi
Synonym: MassBank: JP010949
Synonym: 4-METHOXY-2-METHYL-3-TRIMETHYLSILYLMETHYL-1-OCTENE
Structure: 342D4D4554484F58592D322D4D455448594C2D332D5452494D455448594C53494C594C4D455448594C2D312D4F4354454E452E6D6F6C0A20204368656D447261773034323031303131323532440A2031362031352020302020302020302020302020302020302020302020303939392056323030300A20202020302E333032302020202D312E3635303020202020302E303030302043202020302020302020302020302020302020302020302020302020302020302020302020300A20202020312E303136342020202D312E3233373520202020302E303030302043202020302020302020302020302020302020302020302020302020302020302020302020300A20202020312E303136342020202D302E3431323520202020302E303030302043202020302020302020302020302020302020302020302020302020302020302020302020300A20202020302E3330323020202020302E3030303020202020302E303030302043202020302020302020302020302020302020302020302020302020302020302020302020300A2020202D302E343132352020202D302E3431323520202020302E303030302043202020302020302020302020302020302020302020302020302020302020302020302020300A2020202D312E313237302020202D302E3030303020202020302E303030302043202020302020302020302020302020302020302020302020302020302020302020302020300A2020202D312E383431342020202D302E3431323520202020302E303030302043202020302020302020302020302020302020302020302020302020302020302020302020300A2020202D322E353535392020202D302E3030303020202020302E303030302043202020302020302020302020302020302020302020302020302020302020302020302020300A20202020312E3733303920202020302E3030303020202020302E303030302043202020302020302020302020302020302020302020302020302020302020302020302020300A20202020312E3733303920202020302E3832353020202020302E303030302053692020302020302020302020302020302020302020302020302020302020302020302020300A20202020322E3535353920202020302E3832353020202020302E303030302043202020302020302020302020302020302020302020302020302020302020302020302020300A20202020302E3930353920202020302E3832353020202020302E303030302043202020302020302020302020302020302020302020302020302020302020302020302020300A20202020312E3733303920202020312E3635303020202020302E303030302043202020302020302020302020302020302020302020302020302020302020302020302020300A20202020312E373330392020202D312E3635303020202020302E303030302043202020302020302020302020302020302020302020302020302020302020302020302020300A20202020302E3330323020202020302E3832353020202020302E30303030204F202020302020302020302020302020302020302020302020302020302020302020302020300A2020202D302E3431323520202020312E3233373520202020302E303030302043202020302020302020302020302020302020302020302020302020302020302020302020300A2020312020322020322020302020202020200A2020322020332020312020302020202020200A2020332020342020312020302020202020200A2020342020352020312020302020202020200A2020352020362020312020302020202020200A2020362020372020312020302020202020200A2020372020382020312020302020202020200A2031302031312020312020312020202020200A2031302031322020312020312020202020200A2031302031332020312020302020202020200A2020392031302020312020302020202020200A2020332020392020312020302020202020200A2020322031342020312020302020202020200A2031352031362020312020302020202020200A2020342031352020312020302020202020200A4D2020454E44
Contributor: HISAHIRO HAGIWARA, INSTITUTE FOR CHEMICAL REACTION SCIENCE TOHOKU UNIV.
InstType: EI
InstName: JEOL JMS-DX-300
IoniMethod: _ENERGY 70 eV
IonPolarity: pos
Date: 2010-10-09 19:48:36+02:00
Num Peaks: 52
52 50 54 7 55 55 56 7 57 24 58 55 59 221 60 17 61 10 65 9 
66 5 67 40 68 33 69 717 70 60 71 78 72 25 73 661 74 70 75 51 
77 12 79 24 80 5 81 82 82 14 83 19 85 17 89 219 90 21 91 13 
95 20 96 8 97 11 99 71 100 7 101 999 102 90 103 11 105 4 109 14 
111 37 112 5 125 5 126 8 137 9 138 13 141 16 142 46 143 6 195 6 
211 11 242 5 
