Name: ISOPROTHIOLANE
MW: 290
Formula: C12H18O4S2
Synonym: MassBank: JP010845
Synonym: ISOPROTHIOLANE
Synonym: DIISOPROPYL 1,3-DITHIOLANE-2-YLIDENEMALONATE
Structure: 49534F50524F5448494F4C414E452E6D6F6C0A20204368656D447261773039323231303030343232440A2031382031382020302020302020302020302020302020302020302020303939392056323030300A2020202D302E313234322020202D302E3832343420202020302E303030302043202020302020302020302020302020302020302020302020302020302020302020302020300A2020202D302E303831312020202D302E3030303620202020302E303030302043202020302020302020302020302020302020302020302020302020302020302020302020300A20202020302E3633333420202020302E3431313920202020302E303030302043202020302020302020302020302020302020302020302020302020302020302020302020300A2020202D302E383338372020202D312E3233363920202020302E30303030204F202020302020302020302020302020302020302020302020302020302020302020302020300A20202020302E353930322020202D312E3233363920202020302E30303030204F202020302020302020302020302020302020302020302020302020302020302020302020300A20202020312E333437392020202D302E3030303620202020302E30303030204F202020302020302020302020302020302020302020302020302020302020302020302020300A20202020302E3633333420202020312E3233363920202020302E30303030204F202020302020302020302020302020302020302020302020302020302020302020302020300A2020202D302E3831363120202020312E3237323620202020302E303030302053202020302020302020302020302020302020302020302020302020302020302020302020300A2020202D302E3737333020202020302E3434383820202020302E303030302043202020302020302020302020302020302020302020302020302020302020302020302020300A2020202D312E3534333220202020302E3135333120202020302E303030302053202020302020302020302020302020302020302020302020302020302020302020302020300A2020202D322E3036323420202020302E3739343320202020302E303030302043202020302020302020302020302020302020302020302020302020302020302020302020300A2020202D312E3631333020202020312E3438363220202020302E303030302043202020302020302020302020302020302020302020302020302020302020302020302020300A20202020302E353930322020202D322E3036313920202020302E303030302043202020302020302020302020302020302020302020302020302020302020302020302020300A20202020312E333034372020202D322E3437343420202020302E303030302043202020302020302020302020302020302020302020302020302020302020302020302020300A2020202D302E313234322020202D322E3437343420202020302E303030302043202020302020302020302020302020302020302020302020302020302020302020302020300A20202020312E3334373920202020312E3634393420202020302E303030302043202020302020302020302020302020302020302020302020302020302020302020302020300A20202020312E3334373920202020322E3437343420202020302E303030302043202020302020302020302020302020302020302020302020302020302020302020302020300A20202020322E3036323420202020312E3233363920202020302E303030302043202020302020302020302020302020302020302020302020302020302020302020302020300A2020312020322020312020302020202020200A2020322020332020312020302020202020200A2020312020342020322020302020202020200A2020312020352020312020302020202020200A2020332020362020322020302020202020200A2020332020372020312020302020202020200A2020382020392020312020302020202020200A2020392031302020312020302020202020200A2031302031312020312020302020202020200A2031312031322020312020302020202020200A2020382031322020312020302020202020200A2020322020392020322020302020202020200A2031332031342020312020302020202020200A2031332031352020312020302020202020200A2020352031332020312020302020202020200A2031362031372020312020302020202020200A2031362031382020312020302020202020200A2020372031362020312020302020202020200A4D2020454E44
Contributor: HAMAMATSU UNIV. SCHOOL OF MEDICINE
InstType: EI
InstName: HITACHI M-80
IoniMethod: _ENERGY 20 eV
IonPolarity: pos
Date: 2010-10-09 19:48:36+02:00
Num Peaks: 44
41 21 43 146 59 11 60 19 61 48 74 12 85 27 89 17 102 14 116 83 
117 12 118 999 119 60 120 91 129 28 134 97 144 49 145 131 146 48 147 25 
159 19 160 117 161 18 162 821 163 62 164 75 173 20 176 47 178 175 179 12 
180 17 187 12 189 444 190 51 191 44 204 431 205 48 206 89 231 274 232 36 
233 28 290 445 291 67 292 47 
