Name: METHYL 2-PHENYL-1-PYRROLINE-4-CARBOXYLATE
MW: 203
Formula: C12H13NO2
Synonym: MassBank: JP010263
Synonym: METHYL 2-PHENYL-1-PYRROLINE-4-CARBOXYLATE
Structure: 303835355F4D455448594C20322D5048454E594C2D312D505952524F4C494E452D342D434152424F58594C4154452E6D6F6C0A20204368656D447261773130323031303138323032440A2031352031362020302020302020302020302020302020302020302020303939392056323030300A2020202D302E313239382020202D312E3134393520202020302E303030302043202020302020302020302020302020302020302020302020302020302020302020302020300A2020202D302E323136312020202D302E3332393020202020302E30303030204E202020302020302020302020302020302020302020302020302020302020302020302020300A20202020302E3533373620202020302E3030363620202020302E303030302043202020302020302020302020302020302020302020302020302020302020302020302020300A20202020312E303839372020202D302E3630363520202020302E303030302043202020302020302020302020302020302020302020302020302020302020302020302020300A20202020302E363737322020202D312E3332313020202020302E303030302043202020302020302020302020302020302020302020302020302020302020302020302020300A20202020312E393130302020202D302E3532303320202020302E303030302043202020302020302020302020302020302020302020302020302020302020302020302020300A20202020322E333539342020202D312E3231323220202020302E30303030204F202020302020302020302020302020302020302020302020302020302020302020302020300A20202020322E3238343620202020302E3231343820202020302E30303030204F202020302020302020302020302020302020302020302020302020302020302020302020300A2020202D302E3933303520202020302E3038333520202020302E303030302043202020302020302020302020302020302020302020302020302020302020302020302020300A2020202D312E363435302020202D302E3332393020202020302E303030302043202020302020302020302020302020302020302020302020302020302020302020302020300A2020202D322E3335393420202020302E3038333520202020302E303030302043202020302020302020302020302020302020302020302020302020302020302020302020300A2020202D322E3335393420202020302E3930383520202020302E303030302043202020302020302020302020302020302020302020302020302020302020302020302020300A2020202D312E3634353020202020312E3332313020202020302E303030302043202020302020302020302020302020302020302020302020302020302020302020302020300A2020202D302E3933303520202020302E3930383520202020302E303030302043202020302020302020302020302020302020302020302020302020302020302020302020300A20202020312E3833353320202020302E3930363720202020302E303030302043202020302020302020302020302020302020302020302020302020302020302020302020300A2020312020322020312020302020202020200A2020322020332020312020302020202020200A2020332020342020312020302020202020200A2020342020352020312020302020202020200A2020312020352020322020302020202020200A2020362020372020322020302020202020200A2020362020382020312020302020202020200A2020342020362020312020302020202020200A2020392031302020312020302020202020200A2031302031312020322020302020202020200A2031312031322020312020302020202020200A2031322031332020322020302020202020200A2031332031342020312020302020202020200A2020392031342020322020302020202020200A2020322020392020312020302020202020200A2020382031352020312020302020202020200A4D2020454E44
Contributor: KANEMASA S, INST. OF ADVANCED MATERIAL STUDY KYUSHU UNIV.
InstType: EI
InstName: JEOL JMS-01-SG-2
IoniMethod: _ENERGY 75 eV
IonPolarity: pos
Date: 2010-10-09 19:48:36+02:00
Num Peaks: 55
39 60 40 709 41 187 42 442 43 61 44 66 45 103 50 266 51 454 52 124 
53 45 54 51 55 406 59 999 62 44 63 267 64 98 65 130 66 45 67 58 
74 52 75 119 77 230 78 582 79 82 86 45 87 58 89 302 90 189 91 299 
92 77 94 18 101 20 102 59 103 483 104 157 105 22 110 19 112 27 114 42 
115 517 116 220 117 523 118 83 127 19 130 29 140 18 141 29 142 32 143 103 
144 195 145 25 170 21 203 38 204 24 
