Name: CHLOROMETHYLOCTYUSILANE
MW: 192
Formula: C9H21ClSi
Synonym: MassBank: JP011740
Synonym: CHLOROMETHYLOCTYUSILANE
Structure: 43484C4F524F4D455448594C4F4354595553494C414E452E6D6F6C0A20204368656D447261773039303731303034343832440A2031312031302020302020302020302020302020302020302020302020303939392056323030300A2020202D322E323638372020202D312E3037313720202020302E303030302053692020302020302020302020302020302020302020302020302020302020302020302020300A2020202D312E343433382020202D312E3037313720202020302E303030302043202020302020302020302020302020302020302020302020302020302020302020302020300A2020202D322E363831322020202D312E3738363220202020302E3030303020436C2020302020302020302020302020302020302020302020302020302020302020302020300A2020202D322E363831322020202D302E3335373220202020302E303030302043202020302020302020302020302020302020302020302020302020302020302020302020300A2020202D312E303331332020202D302E3335373220202020302E303030302043202020302020302020302020302020302020302020302020302020302020302020302020300A2020202D302E323036322020202D302E3335373220202020302E303030302043202020302020302020302020302020302020302020302020302020302020302020302020300A20202020302E3230363220202020302E3335373220202020302E303030302043202020302020302020302020302020302020302020302020302020302020302020302020300A20202020312E3033313320202020302E3335373220202020302E303030302043202020302020302020302020302020302020302020302020302020302020302020302020300A20202020312E3434333820202020312E3037313720202020302E303030302043202020302020302020302020302020302020302020302020302020302020302020302020300A20202020322E3236383720202020312E3037313720202020302E303030302043202020302020302020302020302020302020302020302020302020302020302020302020300A20202020322E3638313220202020312E3738363220202020302E303030302043202020302020302020302020302020302020302020302020302020302020302020302020300A2020312020322020312020302020202020200A2020312020332020312020302020202020200A2020312020342020312020302020202020200A2020322020352020312020302020202020200A2020352020362020312020302020202020200A2020362020372020312020302020202020200A2020372020382020312020302020202020200A2020382020392020312020302020202020200A2020392031302020312020302020202020200A2031302031312020312020302020202020200A4D2020454E44
Contributor: FAC. TECHNOLOGY, HIROSHIMA UNIV.
InstType: EI
InstName: SHIMADZU QP-1000
IoniMethod: _ENERGY 20 eV
IonPolarity: pos
Date: 2010-10-09 19:48:36+02:00
Num Peaks: 51
39 107 40 29 41 419 43 623 45 52 53 21 55 155 56 158 57 268 59 23 
61 12 63 79 65 54 67 34 68 20 69 81 70 109 71 90 73 12 79 999 
81 363 83 84 84 63 85 33 86 14 91 10 92 23 93 125 94 17 95 45 
96 12 97 55 99 15 105 30 107 612 109 211 120 13 123 11 133 34 134 35 
135 23 136 13 147 270 148 36 149 100 150 11 161 80 162 33 163 32 164 12 
177 15 
