Name: MassBank: JP010473
MW: 118
Formula: C6H14O2
Synonym: MassBank: JP010473
Synonym: 1,6-HEXANEDIOL
Structure: 310A32300A312C362D484558414E4544494F4C2E6D6F6C0A20204368656D447261773131313730393037333132440A2020382020372020302020302020302020302020302020302020302020303939392056323030300A20202020312E373836322020202D302E3230363320202020302E303030302043202020302020302020302020302020302020302020302020302020302020302020302020300A20202020312E3037313720202020302E3230363320202020302E303030302043202020302020302020302020302020302020302020302020302020302020302020302020300A20202020302E333537322020202D302E3230363320202020302E303030302043202020302020302020302020302020302020302020302020302020302020302020302020300A2020202D302E3335373220202020302E3230363220202020302E303030302043202020302020302020302020302020302020302020302020302020302020302020302020300A2020202D312E303731372020202D302E3230363320202020302E303030302043202020302020302020302020302020302020302020302020302020302020302020302020300A2020202D312E3738363220202020302E3230363220202020302E303030302043202020302020302020302020302020302020302020302020302020302020302020302020300A20202020322E3530303620202020302E3230363320202020302E30303030204F202020302020302020302020302020302020302020302020302020302020302020302020300A2020202D322E353030362020202D302E3230363320202020302E30303030204F202020302020302020302020302020302020302020302020302020302020302020302020300A2020312020322020312020302020202020200A2020322020332020312020302020202020200A2020332020342020312020302020202020200A2020342020352020312020302020202020200A2020352020362020312020302020202020200A2020312020372020312020302020202020200A2020362020382020312020302020202020200A4D2020454E44
Contributor: TAJIMA S, GUNMA COLLEGE OF TECHNOLOGY
InstType: EI
InstName: HITACHI M-80A
IoniMethod: _ENERGY 70 eV
IonPolarity: pos
Date: 2010-10-09 19:48:36+02:00
Num Peaks: 39
15 41 19 32 26 27 27 299 28 39 29 390 30 27 31 999 38 14 39 221 
40 46 41 784 42 720 43 318 44 189 45 110 49 59 51 13 53 60 54 311 
55 457 56 135 57 392 58 42 59 15 62 10 67 531 68 83 69 177 70 263 
71 108 72 70 81 78 82 193 83 158 84 12 88 22 101 18 119 13 
