Name: 4-NITROBENZOIC ACID
MW: 167
Formula: C7H5NO4
Synonym: MassBank: JP011223
Synonym: 4-NITROBENZOIC ACID
Structure: 342D4E4954524F42454E5A4F494320414349442E6D6F6C0A20204368656D447261773034323231303137303932440A2031322031322020302020302020302020302020302020302020302020303939392056323030300A2020202D312E363530302020202D302E3030303020202020302E303030302043202020302020302020302020302020302020302020302020302020302020302020302020300A2020202D302E383235302020202D302E3030303020202020302E303030302043202020302020302020302020302020302020302020302020302020302020302020302020300A2020202D302E3431323520202020302E3731343520202020302E303030302043202020302020302020302020302020302020302020302020302020302020302020302020300A20202020302E3431323520202020302E3731343520202020302E303030302043202020302020302020302020302020302020302020302020302020302020302020302020300A20202020302E383235302020202D302E3030303020202020302E303030302043202020302020302020302020302020302020302020302020302020302020302020302020300A20202020302E343132352020202D302E3731343520202020302E303030302043202020302020302020302020302020302020302020302020302020302020302020302020300A2020202D302E343132352020202D302E3731343520202020302E303030302043202020302020302020302020302020302020302020302020302020302020302020302020300A2020202D322E3036323520202020302E3731343520202020302E30303030204F202020302020302020302020302020302020302020302020302020302020302020302020300A2020202D322E303632352020202D302E3731343520202020302E30303030204F202020302020302020302020302020302020302020302020302020302020302020302020300A20202020312E363530302020202D302E3030303020202020302E30303030204E202020302020332020302020302020302020302020302020302020302020302020302020300A20202020322E3036323520202020302E3731343520202020302E30303030204F202020302020302020302020302020302020302020302020302020302020302020302020300A20202020322E303632352020202D302E3731343520202020302E30303030204F202020302020352020302020302020302020302020302020302020302020302020302020300A2020312020322020312020302020202020200A2020322020332020312020302020202020200A2020332020342020322020302020202020200A2020342020352020312020302020202020200A2020352020362020322020302020202020200A2020362020372020312020302020202020200A2020322020372020322020302020202020200A2020312020382020322020302020202020200A2020312020392020312020302020202020200A2031302031312020322020302020202020200A2031302031322020312020302020202020200A2020352031302020312020302020202020200A4D202043484720203220203130202020312020313220202D310A4D2020454E44
Contributor: MASS SPECTROSCOPY SOC. OF JAPAN (MSSJ)
InstType: EI
InstName: SHIMADZU QP-1000EX
IoniMethod: _ENERGY 20 eV
IonPolarity: pos
Date: 2010-10-09 19:48:36+02:00
Num Peaks: 30
39 226 40 13 44 16 45 18 50 13 51 117 53 60 63 11 64 18 65 999 
66 56 75 115 76 67 77 13 81 106 92 32 93 74 103 63 104 55 109 140 
110 10 120 20 121 428 122 35 137 125 150 26 151 42 167 882 168 72 169 10 
