Name: TRICHLOROACETIC ACID METHYL ESTER
MW: 175
Formula: C3H3Cl3O2
Synonym: MassBank: JP010442
Synonym: TRICHLOROACETIC ACID METHYL ESTER
Structure: 310A32300A54524943484C4F524F4143455449432041434944204D455448594C2045535445522E6D6F6C0A20204368656D447261773038313231303038323332440A2020382020372020302020302020302020302020302020302020302020303939392056323030300A2020202D302E333032302020202D302E3631383720202020302E303030302043202020302020302020302020302020302020302020302020302020302020302020302020300A2020202D302E3330323020202020302E3230363320202020302E303030302043202020302020302020302020302020302020302020302020302020302020302020302020300A2020202D312E303136342020202D312E3033313320202020302E30303030204F202020302020302020302020302020302020302020302020302020302020302020302020300A20202020302E343132352020202D312E3033313320202020302E30303030204F202020302020302020302020302020302020302020302020302020302020302020302020300A2020202D312E3132373020202020302E3230363320202020302E3030303020436C2020302020302020302020302020302020302020302020302020302020302020302020300A2020202D302E3330323020202020312E3033313320202020302E3030303020436C2020302020302020302020302020302020302020302020302020302020302020302020300A20202020302E3532333020202020302E3230363320202020302E3030303020436C2020302020302020302020302020302020302020302020302020302020302020302020300A20202020312E313237302020202D302E3631383720202020302E303030302043202020302020302020302020302020302020302020302020302020302020302020302020300A2020312020322020312020302020202020200A2020312020332020322020302020202020200A2020312020342020312020302020202020200A2020322020352020312020302020202020200A2020322020362020312020302020202020200A2020322020372020312020302020202020200A2020342020382020312020302020202020200A4D2020454E44
Contributor: UOEH
InstType: EI
InstName: JEOL JMS-DX-303
IoniMethod: _ENERGY 70 eV
IonPolarity: pos
Date: 2010-10-09 19:48:36+02:00
Num Peaks: 20
47 57 49 26 59 999 60 35 61 13 63 39 65 13 82 112 84 72 86 13 
110 18 112 14 113 45 115 27 117 319 119 296 121 100 123 10 141 67 143 60 
