Name: MassBank: JP011199
MW: 208
Formula: C8H8N4O3
Synonym: MassBank: JP011199
Synonym: 1,3-DIMETHYL-2H-PYRIMIDO(1,2-A)(1,3,5)TRIAZINE-2,4,8-(1H,3H)-TRIONE
Structure: 312C332D44494D455448594C2D32482D505952494D49444F28312C322D412928312C332C3529545249415A494E452D322C342C382D2831482C3348292D5452494F4E452E6D6F6C0A20204368656D447261773131313230393131343332440A2031372031382020302020302020302020302020302020302020302020303939392056323030300A20202020302E3230363320202020302E3335373220202020302E30303030204E202020302020302020302020302020302020302020302020302020302020302020302020300A2020202D302E323036332020202D302E3335373220202020302E303030302043202020302020302020302020302020302020302020302020302020302020302020302020300A20202020302E323036332020202D312E3037313720202020302E30303030204E202020302020302020302020302020302020302020302020302020302020302020302020300A20202020312E303331332020202D312E3037313720202020302E303030302043202020302020302020302020302020302020302020302020302020302020302020302020300A20202020312E343433382020202D302E3335373220202020302E30303030204E202020302020302020302020302020302020302020302020302020302020302020302020300A20202020312E3033313320202020302E3335373220202020302E303030302043202020302020302020302020302020302020302020302020302020302020302020302020300A2020202D312E303331332020202D302E3335373220202020302E30303030204E202020302020302020302020302020302020302020302020302020302020302020302020300A2020202D312E3434333820202020302E3335373220202020302E303030302043202020302020302020302020302020302020302020302020302020302020302020302020300A2020202D312E3033313320202020312E3037313720202020302E303030302043202020302020302020302020302020302020302020302020302020302020302020302020300A2020202D302E3230363320202020312E3037313720202020302E303030302043202020302020302020302020302020302020302020302020302020302020302020302020300A20202020312E343433382020202D312E3738363220202020302E30303030204F202020302020302020302020302020302020302020302020302020302020302020302020300A20202020312E3434333820202020312E3037313720202020302E30303030204F202020302020302020302020302020302020302020302020302020302020302020302020300A2020202D322E3236383820202020302E3335373220202020302E30303030204F202020302020302020302020302020302020302020302020302020302020302020302020300A20202020322E323638382020202D302E3335373220202020302E303030302043202020302020302020302020302020302020302020302020302020302020302020302020300A2020202D302E323036322020202D312E3738363220202020302E303030302043202020302020302020302020302020302020302020302020302020302020302020302020300A2020202D312E3434333820202020312E3738363220202020302E303030302048202020302020302020302020302020302020302020302020302020302020302020302020300A20202020302E3230363220202020312E3738363220202020302E303030302048202020302020302020302020302020302020302020302020302020302020302020302020300A2020312020322020312020302020202020200A2020322020332020312020302020202020200A2020332020342020312020302020202020200A2020342020352020312020302020202020200A2020352020362020312020302020202020200A2020312020362020312020302020202020200A2020372020382020312020302020202020200A2020382020392020312020302020202020200A2020392031302020322020302020202020200A2020312031302020312020302020202020200A2020322020372020322020302020202020200A2020342031312020322020302020202020200A2020362031322020322020302020202020200A2020382031332020322020302020202020200A2020352031342020312020302020202020200A2020332031352020312020302020202020200A2020392031362020312020302020202020200A2031302031372020312020302020202020200A4D2020454E44
Contributor: SAWADA M, THE INST. OF SCIENTIFIC AND INDUSTRIALRESEARCH OSAKA UNIV.
InstType: EI
InstName: JEOL JMS-DX-300
IoniMethod: _ENERGY 70 eV
IonPolarity: pos
Date: 2010-10-09 19:48:36+02:00
Num Peaks: 91
34 12 38 10 39 61 40 336 41 114 42 117 43 180 44 565 45 27 50 17 
51 26 52 15 53 60 54 58 55 92 56 204 57 164 58 27 60 13 61 21 
63 15 65 21 66 17 67 38 68 66 69 102 70 53 71 38 72 17 73 11 
74 10 75 10 76 17 77 43 78 20 79 17 80 18 81 52 82 36 83 397 
84 40 85 18 91 21 93 28 94 50 95 107 96 77 97 27 104 13 105 37 
106 10 107 19 109 90 110 22 111 11 112 25 113 18 118 20 119 15 120 52 
121 77 122 42 123 519 124 52 125 22 126 13 127 32 128 42 133 11 134 78 
135 126 136 38 137 21 149 61 150 16 151 793 152 92 153 21 154 10 155 39 
156 47 167 37 168 19 169 14 179 21 180 17 182 10 183 14 208 999 209 151 
210 20 
