Name: MassBank: JP010302
MW: 319
Formula: C20H17NO3
Synonym: MassBank: JP010302
Synonym: 3-METHYL-4-PHENACYL-1-PARA-TOLYL-3-PYRROLINE-2,5-DIONE
Structure: 332D4D455448594C2D342D5048454E4143594C2D312D504152412D544F4C594C2D332D505952524F4C494E452D322C352D44494F4E452E6D6F6C0A20204368656D447261773033323031303031343232440A2032342032362020302020302020302020302020302020302020302020303939392056323030300A2020202D302E333832322020202D312E3139333620202020302E30303030204E202020302020302020302020302020302020302020302020302020302020302020302020300A20202020302E333731352020202D312E3532393120202020302E303030302043202020302020302020302020302020302020302020302020302020302020302020302020300A20202020302E393233362020202D302E3931363020202020302E303030302043202020302020302020302020302020302020302020302020302020302020302020302020300A20202020302E353131312020202D302E3230313620202020302E303030302043202020302020302020302020302020302020302020302020302020302020302020302020300A2020202D302E323935392020202D302E3337333120202020302E303030302043202020302020302020302020302020302020302020302020302020302020302020302020300A20202020302E353433302020202D322E3333363120202020302E30303030204F202020302020302020302020302020302020302020302020302020302020302020302020300A2020202D302E3930393020202020302E3137383920202020302E30303030204F202020302020302020302020302020302020302020302020302020302020302020302020300A2020202D312E303936362020202D312E3630363120202020302E303030302043202020302020302020302020302020302020302020302020302020302020302020302020300A2020202D312E303936362020202D322E3433313120202020302E303030302043202020302020302020302020302020302020302020302020302020302020302020302020300A2020202D322E353235362020202D322E3433313120202020302E303030302043202020302020302020302020302020302020302020302020302020302020302020302020300A2020202D312E383131312020202D312E3139333620202020302E303030302043202020302020302020302020302020302020302020302020302020302020302020302020300A2020202D312E383131312020202D322E3834333620202020302E303030302043202020302020302020302020302020302020302020302020302020302020302020302020300A2020202D322E353235362020202D312E3630363120202020302E303030302043202020302020302020302020302020302020302020302020302020302020302020302020300A2020202D332E323430302020202D322E3834333620202020302E303030302043202020302020302020302020302020302020302020302020302020302020302020302020300A20202020302E3834363620202020302E3535323120202020302E303030302043202020302020302020302020302020302020302020302020302020302020302020302020300A20202020312E3636373120202020302E3633383320202020302E303030302043202020302020302020302020302020302020302020302020302020302020302020302020300A20202020322E313532302020202D302E3032393120202020302E30303030204F202020302020302020302020302020302020302020302020302020302020302020302020300A20202020322E3034313620202020312E3337333420202020302E303030302043202020302020302020302020302020302020302020302020302020302020302020302020300A20202020312E3539323320202020322E3036353320202020302E303030302043202020302020302020302020302020302020302020302020302020302020302020302020300A20202020312E3936363820202020322E3830303420202020302E303030302043202020302020302020302020302020302020302020302020302020302020302020302020300A20202020322E3739303720202020322E3834333620202020302E303030302043202020302020302020302020302020302020302020302020302020302020302020302020300A20202020332E3234303020202020322E3135313720202020302E303030302043202020302020302020302020302020302020302020302020302020302020302020302020300A20202020322E3836353520202020312E3431363620202020302E303030302043202020302020302020302020302020302020302020302020302020302020302020302020300A20202020312E373434302020202D312E3030323320202020302E303030302043202020302020302020302020302020302020302020302020302020302020302020302020300A2020312020322020312020302020202020200A2020322020332020312020302020202020200A2020332020342020322020302020202020200A2020342020352020312020302020202020200A2020312020352020312020302020202020200A2020322020362020322020302020202020200A2020352020372020322020302020202020200A2020382020392020312020302020202020200A2020382031312020322020302020202020200A2020392031322020322020302020202020200A2031302031322020312020302020202020200A2031302031332020322020302020202020200A2031312031332020312020302020202020200A2031302031342020312020302020202020200A2020312020382020312020302020202020200A2031352031362020312020302020202020200A2031362031372020322020302020202020200A2031362031382020312020302020202020200A2031382031392020312020302020202020200A2031392032302020322020302020202020200A2032302032312020312020302020202020200A2032312032322020322020302020202020200A2032322032332020312020302020202020200A2031382032332020322020302020202020200A2020342031352020312020302020202020200A2020332032342020312020302020202020200A4D2020454E44
Contributor: KANEMASA S, INST. OF ADVANCED MATERIAL STUDY KYUSHU UNIV.
InstType: EI
InstName: JEOL JMS-01-SG-2
IoniMethod: _ENERGY 75 eV
IonPolarity: pos
Date: 2010-10-09 19:48:36+02:00
Num Peaks: 32
31 460 39 44 41 74 42 33 43 70 44 18 45 127 50 20 51 67 52 26 
53 92 56 70 57 39 59 371 73 30 74 196 77 328 78 37 81 35 91 26 
104 21 105 999 106 84 118 24 132 24 133 19 201 25 215 18 216 24 319 364 
320 80 321 27 
