Name: METHYL 4-HYDROXY-2-METHOXY-6-METHYLBENZOATE
MW: 196
Formula: C10H12O4
Synonym: MassBank: JP011916
Synonym: METHYL 4-HYDROXY-2-METHOXY-6-METHYLBENZOATE
Structure: 4D455448594C20342D485944524F58592D322D4D4554484F58592D362D4D455448594C42454E5A4F4154452E6D6F6C0A20204368656D447261773038313131303233353732440A2031342031342020302020302020302020302020302020302020302020303939392056323030300A2020202D312E343433372020202D302E3335373220202020302E303030302043202020302020302020302020302020302020302020302020302020302020302020302020300A2020202D302E363138372020202D302E3335373220202020302E303030302043202020302020302020302020302020302020302020302020302020302020302020302020300A2020202D302E3230363220202020302E3335373220202020302E303030302043202020302020302020302020302020302020302020302020302020302020302020302020300A20202020302E3631383820202020302E3335373220202020302E303030302043202020302020302020302020302020302020302020302020302020302020302020302020300A20202020312E303331332020202D302E3335373220202020302E303030302043202020302020302020302020302020302020302020302020302020302020302020302020300A20202020302E363138382020202D312E3037313720202020302E303030302043202020302020302020302020302020302020302020302020302020302020302020302020300A2020202D302E323036322020202D312E3037313720202020302E303030302043202020302020302020302020302020302020302020302020302020302020302020302020300A2020202D312E3835363320202020302E3335373220202020302E30303030204F202020302020302020302020302020302020302020302020302020302020302020302020300A2020202D312E383536332020202D312E3037313720202020302E30303030204F202020302020302020302020302020302020302020302020302020302020302020302020300A2020202D302E363138372020202D312E3738363220202020302E303030302043202020302020302020302020302020302020302020302020302020302020302020302020300A2020202D302E3631383720202020312E3037313720202020302E30303030204F202020302020302020302020302020302020302020302020302020302020302020302020300A2020202D302E3230363220202020312E3738363220202020302E303030302043202020302020302020302020302020302020302020302020302020302020302020302020300A20202020312E383536332020202D302E3335373220202020302E30303030204F202020302020302020302020302020302020302020302020302020302020302020302020300A2020202D312E343433372020202D312E3738363220202020302E303030302043202020302020302020302020302020302020302020302020302020302020302020302020300A2020312020322020312020302020202020200A2020322020332020312020302020202020200A2020332020342020322020302020202020200A2020342020352020312020302020202020200A2020352020362020322020302020202020200A2020362020372020312020302020202020200A2020322020372020322020302020202020200A2020312020382020322020302020202020200A2020312020392020312020302020202020200A2020372031302020312020302020202020200A2031312031322020312020302020202020200A2020332031312020312020302020202020200A2020352031332020312020302020202020200A2020392031342020312020302020202020200A4D2020454E44
Contributor: YAMAMOTO M, DEP. CHEMISTRY, FAC. SCIENCE, NARA WOMEN'S UNIV.
InstType: EI
InstName: HITACHI M-80
IoniMethod: _ENERGY 70 eV
IonPolarity: pos
Date: 2010-10-09 19:48:36+02:00
Num Peaks: 56
15 88 18 14 27 16 29 42 30 11 31 16 39 13 40 71 41 15 42 12 
44 20 46 11 51 24 52 45 53 22 54 49 56 15 59 12 62 15 63 30 
64 13 65 58 66 62 67 19 69 54 77 76 78 24 79 28 81 12 93 24 
94 39 95 10 106 31 107 63 108 11 109 16 121 70 122 100 123 11 134 13 
135 55 136 16 137 18 138 21 139 13 150 47 151 14 163 21 164 245 165 999 
166 102 167 21 179 13 181 12 196 354 197 41 
