Name: MassBank: JP011991
MW: 86
Formula: C4H10Si
Synonym: MassBank: JP011991
Synonym: SILACYCLOPENTANE (1,1-D2)
Structure: 310A32300A53494C414359434C4F50454E54414E452028312C312D4432292E6D6F6C0A20204368656D447261773038313231303036343632440A2020372020372020302020302020302020302020302020302020302020303939392056323030300A2020202D302E313937322020202D302E3136373820202020302E303030302053692020302020302020302020302020302020302020302020302020302020302020302020300A2020202D302E3238333520202020302E3635323720202020302E303030302043202020302020302020302020302020302020302020302020302020302020302020302020300A20202020302E3437303220202020302E3938383320202020302E303030302043202020302020302020302020302020302020302020302020302020302020302020302020300A20202020312E3032323220202020302E3337353220202020302E303030302043202020302020302020302020302020302020302020302020302020302020302020302020300A20202020302E363039372020202D302E3333393320202020302E303030302043202020302020302020302020302020302020302020302020302020302020302020302020300A2020202D302E323833352020202D302E3938383320202020302E303030302048202020312020302020302020302020302020302020302020302020302020302020302020300A2020202D312E303232322020202D302E3136373820202020302E303030302048202020312020302020302020302020302020302020302020302020302020302020302020300A2020312020322020312020302020202020200A2020322020332020312020302020202020200A2020332020342020312020302020202020200A2020342020352020312020302020202020200A2020312020352020312020302020202020200A2020312020362020312020302020202020200A2020312020372020312020302020202020200A4D202049534F202032202020362020203220202037202020320A4D2020454E44
Contributor: YAMAMOTO M, DEP. CHEMISTRY, FAC. SCIENCE, NARA WOMEN'S UNIV.
InstType: EI
InstName: HITACHI RMU-6M
IoniMethod: _ENERGY 20 eV
IonPolarity: pos
Date: 2010-10-09 19:48:36+02:00
Num Peaks: 23
28 20 43 55 44 148 45 58 46 26 47 10 55 15 56 20 57 42 58 124 
59 404 60 999 61 95 62 37 72 16 73 16 84 29 85 10 86 46 87 20 
88 327 89 36 90 13 
