Name: 2-ACETOXY-5-METHOXYTROPONE
MW: 194
Formula: C10H10O4
Synonym: MassBank: JP011029
Synonym: 2-ACETOXY-5-METHOXYTROPONE
Structure: 322D414345544F58592D352D4D4554484F585954524F504F4E452E6D6F6C0A20204368656D447261773132323130393231353132440A2031342031342020302020302020302020302020302020302020302020303939392056323030300A20202020312E3430383620202020302E3734313320202020302E30303030204F202020302020302020302020302020302020302020302020302020302020302020302020300A20202020302E3736333620202020302E3232363920202020302E303030302043202020302020302020302020302020302020302020302020302020302020302020302020300A20202020302E393437322020202D302E3537373420202020302E303030302043202020302020302020302020302020302020302020302020302020302020302020302020300A20202020302E343332382020202D312E3232323420202020302E303030302043202020302020302020302020302020302020302020302020302020302020302020302020300A2020202D302E333932322020202D312E3232323420202020302E303030302043202020302020302020302020302020302020302020302020302020302020302020302020300A2020202D302E393036362020202D302E3537373420202020302E303030302043202020302020302020302020302020302020302020302020302020302020302020302020300A2020202D302E3732333020202020302E3232363920202020302E303030302043202020302020302020302020302020302020302020302020302020302020302020302020300A20202020302E3032303320202020302E3538343920202020302E303030302043202020302020302020302020302020302020302020302020302020302020302020302020300A2020202D302E373530312020202D312E3936353720202020302E30303030204F202020302020302020302020302020302020302020302020302020302020302020302020300A2020202D302E323835342020202D322E3634373420202020302E303030302043202020302020302020302020302020302020302020302020302020302020302020302020300A20202020302E3032303320202020312E3430393920202020302E30303030204F202020302020302020302020302020302020302020302020302020302020302020302020300A2020202D302E3639343220202020312E3832323420202020302E303030302043202020302020302020302020302020302020302020302020302020302020302020302020300A2020202D312E3430383620202020312E3430393920202020302E30303030204F202020302020302020302020302020302020302020302020302020302020302020302020300A2020202D302E3639343220202020322E3634373420202020302E303030302043202020302020302020302020302020302020302020302020302020302020302020302020300A2020312020322020322020302020202020200A2020322020332020312020302020202020200A2020332020342020322020302020202020200A2020342020352020312020302020202020200A2020352020362020322020302020202020200A2020362020372020312020302020202020200A2020372020382020322020302020202020200A2020322020382020312020302020202020200A2020392031302020312020302020202020200A2020352020392020312020302020202020200A2031322031332020322020302020202020200A2031322031342020312020302020202020200A2031312031322020312020302020202020200A2020382031312020312020302020202020200A4D2020454E44
Contributor: TAKESHITA H, INST. OF ADVANCED MATERIAL STUDY KYUSHU UNIV.
InstType: EI
InstName: JEOL JMS-01-SG-2
IoniMethod: _ENERGY 75 eV
IonPolarity: pos
Date: 2010-10-09 19:48:36+02:00
Num Peaks: 35
38 45 39 105 41 66 42 34 43 452 44 18 50 33 51 60 52 92 53 67 
54 99 55 32 62 28 63 90 64 53 65 67 66 16 77 18 79 18 80 40 
81 119 82 32 92 24 95 58 109 510 110 46 123 61 124 665 125 49 137 31 
138 36 153 999 154 14 194 110 195 14 
