Name: MassBank: JP011247
MW: 208
Formula: C11H12O4
Synonym: MassBank: JP011247
Synonym: 3,5-DIMETHOXYCINNAMIC ACID
Structure: 332C352D44494D4554484F585943494E4E414D494320414349442E6D6F6C0A20204368656D447261773032323231303031313632440A2031352031352020302020302020302020302020302020302020302020303939392056323030300A2020202D322E3036323520202020302E3731343520202020302E303030302043202020302020302020302020302020302020302020302020302020302020302020302020300A2020202D312E3233373520202020302E3731343520202020302E303030302043202020302020302020302020302020302020302020302020302020302020302020302020300A2020202D302E383235302020202D302E3030303020202020302E303030302043202020302020302020302020302020302020302020302020302020302020302020302020300A20202020302E303030302020202D302E3030303020202020302E303030302043202020302020302020302020302020302020302020302020302020302020302020302020300A20202020302E3431323520202020302E3731343520202020302E303030302043202020302020302020302020302020302020302020302020302020302020302020302020300A20202020312E3233373520202020302E3731343520202020302E303030302043202020302020302020302020302020302020302020302020302020302020302020302020300A20202020312E363530302020202D302E3030303020202020302E303030302043202020302020302020302020302020302020302020302020302020302020302020302020300A20202020312E323337352020202D302E3731343520202020302E303030302043202020302020302020302020302020302020302020302020302020302020302020302020300A20202020302E343132352020202D302E3731343520202020302E303030302043202020302020302020302020302020302020302020302020302020302020302020302020300A2020202D322E343735302020202D302E3030303020202020302E30303030204F202020302020302020302020302020302020302020302020302020302020302020302020300A2020202D322E3437353020202020312E3432383920202020302E30303030204F202020302020302020302020302020302020302020302020302020302020302020302020300A20202020312E363530302020202D312E3432383920202020302E30303030204F202020302020302020302020302020302020302020302020302020302020302020302020300A20202020322E343735302020202D312E3432383920202020302E303030302043202020302020302020302020302020302020302020302020302020302020302020302020300A20202020312E3635303020202020312E3432383920202020302E30303030204F202020302020302020302020302020302020302020302020302020302020302020302020300A20202020322E3437353020202020312E3432383920202020302E303030302043202020302020302020302020302020302020302020302020302020302020302020302020300A2020312020322020312020302020202020200A2020322020332020322020302020202020200A2020332020342020312020302020202020200A2020342020352020312020302020202020200A2020352020362020322020302020202020200A2020362020372020312020302020202020200A2020372020382020322020302020202020200A2020382020392020312020302020202020200A2020342020392020322020302020202020200A2020312031302020322020302020202020200A2020312031312020312020302020202020200A2031322031332020312020302020202020200A2020382031322020312020302020202020200A2031342031352020312020302020202020200A2020362031342020312020302020202020200A4D2020454E44
Contributor: MASS SPECTROSCOPY SOC. OF JAPAN (MSSJ)
InstType: EI
InstName: SHIMADZU QP-1000EX
IoniMethod: _ENERGY 20 eV
IonPolarity: pos
Date: 2010-10-09 19:48:36+02:00
Num Peaks: 47
55 9 65 9 66 9 69 12 77 38 78 14 79 20 90 10 91 32 94 10 
102 8 103 19 105 26 107 13 109 16 117 10 118 20 119 15 120 10 121 25 
122 9 132 20 133 44 134 15 135 24 137 34 147 22 148 41 149 14 160 9 
161 76 162 20 163 75 164 15 165 18 177 74 178 11 179 28 180 9 189 18 
191 47 192 9 193 14 207 88 208 999 209 122 210 15 
