Name: MassBank: JP010948
MW: 418
Formula: C26H50Si2
Synonym: MassBank: JP010948
Synonym: (2E,6E,10E,15E)-6,10-BIS(TRIMETHYLSILYLMETHYL)-2,6,10,14-HEXADECATETRAENE
Structure: 2832452C36452C3130452C313545292D362C31302D424953285452494D455448594C53494C594C4D455448594C292D322C362C31302C31342D48455841444543415445545241454E452E6D6F6C0A20204368656D447261773130323030393133303432440A2033302032392020302020302020302020302020302020302020302020303939392056323030300A20202020312E343238392020202D302E3431323520202020302E303030302043202020302020302020302020302020302020302020302020302020302020302020302020300A20202020302E373134352020202D302E3832353020202020302E303030302043202020302020302020302020302020302020302020302020302020302020302020302020300A20202020302E373134352020202D312E3635303020202020302E303030302048202020302020302020302020302020302020302020302020302020302020302020302020300A20202020302E303030302020202D302E3431323520202020302E303030302043202020302020302020302020302020302020302020302020302020302020302020302020300A20202020312E3432383920202020302E3431323520202020302E303030302043202020302020302020302020302020302020302020302020302020302020302020302020300A20202020322E313433342020202D302E3832353020202020302E303030302043202020302020302020302020302020302020302020302020302020302020302020302020300A20202020322E313433342020202D312E3635303020202020302E303030302053692020302020302020302020302020302020302020302020302020302020302020302020300A20202020322E3134333420202020302E3832353020202020302E303030302043202020302020302020302020302020302020302020302020302020302020302020302020300A20202020322E3835373920202020302E3431323520202020302E303030302043202020302020302020302020302020302020302020302020302020302020302020302020300A20202020332E3537323420202020302E3832353020202020302E303030302043202020302020302020302020302020302020302020302020302020302020302020302020300A20202020332E3537323420202020312E3635303020202020302E303030302043202020302020302020302020302020302020302020302020302020302020302020302020300A20202020342E3238363820202020302E3431323520202020302E303030302043202020302020302020302020302020302020302020302020302020302020302020302020300A2020202D302E373134352020202D302E3832353020202020302E303030302043202020302020302020302020302020302020302020302020302020302020302020302020300A2020202D312E343238392020202D302E3431323520202020302E303030302043202020302020302020302020302020302020302020302020302020302020302020302020300A2020202D312E3432383920202020302E3431323520202020302E303030302043202020302020302020302020302020302020302020302020302020302020302020302020300A2020202D322E3134333420202020302E3832353020202020302E303030302043202020302020302020302020302020302020302020302020302020302020302020302020300A2020202D322E3835373920202020302E3431323520202020302E303030302043202020302020302020302020302020302020302020302020302020302020302020302020300A2020202D322E383537392020202D302E3431323520202020302E303030302043202020302020302020302020302020302020302020302020302020302020302020302020300A2020202D332E353732342020202D302E3832353020202020302E303030302043202020302020302020302020302020302020302020302020302020302020302020302020300A2020202D332E353732342020202D312E3635303020202020302E303030302043202020302020302020302020302020302020302020302020302020302020302020302020300A2020202D342E323836382020202D302E3431323520202020302E303030302043202020302020302020302020302020302020302020302020302020302020302020302020300A2020202D322E313433342020202D302E3832353020202020302E303030302048202020302020302020302020302020302020302020302020302020302020302020302020300A2020202D302E3731343520202020302E3832353020202020302E303030302043202020302020302020302020302020302020302020302020302020302020302020302020300A2020202D302E3731343520202020312E3635303020202020302E303030302053692020302020302020302020302020302020302020302020302020302020302020302020300A20202020302E3330333120202020312E3635303020202020302E303030302043202020302020302020302020302020302020302020302020302020302020302020302020300A20202020312E333138312020202D312E3634393520202020302E303030302043202020302020302020302020302020302020302020302020302020302020302020302020300A2020202D312E3733333620202020312E3635303020202020302E303030302043202020302020302020302020302020302020302020302020302020302020302020302020300A20202020322E313432332020202D322E3437353020202020302E303030302043202020302020302020302020302020302020302020302020302020302020302020302020300A20202020332E313631352020202D312E3634393220202020302E303030302043202020302020302020302020302020302020302020302020302020302020302020302020300A2020202D302E3731353220202020322E3437353020202020302E303030302043202020302020302020302020302020302020302020302020302020302020302020302020300A2020312020322020322020302020202020200A2020322020332020312020302020202020200A2020322020342020312020302020202020200A2020312020352020312020302020202020200A2020312020362020312020302020202020200A2020362020372020312020302020202020200A2020352020382020312020302020202020200A2020382020392020312020302020202020200A2020392031302020322020302020202020200A2031302031312020312020302020202020200A2031302031322020312020302020202020200A2020342031332020312020302020202020200A2031332031342020312020302020202020200A2031342031352020322020302020202020200A2031352031362020312020302020202020200A2031362031372020312020302020202020200A2031372031382020312020302020202020200A2031382031392020322020302020202020200A2031392032302020312020302020202020200A2031392032312020312020302020202020200A2031342032322020312020302020202020200A2031352032332020312020302020202020200A2032332032342020312020302020202020200A2032342032352020312020312020202020200A2020372032362020312020312020202020200A2032342032372020312020312020202020200A2020372032382020312020302020202020200A2020372032392020312020312020202020200A2032342033302020312020302020202020200A4D202053545920203120202031205355500A4D2020534C4220203120202031202020310A4D202053414C20202031202031202032350A4D202053424C20202031202031202032340A4D2020534D5420202031204D650A4D2020534256202020312032342020202D362E3432303220202020362E363839310A4D202053545920203120202032205355500A4D2020534C4220203120202032202020320A4D202053414C20202032202031202032360A4D202053424C20202032202031202032350A4D2020534D5420202032204D650A4D2020534256202020322032352020202D382E3236333120202020362E363839360A4D202053545920203120202033205355500A4D2020534C4220203120202033202020330A4D202053414C20202033202031202032370A4D202053424C20202033202031202032360A4D2020534D5420202033204D650A4D2020534256202020332032362020202D382E3435363920202020362E363839310A4D202053545920203120202034205355500A4D2020534C4220203120202034202020340A4D202053414C20202034202031202032380A4D202053424C20202034202031202032370A4D2020534D5420202034204D650A4D2020534256202020342032372020202D372E3433393020202020352E383634310A4D202053545920203120202035205355500A4D2020534C4220203120202035202020350A4D202053414C20202035202031202032390A4D202053424C20202035202031202032380A4D2020534D5420202035204D650A4D2020534256202020352032382020202D362E3431393820202020362E363930300A4D202053545920203120202036205355500A4D2020534C4220203120202036202020360A4D202053414C20202036202031202033300A4D202053424C20202036202031202032390A4D2020534D5420202036204D650A4D2020534256202020362032392020202D372E3433383520202020372E353134310A4D2020454E44
Contributor: HISAHIRO HAGIWARA, INSTITUTE FOR CHEMICAL REACTION SCIENCE TOHOKU UNIV.
InstType: EI
InstName: JEOL JMS-DX-300
IoniMethod: _ENERGY 70 eV
IonPolarity: pos
Date: 2010-10-09 19:48:36+02:00
Num Peaks: 24
41 28 45 28 59 29 69 59 73 999 74 98 75 43 93 15 97 10 109 15 
125 11 135 112 136 14 153 19 179 42 180 10 181 12 209 206 210 42 211 12 
222 37 349 19 418 31 419 12 
