Name: 2-ACETOXY-7-BROMO-4-ISOPROPENYLTROPONE
MW: 281
Formula: C12H11BrO3
Synonym: MassBank: JP011022
Synonym: 2-ACETOXY-7-BROMO-4-ISOPROPENYLTROPONE
Structure: 322D414345544F58592D372D42524F4D4F2D342D49534F50524F50454E594C54524F504F4E452E6D6F6C0A20204368656D447261773132323130393231353232440A2031362031362020302020302020302020302020302020302020302020303939392056323030300A20202020302E3139363520202020312E3638303020202020302E30303030204F202020302020302020302020302020302020302020302020302020302020302020302020300A2020202D302E3331373820202020312E3033353020202020302E303030302043202020302020302020302020302020302020302020302020302020302020302020302020300A2020202D312E3132323220202020312E3231383620202020302E303030302043202020302020302020302020302020302020302020302020302020302020302020302020300A2020202D312E3736373220202020302E3730343220202020302E303030302043202020302020302020302020302020302020302020302020302020302020302020302020300A2020202D312E373637322020202D302E3132303820202020302E303030302043202020302020302020302020302020302020302020302020302020302020302020302020300A2020202D312E313232322020202D302E3633353220202020302E303030302043202020302020302020302020302020302020302020302020302020302020302020302020300A2020202D302E333137382020202D302E3435313620202020302E303030302043202020302020302020302020302020302020302020302020302020302020302020302020300A20202020302E3034303120202020302E3239313720202020302E303030302043202020302020302020302020302020302020302020302020302020302020302020302020300A2020202D312E333035372020202D312E3433393520202020302E303030302043202020302020302020302020302020302020302020302020302020302020302020302020300A2020202D302E373232342020202D322E3032323920202020302E303030302043202020302020302020302020302020302020302020302020302020302020302020302020300A2020202D322E313032362020202D312E3635333020202020302E303030302043202020302020302020302020302020302020302020302020302020302020302020302020300A2020202D312E3330353720202020322E3032323920202020302E303030302042722020302020302020302020302020302020302020302020302020302020302020302020300A20202020302E3836353120202020302E3239313720202020302E30303030204F202020302020302020302020302020302020302020302020302020302020302020302020300A20202020312E323737362020202D302E3432323820202020302E303030302043202020302020302020302020302020302020302020302020302020302020302020302020300A20202020302E383635312020202D312E3133373320202020302E30303030204F202020302020302020302020302020302020302020302020302020302020302020302020300A20202020322E313032362020202D302E3432323820202020302E303030302043202020302020302020302020302020302020302020302020302020302020302020302020300A2020312020322020322020302020202020200A2020322020332020312020302020202020200A2020332020342020322020302020202020200A2020342020352020312020302020202020200A2020352020362020322020302020202020200A2020362020372020312020302020202020200A2020372020382020322020302020202020200A2020322020382020312020302020202020200A2020392031302020322020302020202020200A2020392031312020312020302020202020200A2020362020392020312020302020202020200A2020332031322020312020302020202020200A2031342031352020322020302020202020200A2031342031362020312020302020202020200A2031332031342020312020302020202020200A2020382031332020312020302020202020200A4D2020454E44
Contributor: TAKESHITA H, INST. OF ADVANCED MATERIAL STUDY KYUSHU UNIV.
InstType: EI
InstName: JEOL JMS-01-SG-2
IoniMethod: _ENERGY 75 eV
IonPolarity: pos
Date: 2010-10-09 19:48:36+02:00
Num Peaks: 44
39 149 41 45 43 978 50 54 51 118 52 47 53 50 55 46 62 74 63 194 
65 59 75 45 77 235 78 155 79 83 91 109 103 201 104 131 105 251 115 81 
117 45 118 86 131 52 132 78 133 345 161 64 172 107 174 108 197 68 199 91 
201 29 212 508 213 60 214 486 215 51 240 999 241 131 242 987 243 131 244 63 
282 78 283 35 284 95 285 32 
