Name: CHLOROTHALONIL
MW: 263
Formula: C8Cl4N2
Synonym: MassBank: JP010743
Synonym: CHLOROTHALONIL
Synonym: TETRACHLOROISOPHTHALONITRILE
Structure: 544554524143484C4F524F49534F50485448414C4F4E495452494C452E6D6F6C0A20204368656D447261773038313231303037313532440A2031342031342020302020302020302020302020302020302020302020303939392056323030300A2020202D312E323337352020202D302E3335373220202020302E303030302043202020302020302020302020302020302020302020302020302020302020302020302020300A2020202D302E343132352020202D302E3335373220202020302E303030302043202020302020302020302020302020302020302020302020302020302020302020302020300A20202020302E3030303020202020302E3335373220202020302E303030302043202020302020302020302020302020302020302020302020302020302020302020302020300A20202020302E3832353020202020302E3335373220202020302E303030302043202020302020302020302020302020302020302020302020302020302020302020302020300A20202020312E3233373520202020312E3037313720202020302E303030302043202020302020302020302020302020302020302020302020302020302020302020302020300A20202020312E323337352020202D302E3335373220202020302E303030302043202020302020302020302020302020302020302020302020302020302020302020302020300A20202020302E383235302020202D312E3037313720202020302E303030302043202020302020302020302020302020302020302020302020302020302020302020302020300A20202020302E303030302020202D312E3037313720202020302E303030302043202020302020302020302020302020302020302020302020302020302020302020302020300A2020202D322E303632352020202D302E3335373220202020302E30303030204E202020302020302020302020302020302020302020302020302020302020302020302020300A20202020312E3635303020202020312E3738363220202020302E30303030204E202020302020302020302020302020302020302020302020302020302020302020302020300A2020202D302E3431323520202020312E3037313720202020302E3030303020436C2020302020302020302020302020302020302020302020302020302020302020302020300A20202020322E303632352020202D302E3335373220202020302E3030303020436C2020302020302020302020302020302020302020302020302020302020302020302020300A20202020312E323337352020202D312E3738363220202020302E3030303020436C2020302020302020302020302020302020302020302020302020302020302020302020300A2020202D302E343132352020202D312E3738363220202020302E3030303020436C2020302020302020302020302020302020302020302020302020302020302020302020300A2020312020322020312020302020202020200A2020322020332020312020302020202020200A2020332020342020322020302020202020200A2020342020352020312020302020202020200A2020342020362020312020302020202020200A2020362020372020322020302020202020200A2020372020382020312020302020202020200A2020322020382020322020302020202020200A2020312020392020332020302020202020200A2020352031302020332020302020202020200A2020332031312020312020302020202020200A2020362031322020312020302020202020200A2020372031332020312020302020202020200A2020382031342020312020302020202020200A4D2020454E44
Contributor: HASHIMOTO K, KYOTO COLLEGE OF PHARMACY
InstType: EI
InstName: HITACHI M-80
IoniMethod: _ENERGY 20 eV
IonPolarity: pos
Date: 2010-10-09 19:48:36+02:00
Num Peaks: 26
84 13 109 16 133 12 144 14 146 10 168 64 170 46 172 10 179 14 181 12 
194 70 196 47 203 19 205 17 229 116 230 11 231 102 233 36 264 773 265 73 
266 999 267 101 268 485 269 48 270 103 271 11 
