Name: MassBank: JP011816
MW: 258
Formula: C11H18N2O5
Synonym: MassBank: JP011816
Synonym: METHYL 2-(N-((4S)-4-(1,1-DIMETHYLETHYL)-2-OXAZOLIDINONE-3-CARBAMOYL))AMINOACETATE
Structure: 313131375F4D455448594C20322D284E2D28283453292D342D28312C312D44494D455448594C455448594C292D322D4F58415A4F4C4944494E4F4E452D332D43415242414D4F594C2929414D494E4F414345544154452E6D6F6C0A20204368656D447261773130323031303230323832440A2031382031382020302020302020302020302020302020302020302020303939392056323030300A20202020312E3735353920202020312E3332373520202020302E303030302043202020302020302020302020302020302020302020302020302020302020302020302020300A20202020302E3937313320202020312E3037323720202020302E303030302043202020302020302020302020302020302020302020302020302020302020302020302020300A20202020312E3936393420202020322E3132343420202020302E30303030204F202020302020302020302020302020302020302020302020302020302020302020302020300A20202020322E3333393320202020302E3734343120202020302E30303030204F202020302020302020302020302020302020302020302020302020302020302020302020300A20202020302E3739393620202020302E3236353720202020302E30303030204E202020302020302020302020302020302020302020302020302020302020302020302020300A20202020302E3031353020202020302E3031303920202020302E303030302043202020302020302020302020302020302020302020302020302020302020302020302020300A2020202D302E3536383420202020302E3539343320202020302E30303030204F202020302020302020302020302020302020302020302020302020302020302020302020300A2020202D302E303136342020202D322E3132343420202020302E30303030204F202020302020302020302020302020302020302020302020302020302020302020302020300A20202020302E333935322020202D312E3430383620202020302E303030302043202020302020302020302020302020302020302020302020302020302020302020302020300A2020202D302E313536372020202D302E3739363120202020302E30303030204E202020302020302020302020302020302020302020302020302020302020302020302020300A2020202D302E393130332020202D312E3133303920202020302E303030302043202020302020302020302020302020302020302020302020302020302020302020302020300A2020202D302E383234332020202D312E3935313520202020302E303030302043202020302020302020302020302020302020302020302020302020302020302020302020300A20202020312E323135362020202D312E3332313520202020302E30303030204F202020302020302020302020302020302020302020302020302020302020302020302020300A2020202D312E363234382020202D302E3731383420202020302E303030302043202020302020302020302020302020302020302020302020302020302020302020302020300A2020202D312E323132332020202D302E3030333920202020302E303030302043202020302020302020302020302020302020302020302020302020302020302020302020300A2020202D322E333339332020202D302E3330353920202020302E303030302043202020302020302020302020302020302020302020302020302020302020302020302020300A2020202D322E303337332020202D312E3433323920202020302E303030302043202020302020302020302020302020302020302020302020302020302020302020302020300A20202020322E313235382020202D302E3035323820202020302E303030302043202020302020302020302020302020302020302020302020302020302020302020302020300A2020312020322020312020302020202020200A2020312020332020322020302020202020200A2020312020342020312020302020202020200A2020362020372020322020302020202020200A2020382020392020312020302020202020200A2020392031302020312020302020202020200A2031302031312020312020302020202020200A2031312031322020312020302020202020200A2020382031322020312020302020202020200A2020392031332020322020302020202020200A2031342031352020312020302020202020200A2031342031362020312020302020202020200A2031342031372020312020302020202020200A2031312031342020312020362020202020200A2020352020362020312020302020202020200A2020322020352020312020302020202020200A2020342031382020312020302020202020200A2031302020362020312020302020202020200A4D2020454E44
Contributor: YOSHINORI Y, FAC. SCIENCE, TOHOKU UNIV.
InstType: EI
InstName: Unknown
IoniMethod: _ENERGY 20 eV
IonPolarity: pos
Date: 2010-10-09 19:48:36+02:00
Num Peaks: 17
102 92 116 51 128 27 143 25 158 366 159 27 183 43 199 335 200 36 201 41 
202 999 203 146 227 122 228 12 243 53 258 141 259 17 
