Name: PYRROLIDINE-2-ONE
MW: 85
Formula: C4H7NO
Synonym: MassBank: JP012058
Synonym: PYRROLIDINE-2-ONE
Structure: 310A31370A505952524F4C4944494E452D322D4F4E452E6D6F6C0A20204368656D447261773038313231303036323832440A2020362020362020302020302020302020302020302020302020302020303939392056323030300A20202020302E323632372020202D302E3636373420202020302E30303030204E202020302020302020302020302020302020302020302020302020302020302020302020300A2020202D302E3232323320202020302E3030303020202020302E303030302043202020302020302020302020302020302020302020302020302020302020302020302020300A20202020302E3236323720202020302E3636373420202020302E303030302043202020302020302020302020302020302020302020302020302020302020302020302020300A20202020312E3034373320202020302E3431323520202020302E303030302043202020302020302020302020302020302020302020302020302020302020302020302020300A20202020312E303437332020202D302E3431323520202020302E303030302043202020302020302020302020302020302020302020302020302020302020302020302020300A2020202D312E3034373320202020302E3030303020202020302E30303030204F202020302020302020302020302020302020302020302020302020302020302020302020300A2020312020322020312020302020202020200A2020322020332020312020302020202020200A2020332020342020312020302020202020200A2020342020352020312020302020202020200A2020312020352020312020302020202020200A2020322020362020322020302020202020200A4D2020454E44
Contributor: SUMITA Y, KYOTO COLLEGE OF PHARMACY
InstType: EI
InstName: HITACHI M-80
IoniMethod: _ENERGY 20 eV
IonPolarity: pos
Date: 2010-10-09 19:48:36+02:00
Num Peaks: 17
27 42 28 216 29 79 30 417 39 29 40 66 41 342 42 465 43 17 44 10 
55 15 56 88 57 13 84 224 85 999 86 88 87 5 
