Name: LYCORIN DIACETATE
MW: 371
Formula: C20H21NO6
Synonym: MassBank: JP011380
Synonym: LYCORIN DIACETATE
Structure: 313035355F4C59434F52494E204449414345544154452E6D6F6C0A20204368656D447261773130323031303230303332440A2032392033332020302020302020302020302020302020302020302020303939392056323030300A2020202D312E3530383620202020322E3036323520202020302E303030302043202020302020302020302020302020302020302020302020302020302020302020302020300A2020202D312E3530383620202020312E3233373520202020302E303030302043202020302020302020302020302020302020302020302020302020302020302020302020300A2020202D302E3739343220202020302E3832353020202020302E303030302043202020302020302020302020302020302020302020302020302020302020302020302020300A2020202D302E3037393720202020312E3233373520202020302E303030302043202020302020302020302020302020302020302020302020302020302020302020302020300A2020202D302E3037393720202020322E3036323520202020302E303030302043202020302020302020302020302020302020302020302020302020302020302020302020300A2020202D302E3739343220202020322E3437353020202020302E303030302043202020302020302020302020302020302020302020302020302020302020302020302020300A2020202D322E3239323220202020322E3331363620202020302E30303030204F202020302020302020302020302020302020302020302020302020302020302020302020300A2020202D322E3737383220202020312E3635303020202020302E303030302043202020302020302020302020302020302020302020302020302020302020302020302020300A2020202D322E3239323220202020302E3938323020202020302E30303030204F202020302020302020302020302020302020302020302020302020302020302020302020300A20202020302E3633343820202020302E3832353020202020302E303030302043202020302020302020302020302020302020302020302020302020302020302020302020300A20202020312E3334393220202020312E3233373520202020302E303030302043202020302020302020302020302020302020302020302020302020302020302020302020300A20202020312E3335303420202020322E3036323520202020302E30303030204E202020302020302020302020302020302020302020302020302020302020302020302020300A20202020302E3633343820202020322E3437353020202020302E303030302043202020302020302020302020302020302020302020302020302020302020302020302020300A20202020302E363334382020202D302E3030303020202020302E303030302043202020302020302020302020302020302020302020302020302020302020302020302020300A20202020312E333439322020202D302E3431323520202020302E303030302043202020302020302020302020302020302020302020302020302020302020302020302020300A20202020322E303633372020202D302E3030303020202020302E303030302043202020302020302020302020302020302020302020302020302020302020302020302020300A20202020322E3036333720202020302E3832353020202020302E303030302043202020302020302020302020302020302020302020302020302020302020302020302020300A20202020322E3133323020202020322E3332333020202020302E303030302043202020302020302020302020302020302020302020302020302020302020302020302020300A20202020322E3636323520202020312E3339323520202020302E303030302043202020302020302020302020302020302020302020302020302020302020302020302020300A20202020312E333439322020202D312E3233373520202020302E30303030204F202020302020302020302020302020302020302020302020302020302020302020302020300A2020202D302E3037393720202020302E3431323520202020302E303030302048202020302020302020302020302020302020302020302020302020302020302020302020300A20202020312E3432323420202020302E3431353820202020302E303030302048202020302020302020302020302020302020302020302020302020302020302020302020300A20202020322E303633372020202D312E3635303020202020302E303030302043202020302020302020302020302020302020302020302020302020302020302020302020300A20202020322E303633372020202D322E3437353020202020302E30303030204F202020302020302020302020302020302020302020302020302020302020302020302020300A20202020322E373738322020202D312E3233373520202020302E303030302043202020302020302020302020302020302020302020302020302020302020302020302020300A2020202D302E303739372020202D302E3431323520202020302E30303030204F202020302020302020302020302020302020302020302020302020302020302020302020300A2020202D302E303739372020202D312E3233373520202020302E303030302043202020302020302020302020302020302020302020302020302020302020302020302020300A20202020302E363334382020202D312E3635303020202020302E303030302043202020302020302020302020302020302020302020302020302020302020302020302020300A2020202D302E373934322020202D312E3635303020202020302E30303030204F202020302020302020302020302020302020302020302020302020302020302020302020300A2020312020322020322020302020202020200A2020322020332020312020302020202020200A2020332020342020322020302020202020200A2020342020352020312020302020202020200A2020352020362020322020302020202020200A2020362020312020312020302020202020200A2020312020372020312020302020202020200A2020372020382020312020302020202020200A2020382020392020312020302020202020200A2020392020322020312020302020202020200A2020342031302020312020302020202020200A2031302031312020312020302020202020200A2031312031322020312020302020202020200A2031322031332020312020302020202020200A2031332020352020312020302020202020200A2031302031342020312020302020202020200A2031342031352020312020302020202020200A2031352031362020312020302020202020200A2031362031372020312020302020202020200A2031372031312020312020302020202020200A2031322031382020312020302020202020200A2031372031392020312020302020202020200A2031392031382020312020302020202020200A2031352032302020312020362020202020200A2031302032312020312020362020202020200A2031312032322020312020312020202020200A2032302032332020312020302020202020200A2032332032342020322020302020202020200A2032332032352020312020302020202020200A2031342032362020312020312020202020200A2032362032372020312020302020202020200A2032372032382020312020302020202020200A2032372032392020322020302020202020200A4D2020454E44
Contributor: HISAHIRO HAGIWARA, INSTITUTE FOR CHEMICAL REACTION SCIENCE TOHOKU UNIV.
InstType: EI
InstName: JEOL JMS-DX-300
IoniMethod: _ENERGY 70 eV
IonPolarity: pos
Date: 2010-10-09 19:48:36+02:00
Num Peaks: 66
39 24 42 20 43 363 51 22 53 17 63 23 65 20 77 31 89 32 91 24 
96 44 97 17 102 19 103 16 115 25 119 19 124 16 135 23 139 18 147 38 
148 18 152 21 153 20 154 26 165 23 166 25 167 30 168 18 180 22 191 31 
192 54 193 39 194 91 195 19 210 25 211 33 212 26 220 21 222 148 223 34 
224 30 226 243 227 152 228 27 237 22 238 47 239 20 240 29 249 16 250 474 
251 169 252 999 253 226 254 37 266 46 268 132 269 62 270 28 310 61 311 310 
312 128 318 26 370 26 371 227 372 85 373 17 
