Name: MassBank: JP010566
MW: 366
Formula: C12H15ClNO4PS2
Synonym: MassBank: JP010566
Synonym: O,O-DIETHYL S-(6-CHLOROBENZOXZAOLON-3-YL)METHYL PHOSPHORODITHIOATE
Synonym: PHOSALONE
Structure: 303737395F4F2C4F2D4449455448594C20532D28362D43484C4F524F42454E5A4F585A414F4C4F4E2D332D594C294D455448594C2050484F5350484F524F44495448494F4154452E6D6F6C0A20204368656D447261773038323031303130313632440A2032312032322020302020302020302020302020302020302020302020303939392056323030300A2020202D322E383538312020202D302E3631383820202020302E30303030204F202020302020302020302020302020302020302020302020302020302020302020302020300A2020202D322E313431392020202D302E3230363220202020302E303030302050202020302020302020302020302020302020302020302020302020302020302020302020300A2020202D322E3134313920202020302E3631383820202020302E30303030204F202020302020302020302020302020302020302020302020302020302020302020302020300A2020202D322E313431392020202D312E3033313320202020302E303030302053202020302020302020302020302020302020302020302020302020302020302020302020300A2020202D302E373132342020202D302E3230363220202020302E303030302053202020302020302020302020302020302020302020302020302020302020302020302020300A2020202D302E303030322020202D302E3631383820202020302E303030302043202020302020302020302020302020302020302020302020302020302020302020302020300A20202020302E373134352020202D302E3230393020202020302E30303030204E202020302020302020302020302020302020302020302020302020302020302020302020300A20202020302E3731343320202020302E3631383820202020302E303030302043202020302020302020302020302020302020302020302020302020302020302020302020300A20202020312E3433303620202020312E3032383520202020302E30303030204F202020302020302020302020302020302020302020302020302020302020302020302020300A20202020322E3134333220202020302E3631383820202020302E303030302043202020302020302020302020302020302020302020302020302020302020302020302020300A20202020322E313433322020202D302E3230363220202020302E303030302043202020302020302020302020302020302020302020302020302020302020302020302020300A20202020302E3030313120202020312E3032383520202020302E30303030204F202020302020302020302020302020302020302020302020302020302020302020302020300A20202020322E383537372020202D302E3631383720202020302E303030302043202020302020302020302020302020302020302020302020302020302020302020302020300A20202020332E353732312020202D302E3230363220202020302E303030302043202020302020302020302020302020302020302020302020302020302020302020302020300A20202020332E3537323120202020302E3631383820202020302E303030302043202020302020302020302020302020302020302020302020302020302020302020302020300A20202020322E3835373720202020312E3033313320202020302E303030302043202020302020302020302020302020302020302020302020302020302020302020302020300A20202020342E3238373020202020312E3032383520202020302E3030303020436C2020302020302020302020302020302020302020302020302020302020302020302020300A2020202D332E3537313720202020302E3631383820202020302E303030302043202020302020302020302020302020302020302020302020302020302020302020302020300A2020202D322E3835373220202020312E3033313320202020302E303030302043202020302020302020302020302020302020302020302020302020302020302020302020300A2020202D342E323837302020202D302E3631383820202020302E303030302043202020302020302020302020302020302020302020302020302020302020302020302020300A2020202D332E353732362020202D302E3230363220202020302E303030302043202020302020302020302020302020302020302020302020302020302020302020302020300A2020312020322020312020302020202020200A2020322020332020312020302020202020200A2020332031392020312020302020202020200A2020312032312020312020302020202020200A2020322020342020322020302020202020200A2020352020362020312020302020202020200A2020362020372020312020302020202020200A2020372020382020312020302020202020200A2020382020392020312020302020202020200A2020392031302020312020302020202020200A2031302031312020322020302020202020200A2020372031312020312020302020202020200A2020382031322020322020302020202020200A2031312031332020312020302020202020200A2031332031342020322020302020202020200A2031342031352020312020302020202020200A2031352031362020322020302020202020200A2031362031302020312020302020202020200A2031352031372020312020302020202020200A2031382031392020312020302020202020200A2032302032312020312020302020202020200A2020322020352020312020302020202020200A4D2020454E44
Contributor: NARA WOMEN'S UNIVERSITY
InstType: EI
InstName: HITACHI M-80
IoniMethod: _ENERGY 70 eV
IonPolarity: pos
Date: 2010-10-09 19:48:36+02:00
Num Peaks: 65
39 17 41 17 45 50 46 43 47 46 50 33 51 42 61 15 62 17 63 68 
64 25 65 206 74 10 75 99 76 79 77 24 78 25 80 18 85 11 90 16 
91 16 93 89 95 12 97 293 99 51 101 13 102 94 103 27 108 17 109 13 
111 203 112 33 113 84 114 12 121 499 122 21 125 165 126 20 127 27 129 147 
131 15 138 149 139 13 140 68 141 19 142 12 143 17 153 162 154 281 155 27 
156 16 157 37 169 60 170 42 171 39 172 14 182 999 183 108 184 332 185 56 
199 59 367 265 368 45 369 110 370 18 
