Name: DODECAMETHYLCYCLOHEXASILANE
MW: 348
Formula: C12H36Si6
Synonym: MassBank: JP012106
Synonym: DODECAMETHYLCYCLOHEXASILANE
Structure: 444F444543414D455448594C4359434C4F4845584153494C414E452E6D6F6C0A20204368656D447261773130313831303136353332440A2031382031382020302020302020302020302020302020302020302020303939392056323030300A20202020302E3731343520202020302E3431323520202020302E303030302053692020302020302020302020302020302020302020302020302020302020302020302020300A20202020302E373134352020202D302E3431323520202020302E303030302053692020302020302020302020302020302020302020302020302020302020302020302020300A2020202D302E303030302020202D302E3832353020202020302E303030302053692020302020302020302020302020302020302020302020302020302020302020302020300A2020202D302E373134352020202D302E3431323520202020302E303030302053692020302020302020302020302020302020302020302020302020302020302020302020300A2020202D302E3731343520202020302E3431323520202020302E303030302053692020302020302020302020302020302020302020302020302020302020302020302020300A20202020302E3030303020202020302E3832353020202020302E303030302053692020302020302020302020302020302020302020302020302020302020302020302020300A20202020302E3939363620202020312E3138373720202020302E303030302043202020302020302020302020302020302020302020302020302020302020302020302020300A20202020312E3532363920202020302E3236393220202020302E303030302043202020302020302020302020302020302020302020302020302020302020302020302020300A20202020312E353236392020202D302E3236393220202020302E303030302043202020302020302020302020302020302020302020302020302020302020302020302020300A20202020302E393936362020202D312E3138373720202020302E303030302043202020302020302020302020302020302020302020302020302020302020302020302020300A20202020302E353330332020202D312E3435373020202020302E303030302043202020302020302020302020302020302020302020302020302020302020302020302020300A2020202D302E353330332020202D312E3435373020202020302E303030302043202020302020302020302020302020302020302020302020302020302020302020302020300A2020202D302E393936362020202D312E3138373720202020302E303030302043202020302020302020302020302020302020302020302020302020302020302020302020300A2020202D312E353236392020202D302E3236393220202020302E303030302043202020302020302020302020302020302020302020302020302020302020302020302020300A2020202D312E3532363920202020302E3236393220202020302E303030302043202020302020302020302020302020302020302020302020302020302020302020302020300A2020202D302E3939363620202020312E3138373720202020302E303030302043202020302020302020302020302020302020302020302020302020302020302020302020300A2020202D302E3533303320202020312E3435373020202020302E303030302043202020302020302020302020302020302020302020302020302020302020302020302020300A20202020302E3533303320202020312E3435373020202020302E303030302043202020302020302020302020302020302020302020302020302020302020302020302020300A2020312020322020312020302020202020200A2020322020332020312020302020202020200A2020332020342020312020302020202020200A2020342020352020312020302020202020200A2020352020362020312020302020202020200A2020312020362020312020302020202020200A2020312020372020312020302020202020200A2020312020382020312020302020202020200A2020322020392020312020302020202020200A2020322031302020312020302020202020200A2020332031312020312020302020202020200A2020332031322020312020302020202020200A2020342031332020312020302020202020200A2020342031342020312020302020202020200A2020352031352020312020302020202020200A2020352031362020312020302020202020200A2020362031372020312020302020202020200A2020362031382020312020302020202020200A4D2020454E44
Contributor: HISAHIRO HAGIWARA, INSTITUTE FOR CHEMICAL REACTION SCIENCE TOHOKU UNIV.
InstType: EI
InstName: JEOL JMS-DX-300
IoniMethod: _ENERGY 70 eV
IonPolarity: pos
Date: 2010-10-09 19:48:36+02:00
Num Peaks: 19
38 28 39 37 42 57 43 999 56 20 57 24 58 345 71 23 73 81 83 26 
105 26 131 33 199 34 201 44 215 29 259 34 348 53 349 55 350 31 
