Name: MassBank: JP011861
MW: 333
Formula: C16H19N3O5
Synonym: MassBank: JP011861
Synonym: 5-TERT-BUTYL-2,3-DIMETHOXYCARBONYL-5,6-DIHYDROPYRROLO(1,2-D)(1,2,4)TRIAZOCIN-6-ONE
Structure: 352D544552542D425554594C2D322C332D44494D4554484F5859434152424F4E594C2D352C362D4449485944524F505952524F4C4F28312C322D442928312C322C3429545249415A4F43494E2D362D4F4E452E6D6F6C0A20204368656D447261773034323331303037343832440A2032342032352020302020302020302020302020302020302020302020303939392056323030300A20202020302E393535332020202D302E3532393520202020302E303030302043202020302020302020302020302020302020302020302020302020302020302020302020300A20202020302E333732302020202D312E3131323920202020302E303030302043202020302020302020302020302020302020302020302020302020302020302020302020300A2020202D302E343533302020202D312E3131323920202020302E303030302043202020302020302020302020302020302020302020302020302020302020302020302020300A2020202D312E303336342020202D302E3532393520202020302E303030302043202020302020302020302020302020302020302020302020302020302020302020302020300A2020202D312E3033363420202020302E3239353520202020302E30303030204E202020302020302020302020302020302020302020302020302020302020302020302020300A2020202D302E3435333020202020302E3837383820202020302E303030302043202020302020302020302020302020302020302020302020302020302020302020302020300A20202020302E3337323020202020302E3837383820202020302E30303030204E202020302020302020302020302020302020302020302020302020302020302020302020300A20202020302E3935353320202020302E3239353520202020302E30303030204E202020302020302020302020302020302020302020302020302020302020302020302020300A2020202D312E3832313020202020302E3535303420202020302E303030302043202020302020302020302020302020302020302020302020302020302020302020302020300A2020202D322E333035392020202D302E3131373020202020302E303030302043202020302020302020302020302020302020302020302020302020302020302020302020300A2020202D312E383231302020202D302E3738343520202020302E303030302043202020302020302020302020302020302020302020302020302020302020302020302020300A2020202D302E3736383720202020312E3634313020202020302E30303030204F202020302020302020302020302020302020302020302020302020302020302020302020300A20202020312E373232362020202D302E3835303420202020302E303030302043202020302020302020302020302020302020302020302020302020302020302020302020300A20202020312E383436362020202D312E3636303120202020302E30303030204F202020302020302020302020302020302020302020302020302020302020302020302020300A20202020322E333035392020202D302E3236373020202020302E30303030204F202020302020302020302020302020302020302020302020302020302020302020302020300A20202020322E3131313420202020302E3532383420202020302E303030302043202020302020302020302020302020302020302020302020302020302020302020302020300A20202020302E353530352020202D312E3931383320202020302E303030302043202020302020302020302020302020302020302020302020302020302020302020302020300A20202020312E333330362020202D322E3138363920202020302E30303030204F202020302020302020302020302020302020302020302020302020302020302020302020300A2020202D302E313136392020202D322E3430333220202020302E30303030204F202020302020302020302020302020302020302020302020302020302020302020302020300A2020202D302E383730362020202D322E3036373720202020302E303030302043202020302020302020302020302020302020302020302020302020302020302020302020300A20202020302E3638373720202020312E3634313020202020302E303030302043202020302020302020302020302020302020302020302020302020302020302020302020300A2020202D302E3037343520202020312E3935363820202020302E303030302043202020302020302020302020302020302020302020302020302020302020302020302020300A20202020312E3030333420202020322E3430333220202020302E303030302043202020302020302020302020302020302020302020302020302020302020302020302020300A20202020312E3434393920202020312E3332353320202020302E303030302043202020302020302020302020302020302020302020302020302020302020302020302020300A2020312020322020312020302020202020200A2020322020332020322020302020202020200A2020332020342020312020302020202020200A2020342020352020312020302020202020200A2020352020362020312020302020202020200A2020362020372020312020302020202020200A2020372020382020312020302020202020200A2020312020382020322020302020202020200A2020392031302020322020302020202020200A2031302031312020312020302020202020200A2020342031312020322020302020202020200A2020352020392020312020302020202020200A2020362031322020322020302020202020200A2031332031342020322020302020202020200A2031352031362020312020302020202020200A2031332031352020312020302020202020200A2020312031332020312020302020202020200A2031372031382020322020302020202020200A2031392032302020312020302020202020200A2031372031392020312020302020202020200A2020322031372020312020302020202020200A2032312032322020312020302020202020200A2032312032342020312020302020202020200A2032312032332020312020302020202020200A2020372032312020312020302020202020200A4D2020454E44
Contributor: YOSHIKI O, FAC, TECHNOLOGY, OSAKA UNIV.
InstType: EI
InstName: Unknown
IoniMethod: _ENERGY 70 eV
IonPolarity: pos
Date: 2010-10-09 19:48:36+02:00
Num Peaks: 137
50 35 51 57 52 46 53 69 54 18 55 98 56 161 57 999 59 190 61 11 
62 44 63 64 64 34 65 31 66 22 67 23 68 16 69 14 70 19 71 11 
73 10 74 17 75 42 76 67 77 59 78 47 79 54 80 66 81 12 82 15 
83 10 84 72 85 11 88 17 89 60 90 67 91 30 92 26 93 26 94 22 
95 12 102 112 103 141 104 118 105 75 106 29 110 11 112 10 116 56 117 73 
118 63 119 48 120 20 121 20 129 21 130 85 131 146 132 101 133 28 134 27 
135 35 137 14 142 11 143 10 144 89 145 89 146 88 147 24 148 32 149 37 
150 13 158 43 159 103 160 77 161 39 162 100 163 54 164 10 168 52 169 25 
170 10 171 10 172 14 173 20 174 57 175 40 176 53 177 58 178 21 179 10 
185 28 186 251 187 58 188 33 189 242 190 166 191 71 192 357 193 40 194 12 
200 16 202 76 203 228 204 102 205 33 206 12 209 14 214 14 216 20 217 151 
218 125 219 39 220 197 221 35 224 21 232 143 233 30 234 24 235 76 236 15 
244 244 245 163 246 251 247 34 248 29 249 30 261 18 275 24 276 173 277 408 
278 82 317 24 318 106 319 25 332 61 333 236 334 40 
