Name: MassBank: JP011485
MW: 257
Formula: C11H12ClNO4
Synonym: MassBank: JP011485
Synonym: 2,6-DIETHOXYCARBONYL-4-CHLORO-PYRIDINE
Structure: 322C362D44494554484F5859434152424F4E594C2D342D43484C4F524F2D5059524944494E452E6D6F6C0A20204368656D447261773132323130393034303032440A2031372031372020302020302020302020302020302020302020302020303939392056323030300A20202020302E363138382020202D302E3335373220202020302E303030302043202020302020302020302020302020302020302020302020302020302020302020302020300A20202020302E323036332020202D312E3037313720202020302E303030302043202020302020302020302020302020302020302020302020302020302020302020302020300A2020202D302E363138372020202D312E3037313720202020302E303030302043202020302020302020302020302020302020302020302020302020302020302020302020300A2020202D312E303331332020202D302E3335373220202020302E303030302043202020302020302020302020302020302020302020302020302020302020302020302020300A2020202D302E3631383820202020302E3335373220202020302E303030302043202020302020302020302020302020302020302020302020302020302020302020302020300A20202020302E3230363220202020302E3335373220202020302E30303030204E202020302020302020302020302020302020302020302020302020302020302020302020300A2020202D312E303331332020202D312E3738363220202020302E3030303020436C2020302020302020302020302020302020302020302020302020302020302020302020300A2020202D312E3033313320202020312E3037313720202020302E303030302043202020302020302020302020302020302020302020302020302020302020302020302020300A2020202D302E3631383820202020312E3738363220202020302E30303030204F202020302020302020302020302020302020302020302020302020302020302020302020300A2020202D312E3835363320202020312E3037313720202020302E30303030204F202020302020302020302020302020302020302020302020302020302020302020302020300A2020202D322E3236383820202020312E3738363220202020302E303030302043202020302020302020302020302020302020302020302020302020302020302020302020300A2020202D332E3039333820202020312E3738363220202020302E303030302043202020302020302020302020302020302020302020302020302020302020302020302020300A20202020312E343433382020202D302E3335373220202020302E303030302043202020302020302020302020302020302020302020302020302020302020302020302020300A20202020312E383536332020202D312E3037313720202020302E30303030204F202020302020302020302020302020302020302020302020302020302020302020302020300A20202020312E3835363320202020302E3335373220202020302E30303030204F202020302020302020302020302020302020302020302020302020302020302020302020300A20202020322E3638313320202020302E3335373220202020302E303030302043202020302020302020302020302020302020302020302020302020302020302020302020300A20202020332E3039333820202020312E3037313720202020302E303030302043202020302020302020302020302020302020302020302020302020302020302020302020300A2020312020322020312020302020202020200A2020322020332020322020302020202020200A2020332020342020312020302020202020200A2020342020352020322020302020202020200A2020352020362020312020302020202020200A2020312020362020322020302020202020200A2020332020372020312020302020202020200A2020382020392020322020302020202020200A2031312031322020312020302020202020200A2031302031312020312020302020202020200A2020382031302020312020302020202020200A2020352020382020312020302020202020200A2031332031342020322020302020202020200A2031362031372020312020302020202020200A2031352031362020312020302020202020200A2031332031352020312020302020202020200A2020312031332020312020302020202020200A4D2020454E44
Contributor: FUJISE Y, HAMAMATSU UNIV. SCHOOL OF MEDICINE
InstType: EI
InstName: JEOL JMS-DX-300
IoniMethod: _ENERGY 70 eV
IonPolarity: pos
Date: 2010-10-09 19:48:36+02:00
Num Peaks: 68
36 23 38 16 39 16 40 19 42 11 43 73 44 33 45 71 49 24 50 100 
51 48 52 24 53 64 57 12 60 45 61 13 62 44 63 11 64 50 65 22 
66 13 69 18 73 59 75 114 76 477 77 106 78 69 79 11 83 23 84 13 
85 33 86 13 87 15 92 37 100 53 102 27 103 17 104 60 105 13 110 13 
111 393 112 251 113 410 114 106 115 93 128 100 129 11 130 36 138 37 139 756 
140 277 141 378 142 88 143 11 149 12 156 97 157 578 158 109 159 196 160 28 
184 410 185 999 186 471 187 847 242 32 257 72 258 25 259 25 
