Name: 4-DIMETHYLAMINOBENZOIC ACID
CAS: 619-84-1
MW: 165
Formula: C9H11NO2
Synonym: MassBank: JP010579
Synonym: 4-DIMETHYLAMINOBENZOIC ACID
Structure: 342D44494D455448594C414D494E4F42454E5A4F494320414349442E6D6F6C0A20204368656D447261773033323531303132323432440A2031322031322020302020302020302020302020302020302020302020303939392056323030300A2020202D312E363530302020202D302E3030303020202020302E303030302043202020302020302020302020302020302020302020302020302020302020302020302020300A2020202D302E383235302020202D302E3030303020202020302E303030302043202020302020302020302020302020302020302020302020302020302020302020302020300A2020202D302E3431323520202020302E3731343520202020302E303030302043202020302020302020302020302020302020302020302020302020302020302020302020300A20202020302E3431323520202020302E3731343520202020302E303030302043202020302020302020302020302020302020302020302020302020302020302020302020300A20202020302E383235302020202D302E3030303020202020302E303030302043202020302020302020302020302020302020302020302020302020302020302020302020300A20202020302E343132352020202D302E3731343520202020302E303030302043202020302020302020302020302020302020302020302020302020302020302020302020300A2020202D302E343132352020202D302E3731343520202020302E303030302043202020302020302020302020302020302020302020302020302020302020302020302020300A2020202D322E3036323520202020302E3731343520202020302E30303030204F202020302020302020302020302020302020302020302020302020302020302020302020300A2020202D322E303632352020202D302E3731343520202020302E30303030204F202020302020302020302020302020302020302020302020302020302020302020302020300A20202020312E363530302020202D302E3030303020202020302E30303030204E202020302020302020302020302020302020302020302020302020302020302020302020300A20202020322E3036323520202020302E3731343520202020302E303030302043202020302020302020302020302020302020302020302020302020302020302020302020300A20202020322E303632352020202D302E3731343520202020302E303030302043202020302020302020302020302020302020302020302020302020302020302020302020300A2020312020322020312020302020202020200A2020322020332020312020302020202020200A2020332020342020322020302020202020200A2020342020352020312020302020202020200A2020352020362020322020302020202020200A2020362020372020312020302020202020200A2020322020372020322020302020202020200A2020312020382020322020302020202020200A2020312020392020312020302020202020200A2031302031312020312020302020202020200A2031302031322020312020302020202020200A2020352031302020312020302020202020200A4D2020454E44
Contributor: NARA WOMEN'S UNIVERSITY
InstType: EI
InstName: HITACHI M-80
IoniMethod: _ENERGY 70 eV
IonPolarity: pos
Date: 2010-10-09 19:48:36+02:00
Num Peaks: 44
15 31 27 11 28 13 38 11 39 34 42 80 43 11 44 20 45 45 50 48 
51 53 52 16 53 11 62 11 63 45 64 16 65 63 66 13 69 24 74 33 
75 30 76 35 77 95 78 42 79 30 90 20 91 31 92 19 93 12 103 14 
104 58 105 45 118 45 119 29 120 33 121 22 132 39 148 152 149 65 150 16 
162 11 164 999 165 906 166 103 
