Name: MassBank: JP010043
MW: 340
Formula: C11H14Cl2NO5P
Synonym: MassBank: JP010043
Synonym: DIMETHYL 2,5-DICHLORO-4-METHOXYCARBONYL PHENYLAMINOMETHYLPHOPHONATE
Structure: 303832395F44494D455448594C20322C352D444943484C4F524F2D342D4D4554484F5859434152424F4E594C205048454E594C414D494E4F4D455448594C50484F50484F4E4154452E6D6F6C0A20204368656D447261773130323031303137353932440A2032302032302020302020302020302020302020302020302020302020303939392056323030300A2020202D302E393736302020202D302E3431323520202020302E303030302043202020302020302020302020302020302020302020302020302020302020302020302020300A2020202D302E393736302020202D312E3233373520202020302E303030302043202020302020302020302020302020302020302020302020302020302020302020302020300A2020202D302E323631352020202D312E3635303020202020302E303030302043202020302020302020302020302020302020302020302020302020302020302020302020300A20202020302E343533302020202D312E3233373520202020302E303030302043202020302020302020302020302020302020302020302020302020302020302020302020300A20202020302E343533302020202D302E3431323520202020302E303030302043202020302020302020302020302020302020302020302020302020302020302020302020300A2020202D302E323631352020202D302E3030303020202020302E303030302043202020302020302020302020302020302020302020302020302020302020302020302020300A20202020312E313637342020202D302E3030303020202020302E3030303020436C2020302020302020302020302020302020302020302020302020302020302020302020300A2020202D312E363930352020202D312E3635303020202020302E3030303020436C2020302020302020302020302020302020302020302020302020302020302020302020300A20202020302E343533302020202D322E3838373520202020302E30303030204F202020302020302020302020302020302020302020302020302020302020302020302020300A2020202D302E323631352020202D322E3437353020202020302E303030302043202020302020302020302020302020302020302020302020302020302020302020302020300A2020202D302E393736302020202D322E3838373520202020302E30303030204F202020302020302020302020302020302020302020302020302020302020302020302020300A2020202D312E363930352020202D322E3437353020202020302E303030302043202020302020302020302020302020302020302020302020302020302020302020302020300A2020202D302E3236313520202020302E3832353020202020302E30303030204E202020302020302020302020302020302020302020302020302020302020302020302020300A20202020302E3435333020202020312E3233373520202020302E303030302043202020302020302020302020302020302020302020302020302020302020302020302020300A20202020302E3435333020202020322E3036323520202020302E303030302050202020302020302020302020302020302020302020302020302020302020302020302020300A20202020312E3237383020202020322E3036323520202020302E30303030204F202020302020302020302020302020302020302020302020302020302020302020302020300A2020202D302E3337323020202020322E3036323520202020302E30303030204F202020302020302020302020302020302020302020302020302020302020302020302020300A20202020302E3435333020202020322E3838373520202020302E30303030204F202020302020302020302020302020302020302020302020302020302020302020302020300A20202020312E3639303520202020312E3334383020202020302E303030302043202020302020302020302020302020302020302020302020302020302020302020302020300A2020202D302E3738343520202020312E3334383020202020302E303030302043202020302020302020302020302020302020302020302020302020302020302020302020300A2020312020322020322020302020202020200A2020322020332020312020302020202020200A2020332020342020322020302020202020200A2020342020352020312020302020202020200A2020352020362020322020302020202020200A2020362020312020312020302020202020200A2020352020372020312020302020202020200A2020322020382020312020302020202020200A2020332031302020312020302020202020200A2020392031302020322020302020202020200A2031302031312020312020302020202020200A2031312031322020312020302020202020200A2020362031332020312020302020202020200A2031332031342020312020302020202020200A2031342031352020312020302020202020200A2031352031362020312020302020202020200A2031352031372020312020302020202020200A2031352031382020322020302020202020200A2031362031392020312020302020202020200A2031372032302020312020302020202020200A4D2020454E44
Contributor: KURARAY CO., LTD.
InstType: EI
InstName: JEOL JMS-D-300
IoniMethod: _ENERGY 70 eV
IonPolarity: pos
Date: 2010-10-09 19:48:36+02:00
Num Peaks: 43
28 67 32 74 62 94 63 149 73 156 74 139 75 93 97 135 99 113 100 110 
109 154 124 243 125 130 126 103 136 147 137 111 138 115 153 140 160 324 161 121 
162 211 163 137 169 20 172 165 174 101 188 862 189 77 190 569 192 93 200 999 
201 99 202 663 203 112 204 112 219 806 220 72 221 494 223 74 231 874 232 122 
233 559 234 55 235 95 
