Name: MassBank: JP011045
MW: 254
Formula: C13H18O5
Synonym: MassBank: JP011045
Synonym: TRANS-7-HYDROXY-7-VINYL-4A,9A-DIMETHOXYCYCLOHEPTA(1,4)DIOXINE
Structure: 5452414E532D372D485944524F58592D372D56494E594C2D34412C39412D44494D4554484F58594359434C4F484550544128312C342944494F58494E452E6D6F6C0A20204368656D447261773038313231303038303432440A2031382031392020302020302020302020302020302020302020302020303939392056323030300A20202020312E363034362020202D302E3832323820202020302E30303030204F202020302020302020302020302020302020302020302020302020302020302020302020300A20202020302E383930322020202D302E3431303320202020302E303030302043202020302020302020302020302020302020302020302020302020302020302020302020300A20202020302E3839303220202020302E3431363520202020302E303030302043202020302020302020302020302020302020302020302020302020302020302020302020300A20202020312E3630383520202020302E3833313220202020302E30303030204F202020302020302020302020302020302020302020302020302020302020302020302020300A20202020322E3332383020202020302E3431353820202020302E303030302043202020302020302020302020302020302020302020302020302020302020302020302020300A20202020322E333238302020202D302E3431353620202020302E303030302043202020302020302020302020302020302020302020302020302020302020302020302020300A20202020302E3235323920202020302E3933343120202020302E303030302043202020302020302020302020302020302020302020302020302020302020302020302020300A2020202D302E3535323320202020302E3735343520202020302E303030302043202020302020302020302020302020302020302020302020302020302020302020302020300A2020202D302E3931343020202020302E3031333020202020302E303030302043202020302020302020302020302020302020302020302020302020302020302020302020300A2020202D302E353539372020202D302E3733323020202020302E303030302043202020302020302020302020302020302020302020302020302020302020302020302020300A20202020302E323433362020202D302E3931393620202020302E303030302043202020302020302020302020302020302020302020302020302020302020302020302020300A20202020302E393438382020202D312E3233313520202020302E30303030204F202020302020302020302020302020302020302020302020302020302020302020302020300A20202020312E363930332020202D312E3539333120202020302E303030302043202020302020302020302020302020302020302020302020302020302020302020302020300A20202020302E3936313120202020312E3233383920202020302E30303030204F202020302020302020302020302020302020302020302020302020302020302020302020300A20202020312E3730363220202020312E3539333120202020302E303030302043202020302020302020302020302020302020302020302020302020302020302020302020300A2020202D312E353631362020202D302E3439383120202020302E303030302043202020302020302020302020302020302020302020302020302020302020302020302020300A2020202D322E333238302020202D302E3139323920202020302E303030302043202020302020302020302020302020302020302020302020302020302020302020302020300A2020202D312E3535363420202020302E3533303620202020302E30303030204F202020302020302020302020302020302020302020302020302020302020302020302020300A2020312020322020312020302020202020200A2020322020332020312020302020202020200A2020332020342020312020302020202020200A2020342020352020312020302020202020200A2020352020362020322020302020202020200A2020312020362020312020302020202020200A2020372020382020322020302020202020200A2020382020392020312020302020202020200A2020392031302020312020302020202020200A2031302031312020322020302020202020200A2020322031312020312020302020202020200A2020332020372020312020302020202020200A2031322031332020312020302020202020200A2020322031322020312020312020202020200A2031342031352020312020302020202020200A2020332031342020312020362020202020200A2031362031372020322020302020202020200A2020392031362020312020302020202020200A2020392031382020312020302020202020200A4D2020454E44
Contributor: TAKESHITA H, INST. OF ADVANCED MATERIAL STUDY KYUSHU UNIV.
InstType: EI
InstName: JEOL JMS-01-SG-2
IoniMethod: _ENERGY 75 eV
IonPolarity: pos
Date: 2010-10-09 19:48:36+02:00
Num Peaks: 43
31 293 40 317 42 215 44 319 46 353 54 502 56 999 59 444 65 277 77 255 
79 270 81 339 85 164 91 373 99 157 103 507 107 267 109 190 111 168 150 225 
163 197 167 269 191 767 192 94 193 43 194 23 195 42 199 16 205 20 206 14 
207 102 208 13 209 21 216 13 217 13 220 14 222 267 223 134 224 14 227 65 
237 14 250 28 254 32 
