Name: 1-METHYLSILACYCLOHEXANE (1-D)
MW: 114
Formula: C6H14Si
Synonym: MassBank: JP011571
Synonym: 1-METHYLSILACYCLOHEXANE (1-D)
Structure: 310A32320A312D4D455448594C53494C414359434C4F484558414E452028312D44292E6D6F6C0A20204368656D447261773131323130393138333832440A2020382020382020302020302020302020302020302020302020302020303939392056323030300A20202020302E3030303020202020302E3530393020202020302E303030302053692020302020302020302020302020302020302020302020302020302020302020302020300A2020202D302E3731343520202020302E3039363520202020302E303030302043202020302020302020302020302020302020302020302020302020302020302020302020300A2020202D302E373134352020202D302E3732383520202020302E303030302043202020302020302020302020302020302020302020302020302020302020302020302020300A20202020302E303030302020202D312E3134313020202020302E303030302043202020302020302020302020302020302020302020302020302020302020302020302020300A20202020302E373134352020202D302E3732383520202020302E303030302043202020302020302020302020302020302020302020302020302020302020302020302020300A20202020302E3731343520202020302E3039363520202020302E303030302043202020302020302020302020302020302020302020302020302020302020302020302020300A20202020302E3533303320202020312E3134313020202020302E303030302048202020312020302020302020302020302020302020302020302020302020302020302020300A2020202D302E3533303320202020312E3134313020202020302E303030302043202020302020302020302020302020302020302020302020302020302020302020302020300A2020312020322020312020302020202020200A2020322020332020312020302020202020200A2020332020342020312020302020202020200A2020342020352020312020302020202020200A2020352020362020312020302020202020200A2020312020362020312020302020202020200A2020312020372020312020302020202020200A2020312020382020312020302020202020200A4D202049534F20203120202037202020320A4D2020454E44
Contributor: YAMAMOTO M, DEP. CHEMISTRY, FAC. SCIENCE, NARA WOMEN'S UNIV.
InstType: EI
InstName: HITACHI RMU-6M
IoniMethod: _ENERGY 20 eV
IonPolarity: pos
Date: 2010-10-09 19:48:36+02:00
Num Peaks: 35
28 11 41 10 43 58 44 41 45 54 46 64 57 13 58 268 59 446 60 89 
61 18 68 11 69 16 70 21 71 118 72 390 73 103 74 56 84 35 85 156 
86 148 87 999 88 104 89 39 97 35 98 64 99 23 100 259 101 26 112 70 
113 199 114 41 115 666 116 73 117 21 
