Name: MassBank: JP011992
MW: 86
Formula: C4H10Si
Synonym: MassBank: JP011992
Synonym: SILACYCLOPENTANE (2,2,5,5-D4)
Structure: 310A32340A53494C414359434C4F50454E54414E452028322C322C352C352D4434292E6D6F6C0A20204368656D447261773038313231303036343732440A2020392020392020302020302020302020302020302020302020302020303939392056323030300A20202020302E3030303020202020302E3532303020202020302E303030302053692020302020302020302020302020302020302020302020302020302020302020302020300A20202020302E3636373420202020302E3033353120202020302E303030302043202020302020302020302020302020302020302020302020302020302020302020302020300A20202020302E343132352020202D302E3734393520202020302E303030302043202020302020302020302020302020302020302020302020302020302020302020302020300A2020202D302E343132352020202D302E3734393520202020302E303030302043202020302020302020302020302020302020302020302020302020302020302020302020300A2020202D302E3636373420202020302E3033353120202020302E303030302043202020302020302020302020302020302020302020302020302020302020302020302020300A2020202D312E343231312020202D302E3330303520202020302E303030302048202020312020302020302020302020302020302020302020302020302020302020302020300A2020202D312E3037393920202020302E3734393520202020302E303030302048202020312020302020302020302020302020302020302020302020302020302020302020300A20202020312E3037393920202020302E3734393520202020302E303030302048202020312020302020302020302020302020302020302020302020302020302020302020300A20202020312E343231312020202D302E3330303520202020302E303030302048202020312020302020302020302020302020302020302020302020302020302020302020300A2020312020322020312020302020202020200A2020322020332020312020302020202020200A2020332020342020312020302020202020200A2020342020352020312020302020202020200A2020312020352020312020302020202020200A2020352020362020312020302020202020200A2020352020372020312020302020202020200A2020322020382020312020302020202020200A2020322020392020312020302020202020200A4D202049534F20203420202036202020322020203720202032202020382020203220202039202020320A4D2020454E44
Contributor: YAMAMOTO M, DEP. CHEMISTRY, FAC. SCIENCE, NARA WOMEN'S UNIV.
InstType: EI
InstName: HITACHI RMU-6M
IoniMethod: _ENERGY 20 eV
IonPolarity: pos
Date: 2010-10-09 19:48:36+02:00
Num Peaks: 25
28 19 29 10 30 11 31 12 43 41 44 105 45 66 46 26 47 16 57 23 
58 53 59 133 60 999 61 258 62 91 63 15 73 15 74 14 75 10 87 12 
88 54 89 97 90 370 91 40 92 16 
