Name: MassBank: JP010040
MW: 340
Formula: C19H16O6
Synonym: MassBank: JP010040
Synonym: 3,4-(METHYLENEDIOXY)BENZYL 3,4-(METHYLENEDIOXY)-ALPHA-METHYLCINNAMATE
Synonym: 1,3-BENZODIOXOL-5-(2-METHYL-1-PROPENIC ACID)-1,3-BENZODIOXOL-5-METHYL ESTER
Structure: 332C342D284D455448594C454E4544494F58592942454E5A594C20332C342D284D455448594C454E4544494F5859292D414C5048412D4D455448594C43494E4E414D4154452E6D6F6C0A20204368656D447261773131313130393138343932440A2032352032382020302020302020302020302020302020302020302020303939392056323030300A2020202D302E333537322020202D312E3437373920202020302E303030302043202020302020302020302020302020302020302020302020302020302020302020302020300A2020202D312E303731372020202D312E3036353420202020302E303030302043202020302020302020302020302020302020302020302020302020302020302020302020300A2020202D312E303731372020202D302E3234303420202020302E303030302043202020302020302020302020302020302020302020302020302020302020302020302020300A2020202D312E3738363220202020302E3137323120202020302E303030302043202020302020302020302020302020302020302020302020302020302020302020302020300A2020202D312E3738363220202020302E3939373120202020302E303030302043202020302020302020302020302020302020302020302020302020302020302020302020300A2020202D322E3530303620202020312E3430393620202020302E303030302043202020302020302020302020302020302020302020302020302020302020302020302020300A2020202D332E3231353120202020302E3939373120202020302E303030302043202020302020302020302020302020302020302020302020302020302020302020302020300A2020202D332E3231353120202020302E3137323120202020302E303030302043202020302020302020302020302020302020302020302020302020302020302020302020300A2020202D322E353030362020202D302E3234303420202020302E303030302043202020302020302020302020302020302020302020302020302020302020302020302020300A2020202D302E333537322020202D322E3330323920202020302E30303030204F202020302020302020302020302020302020302020302020302020302020302020302020300A20202020302E333537322020202D312E3036353420202020302E30303030204F202020302020302020302020302020302020302020302020302020302020302020302020300A2020202D312E373836322020202D312E3437373920202020302E303030302043202020302020302020302020302020302020302020302020302020302020302020302020300A2020202D332E3439323720202020322E3330323920202020302E303030302043202020302020302020302020302020302020302020302020302020302020302020302020300A2020202D322E3637323220202020322E3231363620202020302E30303030204F202020302020302020302020302020302020302020302020302020302020302020302020300A2020202D332E3832383220202020312E3534393220202020302E30303030204F202020302020302020302020302020302020302020302020302020302020302020302020300A20202020312E303731372020202D312E3437373920202020302E303030302043202020302020302020302020302020302020302020302020302020302020302020302020300A20202020312E373836322020202D312E3036353420202020302E303030302043202020302020302020302020302020302020302020302020302020302020302020302020300A20202020312E373836322020202D302E3234303420202020302E303030302043202020302020302020302020302020302020302020302020302020302020302020302020300A20202020322E3530303620202020302E3137323120202020302E303030302043202020302020302020302020302020302020302020302020302020302020302020302020300A20202020332E323135312020202D302E3234303420202020302E303030302043202020302020302020302020302020302020302020302020302020302020302020302020300A20202020332E323135312020202D312E3036353420202020302E303030302043202020302020302020302020302020302020302020302020302020302020302020302020300A20202020322E353030362020202D312E3437373920202020302E303030302043202020302020302020302020302020302020302020302020302020302020302020302020300A20202020332E3439323720202020312E3036353420202020302E303030302043202020302020302020302020302020302020302020302020302020302020302020302020300A20202020322E3637323220202020302E3937393120202020302E30303030204F202020302020302020302020302020302020302020302020302020302020302020302020300A20202020332E3832383220202020302E3331313720202020302E30303030204F202020302020302020302020302020302020302020302020302020302020302020302020300A2020312020322020312020302020202020200A2020322020332020322020302020202020200A2020332020342020312020302020202020200A2020342020352020312020302020202020200A2020352020362020322020302020202020200A2020362020372020312020302020202020200A2020372020382020322020302020202020200A2020382020392020312020302020202020200A2020342020392020322020302020202020200A2020312031302020322020302020202020200A2020312031312020312020302020202020200A2020322031322020312020302020202020200A2031332031342020312020302020202020200A2031332031352020312020302020202020200A2020362031342020312020302020202020200A2020372031352020312020302020202020200A2031362031372020312020302020202020200A2031372031382020312020302020202020200A2031382031392020322020302020202020200A2031392032302020312020302020202020200A2032302032312020322020302020202020200A2032312032322020312020302020202020200A2031372032322020322020302020202020200A2032332032342020312020302020202020200A2032332032352020312020302020202020200A2031392032342020312020302020202020200A2032302032352020312020302020202020200A2031312031362020312020302020202020200A4D2020454E44
Contributor: KURARAY CO., LTD.
InstType: EI
InstName: JEOL JMS-D-300
IoniMethod: _ENERGY 70 eV
IonPolarity: pos
Date: 2010-10-09 19:48:36+02:00
Num Peaks: 23
51 41 77 115 79 12 103 59 105 42 131 19 135 999 137 148 149 27 159 19 
160 16 161 19 162 18 175 42 189 44 190 19 204 25 205 32 295 40 296 16 
322 12 340 268 341 56 
