Name: MassBank: JP011784
MW: 162
Formula: C7H5F3O
Synonym: MassBank: JP011784
Synonym: 2,2,2-TRIFLUORO-PARA-CRESOL
Synonym: PARA-HYDROXYBENZOTRIFLUORIDE
Structure: 322C322C322D545249464C554F524F2D504152412D435245534F4C2E6D6F6C0A20204368656D447261773132313930393034343832440A2031312031312020302020302020302020302020302020302020302020303939392056323030300A20202020302E3030303020202020312E3233373520202020302E303030302043202020302020302020302020302020302020302020302020302020302020302020302020300A20202020302E3030303020202020302E3431323520202020302E303030302043202020302020302020302020302020302020302020302020302020302020302020302020300A20202020302E373134352020202D302E3030303020202020302E303030302043202020302020302020302020302020302020302020302020302020302020302020302020300A20202020302E373134352020202D302E3832353020202020302E303030302043202020302020302020302020302020302020302020302020302020302020302020302020300A2020202D302E303030302020202D312E3233373520202020302E303030302043202020302020302020302020302020302020302020302020302020302020302020302020300A2020202D302E373134352020202D302E3832353020202020302E303030302043202020302020302020302020302020302020302020302020302020302020302020302020300A2020202D302E3731343520202020302E3030303020202020302E303030302043202020302020302020302020302020302020302020302020302020302020302020302020300A20202020302E3832353020202020312E3233373520202020302E303030302046202020302020302020302020302020302020302020302020302020302020302020302020300A2020202D302E3832353020202020312E3233373520202020302E303030302046202020302020302020302020302020302020302020302020302020302020302020302020300A20202020302E3030303020202020322E3036323520202020302E303030302046202020302020302020302020302020302020302020302020302020302020302020302020300A2020202D302E303030302020202D322E3036323520202020302E30303030204F202020302020302020302020302020302020302020302020302020302020302020302020300A2020312020322020312020302020202020200A2020322020332020312020302020202020200A2020332020342020322020302020202020200A2020342020352020312020302020202020200A2020352020362020322020302020202020200A2020362020372020312020302020202020200A2020322020372020322020302020202020200A2020312020382020312020312020202020200A2020312020392020312020312020202020200A2020312031302020312020302020202020200A2020352031312020312020302020202020200A4D2020454E44
Contributor: TAJIMA S, GUNMA COLLEGE OF TECHNOLOGY
InstType: EI
InstName: HITACHI RMU-7M
IoniMethod: _ENERGY 70 eV
IonPolarity: pos
Date: 2010-10-09 19:48:36+02:00
Num Peaks: 42
27 17 29 33 31 17 36 29 37 60 38 121 39 21 40 15 42 25 50 44 
51 25 53 37 55 17 56 15 57 64 61 19 62 35 63 92 64 27 65 62 
69 29 71 15 715 13 74 14 75 39 81 25 83 58 84 25 112 245 113 61 
114 83 115 19 133 40 141 66 142 27 143 481 144 42 145 27 154 27 161 81 
162 999 163 85 
