Name: 2-NONYLCYCLOPENTANONE
MW: 210
Formula: C14H26O
Synonym: MassBank: JP010857
Synonym: 2-NONYLCYCLOPENTANONE
Structure: 322D4E4F4E594C4359434C4F50454E54414E4F4E452E6D6F6C0A20204368656D447261773032323131303132303732440A2031352031352020302020302020302020302020302020302020302020303939392056323030300A20202020322E373939332020202D302E3436383920202020302E303030302043202020302020302020302020302020302020302020302020302020302020302020302020300A20202020322E3133313920202020302E3031363020202020302E303030302043202020302020302020302020302020302020302020302020302020302020302020302020300A20202020312E343634342020202D302E3436383920202020302E303030302043202020302020302020302020302020302020302020302020302020302020302020302020300A20202020312E373139342020202D312E3235333520202020302E303030302043202020302020302020302020302020302020302020302020302020302020302020302020300A20202020322E353434342020202D312E3235333520202020302E303030302043202020302020302020302020302020302020302020302020302020302020302020302020300A20202020322E3133313920202020302E3834313020202020302E303030302043202020302020302020302020302020302020302020302020302020302020302020302020300A20202020312E3431373420202020312E3235333520202020302E303030302043202020302020302020302020302020302020302020302020302020302020302020302020300A20202020302E3730323920202020302E3834313020202020302E303030302043202020302020302020302020302020302020302020302020302020302020302020302020300A2020202D302E3031313620202020312E3235333520202020302E303030302043202020302020302020302020302020302020302020302020302020302020302020302020300A2020202D302E3732363020202020302E3834313020202020302E303030302043202020302020302020302020302020302020302020302020302020302020302020302020300A2020202D312E3434303520202020312E3235333520202020302E303030302043202020302020302020302020302020302020302020302020302020302020302020302020300A2020202D322E3135353020202020302E3834313020202020302E303030302043202020302020302020302020302020302020302020302020302020302020302020302020300A2020202D322E3836393420202020312E3235333520202020302E303030302043202020302020302020302020302020302020302020302020302020302020302020302020300A2020202D332E3538333920202020302E3834313020202020302E303030302043202020302020302020302020302020302020302020302020302020302020302020302020300A20202020332E353833392020202D302E3231343020202020302E30303030204F202020302020302020302020302020302020302020302020302020302020302020302020300A2020312020322020312020302020202020200A2020322020332020312020302020202020200A2020332020342020312020302020202020200A2020342020352020312020302020202020200A2020312020352020312020302020202020200A2020362020372020312020302020202020200A2020372020382020312020302020202020200A2020382020392020312020302020202020200A2020392031302020312020302020202020200A2031302031312020312020302020202020200A2031312031322020312020302020202020200A2031322031332020312020302020202020200A2031332031342020312020302020202020200A2020322020362020312020302020202020200A2020312031352020322020302020202020200A4D2020454E44
Contributor: SODA AROMATIC CO., LTD.
InstType: EI
InstName: HITACHI M-80B
IoniMethod: _ENERGY 70 eV
IonPolarity: pos
Date: 2010-10-09 19:48:36+02:00
Num Peaks: 23
27 50 29 80 39 46 41 200 42 35 43 97 53 18 54 31 55 135 56 36 
57 30 67 34 68 11 69 52 70 15 79 11 81 12 83 95 84 999 85 59 
97 140 98 16 210 34 
