Name: METHYL (2-TROPONYL)GLYOXALATE
MW: 192
Formula: C10H8O4
Synonym: MassBank: JP011031
Synonym: METHYL (2-TROPONYL)GLYOXALATE
Structure: 303939335F4D455448594C2028322D54524F504F4E594C29474C594F58414C4154452E6D6F6C0A20204368656D447261773130323031303139323532440A2031342031342020302020302020302020302020302020302020302020303939392056323030300A20202020302E3039393620202020312E3231383720202020302E303030302043202020302020302020302020302020302020302020302020302020302020302020302020300A20202020302E3531323120202020302E3530343220202020302E303030302043202020302020302020302020302020302020302020302020302020302020302020302020300A20202020312E3333373020202020302E3530343220202020302E30303030204F202020302020302020302020302020302020302020302020302020302020302020302020300A2020202D302E3732353320202020312E3231383720202020302E30303030204F202020302020302020302020302020302020302020302020302020302020302020302020300A20202020302E3531323120202020312E3933333220202020302E30303030204F202020302020302020302020302020302020302020302020302020302020302020302020300A2020202D302E313436382020202D302E3338363420202020302E303030302043202020302020302020302020302020302020302020302020302020302020302020302020300A20202020302E333237352020202D312E3030353120202020302E303030302043202020302020302020302020302020302020302020302020302020302020302020302020300A20202020302E313030372020202D312E3632333920202020302E303030302043202020302020302020302020302020302020302020302020302020302020302020302020300A2020202D302E343135302020202D312E3933333220202020302E303030302043202020302020302020302020302020302020302020302020302020302020302020302020300A2020202D312E303133312020202D312E3833303120202020302E303030302043202020302020302020302020302020302020302020302020302020302020302020302020300A2020202D312E333633372020202D312E3038373620202020302E303030302043202020302020302020302020302020302020302020302020302020302020302020302020300A2020202D302E393731382020202D302E3338363420202020302E303030302043202020302020302020302020302020302020302020302020302020302020302020302020300A20202020312E3333373420202020312E3933333220202020302E303030302043202020302020302020302020302020302020302020302020302020302020302020302020300A20202020312E333633372020202D312E3035343120202020302E30303030204F202020302020302020302020302020302020302020302020302020302020302020302020300A2020312020322020312020302020202020200A2020322020332020322020302020202020200A2020312020342020322020302020202020200A2020312020352020312020302020202020200A2020362020372020312020302020202020200A2020372020382020312020302020202020200A2020382020392020322020302020202020200A2020392031302020312020302020202020200A2031302031312020322020302020202020200A2031312031322020312020302020202020200A2020322020362020312020302020202020200A2020352031332020312020302020202020200A2020362031322020322020302020202020200A2020372031342020322020302020202020200A4D2020454E44
Contributor: TAKESHITA H, INST. OF ADVANCED MATERIAL STUDY KYUSHU UNIV.
InstType: EI
InstName: JEOL JMS-01-SG-2
IoniMethod: _ENERGY 75 eV
IonPolarity: pos
Date: 2010-10-09 19:48:36+02:00
Num Peaks: 40
30 14 37 30 38 58 39 100 43 12 49 24 50 275 51 804 52 49 53 59 
59 73 61 16 62 41 63 45 64 17 65 23 73 12 74 77 75 61 76 84 
77 999 78 97 79 16 90 51 91 153 92 50 93 13 105 713 106 86 107 15 
118 30 121 12 133 266 134 31 150 265 151 26 161 13 164 48 192 81 193 12 
