Name: 4-CHLOROBENZOIC ACID
MW: 155
Formula: C7H5ClO2
Synonym: MassBank: JP011221
Synonym: 4-CHLOROBENZOIC ACID
Structure: 342D43484C4F524F42454E5A4F494320414349442E6D6F6C0A20204368656D447261773033323531303131303732440A2031302031302020302020302020302020302020302020302020302020303939392056323030300A2020202D312E343433372020202D302E3030303020202020302E303030302043202020302020302020302020302020302020302020302020302020302020302020302020300A2020202D302E363138372020202D302E3030303020202020302E303030302043202020302020302020302020302020302020302020302020302020302020302020302020300A2020202D302E3230363220202020302E3731343520202020302E303030302043202020302020302020302020302020302020302020302020302020302020302020302020300A20202020302E3631383720202020302E3731343520202020302E303030302043202020302020302020302020302020302020302020302020302020302020302020302020300A20202020312E303331332020202D302E3030303020202020302E303030302043202020302020302020302020302020302020302020302020302020302020302020302020300A20202020302E363138382020202D302E3731343520202020302E303030302043202020302020302020302020302020302020302020302020302020302020302020302020300A2020202D302E323036322020202D302E3731343520202020302E303030302043202020302020302020302020302020302020302020302020302020302020302020302020300A2020202D312E3835363320202020302E3731343520202020302E30303030204F202020302020302020302020302020302020302020302020302020302020302020302020300A2020202D312E383536332020202D302E3731343520202020302E30303030204F202020302020302020302020302020302020302020302020302020302020302020302020300A20202020312E383536332020202D302E3030303020202020302E3030303020436C2020302020302020302020302020302020302020302020302020302020302020302020300A2020312020322020312020302020202020200A2020322020332020312020302020202020200A2020332020342020322020302020202020200A2020342020352020312020302020202020200A2020352020362020322020302020202020200A2020362020372020312020302020202020200A2020322020372020322020302020202020200A2020312020382020322020302020202020200A2020312020392020312020302020202020200A2020352031302020312020302020202020200A4D2020454E44
Contributor: MASS SPECTROSCOPY SOC. OF JAPAN (MSSJ)
InstType: EI
InstName: SHIMADZU QP-1000EX
IoniMethod: _ENERGY 20 eV
IonPolarity: pos
Date: 2010-10-09 19:48:36+02:00
Num Peaks: 56
36 17 38 6 39 25 40 6 43 3 44 6 45 15 50 14 51 48 52 4 
53 4 55 2 57 3 60 3 61 4 63 5 64 6 65 51 66 3 69 3 
73 8 74 3 75 139 76 37 77 51 78 4 81 2 84 2 85 12 86 2 
87 5 93 3 99 5 100 3 101 2 103 2 104 8 110 11 111 375 112 31 
113 123 114 9 127 2 128 20 129 3 130 7 139 999 140 79 141 325 142 25 
155 2 156 831 157 65 158 275 159 21 160 2 
