Name: MassBank: JP011012
MW: 222
Formula: C11H10O5
Synonym: MassBank: JP011012
Synonym: 2,5-DIACETOXYTROPONE
Structure: 322C352D4449414345544F585954524F504F4E452E6D6F6C0A20204368656D447261773132323130393030333432440A2031362031362020302020302020302020302020302020302020302020303939392056323030300A2020202D312E3131323920202020312E3430383620202020302E30303030204F202020302020302020302020302020302020302020302020302020302020302020302020300A2020202D302E3539383620202020302E3736333620202020302E303030302043202020302020302020302020302020302020302020302020302020302020302020302020300A20202020302E3230353820202020302E3934373220202020302E303030302043202020302020302020302020302020302020302020302020302020302020302020302020300A20202020302E3835303820202020302E3433323820202020302E303030302043202020302020302020302020302020302020302020302020302020302020302020302020300A20202020302E383530382020202D302E3339323220202020302E303030302043202020302020302020302020302020302020302020302020302020302020302020302020300A20202020302E323035382020202D302E3930363620202020302E303030302043202020302020302020302020302020302020302020302020302020302020302020302020300A2020202D302E353938362020202D302E3732333020202020302E303030302043202020302020302020302020302020302020302020302020302020302020302020302020300A2020202D302E3935363520202020302E3032303320202020302E303030302043202020302020302020302020302020302020302020302020302020302020302020302020300A20202020312E353934312020202D302E3735303120202020302E30303030204F202020302020302020302020302020302020302020302020302020302020302020302020300A20202020322E323735372020202D302E3238353420202020302E303030302043202020302020302020302020302020302020302020302020302020302020302020302020300A20202020322E3231343120202020302E3533373320202020302E30303030204F202020302020302020302020302020302020302020302020302020302020302020302020300A20202020332E303139302020202D302E3634333420202020302E303030302043202020302020302020302020302020302020302020302020302020302020302020302020300A2020202D312E3738313520202020302E3032303320202020302E30303030204F202020302020302020302020302020302020302020302020302020302020302020302020300A2020202D322E313934302020202D302E3639343220202020302E303030302043202020302020302020302020302020302020302020302020302020302020302020302020300A2020202D312E373831352020202D312E3430383620202020302E30303030204F202020302020302020302020302020302020302020302020302020302020302020302020300A2020202D332E303139302020202D302E3639343220202020302E303030302043202020302020302020302020302020302020302020302020302020302020302020302020300A2020312020322020322020302020202020200A2020322020332020312020302020202020200A2020332020342020322020302020202020200A2020342020352020312020302020202020200A2020352020362020322020302020202020200A2020362020372020312020302020202020200A2020372020382020322020302020202020200A2020322020382020312020302020202020200A2031302031312020322020302020202020200A2031302031322020312020302020202020200A2020392031302020312020302020202020200A2020352020392020312020302020202020200A2031342031352020322020302020202020200A2031342031362020312020302020202020200A2031332031342020312020302020202020200A2020382031332020312020302020202020200A4D2020454E44
Contributor: TAKESHITA H, INST. OF ADVANCED MATERIAL STUDY KYUSHU UNIV.
InstType: EI
InstName: JEOL JMS-01-SG-2
IoniMethod: _ENERGY 75 eV
IonPolarity: pos
Date: 2010-10-09 19:48:36+02:00
Num Peaks: 27
38 18 39 27 42 28 43 934 44 21 45 17 51 16 52 21 53 32 54 69 
55 28 60 12 62 11 63 30 64 14 65 17 81 34 82 30 109 11 110 373 
111 22 138 999 139 82 180 187 181 31 222 60 223 17 
