Name: 3-CHLOROTHIOPHENYL TRICHLOROMETHYL ETHER
MW: 259
Formula: C7H4Cl4S
Synonym: MassBank: JP010150
Synonym: 3-CHLOROTHIOPHENYL TRICHLOROMETHYL ETHER
Synonym: 3-CHLORO-1-TRICHLOROMETHYLTIOBENZENE
Structure: 332D43484C4F524F5448494F5048454E594C2054524943484C4F524F4D455448594C2045544845522E6D6F6C0A20204368656D447261773032323231303134353032440A2031322031322020302020302020302020302020302020302020302020303939392056323030300A20202020302E3637343020202020302E3731343520202020302E303030302053202020302020302020302020302020302020302020302020302020302020302020302020300A20202020302E3236313520202020312E3432383920202020302E303030302043202020302020302020302020302020302020302020302020302020302020302020302020300A20202020302E3937363020202020312E3834313420202020302E3030303020436C2020302020302020302020302020302020302020302020302020302020302020302020300A2020202D302E3435333020202020312E3031363420202020302E3030303020436C2020302020302020302020302020302020302020302020302020302020302020302020300A2020202D302E3135313020202020322E3134333420202020302E3030303020436C2020302020302020302020302020302020302020302020302020302020302020302020300A20202020302E323631352020202D302E3030303020202020302E303030302043202020302020302020302020302020302020302020302020302020302020302020302020300A20202020302E363734302020202D302E3731343520202020302E303030302043202020302020302020302020302020302020302020302020302020302020302020302020300A20202020302E323631352020202D312E3432383920202020302E303030302043202020302020302020302020302020302020302020302020302020302020302020302020300A2020202D302E353633352020202D312E3432383920202020302E303030302043202020302020302020302020302020302020302020302020302020302020302020302020300A2020202D302E393736302020202D302E3731343520202020302E303030302043202020302020302020302020302020302020302020302020302020302020302020302020300A2020202D302E3536333520202020302E3030303020202020302E303030302043202020302020302020302020302020302020302020302020302020302020302020302020300A20202020302E363734302020202D322E3134333420202020302E3030303020436C2020302020302020302020302020302020302020302020302020302020302020302020300A2020322020332020312020312020202020200A2020322020342020312020312020202020200A2020322020352020312020302020202020200A2020312020322020312020302020202020200A2020362020372020312020302020202020200A2020372020382020322020302020202020200A2020382020392020312020302020202020200A2020392031302020322020302020202020200A2031302031312020312020302020202020200A2020362031312020322020302020202020200A2020382031322020312020302020202020200A2020312020362020312020302020202020200A4D2020454E44
Contributor: KURARAY CO., LTD.
InstType: EI
InstName: JEOL JMS-D-300
IoniMethod: _ENERGY 70 eV
IonPolarity: pos
Date: 2010-10-09 19:48:36+02:00
Num Peaks: 53
37 10 38 10 39 10 45 2 50 100 51 40 61 20 62 2 63 80 69 100 
73 60 74 7 75 220 76 40 79 170 81 8 82 50 84 10 85 20 93 1 
95 5 99 70 101 20 107 2 108 380 109 30 111 180 113 6 117 320 119 300 
121 100 143 18 144 10 145 70 146 5 155 13 157 40 189 70 190 40 191 6 
192 30 193 20 225 970 226 7 227 999 228 70 229 350 230 2 231 40 260 340 
262 450 264 23 266 50 
