Name: ETHISTERONE
CAS: 434-03-7
MW: 312
Formula: C21H28O2
Synonym: MassBank: JP011650
Synonym: ETHISTERONE
Synonym: 17ALPHA-ETHYNYLTESTOSTERONE
Structure: 45544849535445524F4E452E6D6F6C0A20204368656D447261773132313130393030353632440A2032362032392020302020302020302020302020302020302020302020303939392056323030300A2020202D322E313935312020202D312E3735333020202020302E303030302043202020302020302020302020302020302020302020302020302020302020302020302020300A2020202D322E313935312020202D302E3932383020202020302E303030302043202020302020302020302020302020302020302020302020302020302020302020302020300A2020202D312E343830362020202D302E3531353520202020302E303030302043202020302020302020302020302020302020302020302020302020302020302020302020300A2020202D322E393039362020202D322E3136353520202020302E30303030204F202020302020302020302020302020302020302020302020302020302020302020302020300A2020202D312E343830362020202D322E3136353520202020302E303030302043202020302020302020302020302020302020302020302020302020302020302020302020300A2020202D302E373636322020202D312E3735333020202020302E303030302043202020302020302020302020302020302020302020302020302020302020302020302020300A2020202D302E303531372020202D322E3136353520202020302E303030302043202020302020302020302020302020302020302020302020302020302020302020302020300A20202020302E363632382020202D312E3735333020202020302E303030302043202020302020302020302020302020302020302020302020302020302020302020302020300A20202020302E363632382020202D302E3932383020202020302E303030302043202020302020302020302020302020302020302020302020302020302020302020302020300A20202020312E333737332020202D302E3531353520202020302E303030302043202020302020302020302020302020302020302020302020302020302020302020302020300A20202020322E313631392020202D302E3737303420202020302E303030302043202020302020302020302020302020302020302020302020302020302020302020302020300A20202020322E363436382020202D302E3130333020202020302E303030302043202020302020302020302020302020302020302020302020302020302020302020302020300A20202020322E3136313920202020302E3536343520202020302E303030302043202020302020302020302020302020302020302020302020302020302020302020302020300A20202020322E3930393620202020302E3931333120202020302E30303030204F202020302020302020302020302020302020302020302020302020302020302020302020300A20202020312E3337373320202020302E3330393520202020302E303030302043202020302020302020302020302020302020302020302020302020302020302020302020300A20202020312E3337373320202020312E3133343520202020302E303030302043202020302020302020302020302020302020302020302020302020302020302020302020300A20202020302E3636323820202020302E3732323020202020302E303030302043202020302020302020302020302020302020302020302020302020302020302020302020300A2020202D302E3035313720202020302E3330393520202020302E303030302043202020302020302020302020302020302020302020302020302020302020302020302020300A2020202D302E303531372020202D302E3531353520202020302E303030302043202020302020302020302020302020302020302020302020302020302020302020302020300A2020202D302E373636322020202D302E3932383020202020302E303030302043202020302020302020302020302020302020302020302020302020302020302020302020300A2020202D302E373636322020202D302E3130333020202020302E303030302043202020302020302020302020302020302020302020302020302020302020302020302020300A20202020312E3936323320202020312E3336353020202020302E303030302043202020302020302020302020302020302020302020302020302020302020302020302020300A20202020312E3736323720202020322E3136353520202020302E303030302043202020302020302020302020302020302020302020302020302020302020302020302020300A2020202D302E303531372020202D312E3334303520202020302E303030302048202020302020302020302020302020302020302020302020302020302020302020302020300A20202020302E363632382020202D302E3130333020202020302E303030302048202020302020302020302020302020302020302020302020302020302020302020302020300A20202020312E333737332020202D312E3334303520202020302E303030302048202020302020302020302020302020302020302020302020302020302020302020302020300A2020312020322020312020302020202020200A2020322020332020312020302020202020200A2020312020342020322020302020202020200A2020312020352020312020302020202020200A2020352020362020322020302020202020200A2020362020372020312020302020202020200A2020372020382020312020302020202020200A2020382020392020312020302020202020200A2020392031302020312020302020202020200A2031302031312020312020302020202020200A2031312031322020312020302020202020200A2031322031332020312020302020202020200A2031332031342020312020312020202020200A2031332031352020312020302020202020200A2031302031352020312020302020202020200A2031352031362020312020312020202020200A2031352031372020312020302020202020200A2031372031382020312020302020202020200A2031382031392020312020302020202020200A2020392031392020312020302020202020200A2031392032302020312020302020202020200A2020332032302020312020302020202020200A2020362032302020312020302020202020200A2032302032312020312020312020202020200A2032322032332020332020302020202020200A2031332032322020312020362020202020200A2031392032342020312020362020202020200A2020392032352020312020312020202020200A2031302032362020312020362020202020200A4D2020454E44
Contributor: YAMAMOTO M, DEP. CHEMISTRY, FAC. SCIENCE, NARA WOMEN'S UNIV.
InstType: EI
InstName: HITACHI M-2500
IoniMethod: _ENERGY 70 eV
IonPolarity: pos
Date: 2010-10-09 19:48:36+02:00
Num Peaks: 163
18 22 27 19 28 12 29 22 39 40 40 11 41 85 43 32 51 13 53 59 
54 10 55 79 65 37 66 14 67 88 68 26 69 20 77 101 78 25 79 146 
80 22 81 79 82 12 83 19 87 10 91 167 92 31 93 110 94 28 95 85 
96 19 97 54 103 20 104 14 105 131 106 47 107 112 108 45 109 89 110 30 
111 25 115 32 116 15 117 56 118 25 119 104 120 67 121 158 122 111 123 133 
124 304 125 34 128 25 129 39 130 15 131 74 132 28 133 86 134 60 135 83 
136 70 137 81 138 24 141 17 142 15 143 42 144 21 145 70 146 36 147 82 
148 141 149 111 150 27 151 10 155 29 156 17 157 42 158 20 159 78 160 46 
161 97 162 48 163 65 164 14 169 24 170 26 171 67 172 29 173 73 174 54 
175 60 176 40 177 42 178 13 181 11 183 22 184 21 185 45 186 23 187 89 
188 69 189 158 190 44 191 21 195 14 197 22 198 19 199 32 200 34 201 57 
202 46 203 28 209 21 210 11 211 52 212 18 213 65 214 28 215 34 216 17 
217 21 223 21 224 15 225 20 226 40 227 100 228 34 229 222 230 48 231 42 
232 15 237 31 238 18 239 19 240 14 241 18 242 108 243 30 244 55 245 322 
246 60 251 24 252 26 253 13 255 30 256 12 261 12 265 12 266 19 269 27 
270 95 271 22 279 107 280 23 283 28 284 38 294 43 295 22 297 263 298 59 
312 999 313 234 314 42 
