Name: 4-BROMOPHENYLBORIC ACID
CAS: 5467-74-3
MW: 199
Formula: C6H6BBrO2
Synonym: MassBank: JP011898
Synonym: 4-BROMOPHENYLBORIC ACID
Synonym: 4-BROMOBENZENEBORIC ACID
Structure: 342D42524F4D4F5048454E594C424F52494320414349442E6D6F6C0A20204368656D447261773033323531303038333332440A2031302031302020302020302020302020302020302020302020302020303939392056323030300A2020202D302E3431323520202020312E3037313720202020302E303030302042202020302020302020302020302020302020302020302020302020302020302020302020300A20202020302E3030303020202020302E3335373220202020302E303030302043202020302020302020302020302020302020302020302020302020302020302020302020300A20202020302E3832353020202020302E3335373220202020302E303030302043202020302020302020302020302020302020302020302020302020302020302020302020300A20202020312E323337352020202D302E3335373220202020302E303030302043202020302020302020302020302020302020302020302020302020302020302020302020300A20202020302E383235302020202D312E3037313720202020302E303030302043202020302020302020302020302020302020302020302020302020302020302020302020300A20202020302E303030302020202D312E3037313720202020302E303030302043202020302020302020302020302020302020302020302020302020302020302020302020300A2020202D302E343132352020202D302E3335373220202020302E303030302043202020302020302020302020302020302020302020302020302020302020302020302020300A20202020312E323337352020202D312E3738363220202020302E303030302042722020302020302020302020302020302020302020302020302020302020302020302020300A2020202D302E3030303020202020312E3738363220202020302E30303030204F202020302020302020302020302020302020302020302020302020302020302020302020300A2020202D312E3233373520202020312E3037313720202020302E30303030204F202020302020302020302020302020302020302020302020302020302020302020302020300A2020322020332020312020302020202020200A2020332020342020322020302020202020200A2020342020352020312020302020202020200A2020352020362020322020302020202020200A2020362020372020312020302020202020200A2020322020372020322020302020202020200A2020312020322020312020302020202020200A2020352020382020312020302020202020200A2020312020392020312020302020202020200A2020312031302020312020302020202020200A4D2020454E44
Contributor: YAMAMOTO M, DEP. CHEMISTRY, FAC. SCIENCE, NARA WOMEN'S UNIV.
InstType: EI
InstName: HITACHI M-2500
IoniMethod: _ENERGY 70 eV
IonPolarity: pos
Date: 2010-10-09 19:48:36+02:00
Num Peaks: 28
17 45 18 219 26 12 29 17 31 33 37 29 38 47 39 31 44 72 45 285 
49 30 50 275 51 290 52 32 53 32 59 25 61 12 62 13 63 12 65 14 
73 40 74 156 75 184 76 199 77 999 78 126 79 27 80 45 
