Name: MassBank: JP011102
CAS: 54-96-6
MW: 109
Formula: C5H7N3
Synonym: MassBank: JP011102
Synonym: 3,4-DIAMINOPYRIDINE
Structure: 310A32310A332C342D4449414D494E4F5059524944494E452E6D6F6C0A20204368656D447261773032323131303232313732440A2020382020382020302020302020302020302020302020302020302020303939392056323030300A20202020312E303731372020202D302E3030303020202020302E303030302043202020302020302020302020302020302020302020302020302020302020302020302020300A20202020302E333537322020202D302E3431323520202020302E303030302043202020302020302020302020302020302020302020302020302020302020302020302020300A2020202D302E333537322020202D302E3030303020202020302E303030302043202020302020302020302020302020302020302020302020302020302020302020302020300A2020202D302E3335373220202020302E3832353020202020302E303030302043202020302020302020302020302020302020302020302020302020302020302020302020300A20202020302E3335373220202020312E3233373520202020302E303030302043202020302020302020302020302020302020302020302020302020302020302020302020300A20202020312E3037313720202020302E3832353020202020302E30303030204E202020302020302020302020302020302020302020302020302020302020302020302020300A2020202D312E303731372020202D302E3431323520202020302E30303030204E202020302020302020302020302020302020302020302020302020302020302020302020300A20202020302E333537322020202D312E3233373520202020302E30303030204E202020302020302020302020302020302020302020302020302020302020302020302020300A2020312020322020312020302020202020200A2020322020332020322020302020202020200A2020332020342020312020302020202020200A2020342020352020322020302020202020200A2020352020362020312020302020202020200A2020312020362020322020302020202020200A2020332020372020312020302020202020200A2020322020382020312020302020202020200A4D2020454E44
Contributor: YAMAMOTO M, DEP. CHEMISTRY, FAC. SCIENCE, NARA WOMEN'S UNIV.
InstType: EI
InstName: HITACHI M-80
IoniMethod: _ENERGY 70 eV
IonPolarity: pos
Date: 2010-10-09 19:48:36+02:00
Num Peaks: 33
18 21 26 27 27 38 28 226 29 31 30 19 37 12 38 48 39 42 40 58 
41 103 42 50 43 17 51 19 52 121 53 76 54 212 55 135 56 47 64 27 
65 69 66 31 67 23 68 15 69 36 80 11 81 152 82 142 92 14 93 13 
108 48 109 999 110 70 
