Name: MassBank: JP010164
MW: 201
Formula: C9H15NO4
Synonym: MassBank: JP010164
Synonym: DIMETHYL 1-METHYLPYRROLIDINE-3,4-DICABOXYLATE (3,4-CIS)
Structure: 303834305F44494D455448594C20312D4D455448594C505952524F4C4944494E452D332C342D44494341424F58594C4154452028332C342D434953292E6D6F6C0A20204368656D447261773130323031303138303932440A2031342031342020302020302020302020302020302020302020302020303939392056323030300A2020202D312E3333323320202020312E3139353020202020302E30303030204E202020302020302020302020302020302020302020302020302020302020302020302020300A2020202D312E3333323420202020302E3337303020202020302E303030302043202020302020302020302020302020302020302020302020302020302020302020302020300A2020202D302E3534373820202020302E3131353120202020302E303030302043202020302020302020302020302020302020302020302020302020302020302020302020300A2020202D302E3036323820202020302E3738323520202020302E303030302043202020302020302020302020302020302020302020302020302020302020302020302020300A2020202D302E3534373820202020312E3434393920202020302E303030302043202020302020302020302020302020302020302020302020302020302020302020302020300A20202020302E3736323220202020302E3738323520202020302E303030302043202020302020302020302020302020302020302020302020302020302020302020302020300A2020202D302E323932382020202D302E3636393620202020302E303030302043202020302020302020302020302020302020302020302020302020302020302020302020300A20202020312E3137343720202020302E3036383020202020302E30303030204F202020302020302020302020302020302020302020302020302020302020302020302020300A20202020312E3137343720202020312E3439373020202020302E30303030204F202020302020302020302020302020302020302020302020302020302020302020302020300A20202020312E3939393720202020312E3439373020202020302E303030302043202020302020302020302020302020302020302020302020302020302020302020302020300A20202020302E353034312020202D302E3838333120202020302E30303030204F202020302020302020302020302020302020302020302020302020302020302020302020300A2020202D302E383736322020202D312E3235323920202020302E303030302043202020302020302020302020302020302020302020302020302020302020302020302020300A20202020302E373137362020202D312E3638303020202020302E303030302043202020302020302020302020302020302020302020302020302020302020302020302020300A2020202D312E3939393720202020312E3638303020202020302E303030302043202020302020302020302020302020302020302020302020302020302020302020302020300A2020312020322020312020302020202020200A2020322020332020312020302020202020200A2020332020342020312020302020202020200A2020342020352020312020302020202020200A2020352020312020312020302020202020200A2020342020362020312020312020202020200A2020332020372020312020312020202020200A2020362020382020322020302020202020200A2020362020392020312020302020202020200A2020392031302020312020302020202020200A2020372031312020312020302020202020200A2020372031322020322020302020202020200A2031312031332020312020302020202020200A2020312031342020312020302020202020200A4D2020454E44
Contributor: KANEMASA S, INST. OF ADVANCED MATERIAL STUDY KYUSHU UNIV.
InstType: EI
InstName: JEOL JMS-01-SG-2
IoniMethod: _ENERGY 75 eV
IonPolarity: pos
Date: 2010-10-09 19:48:36+02:00
Num Peaks: 41
37 27 38 190 39 48 40 179 41 543 42 50 43 128 44 39 51 26 52 26 
53 77 54 50 55 135 57 266 59 250 67 193 68 110 71 80 79 78 80 69 
81 999 82 92 83 61 87 24 99 57 108 29 110 20 113 39 115 84 126 24 
127 21 140 67 141 28 142 98 154 24 168 16 170 57 186 42 200 20 201 65 
202 16 
