Name: ACROLEIN
CAS: 107-02-8
MW: 56
Formula: C3H4O
Synonym: MassBank: JP011051
Synonym: ACROLEIN
Structure: 310A31320A4143524F4C45494E2E6D6F6C0A20204368656D447261773032323131303134343732440A2020342020332020302020302020302020302020302020302020302020303939392056323030300A2020202D302E333537322020202D302E3230363320202020302E303030302043202020302020302020302020302020302020302020302020302020302020302020302020300A2020202D312E3037313720202020302E3230363320202020302E30303030204F202020302020302020302020302020302020302020302020302020302020302020302020300A20202020302E3335373220202020302E3230363320202020302E303030302043202020302020302020302020302020302020302020302020302020302020302020302020300A20202020312E303731372020202D302E3230363220202020302E303030302043202020302020302020302020302020302020302020302020302020302020302020302020300A2020312020322020322020302020202020200A2020312020332020312020302020202020200A2020332020342020322020302020202020200A4D2020454E44
Contributor: YAMAMOTO M, DEP. CHEMISTRY, FAC. SCIENCE, NARA WOMEN'S UNIV.
InstType: EI
InstName: HITACHI M-80
IoniMethod: _ENERGY 70 eV
IonPolarity: pos
Date: 2010-10-09 19:48:36+02:00
Num Peaks: 17
13 13 14 13 24 12 25 74 26 623 27 999 28 361 29 422 30 11 36 10 
37 43 38 49 39 62 53 32 55 316 56 387 57 43 
