Name: MassBank: JP011005
MW: 154
Formula: C7H6O4
Synonym: MassBank: JP011005
Synonym: 3,5-DIHYDROXYTROPOLONE
Structure: 332C352D4449485944524F585954524F504F4C4F4E452E6D6F6C0A20204368656D447261773032323231303031303132440A2031312031312020302020302020302020302020302020302020302020303939392056323030300A2020202D312E3338383320202020312E3031393220202020302E30303030204F202020302020302020302020302020302020302020302020302020302020302020302020300A2020202D302E3734333320202020302E3530343820202020302E303030302043202020302020302020302020302020302020302020302020302020302020302020302020300A2020202D302E393236392020202D302E3239393520202020302E303030302043202020302020302020302020302020302020302020302020302020302020302020302020300A2020202D302E343132352020202D302E3934343520202020302E303030302043202020302020302020302020302020302020302020302020302020302020302020302020300A20202020302E343132352020202D302E3934343520202020302E303030302043202020302020302020302020302020302020302020302020302020302020302020302020300A20202020302E393236392020202D302E3239393520202020302E303030302043202020302020302020302020302020302020302020302020302020302020302020302020300A20202020302E3734333320202020302E3530343820202020302E303030302043202020302020302020302020302020302020302020302020302020302020302020302020300A20202020302E3030303020202020302E3836323820202020302E303030302043202020302020302020302020302020302020302020302020302020302020302020302020300A20202020302E3030303020202020312E3638373820202020302E30303030204F202020302020302020302020302020302020302020302020302020302020302020302020300A20202020302E373730352020202D312E3638373820202020302E30303030204F202020302020302020302020302020302020302020302020302020302020302020302020300A20202020312E3338383320202020312E3031393220202020302E30303030204F202020302020302020302020302020302020302020302020302020302020302020302020300A2020312020322020322020302020202020200A2020322020332020312020302020202020200A2020332020342020322020302020202020200A2020342020352020312020302020202020200A2020352020362020322020302020202020200A2020362020372020312020302020202020200A2020372020382020322020302020202020200A2020322020382020312020302020202020200A2020382020392020312020302020202020200A2020352031302020312020302020202020200A2020372031312020312020302020202020200A4D2020454E44
Contributor: TAKESHITA H, INST. OF ADVANCED MATERIAL STUDY KYUSHU UNIV.
InstType: EI
InstName: JEOL JMS-01-SG-2
IoniMethod: _ENERGY 75 eV
IonPolarity: pos
Date: 2010-10-09 19:48:36+02:00
Num Peaks: 32
38 49 39 76 41 70 42 84 43 79 44 70 45 43 50 48 51 107 52 250 
53 122 54 73 55 130 56 31 57 48 63 48 69 108 70 26 71 33 77 50 
79 53 80 222 81 31 82 25 97 73 105 45 108 45 125 39 126 573 127 59 
154 999 155 114 
