Name: MassBank: JP010008
MW: 118
Formula: C6H14O2
Synonym: MassBank: JP010008
Synonym: 3-METHYL-1,5-PENTANEDIOL
Structure: 310A32300A332D4D455448594C2D312C352D50454E54414E4544494F4C2E6D6F6C0A20204368656D447261773032323231303233313732440A2020382020372020302020302020302020302020302020302020302020303939392056323030300A20202020312E373836322020202D302E3230363220202020302E303030302043202020302020302020302020302020302020302020302020302020302020302020302020300A20202020312E303731372020202D302E3631383820202020302E303030302043202020302020302020302020302020302020302020302020302020302020302020302020300A20202020302E333537322020202D302E3230363320202020302E303030302043202020302020302020302020302020302020302020302020302020302020302020302020300A2020202D302E333537322020202D302E3631383820202020302E303030302043202020302020302020302020302020302020302020302020302020302020302020302020300A2020202D312E303731372020202D302E3230363320202020302E303030302043202020302020302020302020302020302020302020302020302020302020302020302020300A20202020312E3738363220202020302E3631383820202020302E30303030204F202020302020302020302020302020302020302020302020302020302020302020302020300A2020202D312E373836322020202D302E3631383820202020302E30303030204F202020302020302020302020302020302020302020302020302020302020302020302020300A20202020302E3335373220202020302E3631383720202020302E303030302043202020302020302020302020302020302020302020302020302020302020302020302020300A2020312020322020312020302020202020200A2020322020332020312020302020202020200A2020332020342020312020302020202020200A2020342020352020312020302020202020200A2020312020362020312020302020202020200A2020352020372020312020302020202020200A2020332020382020312020302020202020200A4D2020454E44
Contributor: KURARAY CO., LTD.
InstType: EI
InstName: JEOL JMS-D-300
IoniMethod: _ENERGY 70 eV
IonPolarity: pos
Date: 2010-10-09 19:48:36+02:00
Num Peaks: 49
26 18 27 226 28 231 29 34 30 26 31 645 32 14 38 1 39 191 40 39 
41 881 42 67 43 663 44 222 45 306 46 4 47 22 49 32 51 12 53 8 
54 134 55 980 56 526 57 50 58 121 59 34 60 12 61 3 66 10 67 999 
68 91 69 55 70 873 71 455 72 73 73 11 74 13 75 12 81 101 82 40 
83 75 85 28 87 56 88 5 89 34 99 31 101 23 103 1 115 18 
