Name: (+)-ALPHA-CYPERONE
MW: 218
Formula: C15H22O
Synonym: MassBank: JP010692
Synonym: (+)-ALPHA-CYPERONE
Structure: 282B292D414C5048412D43595045524F4E452E6D6F6C0A20204368656D447261773130303630393133333732440A2031372031382020302020302020302020302020302020302020302020303939392056323030300A2020202D302E3430303320202020302E3631383820202020302E303030302043202020302020302020302020302020302020302020302020302020302020302020302020300A2020202D312E3131343820202020302E3230363220202020302E303030302043202020302020302020302020302020302020302020302020302020302020302020302020300A2020202D312E313134382020202D302E3631383820202020302E303030302043202020302020302020302020302020302020302020302020302020302020302020302020300A2020202D302E343030332020202D312E3033313320202020302E303030302043202020302020302020302020302020302020302020302020302020302020302020302020300A20202020302E333134322020202D302E3631383820202020302E303030302043202020302020302020302020302020302020302020302020302020302020302020302020300A20202020302E3331343220202020302E3230363220202020302E303030302043202020302020302020302020302020302020302020302020302020302020302020302020300A20202020312E303238362020202D312E3033313320202020302E303030302043202020302020302020302020302020302020302020302020302020302020302020302020300A20202020312E373433312020202D302E3631383820202020302E303030302043202020302020302020302020302020302020302020302020302020302020302020302020300A20202020312E3734333120202020302E3230363220202020302E303030302043202020302020302020302020302020302020302020302020302020302020302020302020300A20202020312E3032383620202020302E3631383820202020302E303030302043202020302020302020302020302020302020302020302020302020302020302020302020300A20202020322E3435373620202020302E3631383720202020302E30303030204F202020302020302020302020302020302020302020302020302020302020302020302020300A2020202D312E3932373320202020302E3036323920202020302E303030302043202020302020302020302020302020302020302020302020302020302020302020302020300A2020202D312E3339373020202020302E3938313420202020302E303030302048202020302020302020302020302020302020302020302020302020302020302020302020300A2020202D322E323039342020202D302E3731323320202020302E303030302043202020302020302020302020302020302020302020302020302020302020302020302020300A2020202D322E3435373620202020302E3639343920202020302E303030302043202020302020302020302020302020302020302020302020302020302020302020302020300A20202020312E3032383620202020312E3434333820202020302E303030302043202020302020302020302020302020302020302020302020302020302020302020302020300A20202020302E333134322020202D312E3434333820202020302E303030302043202020302020302020302020302020302020302020302020302020302020302020302020300A2020312020322020312020302020202020200A2020322020332020312020302020202020200A2020332020342020312020302020202020200A2020342020352020312020302020202020200A2020352020362020312020302020202020200A2020362020312020312020302020202020200A2020352020372020312020302020202020200A2020372020382020312020302020202020200A2020382020392020312020302020202020200A2020392031302020312020302020202020200A2031302020362020322020302020202020200A2020392031312020322020302020202020200A2020322031322020312020312020202020200A2020322031332020312020362020202020200A2031322031342020322020302020202020200A2031322031352020312020302020202020200A2031302031362020312020302020202020200A2020352031372020312020302020202020200A4D202053545920203120202031205355500A4D2020534C4220203120202031202020310A4D202053414C20202031202031202031360A4D202053424C20202031202031202031370A4D2020534D5420202031204D650A4D2020534256202020312031372020202D372E3630303620202020362E353236310A4D202053545920203120202032205355500A4D2020534C4220203120202032202020320A4D202053414C20202032202031202031370A4D202053424C20202032202031202031380A4D2020534D5420202032204D650A4D2020534256202020322031382020202D372E3630303620202020342E383736310A4D2020454E44
Contributor: EGUCHI S, FAC. OF SCIENCE, HIROSHIMA UNIV.
InstType: EI
InstName: HITACHI RMU-6L
IoniMethod: _ENERGY 70 eV
IonPolarity: pos
Date: 2010-10-09 19:48:36+02:00
Num Peaks: 97
41 999 42 75 43 490 45 2 51 100 52 70 53 390 54 8 55 520 56 50 
57 80 58 2 59 40 63 30 64 20 65 40 66 70 67 400 68 90 69 31 
70 40 71 100 77 360 78 9 79 430 80 130 81 320 82 14 83 80 84 25 
85 30 91 47 92 100 93 470 94 130 95 29 96 80 97 80 103 50 104 2 
105 335 106 110 107 320 108 22 109 320 110 120 111 100 112 5 115 50 116 20 
117 80 118 4 119 340 120 145 121 300 122 17 123 105 124 110 125 30 127 3 
128 30 131 65 132 70 133 23 134 140 135 160 136 325 137 18 138 50 143 30 
145 60 146 4 147 280 148 110 149 70 150 8 151 20 157 50 159 50 160 3 
161 265 162 140 163 50 175 19 176 90 177 40 179 15 185 4 189 40 190 50 
200 15 201 1 203 120 204 50 218 290 219 15 220 30 
