Name: 1-METHYL-SILACYCLOPENTANE (1-D)
MW: 100
Formula: C5H12Si
Synonym: MassBank: JP011583
Synonym: 1-METHYL-SILACYCLOPENTANE (1-D)
Structure: 310A32300A312D4D455448594C2D53494C414359434C4F50454E54414E452028312D44292E6D6F6C0A20204368656D447261773131323030393132303932440A2020372020372020302020302020302020302020302020302020302020303939392056323030300A20202020302E3139373220202020302E3136373820202020302E303030302053692020302020302020302020302020302020302020302020302020302020302020302020300A20202020302E323833352020202D302E3635323720202020302E303030302043202020302020302020302020302020302020302020302020302020302020302020302020300A2020202D302E343730322020202D302E3938383320202020302E303030302043202020302020302020302020302020302020302020302020302020302020302020302020300A2020202D312E303232322020202D302E3337353220202020302E303030302043202020302020302020302020302020302020302020302020302020302020302020302020300A2020202D302E3630393720202020302E3333393320202020302E303030302043202020302020302020302020302020302020302020302020302020302020302020302020300A20202020302E3238333520202020302E3938383320202020302E303030302043202020302020302020302020302020302020302020302020302020302020302020302020300A20202020312E3032323220202020302E3136373820202020302E303030302048202020312020302020302020302020302020302020302020302020302020302020302020300A2020312020322020312020302020202020200A2020322020332020312020302020202020200A2020332020342020312020302020202020200A2020342020352020312020302020202020200A2020312020352020312020302020202020200A2020312020362020312020302020202020200A2020312020372020312020302020202020200A4D202049534F20203120202037202020320A4D2020454E44
Contributor: YAMAMOTO M, DEP. CHEMISTRY, FAC. SCIENCE, NARA WOMEN'S UNIV.
InstType: EI
InstName: HITACHI RMU-6M
IoniMethod: _ENERGY 70 eV
IonPolarity: pos
Date: 2010-10-09 19:48:36+02:00
Num Peaks: 39
26 10 27 36 28 46 29 45 30 16 31 15 32 12 39 28 41 11 42 36 
43 180 44 242 45 174 46 91 47 11 53 31 54 14 55 42 56 32 57 46 
58 106 59 63 60 32 67 11 70 27 71 74 72 172 73 999 74 97 75 37 
83 10 84 23 85 18 86 80 87 11 99 24 101 186 102 23 103 9 
