Name: PERFLUOROTRIBUTYLAMINE
CAS: 311-89-7
MW: 670
Formula: C12F27N
Synonym: MassBank: JP011655
Synonym: PERFLUOROTRIBUTYLAMINE
Synonym: HEPTACOSAFLUOROTRIBUTYLAMINE
Structure: 4845505441434F5341464C554F524F545249425554594C414D494E452E6D6F6C0A20204368656D447261773038313131303230303332440A2034302033392020302020302020302020302020302020302020302020303939392056323030300A20202020302E313336312020202D302E3530383520202020302E30303030204E202020302020302020302020302020302020302020302020302020302020302020302020300A20202020302E3739373720202020302E3633373420202020302E303030302043202020302020302020302020302020302020302020302020302020302020302020302020300A2020202D302E3133313120202020312E3137333620202020302E303030302043202020302020302020302020302020302020302020302020302020302020302020302020300A20202020302E3533303420202020322E3331393520202020302E303030302043202020302020302020302020302020302020302020302020302020302020302020302020300A2020202D302E3132383520202020322E3830353320202020302E303030302043202020302020302020302020302020302020302020302020302020302020302020302020300A20202020302E373932382020202D312E3634353920202020302E303030302043202020302020302020302020302020302020302020302020302020302020302020302020300A20202020312E363735342020202D312E3036303720202020302E303030302043202020302020302020302020302020302020302020302020302020302020302020302020300A20202020322E353338382020202D312E3731323920202020302E303030302043202020302020302020302020302020302020302020302020302020302020302020302020300A20202020322E343338332020202D322E3533313720202020302E303030302043202020302020302020302020302020302020302020302020302020302020302020302020300A2020202D312E313930352020202D302E3530383520202020302E303030302043202020302020302020302020302020302020302020302020302020302020302020302020300A2020202D312E313930352020202D312E3536393420202020302E303030302043202020302020302020302020302020302020302020302020302020302020302020302020300A2020202D322E353030342020202D312E3739313120202020302E303030302043202020302020302020302020302020302020302020302020302020302020302020302020300A2020202D322E353030342020202D322E3631363020202020302E303030302043202020302020302020302020302020302020302020302020302020302020302020302020300A20202020312E3230383620202020312E3334393220202020302E303030302046202020302020302020302020302020302020302020302020302020302020302020302020300A20202020312E3531323220202020302E3232343920202020302E303030302046202020302020302020302020302020302020302020302020302020302020302020302020300A2020202D302E3834353620202020312E3538363220202020302E303030302046202020302020302020302020302020302020302020302020302020302020302020302020300A2020202D302E3534323120202020302E3436313920202020302E303030302046202020302020302020302020302020302020302020302020302020302020302020302020300A20202020302E3939343420202020332E3030323320202020302E303030302046202020302020302020302020302020302020302020302020302020302020302020302020300A20202020312E3235313620202020312E3930333220202020302E303030302046202020302020302020302020302020302020302020302020302020302020302020302020300A20202020302E3431323220202020332E3434313020202020302E303030302046202020302020302020302020302020302020302020302020302020302020302020302020300A2020202D302E3731313920202020332E3338383620202020302E303030302046202020302020302020302020302020302020302020302020302020302020302020302020300A2020202D302E3730353120202020322E3232383720202020302E303030302046202020302020302020302020302020302020302020302020302020302020302020302020300A20202020312E313035322020202D322E3431313020202020302E303030302046202020302020302020302020302020302020302020302020302020302020302020302020300A20202020302E303433342020202D322E3031373520202020302E303030302046202020302020302020302020302020302020302020302020302020302020302020302020300A20202020322E323538382020202D302E3437373420202020302E303030302046202020302020302020302020302020302020302020302020302020302020302020302020300A20202020312E313535372020202D302E3433323420202020302E303030302046202020302020302020302020302020302020302020302020302020302020302020302020300A20202020332E333237382020202D312E3935343120202020302E303030302046202020302020302020302020302020302020302020302020302020302020302020302020300A20202020322E393133342020202D302E3937373820202020302E303030302046202020302020302020302020302020302020302020302020302020302020302020302020300A20202020332E323537312020202D322E3633323320202020302E303030302046202020302020302020302020302020302020302020302020302020302020302020302020300A20202020322E333337372020202D332E3335303620202020302E303030302046202020302020302020302020302020302020302020302020302020302020302020302020300A20202020312E363139342020202D322E3433313220202020302E303030302046202020302020302020302020302020302020302020302020302020302020302020302020300A2020202D322E303135352020202D302E3530383520202020302E303030302046202020302020302020302020302020302020302020302020302020302020302020302020300A2020202D312E3139303520202020302E3332383120202020302E303030302046202020302020302020302020302020302020302020302020302020302020302020302020300A2020202D312E313035372020202D322E3338393420202020302E303030302046202020302020302020302020302020302020302020302020302020302020302020302020300A2020202D302E333732392020202D312E3532363220202020302E303030302046202020302020302020302020302020302020302020302020302020302020302020302020300A2020202D332E333231392020202D312E3833343220202020302E303030302046202020302020302020302020302020302020302020302020302020302020302020302020300A2020202D322E353839302020202D302E3937313120202020302E303030302046202020302020302020302020302020302020302020302020302020302020302020302020300A2020202D332E333237382020202D322E3631363020202020302E303030302046202020302020302020302020302020302020302020302020302020302020302020302020300A2020202D322E353030342020202D332E3434313020202020302E303030302046202020302020302020302020302020302020302020302020302020302020302020302020300A2020202D312E363737382020202D322E3631363020202020302E303030302046202020302020302020302020302020302020302020302020302020302020302020302020300A2020322020332020312020302020202020200A2020332020342020312020302020202020200A2020342020352020312020302020202020200A2020312020322020312020302020202020200A2020362020372020312020302020202020200A2020372020382020312020302020202020200A2020382020392020312020302020202020200A2020312020362020312020302020202020200A2031302031312020312020302020202020200A2031312031322020312020302020202020200A2031322031332020312020302020202020200A2020312031302020312020302020202020200A2020322031342020312020302020202020200A2020322031352020312020302020202020200A2020332031362020312020302020202020200A2020332031372020312020302020202020200A2020342031382020312020302020202020200A2020342031392020312020302020202020200A2020352032302020312020302020202020200A2020352032312020312020302020202020200A2020352032322020312020302020202020200A2020362032332020312020302020202020200A2020362032342020312020302020202020200A2020372032352020312020302020202020200A2020372032362020312020302020202020200A2020382032372020312020302020202020200A2020382032382020312020302020202020200A2020392032392020312020302020202020200A2020392033302020312020302020202020200A2020392033312020312020302020202020200A2031302033322020312020302020202020200A2031302033332020312020302020202020200A2031312033342020312020302020202020200A2031312033352020312020302020202020200A2031322033362020312020302020202020200A2031322033372020312020302020202020200A2031332033382020312020302020202020200A2031332033392020312020302020202020200A2031332034302020312020302020202020200A4D2020454E44
Contributor: YAMAMOTO M, DEP. CHEMISTRY, FAC. SCIENCE, NARA WOMEN'S UNIV.
InstType: EI
InstName: HITACHI M-2500
IoniMethod: _ENERGY 70 eV
IonPolarity: pos
Date: 2010-10-09 19:48:36+02:00
Num Peaks: 31
51 12 69 771 100 103 113 23 114 36 119 85 131 405 132 13 150 28 164 11 
169 30 181 21 201 24 214 14 219 999 220 45 228 10 246 22 264 237 265 13 
376 11 396 25 414 116 415 10 448 24 464 39 466 35 484 40 502 235 503 24 
614 25 
