Name: MassBank: JP011800
MW: 128
Formula: C7H6F2
Synonym: MassBank: JP011800
Synonym: 2,5-DIFLUOROTOLUENE
Structure: 310A32330A322C352D4449464C554F524F544F4C55454E452E6D6F6C0A20204368656D447261773132323130393031313832440A2020392020392020302020302020302020302020302020302020302020303939392056323030300A2020202D302E373134352020202D302E3431323520202020302E303030302043202020302020302020302020302020302020302020302020302020302020302020302020300A2020202D302E3731343520202020302E3431323520202020302E303030302043202020302020302020302020302020302020302020302020302020302020302020302020300A20202020302E3731343520202020302E3431323520202020302E303030302043202020302020302020302020302020302020302020302020302020302020302020302020300A20202020302E303030302020202D302E3832353020202020302E303030302043202020302020302020302020302020302020302020302020302020302020302020302020300A20202020302E3030303020202020302E3832353020202020302E303030302043202020302020302020302020302020302020302020302020302020302020302020302020300A20202020302E373134352020202D302E3431323520202020302E303030302043202020302020302020302020302020302020302020302020302020302020302020302020300A2020202D312E343238392020202D302E3832353020202020302E303030302043202020302020302020302020302020302020302020302020302020302020302020302020300A20202020312E343238392020202D302E3832353020202020302E303030302046202020302020302020302020302020302020302020302020302020302020302020302020300A2020202D312E3432383920202020302E3832353020202020302E303030302046202020302020302020302020302020302020302020302020302020302020302020302020300A2020312020322020312020302020202020200A2020312020342020322020302020202020200A2020322020352020322020302020202020200A2020332020352020312020302020202020200A2020332020362020322020302020202020200A2020342020362020312020302020202020200A2020312020372020312020302020202020200A2020362020382020312020302020202020200A2020322020392020312020302020202020200A4D2020454E44
Contributor: TAJIMA S, GUNMA COLLEGE OF TECHNOLOGY
InstType: EI
InstName: HITACHI M-80A
IoniMethod: _ENERGY 70 eV
IonPolarity: pos
Date: 2010-10-09 19:48:36+02:00
Num Peaks: 43
26 12 27 15 31 62 33 13 37 20 38 30 39 46 44 24 50 57 51 75 
54 17 56 23 57 108 61 30 62 40 63 62 64 22 68 20 69 18 70 15 
74 27 75 65 76 13 77 37 78 12 80 14 81 66 82 12 83 32 85 11 
86 12 87 11 99 14 101 121 105 12 107 91 108 22 109 65 125 39 126 44 
127 999 128 619 129 44 
