Name: MassBank: JP012075
MW: 186
Formula: C10H18O3
Synonym: MassBank: JP012075
Synonym: 6,6-DIETHOXY-4-HEXYN-3-OL
Structure: 362C362D44494554484F58592D342D484558594E2D332D4F4C2E6D6F6C0A20204368656D447261773034323331303038313432440A2031332031322020302020302020302020302020302020302020302020303939392056323030300A20202020312E3233373520202020322E3134333420202020302E303030302043202020302020302020302020302020302020302020302020302020302020302020302020300A20202020302E3832353020202020312E3432383920202020302E303030302043202020302020302020302020302020302020302020302020302020302020302020302020300A20202020312E3233373520202020302E3731343520202020302E303030302043202020302020302020302020302020302020302020302020302020302020302020302020300A20202020302E383235302020202D302E3030303020202020302E303030302043202020302020302020302020302020302020302020302020302020302020302020302020300A20202020302E343132352020202D302E3731343520202020302E303030302043202020302020302020302020302020302020302020302020302020302020302020302020300A20202020302E303030302020202D312E3432383920202020302E303030302043202020302020302020302020302020302020302020302020302020302020302020302020300A20202020322E3036323520202020302E3731343520202020302E30303030204F202020302020302020302020302020302020302020302020302020302020302020302020300A20202020302E343132352020202D322E3134333420202020302E30303030204F202020302020302020302020302020302020302020302020302020302020302020302020300A20202020312E323337352020202D322E3134333420202020302E303030302043202020302020302020302020302020302020302020302020302020302020302020302020300A20202020312E363530302020202D312E3432383920202020302E303030302043202020302020302020302020302020302020302020302020302020302020302020302020300A2020202D302E383235302020202D312E3432383920202020302E30303030204F202020302020302020302020302020302020302020302020302020302020302020302020300A2020202D312E323337352020202D302E3731343520202020302E303030302043202020302020302020302020302020302020302020302020302020302020302020302020300A2020202D322E303632352020202D302E3731343520202020302E303030302043202020302020302020302020302020302020302020302020302020302020302020302020300A2020312020322020312020302020202020200A2020322020332020312020302020202020200A2020332020342020312020302020202020200A2020342020352020332020302020202020200A2020352020362020312020302020202020200A2020332020372020312020302020202020200A2020392031302020312020302020202020200A2020382020392020312020302020202020200A2020362020382020312020302020202020200A2031322031332020312020302020202020200A2031312031322020312020302020202020200A2020362031312020312020302020202020200A4D2020454E44
Contributor: SUMITA Y, KYOTO COLLEGE OF PHARMACY
InstType: EI
InstName: HITACHI M-80
IoniMethod: _ENERGY 20 eV
IonPolarity: pos
Date: 2010-10-09 19:48:36+02:00
Num Peaks: 42
27 13 29 129 31 11 41 108 43 177 45 17 47 35 53 15 55 79 57 208 
58 12 59 23 65 17 67 182 68 13 69 18 71 67 73 10 75 30 81 15 
82 11 83 101 84 47 85 277 86 17 95 101 96 10 97 16 99 26 101 15 
103 41 111 225 112 33 113 69 127 28 139 123 140 16 141 999 142 89 169 11 
185 25 186 3 
