Name: MassBank: JP010170
MW: 230
Formula: C13H14N2O2
Synonym: MassBank: JP010170
Synonym: 2-PARA-TOLYLPERHYDROPYRROLO(3,4-C)PYRROLE-1,3-DIONE
Structure: 322D504152412D544F4C594C504552485944524F505952524F4C4F28332C342D4329505952524F4C452D312C332D44494F4E452E6D6F6C0A20204368656D447261773032323131303132333832440A2031372031392020302020302020302020302020302020302020302020303939392056323030300A20202020302E333830352020202D302E3030303020202020302E30303030204E202020302020302020302020302020302020302020302020302020302020302020302020300A20202020302E383635342020202D302E3636373420202020302E303030302043202020302020302020302020302020302020302020302020302020302020302020302020300A20202020312E363530302020202D302E3431323520202020302E303030302043202020302020302020302020302020302020302020302020302020302020302020302020300A20202020312E3635303020202020302E3431323520202020302E303030302043202020302020302020302020302020302020302020302020302020302020302020302020300A20202020302E3836353420202020302E3636373420202020302E303030302043202020302020302020302020302020302020302020302020302020302020302020302020300A20202020322E3931393520202020302E3030303020202020302E30303030204E202020302020302020302020302020302020302020302020302020302020302020302020300A20202020322E343334362020202D302E3636373420202020302E303030302043202020302020302020302020302020302020302020302020302020302020302020302020300A20202020322E3433343620202020302E3636373420202020302E303030302043202020302020302020302020302020302020302020302020302020302020302020302020300A20202020302E363130342020202D312E3435323120202020302E30303030204F202020302020302020302020302020302020302020302020302020302020302020302020300A20202020302E3631303420202020312E3435323120202020302E30303030204F202020302020302020302020302020302020302020302020302020302020302020302020300A2020202D302E343434352020202D302E3030303020202020302E303030302043202020302020302020302020302020302020302020302020302020302020302020302020300A2020202D302E383537302020202D302E3731343520202020302E303030302043202020302020302020302020302020302020302020302020302020302020302020302020300A2020202D322E303934352020202D302E3030303020202020302E303030302043202020302020302020302020302020302020302020302020302020302020302020302020300A2020202D302E3835373020202020302E3731343520202020302E303030302043202020302020302020302020302020302020302020302020302020302020302020302020300A2020202D312E363832302020202D302E3731343520202020302E303030302043202020302020302020302020302020302020302020302020302020302020302020302020300A2020202D312E3638323020202020302E3731343520202020302E303030302043202020302020302020302020302020302020302020302020302020302020302020302020300A2020202D322E393139352020202D302E3030303020202020302E303030302043202020302020302020302020302020302020302020302020302020302020302020302020300A2020312020322020312020302020202020200A2020322020332020312020302020202020200A2020332020342020312020302020202020200A2020342020352020312020302020202020200A2020312020352020312020302020202020200A2020362020372020312020302020202020200A2020362020382020312020302020202020200A2020332020372020312020302020202020200A2020342020382020312020302020202020200A2020322020392020322020302020202020200A2020352031302020322020302020202020200A2031312031322020312020302020202020200A2031312031342020322020302020202020200A2031322031352020322020302020202020200A2031332031352020312020302020202020200A2031332031362020322020302020202020200A2031342031362020312020302020202020200A2031332031372020312020302020202020200A2020312031312020312020302020202020200A4D2020454E44
Contributor: KANEMASA S, INST. OF ADVANCED MATERIAL STUDY KYUSHU UNIV.
InstType: EI
InstName: JEOL JMS-01-SG-2
IoniMethod: _ENERGY 75 eV
IonPolarity: pos
Date: 2010-10-09 19:48:36+02:00
Num Peaks: 28
30 136 35 30 41 28 42 98 43 41 44 80 47 100 48 45 49 32 56 63 
57 21 58 205 68 30 70 24 72 28 83 368 85 250 86 999 87 65 91 26 
100 66 101 180 102 14 106 24 107 25 118 15 120 13 230 46 
