Name: BICYCLO(4.3.0)NONAN-8-OL (8-D)
MW: 140
Formula: C9H16O
Synonym: MassBank: JP011973
Synonym: BICYCLO(4.3.0)NONAN-8-OL (8-D)
Structure: 42494359434C4F28342E332E30294E4F4E414E2D382D4F4C2028382D44292E6D6F6C0A20204368656D447261773039303531303139303632440A2031312031322020302020302020302020302020302020302020302020303939392056323030300A20202020302E3232363820202020302E3431323520202020302E303030302043202020302020302020302020302020302020302020302020302020302020302020302020300A20202020302E3934313320202020302E3832353020202020302E303030302043202020302020302020302020302020302020302020302020302020302020302020302020300A20202020312E3635353820202020302E3431323520202020302E303030302043202020302020302020302020302020302020302020302020302020302020302020302020300A20202020312E363535382020202D302E3431323520202020302E303030302043202020302020302020302020302020302020302020302020302020302020302020302020300A20202020302E393431332020202D302E3832353020202020302E303030302043202020302020302020302020302020302020302020302020302020302020302020302020300A20202020302E323236382020202D302E3431323520202020302E303030302043202020302020302020302020302020302020302020302020302020302020302020302020300A2020202D302E353537382020202D302E3636373420202020302E303030302043202020302020302020302020302020302020302020302020302020302020302020302020300A2020202D312E303432372020202D302E3030303020202020302E303030302043202020302020302020302020302020302020302020302020302020302020302020302020300A2020202D302E3535373820202020302E3636373420202020302E303030302043202020302020302020302020302020302020302020302020302020302020302020302020300A2020202D312E363535382020202D302E3535323020202020302E30303030204F202020302020302020302020302020302020302020302020302020302020302020302020300A2020202D312E3635353820202020302E3535323020202020302E303030302048202020312020302020302020302020302020302020302020302020302020302020302020300A2020312020322020312020302020202020200A2020322020332020312020302020202020200A2020332020342020312020302020202020200A2020342020352020312020302020202020200A2020352020362020312020302020202020200A2020362020372020312020302020202020200A2020372020382020312020302020202020200A2020382020392020312020302020202020200A2020312020392020312020302020202020200A2020312020362020312020302020202020200A2020382031302020312020302020202020200A2020382031312020312020302020202020200A4D202049534F20203120203131202020320A4D2020454E44
Contributor: YAMAMOTO M, DEP. CHEMISTRY, FAC. SCIENCE, NARA WOMEN'S UNIV.
InstType: EI
InstName: HITACHI RMU-6M
IoniMethod: _ENERGY 20 eV
IonPolarity: pos
Date: 2010-10-09 19:48:36+02:00
Num Peaks: 52
27 15 28 18 29 63 31 219 41 34 42 17 43 21 44 12 45 86 46 11 
52 11 53 13 54 69 55 82 56 33 57 28 58 38 59 141 60 16 66 21 
67 163 68 131 69 39 70 20 71 91 72 22 73 19 74 81 78 13 79 56 
80 233 81 999 82 161 83 26 84 85 85 24 92 10 93 83 94 304 95 167 
96 176 97 34 98 27 99 14 107 16 108 62 109 26 110 13 112 11 122 36 
123 751 124 91 
