Name: MassBank: JP010010
MW: 119
Formula: C5H13NO2
Synonym: MassBank: JP010010
Synonym: 2,2'-METHYLIMINODIETHANOL
Synonym: METHYL-DIETHANOLAMINE
Structure: 310A32300A322C32272D4D455448594C494D494E4F4449455448414E4F4C2E6D6F6C0A20204368656D447261773132313930393034343532440A2020382020372020302020302020302020302020302020302020302020303939392056323030300A20202020302E333537322020202D302E3230363320202020302E30303030204E202020302020302020302020302020302020302020302020302020302020302020302020300A20202020302E3335373220202020302E3631383720202020302E303030302043202020302020302020302020302020302020302020302020302020302020302020302020300A20202020312E373836322020202D302E3230363320202020302E303030302043202020302020302020302020302020302020302020302020302020302020302020302020300A20202020312E303731372020202D302E3631383820202020302E303030302043202020302020302020302020302020302020302020302020302020302020302020302020300A20202020312E3738363220202020302E3631383820202020302E30303030204F202020302020302020302020302020302020302020302020302020302020302020302020300A2020202D312E303731372020202D302E3230363320202020302E303030302043202020302020302020302020302020302020302020302020302020302020302020302020300A2020202D302E333537322020202D302E3631383820202020302E303030302043202020302020302020302020302020302020302020302020302020302020302020302020300A2020202D312E373836322020202D302E3631383820202020302E30303030204F202020302020302020302020302020302020302020302020302020302020302020302020300A2020312020322020312020302020202020200A2020332020342020312020302020202020200A2020332020352020312020302020202020200A2020312020342020312020302020202020200A2020362020372020312020302020202020200A2020362020382020312020302020202020200A2020312020372020312020302020202020200A4D2020454E44
Contributor: KURARAY CO., LTD.
InstType: EI
InstName: JEOL JMS-D-300
IoniMethod: _ENERGY 70 eV
IonPolarity: pos
Date: 2010-10-09 19:48:36+02:00
Num Peaks: 20
27 40 28 15 29 31 30 2 31 25 41 24 42 160 43 7 44 756 45 290 
56 49 57 3 58 64 70 29 74 42 87 8 88 999 89 88 119 34 130 44 
