Name: 1-METHYLHYDANTOIN
CAS: 461-72-3
MW: 114
Formula: C4H6N2O2
Synonym: MassBank: JP010408
Synonym: 1-METHYLHYDANTOIN
Synonym: 1-METHYLIMIDAZOLIDINE-2,4-DIONE
Structure: 310A32310A312D4D455448594C485944414E544F494E2E6D6F6C0A20204368656D447261773131323130393138323532440A2020382020382020302020302020302020302020302020302020302020303939392056323030300A2020202D302E303731312020202D302E3636373420202020302E303030302043202020302020302020302020302020302020302020302020302020302020302020302020300A20202020302E373133362020202D302E3431323520202020302E30303030204E202020302020302020302020302020302020302020302020302020302020302020302020300A20202020302E3731333620202020302E3431323520202020302E303030302043202020302020302020302020302020302020302020302020302020302020302020302020300A20202020312E3338313020202020302E3839373420202020302E30303030204F202020302020302020302020302020302020302020302020302020302020302020302020300A2020202D302E3037313120202020302E3636373420202020302E30303030204E202020302020302020302020302020302020302020302020302020302020302020302020300A2020202D302E3535363020202020302E3030303020202020302E303030302043202020302020302020302020302020302020302020302020302020302020302020302020300A2020202D312E3338313020202020302E3030303020202020302E30303030204F202020302020302020302020302020302020302020302020302020302020302020302020300A20202020312E333831302020202D302E3839373420202020302E303030302043202020302020302020302020302020302020302020302020302020302020302020302020300A2020312020322020312020302020202020200A2020322020332020312020302020202020200A2020332020342020322020302020202020200A2020332020352020312020302020202020200A2020352020362020312020302020202020200A2020362020372020322020302020202020200A2020312020362020312020302020202020200A2020322020382020312020302020202020200A4D2020454E44
Contributor: MASS SPECTROSCOPY SOC. OF JAPAN (MSSJ)
InstType: EI
InstName: HITACHI RMU-6M
IoniMethod: _ENERGY 20 eV
IonPolarity: pos
Date: 2010-10-09 19:48:36+02:00
Num Peaks: 41
41 13 42 470 43 999 44 12 45 70 46 30 55 150 56 17 57 200 58 170 
59 70 60 15 67 30 68 30 69 130 70 13 71 200 72 30 73 70 74 3 
81 70 82 70 83 80 84 8 85 150 86 100 87 30 91 3 95 50 96 50 
97 50 98 5 99 80 109 30 110 30 111 3 112 30 113 30 114 900 115 7 
116 10 
