Name: MassBank: JP010267
MW: 279
Formula: C18H17NO2
Synonym: MassBank: JP010267
Synonym: METHYL 2,3-DIPHENYL-1-PYRROLINE-4-CARBOXYLATE
Structure: 4D455448594C20322C332D44495048454E594C2D312D505952524F4C494E452D342D434152424F58594C4154452E6D6F6C0A20204368656D447261773038313131303233343132440A2032312032332020302020302020302020302020302020302020302020303939392056323030300A20202020302E303531352020202D312E3732353020202020302E30303030204E202020302020302020302020302020302020302020302020302020302020302020302020300A2020202D302E323033342020202D302E3934303420202020302E303030302043202020302020302020302020302020302020302020302020302020302020302020302020300A20202020302E343634302020202D302E3435353520202020302E303030302043202020302020302020302020302020302020302020302020302020302020302020302020300A20202020312E313331352020202D302E3934303420202020302E303030302043202020302020302020302020302020302020302020302020302020302020302020302020300A20202020302E383736352020202D312E3732353020202020302E303030302043202020302020302020302020302020302020302020302020302020302020302020302020300A20202020312E393136312020202D302E3638353520202020302E303030302043202020302020302020302020302020302020302020302020302020302020302020302020300A20202020322E3034353220202020302E3132393420202020302E30303030204F202020302020302020302020302020302020302020302020302020302020302020302020300A20202020322E353537332020202D312E3230343720202020302E30303030204F202020302020302020302020302020302020302020302020302020302020302020302020300A20202020302E3436343020202020302E3336393520202020302E303030302043202020302020302020302020302020302020302020302020302020302020302020302020300A2020202D302E3235303420202020302E3738323020202020302E303030302043202020302020302020302020302020302020302020302020302020302020302020302020300A2020202D302E3235303420202020312E3630373020202020302E303030302043202020302020302020302020302020302020302020302020302020302020302020302020300A20202020302E3436343020202020322E3031393520202020302E303030302043202020302020302020302020302020302020302020302020302020302020302020302020300A20202020312E3137383520202020312E3630373020202020302E303030302043202020302020302020302020302020302020302020302020302020302020302020302020300A20202020312E3137383520202020302E3738323020202020302E303030302043202020302020302020302020302020302020302020302020302020302020302020302020300A2020202D302E393838302020202D302E3638353520202020302E303030302043202020302020302020302020302020302020302020302020302020302020302020302020300A2020202D312E363031312020202D312E3233373520202020302E303030302043202020302020302020302020302020302020302020302020302020302020302020302020300A2020202D322E333835372020202D302E3938323620202020302E303030302043202020302020302020302020302020302020302020302020302020302020302020302020300A2020202D322E353537332020202D302E3137353620202020302E303030302043202020302020302020302020302020302020302020302020302020302020302020302020300A2020202D312E3934343220202020302E3337363420202020302E303030302043202020302020302020302020302020302020302020302020302020302020302020302020300A2020202D312E3135393520202020302E3132313520202020302E303030302043202020302020302020302020302020302020302020302020302020302020302020302020300A20202020322E343238322020202D322E3031393520202020302E303030302043202020302020302020302020302020302020302020302020302020302020302020302020300A2020312020322020322020302020202020200A2020322020332020312020302020202020200A2020332020342020312020302020202020200A2020342020352020312020302020202020200A2020312020352020312020302020202020200A2020362020372020322020302020202020200A2020362020382020312020302020202020200A2020342020362020312020302020202020200A2020392031302020312020302020202020200A2031302031312020322020302020202020200A2031312031322020312020302020202020200A2031322031332020322020302020202020200A2031332031342020312020302020202020200A2020392031342020322020302020202020200A2020332020392020312020302020202020200A2031352031362020312020302020202020200A2031362031372020322020302020202020200A2031372031382020312020302020202020200A2031382031392020322020302020202020200A2031392032302020312020302020202020200A2031352032302020322020302020202020200A2020322031352020312020302020202020200A2020382032312020312020302020202020200A4D2020454E44
Contributor: KANEMASA S, INST. OF ADVANCED MATERIAL STUDY KYUSHU UNIV.
InstType: EI
InstName: JEOL JMS-01-SG-2
IoniMethod: _ENERGY 75 eV
IonPolarity: pos
Date: 2010-10-09 19:48:36+02:00
Num Peaks: 34
38 27 51 45 63 22 65 22 77 139 78 31 89 40 90 45 91 116 102 19 
103 57 104 105 105 62 115 85 116 51 117 999 118 113 131 36 133 78 144 38 
145 40 174 19 176 101 177 41 191 21 192 66 218 18 219 36 220 147 221 48 
279 156 280 49 295 80 296 20 
