Name: MassBank: JP012018
MW: 174
Formula: C8H22Si2
Synonym: MassBank: JP012018
Synonym: 1,2-BIS(TRIMETHYLSILYL)ETHANE
Structure: 312C322D424953285452494D455448594C53494C594C29455448414E452E6D6F6C0A20204368656D447261773131303330393232323332440A2031302020392020302020302020302020302020302020302020302020303939392056323030300A20202020302E333537322020202D302E3230363320202020302E303030302043202020302020302020302020302020302020302020302020302020302020302020302020300A2020202D302E3335373220202020302E3230363320202020302E303030302043202020302020302020302020302020302020302020302020302020302020302020302020300A2020202D312E303731372020202D302E3230363320202020302E303030302053692020302020302020302020302020302020302020302020302020302020302020302020300A2020202D312E3438343220202020302E3530383220202020302E303030302043202020302020302020302020302020302020302020302020302020302020302020302020300A2020202D302E363539322020202D302E3932303720202020302E303030302043202020302020302020302020302020302020302020302020302020302020302020302020300A2020202D312E373836322020202D302E3631383820202020302E303030302043202020302020302020302020302020302020302020302020302020302020302020302020300A20202020312E3037313720202020302E3230363320202020302E303030302053692020302020302020302020302020302020302020302020302020302020302020302020300A20202020302E3635393220202020302E3932303720202020302E303030302043202020302020302020302020302020302020302020302020302020302020302020302020300A20202020312E3738363220202020302E3631383820202020302E303030302043202020302020302020302020302020302020302020302020302020302020302020302020300A20202020312E343834322020202D302E3530383220202020302E303030302043202020302020302020302020302020302020302020302020302020302020302020302020300A2020312020322020312020302020202020200A2020332020342020312020312020202020200A2020332020352020312020312020202020200A2020332020362020312020302020202020200A2020322020332020312020302020202020200A2020372020382020312020312020202020200A2020372020392020312020302020202020200A2020372031302020312020312020202020200A2020312020372020312020302020202020200A4D2020454E44
Contributor: YAMAMOTO M, DEP. CHEMISTRY, FAC. SCIENCE, NARA WOMEN'S UNIV.
InstType: EI
InstName: HITACHI RMU-6M
IoniMethod: _ENERGY 70 eV
IonPolarity: pos
Date: 2010-10-09 19:48:36+02:00
Num Peaks: 25
28 19 29 36 31 26 43 80 44 38 45 149 55 19 57 20 58 107 59 92 
72 30 73 999 74 96 75 41 85 162 86 266 87 47 88 18 131 86 159 114 
160 41 161 18 174 110 175 21 176 10 
