Name: MassBank: JP010976
MW: 322
Formula: C18H26O5
Synonym: MassBank: JP010976
Synonym: CR-(4A-ALPHA,9A-BETA,1'-ALPHA,7'-ALPHA))-2,3,4A,9A-TETRAHYDRO-4A,9A-DIMETHOXYSPIRO(CYCLOHEPTA(1,4)DIOXINE-7,9'-8'-OXABICYCLO(5.2.0)NONANE)
Structure: 43522D2834412D414C5048412C39412D424554412C31272D414C5048412C37272D414C50484129292D322C332C34412C39412D5445545241485944524F2D34412C39412D44494D4554484F5859535049524F284359434C4F484550544128312C342944494F58494E452D372C39272D38272D4F584142494359434C4F28352E322E30294E4F4E414E45292E6D6F6C0A20204368656D447261773039313531303034343732440A2032352032382020302020302020302020302020302020302020302020303939392056323030300A2020202D322E3833303820202020302E3331363420202020302E303030302043202020302020302020302020302020302020302020302020302020302020302020302020300A2020202D322E383330382020202D302E3530383620202020302E303030302043202020302020302020302020302020302020302020302020302020302020302020302020300A2020202D322E313136342020202D302E3932313120202020302E30303030204F202020302020302020302020302020302020302020302020302020302020302020302020300A2020202D312E343031392020202D302E3530383620202020302E303030302043202020302020302020302020302020302020302020302020302020302020302020302020300A2020202D312E3430313920202020302E3331363420202020302E303030302043202020302020302020302020302020302020302020302020302020302020302020302020300A2020202D322E3131363420202020302E3732383920202020302E30303030204F202020302020302020302020302020302020302020302020302020302020302020302020300A2020202D302E373536392020202D312E3032323920202020302E303030302043202020302020302020302020302020302020302020302020302020302020302020302020300A20202020302E303437342020202D302E3833393420202020302E303030302043202020302020302020302020302020302020302020302020302020302020302020302020300A20202020302E343035342020202D302E3039363120202020302E303030302043202020302020302020302020302020302020302020302020302020302020302020302020300A20202020302E3034373420202020302E3634373220202020302E303030302043202020302020302020302020302020302020302020302020302020302020302020302020300A2020202D302E3735363920202020302E3833303820202020302E303030302043202020302020302020302020302020302020302020302020302020302020302020302020300A20202020302E393838372020202D302E3637393420202020302E30303030204F202020302020302020302020302020302020302020302020302020302020302020302020300A20202020312E353732312020202D302E3039363120202020302E303030302043202020302020302020302020302020302020302020302020302020302020302020302020300A20202020302E3938383720202020302E3438373320202020302E303030302043202020302020302020302020302020302020302020302020302020302020302020302020300A20202020322E333931392020202D302E3030333720202020302E303030302043202020302020302020302020302020302020302020302020302020302020302020302020300A20202020322E3833303820202020302E3639343920202020302E303030302043202020302020302020302020302020302020302020302020302020302020302020302020300A20202020322E3535383420202020312E3437333620202020302E303030302043202020302020302020302020302020302020302020302020302020302020302020302020300A20202020312E3737393720202020312E3734363120202020302E303030302043202020302020302020302020302020302020302020302020302020302020302020302020300A20202020312E3038313120202020312E3330373120202020302E303030302043202020302020302020302020302020302020302020302020302020302020302020302020300A2020202D312E343031392020202D312E3333333620202020302E30303030204F202020302020302020302020302020302020302020302020302020302020302020302020300A2020202D312E3430313920202020312E3134313420202020302E30303030204F202020302020302020302020302020302020302020302020302020302020302020302020300A20202020302E3234353420202020302E3834353320202020302E303030302048202020302020302020302020302020302020302020302020302020302020302020302020300A20202020312E393330312020202D302E3833393420202020302E303030302048202020302020302020302020302020302020302020302020302020302020302020302020300A2020202D322E3131363420202020312E3535333920202020302E303030302043202020302020302020302020302020302020302020302020302020302020302020302020300A2020202D302E363837342020202D312E3734363120202020302E303030302043202020302020302020302020302020302020302020302020302020302020302020302020300A2020312020322020312020302020202020200A2020322020332020312020302020202020200A2020332020342020312020302020202020200A2020342020352020312020302020202020200A2020352020362020312020302020202020200A2020362020312020312020302020202020200A2020342020372020312020302020202020200A2020372020382020322020302020202020200A2020382020392020312020302020202020200A2020392031302020312020302020202020200A2031302031312020322020302020202020200A2031312020352020312020302020202020200A2020392031322020312020302020202020200A2031322031332020312020302020202020200A2031332031342020312020302020202020200A2031342020392020312020302020202020200A2031332031352020312020302020202020200A2031352031362020312020302020202020200A2031362031372020312020302020202020200A2031372031382020312020302020202020200A2031382031392020312020302020202020200A2031392031342020312020302020202020200A2020342032302020312020312020202020200A2020352032312020312020362020202020200A2031342032322020312020362020202020200A2031332032332020312020362020202020200A2032312032342020312020302020202020200A2032302032352020312020302020202020200A4D2020454E44
Contributor: TAKESHITA H, INST. OF ADVANCED MATERIAL STUDY KYUSHU UNIV.
InstType: EI
InstName: JEOL JMS-01-SG-2
IoniMethod: _ENERGY 75 eV
IonPolarity: pos
Date: 2010-10-09 19:48:36+02:00
Num Peaks: 50
39 111 41 274 43 123 53 95 55 185 59 180 65 83 67 198 75 221 77 121 
79 105 81 142 91 133 95 214 103 999 109 78 111 90 113 109 121 117 123 104 
139 116 149 97 165 108 167 178 195 170 196 35 199 16 200 12 203 13 205 10 
211 21 212 14 215 15 218 14 219 17 220 24 226 33 227 277 228 31 231 21 
232 10 259 81 260 15 261 13 279 15 290 43 291 53 292 18 307 17 322 50 
