Name: MassBank: JP011829
MW: 293
Formula: C19H19NO2
Synonym: MassBank: JP011829
Synonym: (4R)-PERHYDRO-3-BENZYL-4-((E)-STYRYL)-1,3-OXAZIN-2-ONE
Structure: 283452292D504552485944524F2D332D42454E5A594C2D342D282845292D53545952594C292D312C332D4F58415A494E2D322D4F4E452E6D6F6C0A20204368656D447261773130323130393138323432440A2032352032372020302020302020302020302020302020302020302020303939392056323030300A2020202D322E3134333420202020322E3236383720202020302E303030302043202020302020302020302020302020302020302020302020302020302020302020302020300A2020202D322E3134333420202020312E3434333820202020302E303030302043202020302020302020302020302020302020302020302020302020302020302020302020300A2020202D312E3432383920202020312E3033313320202020302E303030302043202020302020302020302020302020302020302020302020302020302020302020302020300A2020202D302E3731343520202020312E3434333820202020302E30303030204E202020302020302020302020302020302020302020302020302020302020302020302020300A2020202D302E3731343520202020322E3236383720202020302E303030302043202020302020302020302020302020302020302020302020302020302020302020302020300A2020202D312E3432383920202020322E3638313220202020302E30303030204F202020302020302020302020302020302020302020302020302020302020302020302020300A2020202D312E3432383920202020302E3230363220202020302E303030302043202020302020302020302020302020302020302020302020302020302020302020302020300A20202020302E3030303020202020312E3033313320202020302E303030302043202020302020302020302020302020302020302020302020302020302020302020302020300A20202020302E3731343520202020312E3434333820202020302E303030302043202020302020302020302020302020302020302020302020302020302020302020302020300A20202020312E3432383920202020312E3033313320202020302E303030302043202020302020302020302020302020302020302020302020302020302020302020302020300A20202020322E3134333420202020312E3434333820202020302E303030302043202020302020302020302020302020302020302020302020302020302020302020302020300A20202020322E3134333420202020322E3236383720202020302E303030302043202020302020302020302020302020302020302020302020302020302020302020302020300A20202020312E3432383920202020322E3638313220202020302E303030302043202020302020302020302020302020302020302020302020302020302020302020302020300A20202020302E3731343520202020322E3236383720202020302E303030302043202020302020302020302020302020302020302020302020302020302020302020302020300A2020202D302E373134352020202D302E3230363220202020302E303030302043202020302020302020302020302020302020302020302020302020302020302020302020300A2020202D322E313433342020202D302E3230363220202020302E303030302048202020302020302020302020302020302020302020302020302020302020302020302020300A20202020302E3030303020202020302E3230363220202020302E303030302043202020302020302020302020302020302020302020302020302020302020302020302020300A2020202D302E373134352020202D312E3033313320202020302E303030302043202020302020302020302020302020302020302020302020302020302020302020302020300A2020202D312E343238392020202D312E3434333820202020302E303030302043202020302020302020302020302020302020302020302020302020302020302020302020300A2020202D312E343238392020202D322E3236383720202020302E303030302043202020302020302020302020302020302020302020302020302020302020302020302020300A2020202D302E373134352020202D322E3638313220202020302E303030302043202020302020302020302020302020302020302020302020302020302020302020302020300A20202020302E303030302020202D322E3236383720202020302E303030302043202020302020302020302020302020302020302020302020302020302020302020302020300A20202020302E303030302020202D312E3434333820202020302E303030302043202020302020302020302020302020302020302020302020302020302020302020302020300A2020202D302E3633323120202020302E3831373720202020302E303030302048202020302020302020302020302020302020302020302020302020302020302020302020300A20202020302E3030303020202020322E3638313220202020302E30303030204F202020302020302020302020302020302020302020302020302020302020302020302020300A2020312020322020312020302020202020200A2020322020332020312020302020202020200A2020332020342020312020302020202020200A2020342020352020312020302020202020200A2020352020362020312020302020202020200A2020362020312020312020302020202020200A2020332020372020312020312020202020200A2020342020382020312020302020202020200A2020382020392020312020302020202020200A2020392031302020322020302020202020200A2031302031312020312020302020202020200A2031312031322020322020302020202020200A2031322031332020312020302020202020200A2031332031342020322020302020202020200A2031342020392020312020302020202020200A2020372031352020322020302020202020200A2020372031362020312020302020202020200A2031352031372020312020302020202020200A2031352031382020312020302020202020200A2031382031392020322020302020202020200A2031392032302020312020302020202020200A2032302032312020322020302020202020200A2032312032322020312020302020202020200A2032322032332020322020302020202020200A2032332031382020312020302020202020200A2020332032342020312020362020202020200A2020352032352020322020302020202020200A4D2020454E44
Contributor: YOSHINORI Y, FAC. SCIENCE, TOHOKU UNIV.
InstType: EI
InstName: Unknown
IoniMethod: _ENERGY 20 eV
IonPolarity: pos
Date: 2010-10-09 19:48:36+02:00
Num Peaks: 6
143 152 144 999 145 101 202 35 293 367 294 209 
