Name: MassBank: JP011834
MW: 539
Formula: C32H53NO2Si2
Synonym: MassBank: JP011834
Synonym: (1S,2R,3S)-N-BENZYL-3-TERT-BUTYLDIMETHYLSILOXY-(E)-1-STYRYL-2-TRIETHYLSILOXYMETHYLBUTYLAMINE
Structure: 2831532C32522C3353292D4E2D42454E5A594C2D332D544552542D425554594C44494D455448594C53494C4F58592D2845292D312D53545952594C2D322D545249455448594C53494C4F58594D455448594C425554594C414D494E452E6D6F6C0A20204368656D447261773130313930393134333832440A2033392034302020302020302020302020302020302020302020302020303939392056323030300A2020202D312E383439392020202D322E3534313720202020302E303030302043202020302020302020302020302020302020302020302020302020302020302020302020300A2020202D312E383539352020202D332E3336363720202020302E303030302043202020302020302020302020302020302020302020302020302020302020302020302020300A2020202D312E313439392020202D332E3738373520202020302E303030302043202020302020302020302020302020302020302020302020302020302020302020302020300A2020202D302E343330372020202D332E3338333320202020302E303030302043202020302020302020302020302020302020302020302020302020302020302020302020300A2020202D302E343231312020202D322E3535383420202020302E303030302043202020302020302020302020302020302020302020302020302020302020302020302020300A2020202D312E313232392020202D322E3133373620202020302E303030302043202020302020302020302020302020302020302020302020302020302020302020302020300A2020202D312E313232392020202D312E3331323720202020302E303030302043202020302020302020302020302020302020302020302020302020302020302020302020300A2020202D302E343034342020202D302E3839373820202020302E303030302043202020302020302020302020302020302020302020302020302020302020302020302020300A2020202D312E383333332020202D302E3930323520202020302E303030302048202020302020302020302020302020302020302020302020302020302020302020302020300A20202020302E333135372020202D312E3331333620202020302E303030302048202020302020302020302020302020302020302020302020302020302020302020302020300A2020202D302E343034342020202D302E3037393320202020302E303030302043202020302020302020302020302020302020302020302020302020302020302020302020300A2020202D302E3430343420202020302E3734353620202020302E303030302043202020302020302020302020302020302020302020302020302020302020302020302020300A2020202D302E3239303520202020312E3536343520202020302E303030302043202020302020302020302020302020302020302020302020302020302020302020302020300A2020202D302E3139303020202020322E3338333320202020302E30303030204F202020302020302020302020302020302020302020302020302020302020302020302020300A20202020302E3536393520202020322E3730353720202020302E303030302053692020302020302020302020302020302020302020302020302020302020302020302020300A20202020312E3332383920202020332E3032383120202020302E303030302043202020302020302020302020302020302020302020302020302020302020302020302020300A20202020322E3038383320202020332E3335303420202020302E303030302043202020302020302020302020302020302020302020302020302020302020302020302020300A2020202D312E323230382020202D302E3037393320202020302E303030302048202020302020302020302020302020302020302020302020302020302020302020302020300A20202020302E343239312020202D302E3037393320202020302E30303030204E202020302020302020302020302020302020302020302020302020302020302020302020300A2020202D312E3231343920202020302E3730323520202020302E303030302043202020302020302020302020302020302020302020302020302020302020302020302020300A20202020302E3433323320202020302E3639323920202020302E303030302048202020302020302020302020302020302020302020302020302020302020302020302020300A2020202D312E3130393420202020312E3636353020202020302E303030302043202020302020302020302020302020302020302020302020302020302020302020302020300A20202020302E3532383320202020312E3436343020202020302E303030302048202020302020302020302020302020302020302020302020302020302020302020302020300A20202020312E3030363520202020332E3738373520202020302E303030302043202020302020302020302020302020302020302020302020302020302020302020302020300A20202020312E3635313220202020322E3236383620202020302E303030302043202020302020302020302020302020302020302020302020302020302020302020302020300A2020202D312E3636343220202020312E3339343420202020302E30303030204F202020302020302020302020302020302020302020302020302020302020302020302020300A2020202D322E3438383120202020312E3335313220202020302E303030302053692020302020302020302020302020302020302020302020302020302020302020302020300A20202020302E383433372020202D302E3739373420202020302E303030302043202020302020302020302020302020302020302020302020302020302020302020302020300A20202020312E363632352020202D302E3739373420202020302E303030302043202020302020302020302020302020302020302020302020302020302020302020302020300A20202020322E303734352020202D312E3532383920202020302E303030302043202020302020302020302020302020302020302020302020302020302020302020302020300A20202020322E383939352020202D312E3532393620202020302E303030302043202020302020302020302020302020302020302020302020302020302020302020302020300A20202020332E333132352020202D302E3831353420202020302E303030302043202020302020302020302020302020302020302020302020302020302020302020302020300A20202020322E393030352020202D302E3130303620202020302E303030302043202020302020302020302020302020302020302020302020302020302020302020302020300A20202020322E303735352020202D302E3130303020202020302E303030302043202020302020302020302020302020302020302020302020302020302020302020302020300A20202020302E3839313820202020312E3934363320202020302E303030302043202020302020302020302020302020302020302020302020302020302020302020302020300A2020202D322E3434353520202020302E3532373320202020302E303030302043202020302020302020302020302020302020302020302020302020302020302020302020300A2020202D322E3533313820202020322E3137353120202020302E303030302043202020302020302020302020302020302020302020302020302020302020302020302020300A2020202D332E3331323520202020312E3330383020202020302E303030302043202020302020302020302020302020302020302020302020302020302020302020302020300A20202020302E3234373120202020332E3436353120202020302E303030302043202020302020302020302020302020302020302020302020302020302020302020302020300A2020312020322020322020302020202020200A2020322020332020312020302020202020200A2020332020342020322020302020202020200A2020342020352020312020302020202020200A2020352020362020322020302020202020200A2020362020312020312020302020202020200A2020362020372020312020302020202020200A2020372020382020322020302020202020200A2020372020392020312020302020202020200A2020382031302020312020302020202020200A2020382031312020312020302020202020200A2031312031322020312020302020202020200A2031322031332020312020302020202020200A2031332031342020312020302020202020200A2031342031352020312020302020202020200A2031352031362020312020302020202020200A2031362031372020312020302020202020200A2031312031382020312020312020202020200A2031312031392020312020312020202020200A2031322032302020312020312020202020200A2031322032312020312020312020202020200A2031332032322020312020312020202020200A2031332032332020312020312020202020200A2031362032342020312020312020202020200A2031362032352020312020312020202020200A2032302032362020312020302020202020200A2032362032372020312020302020202020200A2031392032382020312020302020202020200A2032382032392020312020302020202020200A2032392033302020322020302020202020200A2033302033312020312020302020202020200A2033312033322020322020302020202020200A2033322033332020312020302020202020200A2033332033342020322020302020202020200A2033342032392020312020302020202020200A2031352033352020312020302020202020200A2032372033362020312020312020202020200A2032372033372020312020312020202020200A2032372033382020312020302020202020200A2031352033392020312020302020202020200A4D202053545920203120202031205355500A4D2020534C4220203120202031202020310A4D202053414C20202031202031202033350A4D202053424C20202031202031202033360A4D2020534D5420202031204D650A4D2020534256202020312033362020202D372E3330363720202020352E383135310A4D202053545920203120202032205355500A4D2020534C4220203120202032202020320A4D202053414C20202032202031202033360A4D202053424C20202032202031202033370A4D2020534D5420202032204D650A4D2020534256202020322033372020202D372E3538363420202020352E373530360A4D202053545920203120202033205355500A4D2020534C4220203120202033202020330A4D202053414C20202033202031202033370A4D202053424C20202033202031202033380A4D2020534D5420202033204D650A4D2020534256202020332033382020202D372E3637323720202020372E333938330A4D202053545920203120202034205355500A4D2020534C4220203120202034202020340A4D202053414C20202034202031202033380A4D202053424C20202034202031202033390A4D2020534D5420202034204D650A4D2020534256202020342033392020202D382E3435333420202020362E353331330A4D202053545920203120202035205355500A4D2020534C4220203120202035202020350A4D202053414C20202035202031202033390A4D202053424C20202035202031202034300A4D2020534D5420202035204D650A4D2020534256202020352034302020202D372E3935313420202020372E333333390A4D2020454E44
Contributor: YOSHINORI Y, FAC. SCIENCE, TOHOKU UNIV.
InstType: EI
InstName: Unknown
IoniMethod: _ENERGY 20 eV
IonPolarity: pos
Date: 2010-10-09 19:48:36+02:00
Num Peaks: 43
55 24 59 24 73 129 74 12 75 32 87 32 91 306 92 24 103 32 104 12 
105 12 106 47 115 47 116 18 117 24 120 12 128 12 129 12 130 12 132 24 
133 12 135 12 143 24 144 12 158 12 159 94 160 12 161 12 164 12 208 24 
220 12 221 12 222 999 223 200 224 24 248 21 250 12 287 34 288 11 380 18 
394 14 448 41 449 16 
