Name: BICYLO(4.3.1)NONAN-7-OL
MW: 140
Formula: C9H16O
Synonym: MassBank: JP011872
Synonym: BICYLO(4.3.1)NONAN-7-OL
Structure: 424943594C4F28342E332E31294E4F4E414E2D372D4F4C2E6D6F6C0A20204368656D447261773039303531303139313132440A2031302031312020302020302020302020302020302020302020302020303939392056323030300A2020202D302E3037393720202020302E3039393020202020302E303030302043202020302020302020302020302020302020302020302020302020302020302020302020300A2020202D302E303739372020202D302E3732363020202020302E303030302043202020302020302020302020302020302020302020302020302020302020302020302020300A20202020302E363334382020202D312E3133383520202020302E303030302043202020302020302020302020302020302020302020302020302020302020302020302020300A20202020312E333439322020202D302E3732363020202020302E303030302043202020302020302020302020302020302020302020302020302020302020302020302020300A20202020312E3334393220202020302E3039393020202020302E303030302043202020302020302020302020302020302020302020302020302020302020302020302020300A20202020302E3633343820202020302E3531313520202020302E303030302043202020302020302020302020302020302020302020302020302020302020302020302020300A2020202D302E3836343320202020302E3335333920202020302E303030302043202020302020302020302020302020302020302020302020302020302020302020302020300A2020202D312E333439322020202D302E3331333520202020302E303030302043202020302020302020302020302020302020302020302020302020302020302020302020300A2020202D302E383634332020202D302E3938313020202020302E303030302043202020302020302020302020302020302020302020302020302020302020302020302020300A2020202D312E3131393320202020312E3133383520202020302E30303030204F202020302020302020302020302020302020302020302020302020302020302020302020300A2020312020322020312020302020202020200A2020322020332020312020302020202020200A2020332020342020312020302020202020200A2020342020352020312020302020202020200A2020352020362020312020302020202020200A2020362020312020312020302020202020200A2020312020372020312020302020202020200A2020372020382020312020302020202020200A2020382020392020312020302020202020200A2020392020322020312020302020202020200A2020372031302020312020302020202020200A4D2020454E44
Contributor: YAMAMOTO M, DEP. CHEMISTRY, FAC. SCIENCE, NARA WOMEN'S UNIV.
InstType: EI
InstName: HITACHI RMU-6M
IoniMethod: _ENERGY 70 eV
IonPolarity: pos
Date: 2010-10-09 19:48:36+02:00
Num Peaks: 69
26 24 27 290 28 79 29 205 30 27 31 90 32 21 38 26 39 319 40 75 
41 544 42 69 43 88 44 88 45 32 50 24 51 61 52 44 53 187 54 346 
55 535 56 50 57 216 58 313 59 31 62 11 63 18 65 59 66 116 67 892 
68 386 69 81 70 58 71 30 72 18 73 11 74 11 77 104 78 43 79 278 
80 523 81 999 82 174 83 268 84 33 91 49 92 20 93 245 94 380 95 112 
96 681 97 178 98 32 99 14 105 13 107 96 108 18 109 51 11 16 111 61 
112 43 121 28 122 890 123 108 124 12 138 23 139 11 140 43 141 11 
