Name: MassBank: JP011711
MW: 422
Formula: C28H30Si2
Synonym: MassBank: JP011711
Synonym: 1-METHYL-2-MESITYL-1,1,2-TRIPHENYLDISILANE
Structure: 312D4D455448594C2D322D4D45534954594C2D312C312C322D5452495048454E594C444953494C414E452E6D6F6C0A20204368656D447261773131313930393136323932440A2033302033332020302020302020302020302020302020302020302020303939392056323030300A2020202D302E3036373320202020302E3237373420202020302E303030302053692020302020302020302020302020302020302020302020302020302020302020302020300A2020202D302E313630382020202D302E3739313020202020302E303030302053692020302020302020302020302020302020302020302020302020302020302020302020300A2020202D312E303339342020202D312E3430363220202020302E303030302043202020302020302020302020302020302020302020302020302020302020302020302020300A2020202D302E393637352020202D322E3232383120202020302E303030302043202020302020302020302020302020302020302020302020302020302020302020302020300A2020202D312E363433332020202D322E3730313320202020302E303030302043202020302020302020302020302020302020302020302020302020302020302020302020300A2020202D322E333931302020202D322E3335323620202020302E303030302043202020302020302020302020302020302020302020302020302020302020302020302020300A2020202D322E343632392020202D312E3533303720202020302E303030302043202020302020302020302020302020302020302020302020302020302020302020302020300A2020202D312E373837312020202D312E3035373520202020302E303030302043202020302020302020302020302020302020302020302020302020302020302020302020300A20202020302E3039393520202020312E3038353320202020302E303030302043202020302020302020302020302020302020302020302020302020302020302020302020300A2020202D302E3531363820202020312E3633333820202020302E303030302043202020302020302020302020302020302020302020302020302020302020302020302020300A2020202D302E3335303020202020322E3434313820202020302E303030302043202020302020302020302020302020302020302020302020302020302020302020302020300A20202020302E3433333120202020322E3730313320202020302E303030302043202020302020302020302020302020302020302020302020302020302020302020302020300A20202020312E3034393420202020322E3135323820202020302E303030302043202020302020302020302020302020302020302020302020302020302020302020302020300A20202020302E3838323620202020312E3334343820202020302E303030302043202020302020302020302020302020302020302020302020302020302020302020302020300A2020202D312E3130333320202020302E3535353020202020302E303030302043202020302020302020302020302020302020302020302020302020302020302020302020300A2020202D312E363836372020202D302E3032383420202020302E303030302043202020302020302020302020302020302020302020302020302020302020302020302020300A2020202D322E3438333520202020302E3138353120202020302E303030302043202020302020302020302020302020302020302020302020302020302020302020302020300A2020202D322E3639373120202020302E3938323020202020302E303030302043202020302020302020302020302020302020302020302020302020302020302020302020300A2020202D322E3131333720202020312E3536353420202020302E303030302043202020302020302020302020302020302020302020302020302020302020302020302020300A2020202D312E3331363820202020312E3335313920202020302E303030302043202020302020302020302020302020302020302020302020302020302020302020302020300A20202020302E353533372020202D312E3230333520202020302E303030302043202020302020302020302020302020302020302020302020302020302020302020302020300A20202020312E323638312020202D302E3739313020202020302E303030302043202020302020302020302020302020302020302020302020302020302020302020302020300A20202020312E3236383120202020302E3033343020202020302E303030302043202020302020302020302020302020302020302020302020302020302020302020302020300A20202020312E393832362020202D312E3230333520202020302E303030302043202020302020302020302020302020302020302020302020302020302020302020302020300A20202020312E393832362020202D322E3032383520202020302E303030302043202020302020302020302020302020302020302020302020302020302020302020302020300A20202020322E363937312020202D322E3434313020202020302E303030302043202020302020302020302020302020302020302020302020302020302020302020302020300A20202020312E323638312020202D322E3434313020202020302E303030302043202020302020302020302020302020302020302020302020302020302020302020302020300A20202020302E353533372020202D322E3032383520202020302E303030302043202020302020302020302020302020302020302020302020302020302020302020302020300A2020202D302E313630382020202D322E3434313020202020302E303030302043202020302020302020302020302020302020302020302020302020302020302020302020300A20202020302E3734393020202020302E3135373820202020302E303030302043202020302020302020302020302020302020302020302020302020302020302020302020300A2020312020322020312020302020202020200A2020332020342020312020302020202020200A2020342020352020322020302020202020200A2020352020362020312020302020202020200A2020362020372020322020302020202020200A2020372020382020312020302020202020200A2020332020382020322020302020202020200A2020322020332020312020302020202020200A2020392031302020312020302020202020200A2031302031312020322020302020202020200A2031312031322020312020302020202020200A2031322031332020322020302020202020200A2031332031342020312020302020202020200A2020392031342020322020302020202020200A2020312020392020312020302020202020200A2031352031362020312020302020202020200A2031362031372020322020302020202020200A2031372031382020312020302020202020200A2031382031392020322020302020202020200A2031392032302020312020302020202020200A2031352032302020322020302020202020200A2020312031352020312020302020202020200A2032312032322020312020302020202020200A2032322032332020312020302020202020200A2032322032342020322020302020202020200A2032342032352020312020302020202020200A2032352032362020312020302020202020200A2032352032372020322020302020202020200A2032372032382020312020302020202020200A2032382032392020312020302020202020200A2032312032382020322020302020202020200A2020322032312020312020302020202020200A2020312033302020312020302020202020200A4D2020454E44
Contributor: FAC. TECHNOLOGY, HIROSHIMA UNIV.
InstType: EI
InstName: SHIMADZU QP-1000
IoniMethod: _ENERGY 70 eV
IonPolarity: pos
Date: 2010-10-09 19:48:36+02:00
Num Peaks: 46
55 53 67 11 78 11 79 21 91 32 93 43 103 11 105 330 106 43 107 21 
119 106 120 32 121 21 131 21 133 21 145 43 146 117 147 32 165 32 178 11 
179 21 180 11 181 43 193 64 194 21 195 85 197 734 198 128 199 32 209 149 
210 32 221 11 222 11 223 128 224 96 225 106 226 11 239 128 240 21 301 999 
302 287 303 64 344 21 422 170 423 64 424 21 
