Name: 2-CHLOROPHENYLACETIC ACID
MW: 170
Formula: C8H7ClO2
Synonym: MassBank: JP011256
Synonym: 2-CHLOROPHENYLACETIC ACID
Structure: 322D43484C4F524F5048454E594C41434554494320414349442E6D6F6C0A20204368656D447261773031303331303131353732440A2031312031312020302020302020302020302020302020302020302020303939392056323030300A2020202D312E303331332020202D302E3731343520202020302E303030302043202020302020302020302020302020302020302020302020302020302020302020302020300A2020202D302E3631383820202020302E3030303020202020302E303030302043202020302020302020302020302020302020302020302020302020302020302020302020300A2020202D312E383536332020202D302E3731343520202020302E30303030204F202020302020302020302020302020302020302020302020302020302020302020302020300A2020202D302E363138382020202D312E3432383920202020302E30303030204F202020302020302020302020302020302020302020302020302020302020302020302020300A20202020302E3230363220202020302E3030303020202020302E303030302043202020302020302020302020302020302020302020302020302020302020302020302020300A20202020302E3631383820202020302E3731343520202020302E303030302043202020302020302020302020302020302020302020302020302020302020302020302020300A20202020312E3434333720202020302E3731343520202020302E303030302043202020302020302020302020302020302020302020302020302020302020302020302020300A20202020312E383536332020202D302E3030303020202020302E303030302043202020302020302020302020302020302020302020302020302020302020302020302020300A20202020312E343433382020202D302E3731343520202020302E303030302043202020302020302020302020302020302020302020302020302020302020302020302020300A20202020302E363138382020202D302E3731343520202020302E303030302043202020302020302020302020302020302020302020302020302020302020302020302020300A20202020302E3230363220202020312E3432383920202020302E3030303020436C2020302020302020302020302020302020302020302020302020302020302020302020300A2020312020322020312020302020202020200A2020312020332020322020302020202020200A2020312020342020312020302020202020200A2020352020362020312020302020202020200A2020362020372020322020302020202020200A2020372020382020312020302020202020200A2020382020392020322020302020202020200A2020392031302020312020302020202020200A2020352031302020322020302020202020200A2020322020352020312020302020202020200A2020362031312020312020302020202020200A4D2020454E44
Contributor: MASS SPECTROSCOPY SOC. OF JAPAN (MSSJ)
InstType: EI
InstName: SHIMADZU QP-1000EX
IoniMethod: _ENERGY 20 eV
IonPolarity: pos
Date: 2010-10-09 19:48:36+02:00
Num Peaks: 62
36 20 38 7 39 20 40 3 41 5 43 2 44 5 45 12 51 11 52 2 
53 3 55 1 57 2 60 1 63 27 64 8 65 33 66 2 69 3 73 9 
75 9 76 1 77 37 78 10 79 18 80 1 81 2 85 1 89 181 90 161 
91 566 92 45 93 2 97 1 99 54 100 3 101 17 105 2 106 4 107 28 
108 2 113 1 123 2 124 5 125 999 126 83 127 323 128 34 129 2 130 3 
134 8 135 713 136 65 137 6 141 1 152 3 153 1 170 432 171 39 172 144 
173 13 174 1 
