Name: MassBank: JP011733
MW: 390
Formula: C15H42Si6
Synonym: MassBank: JP011733
Synonym: 1,1,2,2-TETRAKIS(TRIMETHYLSILYL)-1,2-DISILACYCLOPENTANE
Structure: 312C312C322C322D54455452414B4953285452494D455448594C53494C594C292D312C322D444953494C414359434C4F50454E54414E452E6D6F6C0A20204368656D447261773130323330393031323332440A2032312032312020302020302020302020302020302020302020302020303939392056323030300A2020202D302E323138392020202D302E3030303120202020302E303030302053692020302020302020302020302020302020302020302020302020302020302020302020300A20202020302E343437382020202D302E3438333920202020302E303030302053692020302020302020302020302020302020302020302020302020302020302020302020300A20202020302E313934382020202D312E3236393920202020302E303030302043202020302020302020302020302020302020302020302020302020302020302020302020300A2020202D302E363330322020202D312E3236393920202020302E303030302043202020302020302020302020302020302020302020302020302020302020302020302020300A2020202D302E383835322020202D302E3438353220202020302E303030302043202020302020302020302020302020302020302020302020302020302020302020302020300A20202020312E333237342020202D312E3039393820202020302E303030302053692020302020302020302020302020302020302020302020302020302020302020302020300A20202020312E393131332020202D302E3438393820202020302E303030302043202020302020302020302020302020302020302020302020302020302020302020302020300A20202020312E393634392020202D312E3632303820202020302E303030302043202020302020302020302020302020302020302020302020302020302020302020302020300A20202020302E383635392020202D312E3735393020202020302E303030302043202020302020302020302020302020302020302020302020302020302020302020302020300A2020202D312E3235373620202020302E3831303020202020302E303030302053692020302020302020302020302020302020302020302020302020302020302020302020300A2020202D312E3733303820202020302E3133343220202020302E303030302043202020302020302020302020302020302020302020302020302020302020302020302020300A2020202D312E3936343920202020312E3234303020202020302E303030302043202020302020302020302020302020302020302020302020302020302020302020302020300A2020202D302E3735373220202020312E3735393020202020302E303030302043202020302020302020302020302020302020302020302020302020302020302020302020300A20202020302E3231373720202020302E3639393920202020302E303030302053692020302020302020302020302020302020302020302020302020302020302020302020300A20202020302E3533373220202020312E3732333720202020302E303030302043202020302020302020302020302020302020302020302020302020302020302020302020300A2020202D302E3439313920202020312E3132303620202020302E303030302043202020302020302020302020302020302020302020302020302020302020302020302020300A20202020302E3939333020202020302E3431373720202020302E303030302043202020302020302020302020302020302020302020302020302020302020302020302020300A20202020312E3037393820202020302E3034363420202020302E303030302053692020302020302020302020302020302020302020302020302020302020302020302020300A20202020312E3731313820202020302E3537363720202020302E303030302043202020302020302020302020302020302020302020302020302020302020302020302020300A20202020312E363130312020202D302E3538353620202020302E303030302043202020302020302020302020302020302020302020302020302020302020302020302020300A20202020302E3330343520202020302E3332383620202020302E303030302043202020302020302020302020302020302020302020302020302020302020302020302020300A2020312020322020312020302020202020200A2020322020332020312020302020202020200A2020332020342020312020302020202020200A2020342020352020312020302020202020200A2020312020352020312020302020202020200A2020362020372020312020302020202020200A2020362020382020312020302020202020200A2020362020392020312020302020202020200A2020322020362020312020362020202020200A2031302031312020312020302020202020200A2031302031322020312020302020202020200A2031302031332020312020302020202020200A2020312031302020312020312020202020200A2031342031352020312020302020202020200A2031342031362020312020302020202020200A2020312031342020312020362020202020200A2031342031372020312020302020202020200A2020322031382020312020312020202020200A2031382031392020312020302020202020200A2031382032302020312020302020202020200A2031382032312020312020302020202020200A4D2020454E44
Contributor: FAC. TECHNOLOGY, HIROSHIMA UNIV.
InstType: EI
InstName: SHIMADZU QP-1000
IoniMethod: _ENERGY 70 eV
IonPolarity: pos
Date: 2010-10-09 19:48:36+02:00
Num Peaks: 58
44 103 45 156 47 222 56 46 57 44 58 96 60 165 69 36 71 32 73 999 
74 88 75 46 83 34 85 57 97 35 99 93 101 63 111 36 113 84 115 89 
117 67 125 78 127 86 129 91 131 113 141 129 142 32 143 60 145 39 155 47 
157 104 159 57 169 67 171 95 173 45 175 44 183 40 185 101 187 38 199 73 
201 59 202 62 203 33 213 80 215 59 217 55 227 86 228 34 229 78 241 47 
243 32 244 99 245 68 301 30 317 91 318 31 319 21 390 40 
