Name: MassBank: JP011020
MW: 493
Formula: C15H12Br2O9
Synonym: MassBank: JP011020
Synonym: 3,4,5,6-TETRAACETOXY-2,7-DIBROMOTROPONE
Structure: 332C342C352C362D5445545241414345544F58592D322C372D444942524F4D4F54524F504F4E452E6D6F6C0A20204368656D447261773032323131303231333532440A2032362032362020302020302020302020302020302020302020302020303939392056323030300A2020202D322E3232333020202020302E3737303520202020302E30303030204F202020302020302020302020302020302020302020302020302020302020302020302020300A2020202D312E3437393820202020302E3431323520202020302E303030302043202020302020302020302020302020302020302020302020302020302020302020302020300A2020202D302E3833343720202020302E3932363920202020302E303030302043202020302020302020302020302020302020302020302020302020302020302020302020300A2020202D302E3033303420202020302E3734333320202020302E303030302043202020302020302020302020302020302020302020302020302020302020302020302020300A20202020302E333237352020202D302E3030303020202020302E303030302043202020302020302020302020302020302020302020302020302020302020302020302020300A2020202D302E303330342020202D302E3734333320202020302E303030302043202020302020302020302020302020302020302020302020302020302020302020302020300A2020202D302E383334372020202D302E3932363920202020302E303030302043202020302020302020302020302020302020302020302020302020302020302020302020300A2020202D312E343739382020202D302E3431323520202020302E303030302043202020302020302020302020302020302020302020302020302020302020302020302020300A2020202D312E3031383320202020312E3733313220202020302E303030302042722020302020302020302020302020302020302020302020302020302020302020302020300A2020202D322E323233302020202D302E3737303520202020302E303030302042722020302020302020302020302020302020302020302020302020302020302020302020300A20202020302E3438343020202020312E3338383320202020302E30303030204F202020302020302020302020302020302020302020302020302020302020302020302020300A20202020302E3138323520202020322E3135363320202020302E303030302043202020302020302020302020302020302020302020302020302020302020302020302020300A2020202D302E3633333220202020322E3237393220202020302E30303030204F202020302020302020302020302020302020302020302020302020302020302020302020300A20202020302E3639363920202020322E3830313320202020302E303030302043202020302020302020302020302020302020302020302020302020302020302020302020300A20202020312E313532352020202D302E3030303020202020302E30303030204F202020302020302020302020302020302020302020302020302020302020302020302020300A20202020312E353635302020202D302E3731343520202020302E303030302043202020302020302020302020302020302020302020302020302020302020302020302020300A20202020322E333930302020202D302E3731343520202020302E30303030204F202020302020302020302020302020302020302020302020302020302020302020302020300A20202020312E313532352020202D312E3432383920202020302E303030302043202020302020302020302020302020302020302020302020302020302020302020302020300A20202020302E343834302020202D312E3338383320202020302E30303030204F202020302020302020302020302020302020302020302020302020302020302020302020300A20202020302E313832352020202D322E3135363320202020302E303030302043202020302020302020302020302020302020302020302020302020302020302020302020300A20202020302E363936392020202D322E3830313320202020302E30303030204F202020302020302020302020302020302020302020302020302020302020302020302020300A2020202D302E363333322020202D322E3237393220202020302E303030302043202020302020302020302020302020302020302020302020302020302020302020302020300A2020202D312E303138332020202D312E3733313220202020302E30303030204F202020302020302020302020302020302020302020302020302020302020302020302020300A2020202D312E383036372020202D312E3937343420202020302E303030302043202020302020302020302020302020302020302020302020302020302020302020302020300A2020202D322E303230322020202D322E3737313320202020302E30303030204F202020302020302020302020302020302020302020302020302020302020302020302020300A2020202D322E333930302020202D312E3339313020202020302E303030302043202020302020302020302020302020302020302020302020302020302020302020302020300A2020312020322020322020302020202020200A2020322020332020312020302020202020200A2020332020342020322020302020202020200A2020342020352020312020302020202020200A2020352020362020322020302020202020200A2020362020372020312020302020202020200A2020372020382020322020302020202020200A2020322020382020312020302020202020200A2020332020392020312020302020202020200A2020382031302020312020302020202020200A2031322031332020322020302020202020200A2031322031342020312020302020202020200A2031312031322020312020302020202020200A2020342031312020312020302020202020200A2031362031372020322020302020202020200A2031362031382020312020302020202020200A2031352031362020312020302020202020200A2020352031352020312020302020202020200A2032302032312020322020302020202020200A2032302032322020312020302020202020200A2031392032302020312020302020202020200A2020362031392020312020302020202020200A2032342032352020322020302020202020200A2032342032362020312020302020202020200A2032332032342020312020302020202020200A2020372032332020312020302020202020200A4D2020454E44
Contributor: TAKESHITA H, INST. OF ADVANCED MATERIAL STUDY KYUSHU UNIV.
InstType: EI
InstName: JEOL JMS-01-SG-2
IoniMethod: _ENERGY 75 eV
IonPolarity: pos
Date: 2010-10-09 19:48:36+02:00
Num Peaks: 50
43 242 45 142 131 82 133 142 147 96 247 103 248 128 249 95 289 153 290 76 
291 185 292 108 298 140 300 247 302 122 326 999 327 75 329 139 330 949 331 94 
352 90 368 384 370 770 371 88 372 409 373 43 392 42 393 26 394 77 395 33 
396 59 397 19 410 261 411 74 412 626 413 116 414 269 415 68 437 20 452 98 
453 104 454 205 455 149 456 129 457 100 495 109 496 22 497 165 498 35 499 112 
