Name: MassBank: JP010947
MW: 200
Formula: C10H24Si2
Synonym: MassBank: JP010947
Synonym: (Z)-1,4-BISTRIMETHYLSILYL-2-BUTENE
Structure: 285A292D312C342D4249535452494D455448594C53494C594C2D322D425554454E452E6D6F6C0A20204368656D447261773130323230393139343332440A2031342031332020302020302020302020302020302020302020302020303939392056323030300A2020202D302E343132352020202D302E3431323520202020302E303030302043202020302020302020302020302020302020302020302020302020302020302020302020300A20202020302E343132352020202D302E3431323520202020302E303030302043202020302020302020302020302020302020302020302020302020302020302020302020300A20202020302E3832353020202020302E3330323020202020302E303030302043202020302020302020302020302020302020302020302020302020302020302020302020300A20202020302E383235302020202D312E3132373020202020302E303030302048202020302020302020302020302020302020302020302020302020302020302020302020300A2020202D302E383235302020202D312E3132373020202020302E303030302048202020302020302020302020302020302020302020302020302020302020302020302020300A2020202D302E3832353020202020302E3330323020202020302E303030302043202020302020302020302020302020302020302020302020302020302020302020302020300A20202020312E3635303020202020302E3330323020202020302E303030302053692020302020302020302020302020302020302020302020302020302020302020302020300A20202020322E3437353020202020302E3330323020202020302E303030302043202020302020302020302020302020302020302020302020302020302020302020302020300A2020202D312E3635303020202020302E3330323020202020302E303030302053692020302020302020302020302020302020302020302020302020302020302020302020300A2020202D322E3437353020202020302E3330323020202020302E303030302043202020302020302020302020302020302020302020302020302020302020302020302020300A2020202D312E3635303020202020312E3132373020202020302E303030302043202020302020302020302020302020302020302020302020302020302020302020302020300A2020202D312E363530302020202D302E3532333020202020302E303030302043202020302020302020302020302020302020302020302020302020302020302020302020300A20202020312E3635303020202020312E3132373020202020302E303030302043202020302020302020302020302020302020302020302020302020302020302020302020300A20202020312E363530302020202D302E3532333020202020302E303030302043202020302020302020302020302020302020302020302020302020302020302020302020300A2020312020322020322020302020202020200A2020322020332020312020302020202020200A2020322020342020312020302020202020200A2020312020352020312020302020202020200A2020312020362020312020302020202020200A2020332020372020312020302020202020200A2020372020382020312020302020202020200A2020362020392020312020302020202020200A2020392031302020312020302020202020200A2020392031312020312020312020202020200A2020392031322020312020312020202020200A2020372031332020312020312020202020200A2020372031342020312020312020202020200A4D2020454E44
Contributor: HISAHIRO HAGIWARA, INSTITUTE FOR CHEMICAL REACTION SCIENCE TOHOKU UNIV.
InstType: EI
InstName: JEOL JMS-DX-300
IoniMethod: _ENERGY 70 eV
IonPolarity: pos
Date: 2010-10-09 19:48:36+02:00
Num Peaks: 22
43 25 44 15 45 122 46 10 58 13 59 31 71 12 72 14 73 999 74 100 
75 39 85 10 95 14 97 287 98 33 99 12 112 348 113 47 114 15 200 111 
201 26 202 11 
