Name: 3-HYDROXY-2-ISOPROPENYL-3-PHENYLPROPYLTRIMETHYLSILANE
MW: 248
Formula: C15H24OSi
Synonym: MassBank: JP010367
Synonym: 3-HYDROXY-2-ISOPROPENYL-3-PHENYLPROPYLTRIMETHYLSILANE
Structure: 332D485944524F58592D322D49534F50524F50454E594C2D332D5048454E594C50524F50594C5452494D455448594C53494C414E452E6D6F6C0A20204368656D447261773032323231303138353232440A2031372031372020302020302020302020302020302020302020302020303939392056323030300A20202020302E3832353020202020312E3037313720202020302E303030302053692020302020302020302020302020302020302020302020302020302020302020302020300A20202020312E3233373520202020312E3738363220202020302E303030302043202020302020302020302020302020302020302020302020302020302020302020302020300A20202020312E3533393520202020302E3635393220202020302E303030302043202020302020302020302020302020302020302020302020302020302020302020302020300A20202020302E3131303520202020312E3438343220202020302E303030302043202020302020302020302020302020302020302020302020302020302020302020302020300A20202020302E3431323520202020302E3335373220202020302E303030302043202020302020302020302020302020302020302020302020302020302020302020302020300A20202020302E383235302020202D302E3335373220202020302E303030302043202020302020302020302020302020302020302020302020302020302020302020302020300A20202020302E343132352020202D312E3037313720202020302E303030302043202020302020302020302020302020302020302020302020302020302020302020302020300A2020202D302E343132352020202D312E3037313720202020302E303030302043202020302020302020302020302020302020302020302020302020302020302020302020300A2020202D302E383235302020202D312E3738363220202020302E303030302043202020302020302020302020302020302020302020302020302020302020302020302020300A2020202D312E363530302020202D312E3738363220202020302E303030302043202020302020302020302020302020302020302020302020302020302020302020302020300A2020202D322E303632352020202D312E3037313720202020302E303030302043202020302020302020302020302020302020302020302020302020302020302020302020300A2020202D312E363530302020202D302E3335373220202020302E303030302043202020302020302020302020302020302020302020302020302020302020302020302020300A2020202D302E383235302020202D302E3335373220202020302E303030302043202020302020302020302020302020302020302020302020302020302020302020302020300A20202020312E363530302020202D302E3335373220202020302E303030302043202020302020302020302020302020302020302020302020302020302020302020302020300A20202020322E303632352020202D312E3037313720202020302E303030302043202020302020302020302020302020302020302020302020302020302020302020302020300A20202020322E3036323520202020302E3335373220202020302E303030302043202020302020302020302020302020302020302020302020302020302020302020302020300A20202020302E383235302020202D312E3738363220202020302E30303030204F202020302020302020302020302020302020302020302020302020302020302020302020300A2020312020322020312020302020202020200A2020312020332020312020312020202020200A2020312020342020312020312020202020200A2020352020362020312020302020202020200A2020362020372020312020302020202020200A2020382020392020312020302020202020200A2020392031302020322020302020202020200A2031302031312020312020302020202020200A2031312031322020322020302020202020200A2031322031332020312020302020202020200A2020382031332020322020302020202020200A2020372020382020312020302020202020200A2031342031352020322020302020202020200A2031342031362020312020302020202020200A2020362031342020312020302020202020200A2020372031372020312020302020202020200A2020312020352020312020302020202020200A4D2020454E44
Contributor: HISAHIRO HAGIWARA, CHEMICAL RESEARCH INSTITUTE OF NON-AQUEOUSSOLUTIONS TOHOKU UNIV.
InstType: EI
InstName: JEOL JMS-DX-300
IoniMethod: _ENERGY 70 eV
IonPolarity: pos
Date: 2010-10-09 19:48:36+02:00
Num Peaks: 29
39 11 43 28 44 15 45 84 47 13 51 12 58 10 59 4 72 13 73 999 
74 112 75 18 76 13 77 49 79 63 85 11 91 12 99 11 105 14 107 153 
108 13 111 18 127 20 129 12 141 67 142 164 143 32 179 51 180 11 
