Name: 4-CHLOROBENZONITRILE
CAS: 623-03-0
MW: 137
Formula: C7H4ClN
Synonym: MassBank: JP011075
Synonym: 4-CHLOROBENZONITRILE
Structure: 310A32330A342D43484C4F524F42454E5A4F4E495452494C452E6D6F6C0A20204368656D447261773033323531303131303932440A2020392020392020302020302020302020302020302020302020302020303939392056323030300A2020202D312E3233373520202020302E3030303020202020302E303030302043202020302020302020302020302020302020302020302020302020302020302020302020300A2020202D302E3431323520202020302E3030303020202020302E303030302043202020302020302020302020302020302020302020302020302020302020302020302020300A20202020302E3030303020202020302E3731343520202020302E303030302043202020302020302020302020302020302020302020302020302020302020302020302020300A20202020302E3832353020202020302E3731343520202020302E303030302043202020302020302020302020302020302020302020302020302020302020302020302020300A20202020312E323337352020202D302E3030303020202020302E303030302043202020302020302020302020302020302020302020302020302020302020302020302020300A20202020302E383235302020202D302E3731343520202020302E303030302043202020302020302020302020302020302020302020302020302020302020302020302020300A20202020302E303030302020202D302E3731343520202020302E303030302043202020302020302020302020302020302020302020302020302020302020302020302020300A2020202D322E3036323520202020302E3030303020202020302E30303030204E202020302020302020302020302020302020302020302020302020302020302020302020300A20202020322E303632352020202D302E3030303020202020302E3030303020436C2020302020302020302020302020302020302020302020302020302020302020302020300A2020312020322020312020302020202020200A2020322020332020312020302020202020200A2020332020342020322020302020202020200A2020342020352020312020302020202020200A2020352020362020322020302020202020200A2020362020372020312020302020202020200A2020322020372020322020302020202020200A2020312020382020332020302020202020200A2020352020392020312020302020202020200A4D2020454E44
Contributor: YAMAMOTO M, DEP. CHEMISTRY, FAC. SCIENCE, NARA WOMEN'S UNIV.
InstType: EI
InstName: HITACHI M-80
IoniMethod: _ENERGY 70 eV
IonPolarity: pos
Date: 2010-10-09 19:48:36+02:00
Num Peaks: 39
18 30 26 17 27 19 28 31 35 10 36 12 37 50 38 39 39 19 49 37 
50 169 51 125 52 26 60 18 61 23 62 27 63 25 64 17 68 16 72 12 
73 46 74 77 75 195 76 108 77 10 84 12 85 13 86 15 99 28 100 33 
101 36 102 341 103 30 110 24 111 11 137 999 138 80 139 321 140 27 
