Name: VARELANONE
MW: 222
Formula: C15H26O
Synonym: MassBank: JP010694
Synonym: VARELANONE
Structure: 303032345F564152454C414E4F4E452E6D6F6C0A20204368656D447261773038313931303232343032440A2035392031382020302020302020302020302020302020302020302020303939392056323030300A20202031322E343137342020202D342E3933363220202020302E303030302043202020302020302020302020302020302020302020302020302020302020302020302020300A20202020312E313934362020202D352E3634353720202020302E303030302043202020302020302020302020302020302020302020302020302020302020302020302020300A20202D31302E3535373520202D31372E3331353420202020302E303030302043202020302020302020302020302020302020302020302020302020302020302020302020300A20202020382E3537393720202031302E3539373120202020302E303030302043202020302020302020302020302020302020302020302020302020302020302020302020300A20202020382E3934353520202D31332E3739363820202020302E303030302043202020302020302020302020302020302020302020302020302020302020302020302020300A20202020312E3832353720202D31322E3430323520202020302E303030302043202020302020302020302020302020302020302020302020302020302020302020302020300A20202020322E3136363720202020342E3538383420202020302E303030302043202020302020302020302020302020302020302020302020302020302020302020302020300A20202020322E3532383420202020342E3933303720202020302E303030302043202020302020302020302020302020302020302020302020302020302020302020302020300A20202D31302E3535373520202020342E3231313620202020302E303030302043202020302020302020302020302020302020302020302020302020302020302020302020300A2020202D332E3833393320202031372E3331353420202020302E303030302043202020302020302020302020302020302020302020302020302020302020302020302020300A2020202D332E3831373320202020342E3936353120202020302E303030302043202020302020302020302020302020302020302020302020302020302020302020302020300A20202020312E3739323720202031302E3539373120202020302E303030302043202020302020302020302020302020302020302020302020302020302020302020302020300A2020202D332E3833393320202031302E3537353120202020302E303030302043202020302020302020302020302020302020302020302020302020302020302020302020300A2020202D332E3831373320202020342E3936353120202020302E303030302043202020302020302020302020302020302020302020302020302020302020302020302020300A20202020312E3739323720202031302E3539373120202020302E303030302043202020302020302020302020302020302020302020302020302020302020302020302020300A2020202D332E3833393320202031302E3537353120202020302E303030302043202020302020302020302020302020302020302020302020302020302020302020302020300A2020202D332E3831373320202020342E3936353120202020302E303030302043202020302020302020302020302020302020302020302020302020302020302020302020300A20202020342E3936303720202020312E3736323720202020302E303030302043202020302020302020302020302020302020302020302020302020302020302020302020300A20202020312E383134372020202D382E3433353620202020302E303030302043202020302020302020302020302020302020302020302020302020302020302020302020300A20202D31312E3532313420202020342E3939313320202020302E303030302043202020302020302020302020302020302020302020302020302020302020302020302020300A20202020392E3234383020202031302E3539373120202020302E303030302043202020302020302020302020302020302020302020302020302020302020302020302020300A20202031322E343137342020202D342E3933363220202020302E303030302043202020302020302020302020302020302020302020302020302020302020302020302020300A20202020312E313934362020202D352E3634353720202020302E303030302043202020302020302020302020302020302020302020302020302020302020302020302020300A20202D31302E3535373520202D31372E3331353420202020302E303030302043202020302020302020302020302020302020302020302020302020302020302020302020300A20202020382E3537393720202031302E3539373120202020302E303030302043202020302020302020302020302020302020302020302020302020302020302020302020300A20202020382E3934353520202D31332E3739363820202020302E303030302043202020302020302020302020302020302020302020302020302020302020302020302020300A20202020312E3832353720202D31322E3430323520202020302E303030302043202020302020302020302020302020302020302020302020302020302020302020302020300A20202020322E3136363720202020342E3538383420202020302E303030302043202020302020302020302020302020302020302020302020302020302020302020302020300A20202020322E3532383420202020342E3933303720202020302E303030302043202020302020302020302020302020302020302020302020302020302020302020302020300A20202D31302E3535373520202020342E3231313620202020302E303030302043202020302020302020302020302020302020302020302020302020302020302020302020300A2020202D332E3833393320202031372E3331353420202020302E303030302043202020302020302020302020302020302020302020302020302020302020302020302020300A2020202D332E3831373320202020342E3936353120202020302E303030302043202020302020302020302020302020302020302020302020302020302020302020302020300A20202020312E3739323720202031302E3539373120202020302E303030302043202020302020302020302020302020302020302020302020302020302020302020302020300A2020202D332E3833393320202031302E3537353120202020302E303030302043202020302020302020302020302020302020302020302020302020302020302020302020300A2020202D332E3831373320202020342E3936353120202020302E303030302043202020302020302020302020302020302020302020302020302020302020302020302020300A20202020312E3739323720202031302E3539373120202020302E303030302043202020302020302020302020302020302020302020302020302020302020302020302020300A2020202D332E3833393320202031302E3537353120202020302E303030302043202020302020302020302020302020302020302020302020302020302020302020302020300A2020202D332E3831373320202020342E3936353120202020302E303030302043202020302020302020302020302020302020302020302020302020302020302020302020300A20202020342E3936303720202020312E3736323720202020302E303030302043202020302020302020302020302020302020302020302020302020302020302020302020300A20202020312E383134372020202D382E3433353620202020302E303030302043202020302020302020302020302020302020302020302020302020302020302020302020300A20202D31312E3532313420202020342E3939313320202020302E303030302043202020302020302020302020302020302020302020302020302020302020302020302020300A20202020392E3234383020202031302E3539373120202020302E303030302043202020302020302020302020302020302020302020302020302020302020302020302020300A20202D31322E3431373420202031362E3239353120202020302E303030302043202020302020302020302020302020302020302020302020302020302020302020302020300A20202D31322E3431373420202031352E3437303120202020302E303030302043202020302020302020302020302020302020302020302020302020302020302020302020300A20202D31312E3730323920202031352E3035373620202020302E303030302043202020302020302020302020302020302020302020302020302020302020302020302020300A20202D31302E3938383420202031352E3437303120202020302E303030302043202020302020302020302020302020302020302020302020302020302020302020302020300A20202D31302E3938383420202031362E3239353120202020302E303030302043202020302020302020302020302020302020302020302020302020302020302020302020300A20202D31312E3730323920202031362E3730373620202020302E303030302043202020302020302020302020302020302020302020302020302020302020302020302020300A20202D31302E3237333920202031352E3035373620202020302E303030302043202020302020302020302020302020302020302020302020302020302020302020302020300A2020202D392E3535393520202031352E3437303120202020302E303030302043202020302020302020302020302020302020302020302020302020302020302020302020300A2020202D392E3535393520202031362E3239353120202020302E303030302043202020302020302020302020302020302020302020302020302020302020302020302020300A20202D31302E3237333920202031362E3730373620202020302E303030302043202020302020302020302020302020302020302020302020302020302020302020302020300A20202D31312E3730323920202031342E3233323620202020302E30303030204F202020302020302020302020302020302020302020302020302020302020302020302020300A20202D31302E3938383420202031372E3132303120202020302E303030302043202020302020302020302020302020302020302020302020302020302020302020302020300A20202D31302E3938383420202031342E3634353120202020302E303030302043202020302020302020302020302020302020302020302020302020302020302020302020300A2020202D392E3334363020202031342E3637333220202020302E303030302048202020302020302020302020302020302020302020302020302020302020302020302020300A2020202D382E3834353020202031352E3838323620202020302E303030302043202020302020302020302020302020302020302020302020302020302020302020302020300A2020202D382E3133303520202031352E3437303120202020302E303030302043202020302020302020302020302020302020302020302020302020302020302020302020300A2020202D382E3834353020202031362E3730373620202020302E303030302043202020302020302020302020302020302020302020302020302020302020302020302020300A2034332034342020312020302020202020200A2034342034352020312020302020202020200A2034352034362020312020302020202020200A2034362034372020312020302020202020200A2034372034382020312020302020202020200A2034382034332020312020302020202020200A2034362034392020312020302020202020200A2034392035302020312020302020202020200A2035302035312020312020302020202020200A2035312035322020312020302020202020200A2035322034372020312020302020202020200A2034352035332020322020302020202020200A2034372035342020312020362020202020200A2034362035352020312020362020202020200A2035302035362020312020362020202020200A2035302035372020312020312020202020200A2035372035382020312020302020202020200A2035372035392020312020302020202020200A4D2020454E44
Contributor: EGUCHI S, FAC. OF SCIENCE, HIROSHIMA UNIV.
InstType: EI
InstName: HITACHI RMU-6L
IoniMethod: _ENERGY 70 eV
IonPolarity: pos
Date: 2010-10-09 19:48:36+02:00
Num Peaks: 90
41 640 42 130 43 330 44 11 51 30 52 20 53 150 54 6 55 430 56 100 
57 180 58 5 59 30 65 70 66 50 67 38 68 160 69 520 70 80 71 7 
77 110 78 30 79 190 80 6 81 435 82 270 83 290 84 10 85 40 91 165 
92 40 93 20 94 120 95 550 96 155 97 17 98 999 99 80 105 135 106 7 
107 150 108 70 109 555 110 22 111 100 119 105 120 30 121 13 122 80 123 400 
124 100 125 83 126 120 127 20 131 20 133 6 134 20 135 95 136 50 137 8 
138 80 139 70 145 20 147 5 148 30 149 70 150 35 151 20 152 60 153 15 
159 20 161 21 162 40 163 20 164 20 165 3 166 45 177 40 178 20 179 20 
180 40 189 50 190 10 192 2 204 70 205 20 207 95 208 2 222 420 223 80 
