Name: MassBank: JP010149
MW: 259
Formula: C16H21NO2
Synonym: MassBank: JP010149
Synonym: 2-CYANOETHYL-6-HYDROXY-2,5,7,8-TETRAMETHYL-3,4-DIHYDRO-2H-1-BENZOPYRAN
Structure: 322D4359414E4F455448594C2D362D485944524F58592D322C352C372C382D54455452414D455448594C2D332C342D4449485944524F2D32482D312D42454E5A4F505952414E2E6D6F6C0A20204368656D447261773031303331303132303432440A2031392032302020302020302020302020302020302020302020302020303939392056323030300A20202020302E3730383520202020302E3431323520202020302E303030302043202020302020302020302020302020302020302020302020302020302020302020302020300A20202020302E373038352020202D302E3431323520202020302E303030302043202020302020302020302020302020302020302020302020302020302020302020302020300A2020202D302E303036302020202D302E3832353020202020302E303030302043202020302020302020302020302020302020302020302020302020302020302020302020300A2020202D302E373230342020202D302E3431323520202020302E303030302043202020302020302020302020302020302020302020302020302020302020302020302020300A2020202D302E3732303420202020302E3431323520202020302E303030302043202020302020302020302020302020302020302020302020302020302020302020302020300A2020202D302E3030353720202020302E3832343320202020302E30303030204F202020302020302020302020302020302020302020302020302020302020302020302020300A2020202D312E3433343920202020302E3832353020202020302E303030302043202020302020302020302020302020302020302020302020302020302020302020302020300A2020202D322E3134393420202020302E3431323520202020302E303030302043202020302020302020302020302020302020302020302020302020302020302020302020300A2020202D322E313439342020202D302E3431323520202020302E303030302043202020302020302020302020302020302020302020302020302020302020302020302020300A2020202D312E343334392020202D302E3832353020202020302E303030302043202020302020302020302020302020302020302020302020302020302020302020302020300A2020202D312E3433343920202020312E3635303020202020302E303030302043202020302020302020302020302020302020302020302020302020302020302020302020300A2020202D322E3836333920202020302E3832353020202020302E303030302043202020302020302020302020302020302020302020302020302020302020302020302020300A2020202D312E343334392020202D312E3635303020202020302E303030302043202020302020302020302020302020302020302020302020302020302020302020302020300A20202020312E3532313020202020302E3236393420202020302E303030302043202020302020302020302020302020302020302020302020302020302020302020302020300A2020202D322E383633392020202D302E3832353020202020302E30303030204F202020302020302020302020302020302020302020302020302020302020302020302020300A20202020302E3939303420202020312E3138373920202020302E303030302043202020302020302020302020302020302020302020302020302020302020302020302020300A20202020312E3830323820202020312E3333313420202020302E303030302043202020302020302020302020302020302020302020302020302020302020302020302020300A20202020322E3333333320202020302E3639393620202020302E303030302043202020302020302020302020302020302020302020302020302020302020302020302020300A20202020322E3836333920202020302E3036373820202020302E30303030204E202020302020302020302020302020302020302020302020302020302020302020302020300A2020312020322020312020302020202020200A2020322020332020312020302020202020200A2020332020342020312020302020202020200A2020342020352020312020302020202020200A2020352020362020312020302020202020200A2020312020362020312020302020202020200A2020372020382020312020302020202020200A2020382020392020322020302020202020200A2020392031302020312020302020202020200A2020342031302020322020302020202020200A2020352020372020322020302020202020200A2020372031312020312020302020202020200A2020382031322020312020302020202020200A2031302031332020312020302020202020200A2020312031342020312020302020202020200A2020392031352020312020302020202020200A2031362031372020312020302020202020200A2031382031392020332020302020202020200A2031372031382020312020302020202020200A2020312031362020312020302020202020200A4D2020454E44
Contributor: KURARAY CO., LTD.
InstType: EI
InstName: JEOL JMS-D-300
IoniMethod: _ENERGY 70 eV
IonPolarity: pos
Date: 2010-10-09 19:48:36+02:00
Num Peaks: 34
27 20 28 10 29 10 39 3 41 40 43 60 51 10 53 6 54 10 55 100 
65 20 67 3 77 40 79 20 91 60 93 1 105 20 107 20 121 90 122 2 
135 30 136 80 137 20 163 1 164 480 165 999 166 110 177 4 189 20 203 20 
205 20 258 1 259 400 260 70 
