Name: BENZYL 3-ETHYL-4-METHYL-PYRROLE-2-CARBOXYLATE
MW: 243
Formula: C15H17NO2
Synonym: MassBank: JP011483
Synonym: BENZYL 3-ETHYL-4-METHYL-PYRROLE-2-CARBOXYLATE
Structure: 42454E5A594C20332D455448594C2D342D4D455448594C2D505952524F4C452D322D434152424F58594C4154452E6D6F6C0A20204368656D447261773039303331303136303232440A2031382031392020302020302020302020302020302020302020302020303939392056323030300A20202020312E313636362020202D302E3837393820202020302E30303030204E202020302020302020302020302020302020302020302020302020302020302020302020300A20202020312E303830332020202D302E3035393320202020302E303030302043202020302020302020302020302020302020302020302020302020302020302020302020300A20202020312E3833343020202020302E3237363320202020302E303030302043202020302020302020302020302020302020302020302020302020302020302020302020300A20202020322E333836302020202D302E3333363820202020302E303030302043202020302020302020302020302020302020302020302020302020302020302020302020300A20202020312E393733352020202D312E3035313320202020302E303030302043202020302020302020302020302020302020302020302020302020302020302020302020300A20202020302E3336353820202020302E3335333220202020302E303030302043202020302020302020302020302020302020302020302020302020302020302020302020300A20202020302E3336353820202020312E3137383220202020302E30303030204F202020302020302020302020302020302020302020302020302020302020302020302020300A2020202D302E333438362020202D302E3035393320202020302E30303030204F202020302020302020302020302020302020302020302020302020302020302020302020300A20202020332E323036352020202D302E3235303620202020302E303030302043202020302020302020302020302020302020302020302020302020302020302020302020300A20202020322E3030353520202020312E3038333320202020302E303030302043202020302020302020302020302020302020302020302020302020302020302020302020300A20202020322E3830323420202020312E3239363820202020302E303030302043202020302020302020302020302020302020302020302020302020302020302020302020300A2020202D312E3036333120202020302E3335333220202020302E303030302043202020302020302020302020302020302020302020302020302020302020302020302020300A2020202D312E373737362020202D302E3035393320202020302E303030302043202020302020302020302020302020302020302020302020302020302020302020302020300A2020202D312E373737362020202D302E3838343320202020302E303030302043202020302020302020302020302020302020302020302020302020302020302020302020300A2020202D322E343932302020202D312E3239363820202020302E303030302043202020302020302020302020302020302020302020302020302020302020302020302020300A2020202D332E323036352020202D302E3838343320202020302E303030302043202020302020302020302020302020302020302020302020302020302020302020302020300A2020202D332E323036352020202D302E3035393320202020302E303030302043202020302020302020302020302020302020302020302020302020302020302020302020300A2020202D322E3439323020202020302E3335333220202020302E303030302043202020302020302020302020302020302020302020302020302020302020302020302020300A2020312020322020312020302020202020200A2020322020332020322020302020202020200A2020332020342020312020302020202020200A2020342020352020322020302020202020200A2020312020352020312020302020202020200A2020362020372020322020302020202020200A2020362020382020312020302020202020200A2020322020362020312020302020202020200A2020342020392020312020302020202020200A2031302031312020312020302020202020200A2020332031302020312020302020202020200A2031322031332020312020302020202020200A2031332031342020312020302020202020200A2031342031352020322020302020202020200A2031352031362020312020302020202020200A2031362031372020322020302020202020200A2031372031382020312020302020202020200A2031332031382020322020302020202020200A2020382031322020312020302020202020200A4D2020454E44
Contributor: FUJISE Y, HAMAMATSU UNIV. SCHOOL OF MEDICINE
InstType: EI
InstName: JEOL JMS-DX-300
IoniMethod: _ENERGY 70 eV
IonPolarity: pos
Date: 2010-10-09 19:48:36+02:00
Num Peaks: 62
37 14 38 60 39 550 40 96 41 284 42 56 43 21 44 11 50 99 51 327 
52 221 53 284 54 46 55 32 62 36 63 159 64 76 65 666 66 233 67 108 
68 36 69 12 74 12 75 19 76 27 77 393 78 151 79 308 80 128 81 61 
82 15 89 112 90 90 91 999 92 245 93 377 94 86 96 13 104 44 105 73 
106 224 107 165 108 130 109 83 119 12 120 67 121 14 122 18 133 17 134 233 
135 39 136 236 137 30 138 21 152 324 153 37 168 11 184 26 198 19 228 18 
243 178 244 31 
