Name: 1-METHYLSILACYCLOPENTANE
MW: 100
Formula: C5H12Si
Synonym: MassBank: JP011582
Synonym: 1-METHYLSILACYCLOPENTANE
Structure: 310A31370A312D4D455448594C53494C414359434C4F50454E54414E452E6D6F6C0A20204368656D447261773131323130393138343132440A2020362020362020302020302020302020302020302020302020302020303939392056323030300A2020202D302E3030303020202020302E3232323320202020302E303030302053692020302020302020302020302020302020302020302020302020302020302020302020300A20202020302E363637342020202D302E3236323720202020302E303030302043202020302020302020302020302020302020302020302020302020302020302020302020300A20202020302E343132352020202D312E3034373320202020302E303030302043202020302020302020302020302020302020302020302020302020302020302020302020300A2020202D302E343132352020202D312E3034373320202020302E303030302043202020302020302020302020302020302020302020302020302020302020302020302020300A2020202D302E363637342020202D302E3236323720202020302E303030302043202020302020302020302020302020302020302020302020302020302020302020302020300A2020202D302E3030303020202020312E3034373320202020302E303030302043202020302020302020302020302020302020302020302020302020302020302020302020300A2020312020322020312020302020202020200A2020322020332020312020302020202020200A2020332020342020312020302020202020200A2020342020352020312020302020202020200A2020312020352020312020302020202020200A2020312020362020312020302020202020200A4D2020454E44
Contributor: YAMAMOTO M, DEP. CHEMISTRY, FAC. SCIENCE, NARA WOMEN'S UNIV.
InstType: EI
InstName: HITACHI RMU-6M
IoniMethod: _ENERGY 70 eV
IonPolarity: pos
Date: 2010-10-09 19:48:36+02:00
Num Peaks: 34
27 40 28 44 29 56 31 23 39 25 41 13 42 47 43 236 44 246 45 139 
46 16 53 33 54 13 55 52 56 31 57 88 58 81 59 60 67 11 69 13 
70 52 71 102 72 999 73 102 74 44 83 26 84 13 85 97 86 11 97 14 
99 36 100 182 101 22 102 8 
