Name: N-((TRIMETHYLSILYL)METHYL)BIS(METHYLTHIO)IMINE
MW: 207
Formula: C7H17NS2Si
Synonym: MassBank: JP010258
Synonym: N-((TRIMETHYLSILYL)METHYL)BIS(METHYLTHIO)IMINE
Structure: 303835335F4E2D28285452494D455448594C53494C594C294D455448594C29424953284D455448594C5448494F29494D494E452E6D6F6C0A20204368656D447261773130323031303138313832440A2031312031302020302020302020302020302020302020302020302020303939392056323030300A2020202D302E373134352020202D302E3035353320202020302E303030302043202020302020302020302020302020302020302020302020302020302020302020302020300A20202020302E303030332020202D302E3436373820202020302E30303030204E202020302020302020302020302020302020302020302020302020302020302020302020300A20202020302E373134352020202D302E3035353320202020302E303030302043202020302020302020302020302020302020302020302020302020302020302020302020300A20202020312E343239362020202D302E3436373820202020302E303030302053202020302020302020302020302020302020302020302020302020302020302020302020300A20202020322E313433342020202D302E3035353320202020302E303030302043202020302020302020302020302020302020302020302020302020302020302020302020300A20202020302E3731353620202020302E3736393720202020302E303030302053202020302020302020302020302020302020302020302020302020302020302020302020300A20202020302E3030303020202020312E3138323220202020302E303030302043202020302020302020302020302020302020302020302020302020302020302020302020300A2020202D312E343238392020202D302E3436373820202020302E303030302053692020302020302020302020302020302020302020302020302020302020302020302020300A2020202D312E303136342020202D312E3138323220202020302E303030302043202020302020302020302020302020302020302020302020302020302020302020302020300A2020202D322E313433342020202D302E3838303320202020302E303030302043202020302020302020302020302020302020302020302020302020302020302020302020300A2020202D312E3834313420202020302E3234363720202020302E303030302043202020302020302020302020302020302020302020302020302020302020302020302020300A2020382020312020312020302020202020200A2020312020322020312020302020202020200A2020322020332020322020302020202020200A2020332020342020312020302020202020200A2020342020352020312020302020202020200A2020332020362020312020302020202020200A2020362020372020312020302020202020200A2020382020392020312020302020202020200A2020382031302020312020302020202020200A2020382031312020312020302020202020200A4D2020454E44
Contributor: KANEMASA S, INST. OF ADVANCED MATERIAL STUDY KYUSHU UNIV.
InstType: EI
InstName: JEOL JMS-01-SG-2
IoniMethod: _ENERGY 75 eV
IonPolarity: pos
Date: 2010-10-09 19:48:36+02:00
Num Peaks: 53
39 77 41 54 42 107 43 636 44 185 45 626 46 155 47 182 50 57 51 72 
53 52 55 61 57 60 58 78 59 481 60 61 61 332 72 428 73 999 74 108 
75 142 77 59 84 54 86 53 87 679 88 150 91 387 93 62 102 186 105 63 
106 14 107 16 109 34 110 31 116 43 119 65 123 30 134 14 135 38 145 32 
147 124 148 25 160 161 161 30 162 20 178 118 179 14 180 14 192 105 193 44 
194 24 207 78 208 13 
