Name: MassBank: JP010515
CAS: 1562-94-3
MW: 258
Formula: C14H14N2O3
Synonym: MassBank: JP010515
Synonym: 4,4'-AZOXYANISOL
Synonym: 4,4'-AZOXYDIANISOL
Structure: 342C34272D415A4F5859414E49534F4C2E6D6F6C0A20204368656D447261773130313831303137313732440A2031392032302020302020302020302020302020302020302020302020303939392056323030300A20202020302E3431323520202020312E3037313720202020302E30303030204E202020302020332020302020302020302020302020302020302020302020302020302020300A20202020302E3832353020202020312E3738363220202020302E30303030204F202020302020352020302020302020302020302020302020302020302020302020302020300A2020202D302E3431323520202020312E3037313720202020302E30303030204E202020302020302020302020302020302020302020302020302020302020302020302020300A20202020322E383837352020202D312E3738363220202020302E303030302043202020302020302020302020302020302020302020302020302020302020302020302020300A20202020322E303632352020202D312E3738363220202020302E30303030204F202020302020302020302020302020302020302020302020302020302020302020302020300A20202020312E363530302020202D312E3037313720202020302E303030302043202020302020302020302020302020302020302020302020302020302020302020302020300A20202020302E383235302020202D312E3037313720202020302E303030302043202020302020302020302020302020302020302020302020302020302020302020302020300A20202020302E343132352020202D302E3335373220202020302E303030302043202020302020302020302020302020302020302020302020302020302020302020302020300A20202020302E3832353020202020302E3335373220202020302E303030302043202020302020302020302020302020302020302020302020302020302020302020302020300A20202020312E3635303020202020302E3335373220202020302E303030302043202020302020302020302020302020302020302020302020302020302020302020302020300A20202020322E303632352020202D302E3335373220202020302E303030302043202020302020302020302020302020302020302020302020302020302020302020302020300A2020202D322E383837352020202D312E3738363220202020302E303030302043202020302020302020302020302020302020302020302020302020302020302020302020300A2020202D322E303632352020202D312E3738363220202020302E30303030204F202020302020302020302020302020302020302020302020302020302020302020302020300A2020202D312E363530302020202D312E3037313720202020302E303030302043202020302020302020302020302020302020302020302020302020302020302020302020300A2020202D322E303632352020202D302E3335373220202020302E303030302043202020302020302020302020302020302020302020302020302020302020302020302020300A2020202D312E3635303020202020302E3335373220202020302E303030302043202020302020302020302020302020302020302020302020302020302020302020302020300A2020202D302E3832353020202020302E3335373220202020302E303030302043202020302020302020302020302020302020302020302020302020302020302020302020300A2020202D302E343132352020202D302E3335373220202020302E303030302043202020302020302020302020302020302020302020302020302020302020302020302020300A2020202D302E383235302020202D312E3037313720202020302E303030302043202020302020302020302020302020302020302020302020302020302020302020302020300A2020312020322020312020302020202020200A2020312020332020322020302020202020200A2020342020352020312020302020202020200A2020352020362020312020302020202020200A2020362020372020312020302020202020200A2020372020382020322020302020202020200A2020382020392020312020302020202020200A2020392031302020322020302020202020200A2031302031312020312020302020202020200A2020362031312020322020302020202020200A2020312020392020312020302020202020200A2031322031332020312020302020202020200A2031332031342020312020302020202020200A2031342031352020312020302020202020200A2031352031362020322020302020202020200A2031362031372020312020302020202020200A2031372031382020322020302020202020200A2031382031392020312020302020202020200A2031342031392020322020302020202020200A2020332031372020312020302020202020200A4D202043484720203220202031202020312020203220202D310A4D2020454E44
Contributor: NARA WOMEN'S UNIVERSITY
InstType: EI
InstName: HITACHI M-80
IoniMethod: _ENERGY 70 eV
IonPolarity: pos
Date: 2010-10-09 19:48:36+02:00
Num Peaks: 61
15 20 18 15 27 15 28 18 38 21 39 36 41 24 50 37 51 80 52 83 
53 26 55 22 62 17 63 114 64 205 65 44 66 56 67 17 75 13 76 36 
77 343 78 228 79 49 80 179 81 14 90 10 91 95 92 305 93 67 94 16 
95 81 106 282 107 634 108 70 120 42 121 783 122 171 123 45 128 11 129 12 
134 12 135 94 136 16 137 125 138 12 149 11 151 11 187 29 198 17 199 22 
201 17 215 58 227 12 229 11 230 15 242 44 243 17 257 26 258 999 259 178 
260 21 
