Name: MassBank: JP011344
MW: 126
Formula: C8H14O
Synonym: MassBank: JP011344
Synonym: 2,2,5-TRIMETHYLCYCLOPENTANONE
Structure: 310A32330A322C322C352D5452494D455448594C4359434C4F50454E54414E4F4E452E6D6F6C0A20204368656D447261773132323030393036323132440A2020392020392020302020302020302020302020302020302020302020303939392056323030300A20202020302E3234393220202020302E3238333520202020302E303030302043202020302020302020302020302020302020302020302020302020302020302020302020300A2020202D302E3537313320202020302E3139373220202020302E303030302043202020302020302020302020302020302020302020302020302020302020302020302020300A2020202D302E373432382020202D302E3630393720202020302E303030302043202020302020302020302020302020302020302020302020302020302020302020302020300A2020202D302E303238332020202D312E3032323220202020302E303030302043202020302020302020302020302020302020302020302020302020302020302020302020300A20202020302E353834382020202D302E3437303220202020302E303030302043202020302020302020302020302020302020302020302020302020302020302020302020300A20202020312E333931372020202D302E3634313720202020302E303030302043202020302020302020302020302020302020302020302020302020302020302020302020300A2020202D302E3537313320202020312E3032323220202020302E303030302043202020302020302020302020302020302020302020302020302020302020302020302020300A2020202D312E3339313720202020302E3238333520202020302E303030302043202020302020302020302020302020302020302020302020302020302020302020302020300A20202020302E3636313720202020302E3939373920202020302E30303030204F202020302020302020302020302020302020302020302020302020302020302020302020300A2020312020322020312020302020202020200A2020322020332020312020302020202020200A2020332020342020312020302020202020200A2020342020352020312020302020202020200A2020312020352020312020302020202020200A2020352020362020312020302020202020200A2020322020372020312020312020202020200A2020322020382020312020362020202020200A2020312020392020322020302020202020200A4D2020454E44
Contributor: YAMAMOTO M, DEP. CHEMISTRY, FAC. SCIENCE, NARA WOMEN'S UNIV.
InstType: EI
InstName: HITACHI RMU-6M
IoniMethod: _ENERGY 70 eV
IonPolarity: pos
Date: 2010-10-09 19:48:36+02:00
Num Peaks: 24
27 120 28 107 29 82 39 149 40 51 41 320 42 81 43 45 55 149 56 999 
57 168 68 36 69 136 70 78 71 50 72 35 82 31 83 47 84 35 93 51 
108 45 111 67 126 177 127 28 
