Name: MassBank: JP010932
MW: 156
Formula: C9H16O2
Synonym: MassBank: JP010932
Synonym: 3-HYDROXY-4-HYDROXYMETHYL-3,5-DIMETHYL-1,5-HEXADIENE
Structure: 332D485944524F58592D342D485944524F58594D455448594C2D332C352D44494D455448594C2D312C352D484558414449454E452E6D6F6C0A20204368656D447261773032323231303231323132440A2031312031302020302020302020302020302020302020302020302020303939392056323030300A2020202D302E3431323520202020302E3330323020202020302E303030302043202020302020302020302020302020302020302020302020302020302020302020302020300A2020202D302E3431323520202020312E3132373020202020302E303030302043202020302020302020302020302020302020302020302020302020302020302020302020300A20202020302E3431323520202020302E3330323020202020302E303030302043202020302020302020302020302020302020302020302020302020302020302020302020300A2020202D302E343132352020202D302E3532333020202020302E30303030204F202020302020302020302020302020302020302020302020302020302020302020302020300A2020202D312E3233373520202020302E3330323020202020302E303030302043202020302020302020302020302020302020302020302020302020302020302020302020300A20202020302E3832353020202020312E3031363420202020302E303030302043202020302020302020302020302020302020302020302020302020302020302020302020300A20202020302E383235302020202D302E3431323520202020302E303030302043202020302020302020302020302020302020302020302020302020302020302020302020300A20202020312E363530302020202D302E3431323520202020302E303030302043202020302020302020302020302020302020302020302020302020302020302020302020300A20202020302E343132352020202D312E3132373020202020302E303030302043202020302020302020302020302020302020302020302020302020302020302020302020300A2020202D312E3635303020202020312E3031363420202020302E303030302043202020302020302020302020302020302020302020302020302020302020302020302020300A20202020312E3635303020202020312E3031363420202020302E30303030204F202020302020302020302020302020302020302020302020302020302020302020302020300A2020312020322020312020302020202020200A2020312020332020312020302020202020200A2020312020342020312020302020202020200A2020312020352020312020302020202020200A2020332020362020312020302020202020200A2020332020372020312020302020202020200A2020372020382020312020302020202020200A2020372020392020322020302020202020200A2020352031302020322020302020202020200A2020362031312020312020302020202020200A4D2020454E44
Contributor: KURARAY CO., LTD.
InstType: EI
InstName: JEOL JMS-D-300
IoniMethod: _ENERGY 70 eV
IonPolarity: pos
Date: 2010-10-09 19:48:36+02:00
Num Peaks: 43
27 51 28 16 29 31 31 17 39 59 40 22 41 111 42 19 43 240 53 91 
55 92 67 220 68 999 69 134 70 17 71 859 72 45 77 19 79 10 83 18 
85 26 91 25 93 24 95 58 102 1 103 3 105 12 106 3 107 15 108 8 
109 8 110 1 111 5 119 3 120 4 121 3 123 21 124 3 125 5 127 1 
129 1 133 1 137 6 
