Name: DICUMAROL
CAS: 66-76-2
MW: 336
Formula: C19H12O6
Synonym: MassBank: JP011905
Synonym: DICUMAROL
Synonym: 3,3'-METHYLENEBIS(4-HYDROXYCOUMARIN)
Structure: 444943554D41524F4C2E6D6F6C0A20204368656D447261773032323131303139343532440A2032352032382020302020302020302020302020302020302020302020303939392056323030300A2020202D332E3633313820202020302E3537313220202020302E303030302043202020302020302020302020302020302020302020302020302020302020302020302020300A2020202D332E363331382020202D302E3235333820202020302E303030302043202020302020302020302020302020302020302020302020302020302020302020302020300A2020202D322E393137332020202D302E3636363320202020302E303030302043202020302020302020302020302020302020302020302020302020302020302020302020300A2020202D322E323032382020202D302E3235333820202020302E303030302043202020302020302020302020302020302020302020302020302020302020302020302020300A2020202D322E3230323820202020302E3537313220202020302E303030302043202020302020302020302020302020302020302020302020302020302020302020302020300A2020202D322E3931373320202020302E3938333720202020302E303030302043202020302020302020302020302020302020302020302020302020302020302020302020300A2020202D312E343838332020202D302E3636363320202020302E303030302043202020302020302020302020302020302020302020302020302020302020302020302020300A2020202D302E373733392020202D302E3235333820202020302E303030302043202020302020302020302020302020302020302020302020302020302020302020302020300A2020202D302E3737333920202020302E3537313220202020302E303030302043202020302020302020302020302020302020302020302020302020302020302020302020300A2020202D312E3438383320202020302E3938333720202020302E30303030204F202020302020302020302020302020302020302020302020302020302020302020302020300A2020202D302E3035393420202020302E3938333720202020302E30303030204F202020302020302020302020302020302020302020302020302020302020302020302020300A20202020302E313534392020202D302E3739303120202020302E303030302043202020302020302020302020302020302020302020302020302020302020302020302020300A2020202D312E343838332020202D312E3439313320202020302E30303030204F202020302020302020302020302020302020302020302020302020302020302020302020300A20202020312E313632382020202D302E3432333220202020302E303030302043202020302020302020302020302020302020302020302020302020302020302020302020300A20202020312E373934372020202D302E3935333520202020302E303030302043202020302020302020302020302020302020302020302020302020302020302020302020300A20202020322E353730302020202D302E3637313420202020302E30303030204F202020302020302020302020302020302020302020302020302020302020302020302020300A20202020322E3731333320202020302E3134313120202020302E303030302043202020302020302020302020302020302020302020302020302020302020302020302020300A20202020322E3038313320202020302E3637313420202020302E303030302043202020302020302020302020302020302020302020302020302020302020302020302020300A20202020312E3330363020202020302E3338393220202020302E303030302043202020302020302020302020302020302020302020302020302020302020302020302020300A20202020312E363531352020202D312E3736363020202020302E30303030204F202020302020302020302020302020302020302020302020302020302020302020302020300A20202020302E3637343020202020302E3931393520202020302E30303030204F202020302020302020302020302020302020302020302020302020302020302020302020300A20202020332E3438383520202020302E3432333220202020302E303030302043202020302020302020302020302020302020302020302020302020302020302020302020300A20202020332E3633313820202020312E3233353720202020302E303030302043202020302020302020302020302020302020302020302020302020302020302020302020300A20202020322E3939393820202020312E3736363020202020302E303030302043202020302020302020302020302020302020302020302020302020302020302020302020300A20202020322E3232343520202020312E3438333820202020302E303030302043202020302020302020302020302020302020302020302020302020302020302020302020300A2020312020322020322020302020202020200A2020322020332020312020302020202020200A2020332020342020322020302020202020200A2020342020352020312020302020202020200A2020352020362020322020302020202020200A2020362020312020312020302020202020200A2020342020372020312020302020202020200A2020372020382020322020302020202020200A2020382020392020312020302020202020200A2020392031302020312020302020202020200A2031302020352020312020302020202020200A2020392031312020322020302020202020200A2020382031322020312020302020202020200A2020372031332020312020302020202020200A2031322031342020312020302020202020200A2031342031352020312020302020202020200A2031352031362020312020302020202020200A2031362031372020312020302020202020200A2031372031382020322020302020202020200A2031382031392020312020302020202020200A2031392031342020322020302020202020200A2031352032302020322020302020202020200A2031392032312020312020302020202020200A2031372032322020312020302020202020200A2032322032332020322020302020202020200A2032332032342020312020302020202020200A2032342032352020322020302020202020200A2032352031382020312020302020202020200A4D2020454E44
Contributor: YAMAMOTO M, DEP. CHEMISTRY, FAC. SCIENCE, NARA WOMEN'S UNIV.
InstType: EI
InstName: HITACHI M-2500
IoniMethod: _ENERGY 70 eV
IonPolarity: pos
Date: 2010-10-09 19:48:36+02:00
Num Peaks: 73
18 25 26 14 27 15 28 14 37 13 38 41 39 79 42 14 43 13 50 50 
51 63 52 13 53 49 55 22 61 14 62 40 63 137 64 119 65 170 66 19 
67 17 69 16 74 24 75 31 76 59 77 108 78 18 79 10 88 11 89 32 
90 15 91 32 92 384 93 137 94 22 101 13 102 36 103 33 104 27 105 34 
107 25 115 46 118 24 119 14 120 394 121 707 122 55 130 12 131 70 132 15 
134 53 146 40 147 42 159 12 160 38 162 341 163 40 174 105 175 120 176 27 
186 23 187 227 188 85 189 13 215 341 216 48 262 18 289 20 290 59 291 14 
336 999 337 214 338 35 
