Name: BICYCLO(4.3.0)NONAN-8-OL
MW: 140
Formula: C9H16O
Synonym: MassBank: JP011873
Synonym: BICYCLO(4.3.0)NONAN-8-OL
Structure: 42494359434C4F28342E332E30294E4F4E414E2D382D4F4C2E6D6F6C0A20204368656D447261773039303531303139303532440A2031302031312020302020302020302020302020302020302020302020303939392056323030300A20202020302E3333323820202020302E3431323520202020302E303030302043202020302020302020302020302020302020302020302020302020302020302020302020300A20202020312E3034373320202020302E3832353020202020302E303030302043202020302020302020302020302020302020302020302020302020302020302020302020300A20202020312E3736313720202020302E3431323520202020302E303030302043202020302020302020302020302020302020302020302020302020302020302020302020300A20202020312E373631372020202D302E3431323520202020302E303030302043202020302020302020302020302020302020302020302020302020302020302020302020300A20202020312E303437332020202D302E3832353020202020302E303030302043202020302020302020302020302020302020302020302020302020302020302020302020300A20202020302E333332382020202D302E3431323520202020302E303030302043202020302020302020302020302020302020302020302020302020302020302020302020300A2020202D302E343531382020202D302E3636373420202020302E303030302043202020302020302020302020302020302020302020302020302020302020302020302020300A2020202D302E393336372020202D302E3030303020202020302E303030302043202020302020302020302020302020302020302020302020302020302020302020302020300A2020202D302E3435313820202020302E3636373420202020302E303030302043202020302020302020302020302020302020302020302020302020302020302020302020300A2020202D312E373631372020202D302E3030303020202020302E30303030204F202020302020302020302020302020302020302020302020302020302020302020302020300A2020312020322020312020302020202020200A2020322020332020312020302020202020200A2020332020342020312020302020202020200A2020342020352020312020302020202020200A2020352020362020312020302020202020200A2020362020372020312020302020202020200A2020372020382020312020302020202020200A2020382020392020312020302020202020200A2020312020392020312020302020202020200A2020312020362020312020302020202020200A2020382031302020312020302020202020200A4D2020454E44
Contributor: YAMAMOTO M, DEP. CHEMISTRY, FAC. SCIENCE, NARA WOMEN'S UNIV.
InstType: EI
InstName: HITACHI RMU-6M
IoniMethod: _ENERGY 70 eV
IonPolarity: pos
Date: 2010-10-09 19:48:36+02:00
Num Peaks: 61
15 28 26 16 27 282 28 54 29 210 31 60 38 17 39 342 40 59 41 472 
42 71 43 103 44 53 45 28 50 20 51 55 52 30 53 153 54 240 55 361 
56 47 57 144 58 27 63 20 64 12 65 48 66 76 67 445 68 228 69 65 
70 174 71 28 77 88 78 35 79 258 80 616 81 999 82 94 83 168 84 33 
85 11 91 55 92 21 93 374 94 300 95 79 96 206 97 45 98 19 105 63 
107 95 108 13 109 21 111 15 115 12 116 10 121 35 122 767 123 94 134 23 
138 15 
