Name: 1-DIMETHYLSILYL-3-DIMETHYLSILYLPROPANE (D6)
MW: 160
Formula: C7H20Si2
Synonym: MassBank: JP012021
Synonym: 1-DIMETHYLSILYL-3-DIMETHYLSILYLPROPANE (D6)
Structure: 312D44494D455448594C53494C594C2D332D44494D455448594C53494C594C50524F50414E4520284436292E6D6F6C0A20204368656D447261773131313830393031333332440A2031352031342020302020302020302020302020302020302020302020303939392056323030300A2020202D312E3635303020202020302E3030303020202020302E303030302053692020302020302020302020302020302020302020302020302020302020302020302020300A2020202D302E3832353020202020302E3030303020202020302E303030302043202020302020302020302020302020302020302020302020302020302020302020302020300A2020202D322E3036323520202020302E3731343520202020302E303030302043202020302020302020302020302020302020302020302020302020302020302020302020300A2020202D322E303632352020202D302E3731343520202020302E303030302043202020302020302020302020302020302020302020302020302020302020302020302020300A20202020302E3030303020202020302E3030303020202020302E303030302043202020302020302020302020302020302020302020302020302020302020302020302020300A20202020302E3832353020202020302E3030303020202020302E303030302043202020302020302020302020302020302020302020302020302020302020302020302020300A20202020312E3635303020202020302E3030303020202020302E303030302053692020302020302020302020302020302020302020302020302020302020302020302020300A2020202D302E3832353020202020302E3832353020202020302E303030302048202020312020302020302020302020302020302020302020302020302020302020302020300A2020202D302E383235302020202D302E3832353020202020302E303030302048202020312020302020302020302020302020302020302020302020302020302020302020300A20202020302E3030303020202020302E3832353020202020302E303030302048202020312020302020302020302020302020302020302020302020302020302020302020300A20202020302E303030302020202D302E3832353020202020302E303030302048202020312020302020302020302020302020302020302020302020302020302020302020300A20202020302E3832353020202020302E3832353020202020302E303030302048202020312020302020302020302020302020302020302020302020302020302020302020300A20202020302E383235302020202D302E3832353020202020302E303030302048202020312020302020302020302020302020302020302020302020302020302020302020300A20202020322E303632352020202D302E3731343520202020302E303030302043202020302020302020302020302020302020302020302020302020302020302020302020300A20202020322E3036323520202020302E3731343520202020302E303030302043202020302020302020302020302020302020302020302020302020302020302020302020300A2020312020322020312020302020202020200A2020312020332020312020302020202020200A2020312020342020312020302020202020200A2020322020352020312020302020202020200A2020352020362020312020302020202020200A2020362020372020312020302020202020200A2020322020382020312020312020202020200A2020322020392020312020312020202020200A2020352031302020312020312020202020200A2020352031312020312020312020202020200A2020362031322020312020312020202020200A2020362031332020312020312020202020200A2020372031342020312020302020202020200A2020372031352020312020302020202020200A4D202049534F2020362020203820202032202020392020203220203130202020322020313120202032202031322020203220203133202020320A4D2020454E44
Contributor: YAMAMOTO M, DEP. CHEMISTRY, FAC. SCIENCE, NARA WOMEN'S UNIV.
InstType: EI
InstName: HITACHI RMU-6M
IoniMethod: _ENERGY 70 eV
IonPolarity: pos
Date: 2010-10-09 19:48:36+02:00
Num Peaks: 95
27 12 28 52 29 66 30 44 31 123 32 22 33 76 34 74 39 26 41 24 
42 24 43 271 44 90 45 139 46 193 47 38 48 82 49 28 53 24 55 32 
56 12 57 56 58 147 59 964 60 100 61 117 62 239 63 48 64 80 65 999 
66 80 67 44 69 20 71 28 72 347 73 88 74 30 75 24 76 229 77 36 
78 377 79 263 80 28 81 12 82 10 83 11 84 11 85 371 86 54 87 118 
88 375 89 50 90 24 91 36 93 74 98 12 99 56 100 434 101 124 102 92 
103 28 104 36 105 74 106 383 107 119 108 32 109 22 118 20 119 16 120 54 
121 32 122 111 123 136 124 24 125 16 132 12 134 32 135 10 136 86 137 52 
138 14 139 30 146 26 147 16 148 307 149 88 150 48 151 347 152 66 153 28 
163 18 164 151 165 271 166 92 167 28 
