Name: MassBank: JP011342
MW: 112
Formula: C7H12O
Synonym: MassBank: JP011342
Synonym: 2,2-DIMETHYLCYCLOPENTANONE
Structure: 310A32310A322C322D44494D455448594C4359434C4F50454E54414E4F4E452E6D6F6C0A20204368656D447261773132323030393036353232440A2020382020382020302020302020302020302020302020302020302020303939392056323030300A20202020302E3631343220202020302E3238333520202020302E303030302043202020302020302020302020302020302020302020302020302020302020302020302020300A2020202D302E3230363320202020302E3139373220202020302E303030302043202020302020302020302020302020302020302020302020302020302020302020302020300A2020202D302E333737382020202D302E3630393720202020302E303030302043202020302020302020302020302020302020302020302020302020302020302020302020300A20202020302E333336372020202D312E3032323220202020302E303030302043202020302020302020302020302020302020302020302020302020302020302020302020300A20202020302E393439382020202D302E3437303220202020302E303030302043202020302020302020302020302020302020302020302020302020302020302020302020300A2020202D302E3230363320202020312E3032323220202020302E303030302043202020302020302020302020302020302020302020302020302020302020302020302020300A2020202D312E3032363720202020302E3238333520202020302E303030302043202020302020302020302020302020302020302020302020302020302020302020302020300A20202020312E3032363720202020302E3939373920202020302E30303030204F202020302020302020302020302020302020302020302020302020302020302020302020300A2020312020322020312020302020202020200A2020322020332020312020302020202020200A2020332020342020312020302020202020200A2020342020352020312020302020202020200A2020312020352020312020302020202020200A2020322020362020312020312020202020200A2020322020372020312020362020202020200A2020312020382020322020302020202020200A4D2020454E44
Contributor: YAMAMOTO M, DEP. CHEMISTRY, FAC. SCIENCE, NARA WOMEN'S UNIV.
InstType: EI
InstName: HITACHI RMU-6M
IoniMethod: _ENERGY 70 eV
IonPolarity: pos
Date: 2010-10-09 19:48:36+02:00
Num Peaks: 24
27 130 28 86 29 64 39 176 40 56 41 390 42 82 43 42 53 39 54 24 
55 129 56 999 57 63 67 30 68 78 69 97 70 35 79 59 83 24 84 33 
94 82 97 76 112 218 113 24 
