Name: N-BENZYLIDENEMETHYLAMINE
MW: 119
Formula: C8H9N
Synonym: MassBank: JP011190
Synonym: N-BENZYLIDENEMETHYLAMINE
Structure: 310A32330A4E2D42454E5A594C4944454E454D455448594C414D494E452E6D6F6C0A20204368656D447261773038313231303031353232440A2020392020392020302020302020302020302020302020302020302020303939392056323030300A2020202D312E3033313320202020302E3731343520202020302E30303030204E202020302020302020302020302020302020302020302020302020302020302020302020300A2020202D312E3835363320202020302E3731343520202020302E303030302043202020302020302020302020302020302020302020302020302020302020302020302020300A2020202D302E363138372020202D302E3030303020202020302E303030302043202020302020302020302020302020302020302020302020302020302020302020302020300A20202020302E323036322020202D302E3030303020202020302E303030302043202020302020302020302020302020302020302020302020302020302020302020302020300A20202020302E3631383820202020302E3731343520202020302E303030302043202020302020302020302020302020302020302020302020302020302020302020302020300A20202020312E3434333720202020302E3731343520202020302E303030302043202020302020302020302020302020302020302020302020302020302020302020302020300A20202020312E383536332020202D302E3030303020202020302E303030302043202020302020302020302020302020302020302020302020302020302020302020302020300A20202020312E343433382020202D302E3731343520202020302E303030302043202020302020302020302020302020302020302020302020302020302020302020302020300A20202020302E363138372020202D302E3731343520202020302E303030302043202020302020302020302020302020302020302020302020302020302020302020302020300A2020312020322020312020302020202020200A2020332020342020312020302020202020200A2020342020352020312020302020202020200A2020352020362020322020302020202020200A2020362020372020312020302020202020200A2020372020382020322020302020202020200A2020382020392020312020302020202020200A2020342020392020322020302020202020200A2020312020332020322020302020202020200A4D2020454E44
Contributor: SAWADA M, THE INST. OF SCIENTIFIC AND INDUSTRIALRESEARCH OSAKA UNIV.
InstType: EI
InstName: JEOL JMS-DX-300
IoniMethod: _ENERGY 70 eV
IonPolarity: pos
Date: 2010-10-09 19:48:36+02:00
Num Peaks: 51
37 99 38 209 39 426 40 111 41 432 42 617 43 115 44 18 45 10 46 19 
49 57 50 476 51 573 52 356 53 32 59 142 60 58 61 110 62 268 63 489 
64 184 65 420 66 50 73 37 74 184 75 204 76 420 77 728 78 670 79 107 
85 37 86 66 87 57 88 33 89 540 90 318 91 728 92 164 99 12 102 72 
103 300 104 165 105 211 106 206 107 20 116 122 117 364 118 999 119 959 120 688 
121 56 
