Name: MassBank: JP010434
MW: 290
Formula: C12H18O4S2
Synonym: MassBank: JP010434
Synonym: DIISOPROPYL 1,3-DITHIOLAN-2-YLIDENEMALONATE
Structure: 444949534F50524F50594C20312C332D44495448494F4C414E2D322D594C4944454E454D414C4F4E4154452E6D6F6C0A20204368656D447261773039323231303030343132440A2031382031382020302020302020302020302020302020302020302020303939392056323030300A2020202D302E313234322020202D302E3832343420202020302E303030302043202020302020302020302020302020302020302020302020302020302020302020302020300A2020202D302E303831312020202D302E3030303620202020302E303030302043202020302020302020302020302020302020302020302020302020302020302020302020300A20202020302E3633333420202020302E3431313920202020302E303030302043202020302020302020302020302020302020302020302020302020302020302020302020300A2020202D302E383338372020202D312E3233363920202020302E30303030204F202020302020302020302020302020302020302020302020302020302020302020302020300A20202020302E353930322020202D312E3233363920202020302E30303030204F202020302020302020302020302020302020302020302020302020302020302020302020300A20202020312E333437392020202D302E3030303620202020302E30303030204F202020302020302020302020302020302020302020302020302020302020302020302020300A20202020302E3633333420202020312E3233363920202020302E30303030204F202020302020302020302020302020302020302020302020302020302020302020302020300A2020202D302E3831363120202020312E3237323620202020302E303030302053202020302020302020302020302020302020302020302020302020302020302020302020300A2020202D302E3737333020202020302E3434383820202020302E303030302043202020302020302020302020302020302020302020302020302020302020302020302020300A2020202D312E3534333220202020302E3135333120202020302E303030302053202020302020302020302020302020302020302020302020302020302020302020302020300A2020202D322E3036323420202020302E3739343320202020302E303030302043202020302020302020302020302020302020302020302020302020302020302020302020300A2020202D312E3631333020202020312E3438363220202020302E303030302043202020302020302020302020302020302020302020302020302020302020302020302020300A20202020302E353930322020202D322E3036313920202020302E303030302043202020302020302020302020302020302020302020302020302020302020302020302020300A20202020312E333034372020202D322E3437343420202020302E303030302043202020302020302020302020302020302020302020302020302020302020302020302020300A2020202D302E313234322020202D322E3437343420202020302E303030302043202020302020302020302020302020302020302020302020302020302020302020302020300A20202020312E3334373920202020312E3634393420202020302E303030302043202020302020302020302020302020302020302020302020302020302020302020302020300A20202020312E3334373920202020322E3437343420202020302E303030302043202020302020302020302020302020302020302020302020302020302020302020302020300A20202020322E3036323420202020312E3233363920202020302E303030302043202020302020302020302020302020302020302020302020302020302020302020302020300A2020312020322020312020302020202020200A2020322020332020312020302020202020200A2020312020342020322020302020202020200A2020312020352020312020302020202020200A2020332020362020322020302020202020200A2020332020372020312020302020202020200A2020382020392020312020302020202020200A2020392031302020312020302020202020200A2031302031312020312020302020202020200A2031312031322020312020302020202020200A2020382031322020312020302020202020200A2020322020392020322020302020202020200A2031332031342020312020302020202020200A2031332031352020312020302020202020200A2020352031332020312020302020202020200A2031362031372020312020302020202020200A2031362031382020312020302020202020200A2020372031362020312020302020202020200A4D2020454E44
Contributor: UOEH
InstType: EI
InstName: JEOL JMS-DX-303
IoniMethod: _ENERGY 70 eV
IonPolarity: pos
Date: 2010-10-09 19:48:36+02:00
Num Peaks: 69
39 36 41 166 42 24 43 351 44 15 45 53 58 16 59 46 60 83 61 86 
71 10 72 22 74 14 76 19 84 21 85 81 86 36 87 13 88 37 89 84 
90 11 93 21 102 23 103 15 105 35 116 106 117 19 118 999 119 62 120 99 
128 18 129 50 133 31 134 134 136 15 144 88 145 243 146 61 147 38 159 25 
160 180 161 50 162 973 163 89 164 91 172 11 173 53 176 60 178 274 179 17 
180 23 187 24 189 863 190 80 191 88 192 10 204 624 205 83 206 134 220 16 
231 492 232 64 233 46 248 18 271 11 290 758 291 117 292 92 293 16 
