Name: 2-AZACYCLOOCTANONE
MW: 127
Formula: C7H13NO
Synonym: MassBank: JP010411
Synonym: 2-AZACYCLOOCTANONE
Structure: 310A32330A322D415A414359434C4F4F4354414E4F4E452E6D6F6C0A20204368656D447261773132323130393232333732440A2020392020392020302020302020302020302020302020302020302020303939392056323030300A2020202D302E363139352020202D302E3339393820202020302E303030302043202020302020302020302020302020302020302020302020302020302020302020302020300A2020202D302E3631393520202020302E3432353220202020302E30303030204E202020302020302020302020302020302020302020302020302020302020302020302020300A2020202D302E3033343320202020312E3031303420202020302E303030302043202020302020302020302020302020302020302020302020302020302020302020302020300A20202020302E3739373520202020312E3031303420202020302E303030302043202020302020302020302020302020302020302020302020302020302020302020302020300A20202020312E3338383020202020302E3431393920202020302E303030302043202020302020302020302020302020302020302020302020302020302020302020302020300A20202020312E333838302020202D302E3431373120202020302E303030302043202020302020302020302020302020302020302020302020302020302020302020302020300A20202020302E373934382020202D312E3031303420202020302E303030302043202020302020302020302020302020302020302020302020302020302020302020302020300A2020202D302E303434392020202D312E3031303420202020302E303030302043202020302020302020302020302020302020302020302020302020302020302020302020300A2020202D312E333838302020202D302E3730383820202020302E30303030204F202020302020302020302020302020302020302020302020302020302020302020302020300A2020312020322020312020302020202020200A2020322020332020312020302020202020200A2020332020342020312020302020202020200A2020342020352020312020302020202020200A2020352020362020312020302020202020200A2020362020372020312020302020202020200A2020372020382020312020302020202020200A2020312020382020312020302020202020200A2020312020392020322020302020202020200A4D2020454E44
Contributor: MASS SPECTROSCOPY SOC. OF JAPAN (MSSJ)
InstType: EI
InstName: HITACHI RMU-6M
IoniMethod: _ENERGY 20 eV
IonPolarity: pos
Date: 2010-10-09 19:48:36+02:00
Num Peaks: 40
39 13 40 11 41 239 42 36 43 630 44 316 45 74 53 1 54 90 55 803 
56 811 57 9 58 34 59 34 60 21 67 8 68 98 69 434 70 484 71 23 
72 34 73 33 79 10 80 18 81 98 82 51 83 148 84 10 85 98 86 36 
95 13 97 8 98 562 99 999 100 61 110 2 112 36 126 13 127 303 128 93 
