Name: 8-METHOXY-2-METHYL-6-METHYLENE-7-(TRIMETHYLSILYL)METHYL-2-DODECENE
MW: 310
Formula: C19H38OSi
Synonym: MassBank: JP011392
Synonym: 8-METHOXY-2-METHYL-6-METHYLENE-7-(TRIMETHYLSILYL)METHYL-2-DODECENE
Structure: 382D4D4554484F58592D322D4D455448594C2D362D4D455448594C454E452D372D285452494D455448594C53494C594C294D455448594C2D322D444F444543454E452E6D6F6C0A20204368656D447261773035323431303231343232440A2032312032302020302020302020302020302020302020302020302020303939392056323030300A20202020332E333030302020202D302E3731343520202020302E303030302043202020302020302020302020302020302020302020302020302020302020302020302020300A20202020322E3838373520202020302E3030303020202020302E303030302043202020302020302020302020302020302020302020302020302020302020302020302020300A20202020322E3036323520202020302E3030303020202020302E303030302043202020302020302020302020302020302020302020302020302020302020302020302020300A20202020312E3634393920202020302E3731343520202020302E303030302043202020302020302020302020302020302020302020302020302020302020302020302020300A20202020302E3832353020202020302E3731343520202020302E303030302043202020302020302020302020302020302020302020302020302020302020302020302020300A20202020302E3431323520202020302E3030303020202020302E303030302043202020302020302020302020302020302020302020302020302020302020302020302020300A2020202D302E3431323520202020302E3030303020202020302E303030302043202020302020302020302020302020302020302020302020302020302020302020302020300A2020202D302E3832353020202020302E3731343520202020302E303030302043202020302020302020302020302020302020302020302020302020302020302020302020300A2020202D312E3635303020202020302E3731343520202020302E303030302043202020302020302020302020302020302020302020302020302020302020302020302020300A2020202D322E3036323520202020312E3432383920202020302E303030302043202020302020302020302020302020302020302020302020302020302020302020302020300A2020202D302E343132342020202D312E3432383920202020302E303030302053692020302020302020302020302020302020302020302020302020302020302020302020300A2020202D312E313236392020202D312E3834313320202020302E303030302043202020302020302020302020302020302020302020302020302020302020302020302020300A20202020302E333032302020202D312E3031363420202020302E303030302043202020302020302020302020302020302020302020302020302020302020302020302020300A20202020302E303030312020202D322E3134333320202020302E303030302043202020302020302020302020302020302020302020302020302020302020302020302020300A20202020302E383235312020202D302E3731343520202020302E303030302043202020302020302020302020302020302020302020302020302020302020302020302020300A20202020332E3239393920202020302E3731343520202020302E303030302043202020302020302020302020302020302020302020302020302020302020302020302020300A2020202D302E3431323520202020312E3432383920202020302E30303030204F202020302020302020302020302020302020302020302020302020302020302020302020300A2020202D302E3832353020202020322E3134333320202020302E303030302043202020302020302020302020302020302020302020302020302020302020302020302020300A2020202D302E383235302020202D302E3731343520202020302E303030302043202020302020302020302020302020302020302020302020302020302020302020302020300A2020202D322E3838373520202020312E3432383820202020302E303030302043202020302020302020302020302020302020302020302020302020302020302020302020300A2020202D332E3330303020202020322E3134333320202020302E303030302043202020302020302020302020302020302020302020302020302020302020302020302020300A2020312020322020312020302020202020200A2020322020332020322020302020202020200A2020332020342020312020302020202020200A2020342020352020312020302020202020200A2020352020362020312020302020202020200A2020362020372020312020302020202020200A2020372020382020312020302020202020200A2020382020392020312020302020202020200A2020392031302020312020302020202020200A2031312031322020312020312020202020200A2031312031332020312020312020202020200A2031312031342020312020302020202020200A2020362031352020322020302020202020200A2020322031362020312020302020202020200A2031372031382020312020302020202020200A2020382031372020312020302020202020200A2031312031392020312020302020202020200A2020372031392020312020302020202020200A2031302032302020312020302020202020200A2032302032312020312020302020202020200A4D2020454E44
Contributor: HISAHIRO HAGIWARA, INSTITUTE FOR CHEMICAL REACTION SCIENCE TOHOKU UNIV.
InstType: EI
InstName: JEOL JMS-DX-300
IoniMethod: _ENERGY 70 eV
IonPolarity: pos
Date: 2010-10-09 19:48:36+02:00
Num Peaks: 47
39 11 41 110 43 37 44 11 45 228 53 11 55 25 58 13 59 85 67 29 
69 145 70 32 71 36 72 12 73 531 74 56 75 36 77 13 79 17 81 63 
82 11 87 11 89 144 90 13 91 17 93 23 95 58 97 11 101 999 102 99 
103 12 105 83 107 18 109 12 115 64 124 24 135 44 136 15 137 38 141 44 
194 14 209 26 210 14 222 16 241 33 278 25 310 12 
