Name: MassBank: JP010580
CAS: 16909-09-4
MW: 208
Formula: C11H12O4
Synonym: MassBank: JP010580
Synonym: 2,4-DIMETHOXYCINNAMIC ACID
Structure: 322C342D44494D4554484F585943494E4E414D494320414349442E6D6F6C0A20204368656D447261773132323030393139313332440A2031352031352020302020302020302020302020302020302020302020303939392056323030300A2020202D322E323638382020202D312E3037313720202020302E303030302043202020302020302020302020302020302020302020302020302020302020302020302020300A2020202D312E343433382020202D312E3037313720202020302E303030302043202020302020302020302020302020302020302020302020302020302020302020302020300A2020202D312E303331322020202D302E3335373220202020302E303030302043202020302020302020302020302020302020302020302020302020302020302020302020300A2020202D302E323036332020202D302E3335373220202020302E303030302043202020302020302020302020302020302020302020302020302020302020302020302020300A20202020302E3230363220202020302E3335373220202020302E303030302043202020302020302020302020302020302020302020302020302020302020302020302020300A20202020312E3033313220202020302E3335373220202020302E303030302043202020302020302020302020302020302020302020302020302020302020302020302020300A20202020312E343433382020202D302E3335373220202020302E303030302043202020302020302020302020302020302020302020302020302020302020302020302020300A20202020312E303331332020202D312E3037313720202020302E303030302043202020302020302020302020302020302020302020302020302020302020302020302020300A20202020302E323036322020202D312E3037313720202020302E303030302043202020302020302020302020302020302020302020302020302020302020302020302020300A2020202D322E363831332020202D312E3738363220202020302E30303030204F202020302020302020302020302020302020302020302020302020302020302020302020300A2020202D322E363831332020202D302E3335373220202020302E30303030204F202020302020302020302020302020302020302020302020302020302020302020302020300A20202020322E323638372020202D302E3335373220202020302E30303030204F202020302020302020302020302020302020302020302020302020302020302020302020300A20202020322E363831332020202D312E3037313720202020302E303030302043202020302020302020302020302020302020302020302020302020302020302020302020300A2020202D302E3230363320202020312E3037313720202020302E30303030204F202020302020302020302020302020302020302020302020302020302020302020302020300A20202020302E3230363220202020312E3738363220202020302E303030302043202020302020302020302020302020302020302020302020302020302020302020302020300A2020312020322020312020302020202020200A2020322020332020322020302020202020200A2020332020342020312020302020202020200A2020342020352020312020302020202020200A2020352020362020322020302020202020200A2020362020372020312020302020202020200A2020372020382020322020302020202020200A2020382020392020312020302020202020200A2020342020392020322020302020202020200A2020312031302020322020302020202020200A2020312031312020312020302020202020200A2031322031332020312020302020202020200A2020372031322020312020302020202020200A2031342031352020312020302020202020200A2020352031342020312020302020202020200A4D2020454E44
Contributor: NARA WOMEN'S UNIVERSITY
InstType: EI
InstName: HITACHI M-80
IoniMethod: _ENERGY 70 eV
IonPolarity: pos
Date: 2010-10-09 19:48:36+02:00
Num Peaks: 80
15 153 27 21 28 12 29 36 31 17 38 25 39 66 41 15 43 12 45 106 
50 52 51 122 52 28 53 35 55 25 59 11 61 16 62 73 63 148 64 39 
65 62 66 39 69 48 74 31 75 29 76 45 77 187 78 76 79 49 85 12 
86 14 87 22 88 25 89 107 90 58 91 99 92 37 94 27 95 17 102 15 
103 47 104 24 105 98 106 24 107 23 108 18 109 18 116 13 117 18 118 38 
119 53 120 28 121 432 122 44 124 42 131 21 132 18 133 197 134 50 135 46 
137 36 147 45 148 162 149 338 150 59 151 20 161 86 162 54 163 28 165 17 
176 36 177 288 178 33 191 106 192 16 193 16 207 15 208 999 209 126 210 16 
