Name: 3-CHLORO-4-NITROISOXAZOLE
MW: 147
Formula: C3HClN2O3
Synonym: MassBank: JP010588
Synonym: 3-CHLORO-4-NITROISOXAZOLE
Structure: 310A32340A332D43484C4F524F2D342D4E4954524F49534F58415A4F4C452E6D6F6C0A20204368656D447261773032323231303136323032440A2020392020392020302020302020302020302020302020302020302020303939392056323030300A2020202D312E323533352020202D302E3738313320202020302E30303030204F202020302020302020302020302020302020302020302020302020302020302020302020300A2020202D312E3235333520202020302E3034333720202020302E30303030204E202020302020302020302020302020302020302020302020302020302020302020302020300A2020202D302E3436383920202020302E3239383620202020302E303030302043202020302020302020302020302020302020302020302020302020302020302020302020300A20202020302E303136302020202D302E3336383820202020302E303030302043202020302020302020302020302020302020302020302020302020302020302020302020300A2020202D302E343638392020202D312E3033363220202020302E303030302043202020302020302020302020302020302020302020302020302020302020302020302020300A20202020302E383431302020202D302E3336383820202020302E30303030204E202020302020332020302020302020302020302020302020302020302020302020302020300A20202020312E323533352020202D312E3038333320202020302E30303030204F202020302020302020302020302020302020302020302020302020302020302020302020300A20202020312E3235333520202020302E3334353720202020302E30303030204F202020302020352020302020302020302020302020302020302020302020302020302020300A2020202D302E3231343020202020312E3038333320202020302E3030303020436C2020302020302020302020302020302020302020302020302020302020302020302020300A2020312020322020312020302020202020200A2020322020332020322020302020202020200A2020332020342020312020302020202020200A2020342020352020322020302020202020200A2020312020352020312020302020202020200A2020362020372020322020302020202020200A2020362020382020312020302020202020200A2020342020362020312020302020202020200A2020332020392020312020302020202020200A4D202043484720203220202036202020312020203820202D310A4D2020454E44
Contributor: NARA WOMEN'S UNIVERSITY
InstType: EI
InstName: HITACHI M-80
IoniMethod: _ENERGY 70 eV
IonPolarity: pos
Date: 2010-10-09 19:48:36+02:00
Num Peaks: 44
12 24 16 13 24 12 25 12 27 22 28 107 29 883 30 999 32 14 35 49 
36 22 37 53 38 136 39 111 41 27 43 56 45 12 46 128 47 250 49 85 
51 17 54 21 61 25 62 60 63 44 64 16 66 12 67 37 68 22 69 62 
70 14 72 109 73 58 74 232 76 65 87 21 101 23 102 49 103 25 104 13 
148 714 149 37 150 214 151 11 
