Name: MassBank: JP011048
MW: 284
Formula: C15H24O5
Synonym: MassBank: JP011048
Synonym: TRANS-7-BUTYL-7-HYDROXY-4A,9A-DIMETHOXYCYCLOHEPTA(1,4)DIOXINE
Structure: 5452414E532D372D425554594C2D372D485944524F58592D34412C39412D44494D4554484F58594359434C4F484550544128312C342944494F58494E452E6D6F6C0A20204368656D447261773038313231303038303432440A2032302032312020302020302020302020302020302020302020302020303939392056323030300A20202020322E333131372020202D302E3832323820202020302E30303030204F202020302020302020302020302020302020302020302020302020302020302020302020300A20202020312E353937322020202D302E3431303320202020302E303030302043202020302020302020302020302020302020302020302020302020302020302020302020300A20202020312E3539373220202020302E3431363520202020302E303030302043202020302020302020302020302020302020302020302020302020302020302020302020300A20202020322E3331353520202020302E3833313220202020302E30303030204F202020302020302020302020302020302020302020302020302020302020302020302020300A20202020332E3033353020202020302E3431353820202020302E303030302043202020302020302020302020302020302020302020302020302020302020302020302020300A20202020332E303335302020202D302E3431353620202020302E303030302043202020302020302020302020302020302020302020302020302020302020302020302020300A20202020302E3935393920202020302E3933343120202020302E303030302043202020302020302020302020302020302020302020302020302020302020302020302020300A20202020302E3135343720202020302E3735343520202020302E303030302043202020302020302020302020302020302020302020302020302020302020302020302020300A2020202D302E3230373020202020302E3031333020202020302E303030302043202020302020302020302020302020302020302020302020302020302020302020302020300A20202020302E313437332020202D302E3733323020202020302E303030302043202020302020302020302020302020302020302020302020302020302020302020302020300A20202020302E393530372020202D302E3931393620202020302E303030302043202020302020302020302020302020302020302020302020302020302020302020302020300A20202020312E363535382020202D312E3233313520202020302E30303030204F202020302020302020302020302020302020302020302020302020302020302020302020300A20202020322E333937332020202D312E3539333120202020302E303030302043202020302020302020302020302020302020302020302020302020302020302020302020300A20202020312E3636383120202020312E3233383920202020302E30303030204F202020302020302020302020302020302020302020302020302020302020302020302020300A20202020322E3431333220202020312E3539333120202020302E303030302043202020302020302020302020302020302020302020302020302020302020302020302020300A2020202D302E3834393420202020302E3533303620202020302E30303030204F202020302020302020302020302020302020302020302020302020302020302020302020300A2020202D302E383534352020202D302E3439383120202020302E303030302043202020302020302020302020302020302020302020302020302020302020302020302020300A2020202D312E363231302020202D302E3139323920202020302E303030302043202020302020302020302020302020302020302020302020302020302020302020302020300A2020202D322E323638362020202D302E3730343120202020302E303030302043202020302020302020302020302020302020302020302020302020302020302020302020300A2020202D332E303335302020202D302E3339383820202020302E303030302043202020302020302020302020302020302020302020302020302020302020302020302020300A2020312020322020312020302020202020200A2020322020332020312020302020202020200A2020332020342020312020302020202020200A2020342020352020312020302020202020200A2020352020362020322020302020202020200A2020312020362020312020302020202020200A2020372020382020322020302020202020200A2020382020392020312020302020202020200A2020392031302020312020302020202020200A2031302031312020322020302020202020200A2020322031312020312020302020202020200A2020332020372020312020302020202020200A2031322031332020312020302020202020200A2020322031322020312020312020202020200A2031342031352020312020302020202020200A2020332031342020312020362020202020200A2020392031362020312020302020202020200A2031372031382020312020302020202020200A2031382031392020312020302020202020200A2031392032302020312020302020202020200A2020392031372020312020302020202020200A4D2020454E44
Contributor: TAKESHITA H, INST. OF ADVANCED MATERIAL STUDY KYUSHU UNIV.
InstType: EI
InstName: JEOL JMS-01-SG-2
IoniMethod: _ENERGY 75 eV
IonPolarity: pos
Date: 2010-10-09 19:48:36+02:00
Num Peaks: 42
41 454 45 172 53 182 55 296 57 617 59 416 65 206 75 292 77 158 81 181 
85 463 95 167 99 170 103 999 107 182 109 214 111 241 113 158 121 279 123 204 
124 179 129 219 136 204 137 205 139 305 165 437 167 712 221 597 222 61 223 52 
224 11 227 378 228 39 235 40 237 114 238 15 239 17 252 520 253 158 254 16 
267 13 284 40 
