Name: METHYL CIS-5-CYANO-TRANS-3-METHYL-REF.-2-PHENYLPYRROLIDINE-3-CARBOXYLATE
MW: 244
Formula: C14H16N2O2
Synonym: MassBank: JP010282
Synonym: METHYL CIS-5-CYANO-TRANS-3-METHYL-REF.-2-PHENYLPYRROLIDINE-3-CARBOXYLATE
Synonym: METHYL (2R,3R,5R)-5-CYANO-3-METHYL-2-PHENYYLPYRROLIDINE-3-CARBOXYLATE
Structure: 303836325F4D455448594C202832522C33522C3552292D352D4359414E4F2D332D4D455448594C2D322D5048454E59594C505952524F4C4944494E452D332D434152424F58594C4154452E6D6F6C0A20204368656D447261773130323031303138323332440A2031372031382020302020302020302020302020302020302020302020303939392056323030300A20202020302E3430313720202020302E3031303320202020302E30303030204E202020302020302020302020302020302020302020302020302020302020302020302020300A20202020302E353733322020202D302E3739363620202020302E303030302043202020302020302020302020302020302020302020302020302020302020302020302020300A2020202D302E313431332020202D312E3230393120202020302E303030302043202020302020302020302020302020302020302020302020302020302020302020302020300A2020202D302E373534342020202D302E3635373120202020302E303030302043202020302020302020302020302020302020302020302020302020302020302020302020300A2020202D302E3431383820202020302E3039363620202020302E303030302043202020302020302020302020302020302020302020302020302020302020302020302020300A2020202D312E353631332020202D302E3832383620202020302E303030302043202020302020302020302020302020302020302020302020302020302020302020302020300A2020202D322E303830352020202D302E3138373520202020302E30303030204F202020302020302020302020302020302020302020302020302020302020302020302020300A2020202D312E383537302020202D312E3539383820202020302E30303030204F202020302020302020302020302020302020302020302020302020302020302020302020300A2020202D302E3833313320202020302E3831313020202020302E303030302043202020302020302020302020302020302020302020302020302020302020302020302020300A2020202D312E3635363320202020302E3831313020202020302E303030302043202020302020302020302020302020302020302020302020302020302020302020302020300A2020202D322E3036383820202020312E3532353520202020302E303030302043202020302020302020302020302020302020302020302020302020302020302020302020300A2020202D312E3635363320202020322E3234303020202020302E303030302043202020302020302020302020302020302020302020302020302020302020302020302020300A2020202D302E3833313320202020322E3234303020202020302E303030302043202020302020302020302020302020302020302020302020302020302020302020302020300A2020202D302E3431383820202020312E3532353520202020302E303030302043202020302020302020302020302020302020302020302020302020302020302020302020300A20202020312E333236392020202D312E3133323220202020302E303030302043202020302020302020302020302020302020302020302020302020302020302020302020300A20202020322E303830352020202D312E3436373820202020302E30303030204E202020302020302020302020302020302020302020302020302020302020302020302020300A2020202D312E333337382020202D322E3234303020202020302E303030302043202020302020302020302020302020302020302020302020302020302020302020302020300A2020312020322020312020302020202020200A2020322020332020312020302020202020200A2020332020342020312020302020202020200A2020342020352020312020302020202020200A2020312020352020312020302020202020200A2020362020372020322020302020202020200A2020362020382020312020302020202020200A2020342020362020312020362020202020200A2020392031302020312020302020202020200A2031302031312020322020302020202020200A2031312031322020312020302020202020200A2031322031332020322020302020202020200A2031332031342020312020302020202020200A2020392031342020322020302020202020200A2020352020392020312020312020202020200A2031352031362020332020302020202020200A2020322031352020312020312020202020200A2020382031372020312020302020202020200A4D2020454E44
Contributor: KANEMASA S, INST. OF ADVANCED MATERIAL STUDY KYUSHU UNIV.
InstType: EI
InstName: JEOL JMS-01-SG-2
IoniMethod: _ENERGY 75 eV
IonPolarity: pos
Date: 2010-10-09 19:48:36+02:00
Num Peaks: 38
39 122 41 195 43 63 51 114 53 93 59 63 63 75 66 63 69 70 77 178 
78 80 89 199 90 168 91 131 104 131 115 129 116 240 117 266 118 75 142 69 
143 860 144 999 145 105 156 42 157 34 158 86 168 15 169 27 170 15 176 36 
183 29 184 20 185 39 191 22 213 37 217 21 244 73 245 13 
