Name: 3-FORMYL-2-BUTEN-1-YL ACETATE
MW: 142
Formula: C7H10O3
Synonym: MassBank: JP010025
Synonym: 3-FORMYL-2-BUTEN-1-YL ACETATE
Structure: 332D464F524D594C2D322D425554454E2D312D594C20414345544154452E6D6F6C0A20204368656D447261773032323231303138303332440A2031302020392020302020302020302020302020302020302020302020303939392056323030300A20202020312E343433372020202D302E3030303020202020302E303030302043202020302020302020302020302020302020302020302020302020302020302020302020300A20202020312E3835363320202020302E3731343520202020302E303030302043202020302020302020302020302020302020302020302020302020302020302020302020300A20202020312E383536332020202D302E3731343520202020302E30303030204F202020302020302020302020302020302020302020302020302020302020302020302020300A20202020302E363138372020202D302E3030303020202020302E30303030204F202020302020302020302020302020302020302020302020302020302020302020302020300A20202020302E323036322020202D302E3731343520202020302E303030302043202020302020302020302020302020302020302020302020302020302020302020302020300A2020202D302E363138382020202D302E3731343520202020302E303030302043202020302020302020302020302020302020302020302020302020302020302020302020300A2020202D312E3033313320202020302E3030303020202020302E303030302043202020302020302020302020302020302020302020302020302020302020302020302020300A2020202D312E3835363320202020302E3030303020202020302E303030302043202020302020302020302020302020302020302020302020302020302020302020302020300A2020202D302E3631383820202020302E3731343520202020302E303030302043202020302020302020302020302020302020302020302020302020302020302020302020300A20202020302E3230363220202020302E3731343520202020302E30303030204F202020302020302020302020302020302020302020302020302020302020302020302020300A2020312020322020312020302020202020200A2020312020332020322020302020202020200A2020312020342020312020302020202020200A2020352020362020312020302020202020200A2020362020372020322020302020202020200A2020372020382020312020302020202020200A2020392031302020322020302020202020200A2020372020392020312020302020202020200A2020342020352020312020302020202020200A4D2020454E44
Contributor: KURARAY CO., LTD.
InstType: EI
InstName: JEOL JMS-D-300
IoniMethod: _ENERGY 70 eV
IonPolarity: pos
Date: 2010-10-09 19:48:36+02:00
Num Peaks: 24
27 96 29 94 38 10 39 15 41 52 42 25 43 999 44 3 51 16 53 122 
54 116 55 9 57 16 61 14 69 17 71 49 72 23 81 68 82 429 83 24 
84 12 99 31 100 397 101 23 
