Name: MassBank: JP011374
MW: 214
Formula: C11H26Si2
Synonym: MassBank: JP011374
Synonym: 2-METHYL-1,4-BIS(TRIMETHYLSILYL)-2-BUTENE
Structure: 322D4D455448594C2D312C342D424953285452494D455448594C53494C594C292D322D425554454E452E6D6F6C0A20204368656D447261773031323231303032343932440A2031332031322020302020302020302020302020302020302020302020303939392056323030300A2020202D312E3037313720202020302E3236313520202020302E303030302043202020302020302020302020302020302020302020302020302020302020302020302020300A2020202D302E333537322020202D302E3135313020202020302E303030302043202020302020302020302020302020302020302020302020302020302020302020302020300A20202020302E3335373220202020302E3236313520202020302E303030302043202020302020302020302020302020302020302020302020302020302020302020302020300A20202020312E303731372020202D302E3135313020202020302E303030302043202020302020302020302020302020302020302020302020302020302020302020302020300A20202020312E3738363220202020302E3236313520202020302E303030302053692020302020302020302020302020302020302020302020302020302020302020302020300A20202020322E313938372020202D302E3435333020202020302E303030302043202020302020302020302020302020302020302020302020302020302020302020302020300A20202020312E3337333720202020302E3937363020202020302E303030302043202020302020302020302020302020302020302020302020302020302020302020302020300A20202020322E3530303620202020302E3637343020202020302E303030302043202020302020302020302020302020302020302020302020302020302020302020302020300A2020202D312E373836322020202D302E3135313020202020302E303030302053692020302020302020302020302020302020302020302020302020302020302020302020300A2020202D312E333733372020202D302E3836353520202020302E303030302043202020302020302020302020302020302020302020302020302020302020302020302020300A2020202D322E353030362020202D302E3536333520202020302E303030302043202020302020302020302020302020302020302020302020302020302020302020302020300A2020202D322E3139383720202020302E3536333520202020302E303030302043202020302020302020302020302020302020302020302020302020302020302020302020300A2020202D302E333537322020202D302E3937363020202020302E303030302043202020302020302020302020302020302020302020302020302020302020302020302020300A2020312020322020312020302020202020200A2020322020332020322020302020202020200A2020332020342020312020302020202020200A2020352020362020312020312020202020200A2020352020372020312020312020202020200A2020352020382020312020302020202020200A2020342020352020312020302020202020200A2020392031302020312020312020202020200A2020392031312020312020302020202020200A2020392031322020312020312020202020200A2020312020392020312020302020202020200A2020322031332020312020302020202020200A4D2020454E44
Contributor: HISAHIRO HAGIWARA, INSTITUTE FOR CHEMICAL REACTION SCIENCE TOHOKU UNIV.
InstType: EI
InstName: JEOL JMS-DX-300
IoniMethod: _ENERGY 70 eV
IonPolarity: pos
Date: 2010-10-09 19:48:36+02:00
Num Peaks: 22
43 39 44 22 45 131 58 15 59 48 72 17 73 999 74 110 75 49 83 12 
85 11 109 11 111 277 112 37 113 14 125 18 126 180 127 25 141 16 214 101 
215 23 216 10 
