Name: MassBank: JP010075
MW: 385
Formula: C26H43NO
Synonym: MassBank: JP010075
Synonym: N-(3,7,11,15-TETRAMETHYL-2,6,10,14-HEXADECATETRAEN-1-YL)-EPSILON-CAPROLACTAM
Synonym: 1-(3,7,11,15-TETRAMETHYL-2,6,10,14-HEXADECATETRAEN-1-YL)-AZACYCLOHEPTAN-2-ONE
Structure: 4E2D28332C372C31312C31352D54455452414D455448594C2D322C362C31302C31342D48455841444543415445545241454E2D312D594C292D455053494C4F4E2D434150524F4C414354414D2E6D6F6C0A20204368656D447261773131313730393137323432440A2032382032382020302020302020302020302020302020302020302020303939392056323030300A2020202D342E373638342020202D302E3734393520202020302E303030302043202020302020302020302020302020302020302020302020302020302020302020302020300A2020202D352E333733322020202D312E3331303720202020302E303030302043202020302020302020302020302020302020302020302020302020302020302020302020300A2020202D362E313839302020202D312E3138373720202020302E303030302043202020302020302020302020302020302020302020302020302020302020302020302020300A2020202D362E363031352020202D302E3437333220202020302E303030302043202020302020302020302020302020302020302020302020302020302020302020302020300A2020202D362E3330343320202020302E3330393620202020302E303030302043202020302020302020302020302020302020302020302020302020302020302020302020300A2020202D352E3530373420202020302E3532333120202020302E303030302043202020302020302020302020302020302020302020302020302020302020302020302020300A2020202D342E303030342020202D312E3035303920202020302E30303030204F202020302020302020302020302020302020302020302020302020302020302020302020300A2020202D342E3833303120202020302E3037333220202020302E30303030204E202020302020302020302020302020302020302020302020302020302020302020302020300A2020202D342E3131353620202020302E3438353720202020302E303030302043202020302020302020302020302020302020302020302020302020302020302020302020300A2020202D332E3430313120202020302E3037333220202020302E303030302043202020302020302020302020302020302020302020302020302020302020302020302020300A2020202D322E3638363720202020302E3438353720202020302E303030302043202020302020302020302020302020302020302020302020302020302020302020302020300A2020202D312E3937323220202020302E3037333220202020302E303030302043202020302020302020302020302020302020302020302020302020302020302020302020300A2020202D312E3235373720202020302E3438353720202020302E303030302043202020302020302020302020302020302020302020302020302020302020302020302020300A2020202D302E3534333220202020302E3037333220202020302E303030302043202020302020302020302020302020302020302020302020302020302020302020302020300A20202020302E3137313220202020302E3438353720202020302E303030302043202020302020302020302020302020302020302020302020302020302020302020302020300A20202020302E3838353720202020302E3037333220202020302E303030302043202020302020302020302020302020302020302020302020302020302020302020302020300A20202020312E3630303220202020302E3438353720202020302E303030302043202020302020302020302020302020302020302020302020302020302020302020302020300A20202020322E3331343620202020302E3037333220202020302E303030302043202020302020302020302020302020302020302020302020302020302020302020302020300A20202020332E3032393120202020302E3438353720202020302E303030302043202020302020302020302020302020302020302020302020302020302020302020302020300A20202020332E3734333620202020302E3037333220202020302E303030302043202020302020302020302020302020302020302020302020302020302020302020302020300A20202020342E3435383120202020302E3438353720202020302E303030302043202020302020302020302020302020302020302020302020302020302020302020302020300A20202020352E3137323520202020302E3037333220202020302E303030302043202020302020302020302020302020302020302020302020302020302020302020302020300A20202020352E3838373020202020302E3438353720202020302E303030302043202020302020302020302020302020302020302020302020302020302020302020302020300A20202020362E3630313520202020302E3037333220202020302E303030302043202020302020302020302020302020302020302020302020302020302020302020302020300A20202020352E3838373020202020312E3331303720202020302E303030302043202020302020302020302020302020302020302020302020302020302020302020302020300A20202020332E3032393120202020312E3331303720202020302E303030302043202020302020302020302020302020302020302020302020302020302020302020302020300A20202020302E3137313220202020312E3331303720202020302E303030302043202020302020302020302020302020302020302020302020302020302020302020302020300A2020202D322E3638363720202020312E3331303720202020302E303030302043202020302020302020302020302020302020302020302020302020302020302020302020300A2020312020322020312020302020202020200A2020322020332020312020302020202020200A2020332020342020312020302020202020200A2020342020352020312020302020202020200A2020352020362020312020302020202020200A2020312020372020322020302020202020200A2020312020382020312020302020202020200A2020362020382020312020302020202020200A2020392031302020312020302020202020200A2031302031312020322020302020202020200A2031312031322020312020302020202020200A2031322031332020312020302020202020200A2031332031342020312020302020202020200A2031342031352020322020302020202020200A2031352031362020312020302020202020200A2031362031372020312020302020202020200A2031372031382020312020302020202020200A2031382031392020322020302020202020200A2031392032302020312020302020202020200A2032302032312020312020302020202020200A2032312032322020312020302020202020200A2032322032332020322020302020202020200A2032332032342020312020302020202020200A2032332032352020312020302020202020200A2031392032362020312020302020202020200A2031352032372020312020302020202020200A2031312032382020312020302020202020200A2020382020392020312020302020202020200A4D2020454E44
Contributor: KURARAY CO., LTD.
InstType: EI
InstName: JEOL JMS-D-300
IoniMethod: _ENERGY 70 eV
IonPolarity: pos
Date: 2010-10-09 19:48:36+02:00
Num Peaks: 68
29 12 30 56 39 55 41 25 43 51 44 19 53 76 55 17 56 67 57 27 
67 75 68 8 69 476 70 38 71 41 77 4 79 44 80 62 81 128 82 4 
83 31 84 54 85 45 91 7 93 122 94 63 95 62 96 20 97 73 98 152 
99 56 105 7 107 60 108 43 109 47 112 5 114 245 119 33 121 58 122 5 
123 56 126 966 127 112 133 5 134 47 135 123 136 56 137 4 138 124 147 54 
148 44 152 7 161 45 166 43 167 40 179 5 180 999 181 146 182 49 192 5 
203 69 248 637 249 122 250 4 272 40 316 97 317 42 385 45 
