Name: 4-CHLOROPHENYLACETIC ACID
MW: 170
Formula: C8H7ClO2
Synonym: MassBank: JP011228
Synonym: 4-CHLOROPHENYLACETIC ACID
Structure: 342D43484C4F524F5048454E594C41434554494320414349442E6D6F6C0A20204368656D447261773033323531303131333732440A2031312031312020302020302020302020302020302020302020302020303939392056323030300A2020202D312E343238392020202D302E3431323520202020302E303030302043202020302020302020302020302020302020302020302020302020302020302020302020300A2020202D302E373134352020202D302E3832353020202020302E303030302043202020302020302020302020302020302020302020302020302020302020302020302020300A2020202D312E3432383920202020302E3431323520202020302E30303030204F202020302020302020302020302020302020302020302020302020302020302020302020300A2020202D322E313433342020202D302E3832353020202020302E30303030204F202020302020302020302020302020302020302020302020302020302020302020302020300A20202020302E303030302020202D302E3431323520202020302E303030302043202020302020302020302020302020302020302020302020302020302020302020302020300A20202020302E3030303020202020302E3431323520202020302E303030302043202020302020302020302020302020302020302020302020302020302020302020302020300A20202020302E3731343520202020302E3832353020202020302E303030302043202020302020302020302020302020302020302020302020302020302020302020302020300A20202020312E3432383920202020302E3431323520202020302E303030302043202020302020302020302020302020302020302020302020302020302020302020302020300A20202020312E343238392020202D302E3431323520202020302E303030302043202020302020302020302020302020302020302020302020302020302020302020302020300A20202020302E373134352020202D302E3832353020202020302E303030302043202020302020302020302020302020302020302020302020302020302020302020302020300A20202020322E3134333420202020302E3832353020202020302E3030303020436C2020302020302020302020302020302020302020302020302020302020302020302020300A2020312020322020312020302020202020200A2020312020332020322020302020202020200A2020312020342020312020302020202020200A2020352020362020312020302020202020200A2020362020372020322020302020202020200A2020372020382020312020302020202020200A2020382020392020322020302020202020200A2020392031302020312020302020202020200A2020352031302020322020302020202020200A2020322020352020312020302020202020200A2020382031312020312020302020202020200A4D2020454E44
Contributor: MASS SPECTROSCOPY SOC. OF JAPAN (MSSJ)
InstType: EI
InstName: SHIMADZU QP-1000EX
IoniMethod: _ENERGY 20 eV
IonPolarity: pos
Date: 2010-10-09 19:48:36+02:00
Num Peaks: 54
36 5 38 2 39 12 40 1 41 2 44 6 45 5 51 6 52 1 53 2 
63 20 64 4 65 19 66 1 73 7 75 8 76 1 77 24 78 4 79 7 
89 129 90 44 91 154 92 12 99 42 100 3 101 14 105 3 107 3 111 2 
113 2 116 8 122 1 123 2 124 11 125 999 126 85 127 326 128 30 129 1 
130 1 135 2 139 3 141 2 151 2 152 12 153 2 154 4 169 1 170 374 
171 34 172 124 173 11 174 1 
