Name: MassBank: JP010146
MW: 258
Formula: C18H26O
Synonym: MassBank: JP010146
Synonym: 1-ETHYL-1,3,3-TRIMETHYL-5-(1-METHYL-3-PROPANAL)INDAN
Structure: 312D455448594C2D312C332C332D5452494D455448594C2D352D28312D4D455448594C2D332D50524F50414E414C29494E44414E2E6D6F6C0A20204368656D447261773131313830393031343732440A2031392032302020302020302020302020302020302020302020302020303939392056323030300A2020202D302E3339323320202020302E3239383120202020302E303030302043202020302020302020302020302020302020302020302020302020302020302020302020300A2020202D302E333932332020202D302E3532363920202020302E303030302043202020302020302020302020302020302020302020302020302020302020302020302020300A20202020302E333232322020202D302E3933393420202020302E303030302043202020302020302020302020302020302020302020302020302020302020302020302020300A20202020312E303336362020202D302E3532363920202020302E303030302043202020302020302020302020302020302020302020302020302020302020302020302020300A20202020312E3033363620202020302E3239383120202020302E303030302043202020302020302020302020302020302020302020302020302020302020302020302020300A20202020302E3332323220202020302E3731303620202020302E303030302043202020302020302020302020302020302020302020302020302020302020302020302020300A20202020312E383231332020202D302E3738313920202020302E303030302043202020302020302020302020302020302020302020302020302020302020302020302020300A20202020322E333036322020202D302E3131343420202020302E303030302043202020302020302020302020302020302020302020302020302020302020302020302020300A20202020312E3832313320202020302E3535333020202020302E303030302043202020302020302020302020302020302020302020302020302020302020302020302020300A20202020312E343835372020202D312E3533353620202020302E303030302043202020302020302020302020302020302020302020302020302020302020302020302020300A20202020322E353335372020202D312E3139343420202020302E303030302043202020302020302020302020302020302020302020302020302020302020302020302020300A20202020332E323530322020202D302E3738313920202020302E303030302043202020302020302020302020302020302020302020302020302020302020302020302020300A2020202D312E3130363820202020302E3731303620202020302E303030302043202020302020302020302020302020302020302020302020302020302020302020302020300A2020202D312E3832313320202020302E3239383120202020302E303030302043202020302020302020302020302020302020302020302020302020302020302020302020300A2020202D312E3130363820202020312E3533353620202020302E303030302043202020302020302020302020302020302020302020302020302020302020302020302020300A2020202D322E3533353720202020302E3731303620202020302E303030302043202020302020302020302020302020302020302020302020302020302020302020302020300A2020202D332E3235303220202020302E3239383120202020302E30303030204F202020302020302020302020302020302020302020302020302020302020302020302020300A20202020322E3533353720202020302E3936353520202020302E303030302043202020302020302020302020302020302020302020302020302020302020302020302020300A20202020312E3438353720202020312E3330363720202020302E303030302043202020302020302020302020302020302020302020302020302020302020302020302020300A2020312020322020322020302020202020200A2020322020332020312020302020202020200A2020332020342020322020302020202020200A2020342020352020312020302020202020200A2020352020362020322020302020202020200A2020362020312020312020302020202020200A2020342020372020312020302020202020200A2020372020382020312020302020202020200A2020382020392020312020302020202020200A2020392020352020312020302020202020200A2020372031302020312020302020202020200A2020372031312020312020302020202020200A2031312031322020312020302020202020200A2020312031332020312020302020202020200A2031332031342020312020302020202020200A2031332031352020312020302020202020200A2031342031362020312020302020202020200A2031362031372020322020302020202020200A2020392031382020312020312020202020200A2020392031392020312020362020202020200A4D2020454E44
Contributor: KURARAY CO., LTD.
InstType: EI
InstName: JEOL JMS-D-300
IoniMethod: _ENERGY 70 eV
IonPolarity: pos
Date: 2010-10-09 19:48:36+02:00
Num Peaks: 20
41 20 43 80 57 20 71 13 128 20 129 20 171 20 173 3 185 20 199 50 
200 20 214 3 215 150 216 20 229 999 230 19 243 340 244 70 258 150 259 20 
