Name: 2-METHYLTHIO-4-PYRIMIDINONE
MW: 142
Formula: C5H6N2OS
Synonym: MassBank: JP011207
Synonym: 2-METHYLTHIO-4-PYRIMIDINONE
Structure: 310A32330A322D4D455448594C5448494F2D342D505952494D4944494E4F4E452E6D6F6C0A20204368656D447261773032323131303036303632440A2020392020392020302020302020302020302020302020302020302020303939392056323030300A20202020302E333537322020202D302E3431323520202020302E303030302043202020302020302020302020302020302020302020302020302020302020302020302020300A2020202D302E333537322020202D302E3832353020202020302E30303030204E202020302020302020302020302020302020302020302020302020302020302020302020300A2020202D312E303731372020202D302E3431323520202020302E303030302043202020302020302020302020302020302020302020302020302020302020302020302020300A2020202D312E3037313720202020302E3431323520202020302E303030302043202020302020302020302020302020302020302020302020302020302020302020302020300A2020202D302E3335373220202020302E3832353020202020302E303030302043202020302020302020302020302020302020302020302020302020302020302020302020300A20202020302E3335373220202020302E3431323520202020302E30303030204E202020302020302020302020302020302020302020302020302020302020302020302020300A2020202D312E373836322020202D302E3832353020202020302E30303030204F202020302020302020302020302020302020302020302020302020302020302020302020300A20202020312E303731372020202D302E3832353020202020302E303030302053202020302020302020302020302020302020302020302020302020302020302020302020300A20202020312E373836322020202D302E3431323520202020302E303030302043202020302020302020302020302020302020302020302020302020302020302020302020300A2020312020322020312020302020202020200A2020322020332020312020302020202020200A2020332020342020312020302020202020200A2020342020352020322020302020202020200A2020352020362020312020302020202020200A2020312020362020322020302020202020200A2020332020372020322020302020202020200A2020382020392020312020302020202020200A2020312020382020312020302020202020200A4D2020454E44
Contributor: SAWADA M, THE INST. OF SCIENTIFIC AND INDUSTRIALRESEARCH OSAKA UNIV.
InstType: EI
InstName: JEOL JMS-DX-300
IoniMethod: _ENERGY 70 eV
IonPolarity: pos
Date: 2010-10-09 19:48:36+02:00
Num Peaks: 51
38 17 39 48 40 454 41 120 42 83 43 80 44 100 45 209 46 114 47 119 
48 16 51 16 52 30 53 124 54 22 55 35 56 12 57 39 58 32 59 51 
60 17 66 13 67 192 68 186 69 247 70 171 71 26 72 44 73 66 74 92 
75 22 81 37 82 24 83 23 84 14 86 14 95 581 96 254 97 70 98 13 
99 11 100 34 101 42 109 24 113 23 114 92 115 16 141 71 142 999 143 108 
144 57 
