Name: DIMETHYL EICOSADIOATE
MW: 370
Formula: C22H42O4
Synonym: MassBank: JP010065
Synonym: DIMETHYL EICOSADIOATE
Structure: 303833315F44494D455448594C204549434F534144494F4154452E6D6F6C0A20204368656D447261773130323031303138303432440A2032352032342020302020302020302020302020302020302020302020303939392056323030300A2020202D342E3835303320202020312E3333333220202020302E303030302043202020302020302020302020302020302020302020302020302020302020302020302020300A2020202D342E3433373820202020302E3631383720202020302E303030302043202020302020302020302020302020302020302020302020302020302020302020302020300A2020202D342E383530332020202D302E3039353720202020302E303030302043202020302020302020302020302020302020302020302020302020302020302020302020300A2020202D342E343337382020202D302E3831303220202020302E303030302043202020302020302020302020302020302020302020302020302020302020302020302020300A2020202D342E383530332020202D312E3532343720202020302E303030302043202020302020302020302020302020302020302020302020302020302020302020302020300A2020202D342E343337382020202D322E3233393120202020302E303030302043202020302020302020302020302020302020302020302020302020302020302020302020300A2020202D332E373233332020202D322E3635313620202020302E303030302043202020302020302020302020302020302020302020302020302020302020302020302020300A2020202D332E303038392020202D322E3233393120202020302E303030302043202020302020302020302020302020302020302020302020302020302020302020302020300A2020202D322E323934342020202D322E3635313620202020302E303030302043202020302020302020302020302020302020302020302020302020302020302020302020300A2020202D312E353739392020202D322E3233393120202020302E303030302043202020302020302020302020302020302020302020302020302020302020302020302020300A2020202D302E383635352020202D322E3635313620202020302E303030302043202020302020302020302020302020302020302020302020302020302020302020302020300A2020202D302E313531302020202D322E3233393120202020302E303030302043202020302020302020302020302020302020302020302020302020302020302020302020300A20202020302E353633352020202D322E3635313620202020302E303030302043202020302020302020302020302020302020302020302020302020302020302020302020300A20202020312E323738302020202D322E3233393120202020302E303030302043202020302020302020302020302020302020302020302020302020302020302020302020300A20202020312E393932342020202D322E3635313620202020302E303030302043202020302020302020302020302020302020302020302020302020302020302020302020300A20202020322E373036392020202D322E3233393120202020302E303030302043202020302020302020302020302020302020302020302020302020302020302020302020300A20202020332E343231342020202D322E3635313620202020302E303030302043202020302020302020302020302020302020302020302020302020302020302020302020300A20202020342E313335382020202D322E3233393120202020302E303030302043202020302020302020302020302020302020302020302020302020302020302020302020300A20202020342E313335382020202D312E3431343120202020302E30303030204F202020302020302020302020302020302020302020302020302020302020302020302020300A20202020342E383530332020202D322E3635313620202020302E30303030204F202020302020302020302020302020302020302020302020302020302020302020302020300A20202020342E383530332020202D332E3437363620202020302E303030302043202020302020302020302020302020302020302020302020302020302020302020302020300A2020202D342E3433373820202020322E3034373720202020302E303030302043202020302020302020302020302020302020302020302020302020302020302020302020300A2020202D332E3631323820202020322E3034373720202020302E30303030204F202020302020302020302020302020302020302020302020302020302020302020302020300A2020202D342E3835303320202020322E3736323220202020302E30303030204F202020302020302020302020302020302020302020302020302020302020302020302020300A2020202D342E3433373820202020332E3437363620202020302E303030302043202020302020302020302020302020302020302020302020302020302020302020302020300A2020312020322020312020302020202020200A2020322020332020312020302020202020200A2020332020342020312020302020202020200A2020342020352020312020302020202020200A2020352020362020312020302020202020200A2020362020372020312020302020202020200A2020372020382020312020302020202020200A2020382020392020312020302020202020200A2020392031302020312020302020202020200A2031302031312020312020302020202020200A2031312031322020312020302020202020200A2031322031332020312020302020202020200A2031332031342020312020302020202020200A2031342031352020312020302020202020200A2031352031362020312020302020202020200A2031362031372020312020302020202020200A2031372031382020312020302020202020200A2031382031392020322020302020202020200A2031382032302020312020302020202020200A2032302032312020312020302020202020200A2020312032322020312020302020202020200A2032322032332020322020302020202020200A2032322032342020312020302020202020200A2032342032352020312020302020202020200A4D2020454E44
Contributor: KURARAY CO., LTD.
InstType: EI
InstName: JEOL JMS-D-300
IoniMethod: _ENERGY 70 eV
IonPolarity: pos
Date: 2010-10-09 19:48:36+02:00
Num Peaks: 96
27 12 29 62 41 214 42 4 43 318 45 16 54 15 55 45 56 48 57 170 
59 133 67 8 68 39 69 316 70 39 71 8 73 31 74 517 75 48 80 2 
81 99 82 50 83 233 84 39 85 63 87 278 88 18 93 2 94 33 95 96 
96 69 97 22 98 999 99 88 101 39 107 2 108 28 109 61 110 35 111 13 
112 338 113 32 115 31 121 6 122 14 123 39 124 13 125 7 126 92 129 29 
130 19 135 6 137 19 139 38 140 60 141 2 143 33 144 32 149 29 152 1 
153 32 154 97 157 15 158 4 163 12 167 13 168 48 171 2 172 32 182 29 
185 20 196 2 209 15 210 30 222 17 223 2 224 64 241 26 247 27 255 2 
264 70 265 93 278 33 282 2 283 18 284 18 296 18 297 2 298 36 306 55 
307 18 338 10 339 244 340 51 370 22 371 12 
