Name: GLYCOLIC ACID
CAS: 79-14-1
MW: 76
Formula: C2H4O3
Synonym: MassBank: JP011909
Synonym: GLYCOLIC ACID
Synonym: HYDROXYACETIC ACID
Structure: 310A31340A485944524F585941434554494320414349442E6D6F6C0A20204368656D447261773038313131303230343732440A2020352020342020302020302020302020302020302020302020302020303939392056323030300A20202020302E333537322020202D302E3230363220202020302E303030302043202020302020302020302020302020302020302020302020302020302020302020302020300A2020202D302E333537322020202D302E3631383820202020302E303030302043202020302020302020302020302020302020302020302020302020302020302020302020300A20202020302E3335373220202020302E3631383820202020302E30303030204F202020302020302020302020302020302020302020302020302020302020302020302020300A20202020312E303731372020202D302E3631383720202020302E30303030204F202020302020302020302020302020302020302020302020302020302020302020302020300A2020202D312E303731372020202D302E3230363220202020302E30303030204F202020302020302020302020302020302020302020302020302020302020302020302020300A2020312020322020312020302020202020200A2020312020332020322020302020202020200A2020312020342020312020302020202020200A2020322020352020312020302020202020200A4D2020454E44
Contributor: YAMAMOTO M, DEP. CHEMISTRY, FAC. SCIENCE, NARA WOMEN'S UNIV.
InstType: EI
InstName: HITACHI M-2500
IoniMethod: _ENERGY 70 eV
IonPolarity: pos
Date: 2010-10-09 19:48:36+02:00
Num Peaks: 14
14 13 19 34 28 31 29 271 30 53 31 999 32 320 42 25 44 17 45 125 
46 13 47 17 49 141 77 100 
