Name: 4-CYANO-2-PHENYL-1-PYRROLINE
MW: 170
Formula: C11H10N2
Synonym: MassBank: JP010261
Synonym: 4-CYANO-2-PHENYL-1-PYRROLINE
Structure: 342D4359414E4F2D322D5048454E594C2D312D505952524F4C494E452E6D6F6C0A20204368656D447261773033323531303131333932440A2031332031342020302020302020302020302020302020302020302020303939392056323030300A2020202D302E333135342020202D312E3134393520202020302E30303030204E202020302020302020302020302020302020302020302020302020302020302020302020300A2020202D302E343031362020202D302E3332393020202020302E303030302043202020302020302020302020302020302020302020302020302020302020302020302020300A20202020302E3335323020202020302E3030363620202020302E303030302043202020302020302020302020302020302020302020302020302020302020302020302020300A20202020302E393034312020202D302E3630363520202020302E303030302043202020302020302020302020302020302020302020302020302020302020302020302020300A20202020302E343931362020202D312E3332313020202020302E303030302043202020302020302020302020302020302020302020302020302020302020302020302020300A2020202D312E3131363120202020302E3038333520202020302E303030302043202020302020302020302020302020302020302020302020302020302020302020302020300A2020202D312E383330362020202D302E3332393020202020302E303030302043202020302020302020302020302020302020302020302020302020302020302020302020300A2020202D322E3534353020202020302E3038333520202020302E303030302043202020302020302020302020302020302020302020302020302020302020302020302020300A2020202D322E3534353020202020302E3930383520202020302E303030302043202020302020302020302020302020302020302020302020302020302020302020302020300A2020202D312E3833303620202020312E3332313020202020302E303030302043202020302020302020302020302020302020302020302020302020302020302020302020300A2020202D312E3131363120202020302E3930383520202020302E303030302043202020302020302020302020302020302020302020302020302020302020302020302020300A20202020312E373234362020202D302E3532303320202020302E303030302043202020302020302020302020302020302020302020302020302020302020302020302020300A20202020322E353435302020202D302E3433343120202020302E30303030204E202020302020302020302020302020302020302020302020302020302020302020302020300A2020312020322020322020302020202020200A2020322020332020312020302020202020200A2020332020342020312020302020202020200A2020342020352020312020302020202020200A2020312020352020312020302020202020200A2020362020372020312020302020202020200A2020372020382020322020302020202020200A2020382020392020312020302020202020200A2020392031302020322020302020202020200A2031302031312020312020302020202020200A2020362031312020322020302020202020200A2020322020362020312020302020202020200A2031322031332020332020302020202020200A2020342031322020312020302020202020200A4D2020454E44
Contributor: KANEMASA S, INST. OF ADVANCED MATERIAL STUDY KYUSHU UNIV.
InstType: EI
InstName: JEOL JMS-01-SG-2
IoniMethod: _ENERGY 75 eV
IonPolarity: pos
Date: 2010-10-09 19:48:36+02:00
Num Peaks: 33
38 37 39 130 40 31 41 53 43 272 45 47 50 66 51 161 52 53 53 36 
58 47 59 56 61 285 62 35 63 81 65 38 76 68 77 224 84 68 86 44 
89 96 90 83 91 56 101 30 103 68 104 29 115 41 116 46 117 999 118 98 
154 30 170 199 171 30 
