Name: BUTYLTRIMETHYLSILANE (D9)
MW: 130
Formula: C7H18Si
Synonym: MassBank: JP012045
Synonym: BUTYLTRIMETHYLSILANE (D9)
Structure: 425554594C5452494D455448594C53494C414E4520284439292E6D6F6C0A20204368656D447261773039303631303034353332440A2031372031362020302020302020302020302020302020302020302020303939392056323030300A2020202D302E3238383820202020302E3030303020202020302E303030302053692020302020302020302020302020302020302020302020302020302020302020302020300A2020202D302E313634322020202D312E3036353220202020302E303030302043202020302020302020302020302020302020302020302020302020302020302020302020300A2020202D312E3630383720202020302E3030303020202020302E303030302043202020302020302020302020302020302020302020302020302020302020302020302020300A2020202D302E3136343220202020312E3036353220202020302E303030302043202020302020302020302020302020302020302020302020302020302020302020302020300A20202020302E3738333820202020302E3030303020202020302E303030302043202020302020302020302020302020302020302020302020302020302020302020302020300A20202020312E313936332020202D302E3731343520202020302E303030302043202020302020302020302020302020302020302020302020302020302020302020302020300A20202020322E303231332020202D302E3731343520202020302E303030302043202020302020302020302020302020302020302020302020302020302020302020302020300A20202020322E343333372020202D312E3432383920202020302E303030302043202020302020302020302020302020302020302020302020302020302020302020302020300A20202020302E363535322020202D302E3936393520202020302E303030302048202020312020302020302020302020302020302020302020302020302020302020302020300A2020202D302E303638352020202D312E3838343720202020302E303030302048202020312020302020302020302020302020302020302020302020302020302020302020300A2020202D302E393833372020202D312E3136313020202020302E303030302048202020312020302020302020302020302020302020302020302020302020302020302020300A2020202D312E3630383720202020302E3832353020202020302E303030302048202020312020302020302020302020302020302020302020302020302020302020302020300A2020202D322E3433333720202020302E3030303020202020302E303030302048202020312020302020302020302020302020302020302020302020302020302020302020300A2020202D312E363038372020202D302E3832353020202020302E303030302048202020312020302020302020302020302020302020302020302020302020302020302020300A2020202D302E3938333720202020312E3136313020202020302E303030302048202020312020302020302020302020302020302020302020302020302020302020302020300A2020202D302E3036383520202020312E3838343720202020302E303030302048202020312020302020302020302020302020302020302020302020302020302020302020300A20202020302E3635353220202020302E3936393520202020302E303030302048202020312020302020302020302020302020302020302020302020302020302020302020300A2020312020322020312020302020202020200A2020312020332020312020302020202020200A2020312020342020312020302020202020200A2020352020362020312020302020202020200A2020362020372020312020302020202020200A2020372020382020312020302020202020200A2020312020352020312020302020202020200A2020322020392020312020302020202020200A2020322031302020312020302020202020200A2020322031312020312020302020202020200A2020332031322020312020302020202020200A2020332031332020312020302020202020200A2020332031342020312020302020202020200A2020342031352020312020302020202020200A2020342031362020312020302020202020200A2020342031372020312020302020202020200A4D202049534F202038202020392020203220203130202020322020313120202032202031322020203220203133202020322020313420202032202031352020203220203136202020320A4D202049534F20203120203137202020320A4D2020454E44
Contributor: YAMAMOTO M, DEP. CHEMISTRY, FAC. SCIENCE, NARA WOMEN'S UNIV.
InstType: EI
InstName: HITACHI RMU-6M
IoniMethod: _ENERGY 70 eV
IonPolarity: pos
Date: 2010-10-09 19:48:36+02:00
Num Peaks: 26
27 29 28 20 29 22 30 22 33 13 34 16 44 16 46 78 48 29 49 16 
50 91 62 13 64 46 65 342 66 32 67 10 79 74 80 11 81 31 82 999 
83 86 84 34 110 11 121 158 122 20 139 24 
