Name: MassBank: JP011818
MW: 478
Formula: C28H34N2O3S
Synonym: MassBank: JP011818
Synonym: N-((E)-(3S)-3-BENZYLAMINO-5-PHENYL-4-PENENOYL)BORNANE-10,2-SALTAM
Structure: 313131395F4E2D282845292D283353292D332D42454E5A594C414D494E4F2D352D5048454E594C2D342D50454E454E4F594C29424F524E414E452D31302C322D53554C54414D2E6D6F6C0A20204368656D447261773130323031303230333432440A2033362034302020302020302020302020302020302020302020302020303939392056323030300A2020202D322E3832343320202020312E3137353620202020302E303030302043202020302020302020302020302020302020302020302020302020302020302020302020300A2020202D322E3130393920202020312E3538383120202020302E303030302043202020302020302020302020302020302020302020302020302020302020302020302020300A2020202D312E3339353420202020312E3137353620202020302E303030302043202020302020302020302020302020302020302020302020302020302020302020302020300A2020202D302E3638303920202020312E3538383120202020302E303030302043202020302020302020302020302020302020302020302020302020302020302020302020300A20202020302E3033333520202020312E3137353620202020302E303030302043202020302020302020302020302020302020302020302020302020302020302020302020300A20202020302E3734383020202020312E3538383120202020302E303030302043202020302020302020302020302020302020302020302020302020302020302020302020300A20202020312E3436323520202020312E3137353620202020302E30303030204E202020302020302020302020302020302020302020302020302020302020302020302020300A2020202D302E3730313620202020302E3437343420202020302E30303030204E202020302020302020302020302020302020302020302020302020302020302020302020300A20202020302E3031323920202020302E3036313920202020302E303030302043202020302020302020302020302020302020302020302020302020302020302020302020300A20202020302E303132392020202D302E3736333120202020302E303030302043202020302020302020302020302020302020302020302020302020302020302020302020300A20202020302E3734383020202020322E3431333120202020302E30303030204F202020302020302020302020302020302020302020302020302020302020302020302020300A20202020312E3534383720202020302E3335353220202020302E303030302043202020302020302020302020302020302020302020302020302020302020302020302020300A20202020322E3335353720202020302E3138333620202020302E303030302043202020302020302020302020302020302020302020302020302020302020302020302020300A20202020322E3736383220202020302E3839383120202020302E303030302043202020302020302020302020302020302020302020302020302020302020302020302020300A20202020322E3231363220202020312E3531313220202020302E303030302053202020302020302020302020302020302020302020302020302020302020302020302020300A20202020322E3338373720202020322E3331383220202020302E30303030204F202020302020302020302020302020302020302020302020302020302020302020302020300A20202020332E3031333120202020312E3732343720202020302E30303030204F202020302020302020302020302020302020302020302020302020302020302020302020300A20202020322E373638322020202D302E3533303820202020302E303030302043202020302020302020302020302020302020302020302020302020302020302020302020300A20202020332E353933322020202D302E3533303820202020302E303030302043202020302020302020302020302020302020302020302020302020302020302020302020300A20202020342E3030353720202020302E3138333620202020302E303030302043202020302020302020302020302020302020302020302020302020302020302020302020300A20202020332E3539333220202020302E3839383120202020302E303030302043202020302020302020302020302020302020302020302020302020302020302020302020300A20202020332E3432393120202020302E3430343320202020302E303030302043202020302020302020302020302020302020302020302020302020302020302020302020300A20202020332E3939373420202020312E3030323320202020302E303030302043202020302020302020302020302020302020302020302020302020302020302020302020300A20202020342E3235333320202020302E3336393420202020302E303030302043202020302020302020302020302020302020302020302020302020302020302020302020300A20202020312E383034352020202D302E3433303320202020302E303030302048202020302020302020302020302020302020302020302020302020302020302020302020300A2020202D302E373031352020202D312E3137353620202020302E303030302043202020302020302020302020302020302020302020302020302020302020302020302020300A2020202D302E373031352020202D322E3030303620202020302E303030302043202020302020302020302020302020302020302020302020302020302020302020302020300A20202020302E303132392020202D322E3431333120202020302E303030302043202020302020302020302020302020302020302020302020302020302020302020302020300A20202020302E373237342020202D322E3030303620202020302E303030302043202020302020302020302020302020302020302020302020302020302020302020302020300A20202020302E373237342020202D312E3137353620202020302E303030302043202020302020302020302020302020302020302020302020302020302020302020302020300A2020202D332E3533383820202020312E3538383120202020302E303030302043202020302020302020302020302020302020302020302020302020302020302020302020300A2020202D342E3235333320202020312E3137353620202020302E303030302043202020302020302020302020302020302020302020302020302020302020302020302020300A2020202D342E3235333320202020302E3335303620202020302E303030302043202020302020302020302020302020302020302020302020302020302020302020302020300A2020202D332E353338382020202D302E3036313820202020302E303030302043202020302020302020302020302020302020302020302020302020302020302020302020300A2020202D322E3832343320202020302E3335303620202020302E303030302043202020302020302020302020302020302020302020302020302020302020302020302020300A2020202D302E3730303420202020322E3431323920202020302E303030302048202020302020302020302020302020302020302020302020302020302020302020302020300A2020312020322020312020302020202020200A2020322020332020322020302020202020200A2020332020342020312020302020202020200A2020342020352020312020302020202020200A2020352020362020312020302020202020200A2020362020372020312020302020202020200A2020342020382020312020312020202020200A2020382020392020312020302020202020200A2020392031302020312020302020202020200A2020362031312020322020302020202020200A2020372031322020312020302020202020200A2031322031332020312020302020202020200A2031332031342020312020302020202020200A2031342031352020312020302020202020200A2031352020372020312020302020202020200A2031352031362020322020302020202020200A2031352031372020322020302020202020200A2031332031382020312020302020202020200A2031382031392020312020302020202020200A2031392032302020312020302020202020200A2032312031342020312020302020202020200A2031342032322020312020362020202020200A2031392032322020312020362020202020200A2032322032332020312020302020202020200A2032322032342020312020302020202020200A2032312032302020312020302020202020200A2031332032352020312020362020202020200A2031302032362020322020302020202020200A2032362032372020312020302020202020200A2032372032382020322020302020202020200A2032382032392020312020302020202020200A2032392033302020322020302020202020200A2033302031302020312020302020202020200A2020312033312020322020302020202020200A2033312033322020312020302020202020200A2033322033332020322020302020202020200A2033332033342020312020302020202020200A2033342033352020322020302020202020200A2033352020312020312020302020202020200A2020342033362020312020312020202020200A4D2020454E44
Contributor: YOSHINORI Y, FAC. SCIENCE, TOHOKU UNIV.
InstType: EI
InstName: Unknown
IoniMethod: _ENERGY 20 eV
IonPolarity: pos
Date: 2010-10-09 19:48:36+02:00
Num Peaks: 17
291 53 294 19 307 17 323 36 325 12 371 378 372 95 373 52 387 999 388 260 
389 86 390 12 429 21 476 39 477 16 478 53 479 13 
