Name: INDOLE-3-CARBALDEHYDE
CAS: 487-89-8
MW: 145
Formula: C9H7NO
Synonym: MassBank: JP010547
Synonym: INDOLE-3-CARBALDEHYDE
Structure: 494E444F4C452D332D43415242414C4445485944452E6D6F6C0A20204368656D447261773038313131303230353232440A2031312031322020302020302020302020302020302020302020302020303939392056323030300A2020202D302E3133373820202020312E3032313020202020302E30303030204E202020302020302020302020302020302020302020302020302020302020302020302020300A20202020302E3631353920202020302E3638353520202020302E303030302043202020302020302020302020302020302020302020302020302020302020302020302020300A20202020302E353239362020202D302E3133353020202020302E303030302043202020302020302020302020302020302020302020302020302020302020302020302020300A2020202D302E323737332020202D302E3330363520202020302E303030302043202020302020302020302020302020302020302020302020302020302020302020302020300A2020202D302E363839382020202D312E3032313020202020302E303030302043202020302020302020302020302020302020302020302020302020302020302020302020300A2020202D312E353134382020202D312E3032313020202020302E303030302043202020302020302020302020302020302020302020302020302020302020302020302020300A2020202D312E393237332020202D302E3330363520202020302E303030302043202020302020302020302020302020302020302020302020302020302020302020302020300A2020202D312E3531343820202020302E3430373920202020302E303030302043202020302020302020302020302020302020302020302020302020302020302020302020300A2020202D302E3638393820202020302E3430373920202020302E303030302043202020302020302020302020302020302020302020302020302020302020302020302020300A20202020312E313432372020202D302E3638373120202020302E303030302043202020302020302020302020302020302020302020302020302020302020302020302020300A20202020312E393237332020202D302E3433323120202020302E30303030204F202020302020302020302020302020302020302020302020302020302020302020302020300A2020312020322020312020302020202020200A2020322020332020322020302020202020200A2020332020342020312020302020202020200A2020342020352020312020302020202020200A2020352020362020322020302020202020200A2020362020372020312020302020202020200A2020372020382020322020302020202020200A2020382020392020312020302020202020200A2020312020392020312020302020202020200A2020342020392020322020302020202020200A2031302031312020322020302020202020200A2020332031302020312020302020202020200A4D2020454E44
Contributor: NARA WOMEN'S UNIVERSITY
InstType: EI
InstName: HITACHI M-80
IoniMethod: _ENERGY 70 eV
IonPolarity: pos
Date: 2010-10-09 19:48:36+02:00
Num Peaks: 29
28 11 29 35 39 14 40 20 51 17 52 16 53 13 61 22 62 59 63 87 
64 20 65 11 74 19 75 13 76 11 85 11 86 22 87 36 88 39 89 235 
90 54 114 17 115 34 116 259 117 49 143 15 144 999 145 832 146 87 
