Name: MassBank: JP011021
MW: 248
Formula: C14H16O4
Synonym: MassBank: JP011021
Synonym: 2-ACETOXY-4-(1,1-DIMETHYL-2-OXOPROPYL)TROPONE
Structure: 322D414345544F58592D342D28312C312D44494D455448594C2D322D4F584F50524F50594C2954524F504F4E452E6D6F6C0A20204368656D447261773132323130393231343932440A2031382031382020302020302020302020302020302020302020302020303939392056323030300A20202020312E303638392020202D312E3633343320202020302E30303030204F202020302020302020302020302020302020302020302020302020302020302020302020300A20202020302E333839322020202D312E3136313820202020302E303030302043202020302020302020302020302020302020302020302020302020302020302020302020300A2020202D302E333235332020202D312E3537343320202020302E303030302043202020302020302020302020302020302020302020302020302020302020302020302020300A2020202D312E303932352020202D312E3236343520202020302E303030302043202020302020302020302020302020302020302020302020302020302020302020302020300A2020202D312E333239372020202D302E3437343320202020302E303030302043202020302020302020302020302020302020302020302020302020302020302020302020300A2020202D302E3835373220202020302E3230353320202020302E303030302043202020302020302020302020302020302020302020302020302020302020302020302020300A2020202D302E3033363820202020302E3235393320202020302E303030302043202020302020302020302020302020302020302020302020302020302020302020302020300A20202020302E353139382020202D302E3334393620202020302E303030302043202020302020302020302020302020302020302020302020302020302020302020302020300A2020202D312E3236393720202020302E3931393820202020302E303030302043202020302020302020302020302020302020302020302020302020302020302020302020300A2020202D312E3938313520202020302E3530383920202020302E303030302043202020302020302020302020302020302020302020302020302020302020302020302020300A2020202D322E3730303720202020302E3932343020202020302E303030302043202020302020302020302020302020302020302020302020302020302020302020302020300A2020202D312E393831352020202D302E3331303820202020302E30303030204F202020302020302020302020302020302020302020302020302020302020302020302020300A2020202D312E3638323320202020312E3633343320202020302E303030302043202020302020302020302020302020302020302020302020302020302020302020302020300A2020202D302E3535323620202020312E3333333920202020302E303030302043202020302020302020302020302020302020302020302020302020302020302020302020300A20202020312E333138352020202D302E3130333520202020302E30303030204F202020302020302020302020302020302020302020302020302020302020302020302020300A20202020312E393031392020202D302E3638363920202020302E303030302043202020302020302020302020302020302020302020302020302020302020302020302020300A20202020322E373030372020202D302E3434303720202020302E30303030204F202020302020302020302020302020302020302020302020302020302020302020302020300A20202020312E373230392020202D312E3438303920202020302E303030302043202020302020302020302020302020302020302020302020302020302020302020302020300A2020312020322020322020302020202020200A2020322020332020312020302020202020200A2020332020342020322020302020202020200A2020342020352020312020302020202020200A2020352020362020322020302020202020200A2020362020372020312020302020202020200A2020372020382020322020302020202020200A2020322020382020312020302020202020200A2020392031302020312020302020202020200A2031302031312020312020302020202020200A2031302031322020322020302020202020200A2020392031332020312020302020202020200A2020392031342020312020302020202020200A2020362020392020312020302020202020200A2031362031372020322020302020202020200A2031362031382020312020302020202020200A2031352031362020312020302020202020200A2020382031352020312020302020202020200A4D2020454E44
Contributor: TAKESHITA H, INST. OF ADVANCED MATERIAL STUDY KYUSHU UNIV.
InstType: EI
InstName: JEOL JMS-01-SG-2
IoniMethod: _ENERGY 75 eV
IonPolarity: pos
Date: 2010-10-09 19:48:36+02:00
Num Peaks: 19
39 16 41 40 42 40 43 999 44 27 55 12 65 19 77 26 91 52 95 10 
105 16 107 31 135 57 149 13 163 42 164 95 165 15 206 30 248 9 
