Name: MassBank: JP011155
MW: 223
Formula: C13H9N3O
Synonym: MassBank: JP011155
Synonym: TRANS-(4'-CYANO-N,N,O)AZOXYBENZENE
Structure: 303338315F5452414E532D2834272D4359414E4F2D4E2C4E2C4F29415A4F585942454E5A454E452E6D6F6C0A20204368656D447261773038323031303032323532440A2031372031382020302020302020302020302020302020302020302020303939392056323030300A2020202D332E353036332020202D302E3335373320202020302E303030302043202020302020302020302020302020302020302020302020302020302020302020302020300A2020202D332E3039333820202020302E3335373220202020302E303030302043202020302020302020302020302020302020302020302020302020302020302020302020300A2020202D322E3236383820202020302E3335373220202020302E303030302043202020302020302020302020302020302020302020302020302020302020302020302020300A2020202D312E383536322020202D302E3335373320202020302E303030302043202020302020302020302020302020302020302020302020302020302020302020302020300A2020202D322E323638382020202D312E3037313720202020302E303030302043202020302020302020302020302020302020302020302020302020302020302020302020300A2020202D332E303933382020202D312E3037313720202020302E303030302043202020302020302020302020302020302020302020302020302020302020302020302020300A2020202D312E303331322020202D302E3335373320202020302E30303030204E202020302020332020302020302020302020302020302020302020302020302020302020300A2020202D302E363138372020202D312E3037313720202020302E30303030204F202020302020352020302020302020302020302020302020302020302020302020302020300A2020202D302E3631383720202020302E3335373220202020302E30303030204E202020302020352020302020302020302020302020302020302020302020302020302020300A20202020302E3230363320202020302E3335373220202020302E303030302043202020302020302020302020302020302020302020302020302020302020302020302020300A20202020302E363138372020202D302E3335373220202020302E303030302043202020302020302020302020302020302020302020302020302020302020302020302020300A20202020312E343433382020202D302E3335373220202020302E303030302043202020302020302020302020302020302020302020302020302020302020302020302020300A20202020312E3835363320202020302E3335373220202020302E303030302043202020302020302020302020302020302020302020302020302020302020302020302020300A20202020312E3434333820202020312E3037313720202020302E303030302043202020302020302020302020302020302020302020302020302020302020302020302020300A20202020302E3631383720202020312E3037313720202020302E303030302043202020302020302020302020302020302020302020302020302020302020302020302020300A20202020322E3638313320202020302E3335373220202020302E303030302043202020302020302020302020302020302020302020302020302020302020302020302020300A20202020332E3530363320202020302E3335373220202020302E30303030204E202020302020302020302020302020302020302020302020302020302020302020302020300A2020312020322020312020302020202020200A2020322020332020322020302020202020200A2020332020342020312020302020202020200A2020342020352020322020302020202020200A2020352020362020312020302020202020200A2020312020362020322020302020202020200A2020372020382020342020302020202020200A2020372020392020342020302020202020200A2020342020372020312020302020202020200A2020392031302020312020302020202020200A2031302031312020322020302020202020200A2031312031322020312020302020202020200A2031322031332020322020302020202020200A2031332031342020312020302020202020200A2031342031352020322020302020202020200A2031352031302020312020302020202020200A2031332031362020312020302020202020200A2031362031372020332020302020202020200A4D202043484720203320202037202020312020203820202D312020203920202D310A4D2020454E44
Contributor: SAWADA M, THE INST. OF SCIENTIFIC AND INDUSTRIALRESEARCH OSAKA UNIV.
InstType: EI
InstName: JEOL JMS-DX-300
IoniMethod: _ENERGY 70 eV
IonPolarity: pos
Date: 2010-10-09 19:48:36+02:00
Num Peaks: 44
38 27 39 45 40 23 41 11 44 22 50 78 51 318 52 38 62 37 63 57 
64 79 65 48 74 18 75 62 76 67 77 999 78 131 88 11 89 68 90 84 
91 244 92 19 93 10 102 162 103 18 104 13 105 273 106 24 107 79 116 60 
117 11 118 28 119 14 139 16 140 19 166 37 167 20 194 29 195 26 207 63 
208 12 222 37 223 702 224 141 
