Name: MassBank: JP010225
MW: 344
Formula: C19H24N2O4
Synonym: MassBank: JP010225
Synonym: 4-ETHOXYCARBONYL-6-ETHYL-5-METHYL-2-(PARA-TOLYL)PERHYDROPYRROLO(3,4-C)PYRROLE-1,3-DIONE (3A,4-CIS-6,6A-TRANS)
Synonym: (4S,6R)-4-ETHOXYCARBONYL-6-ETHYL-5-METHYL-2-(PARA-TOLYL)PERHYDROPYRROLO(3,4-C)PYRROLE-1,3-DIONE
Structure: 2834532C3652292D342D4554484F5859434152424F4E594C2D362D455448594C2D352D4D455448594C2D322D28504152412D544F4C594C29504552485944524F505952524F4C4F28332C342D4329505952524F4C452D312C332D44494F4E452E6D6F6C0A20204368656D447261773130323230393033303432440A2032392033312020302020302020302020302020302020302020302020303939392056323030300A2020202D322E3537303120202020322E3039303920202020302E303030302043202020302020302020302020302020302020302020302020302020302020302020302020300A2020202D312E3230323020202020302E3432363620202020302E303030302043202020302020302020302020302020302020302020302020302020302020302020302020300A2020202D312E3230323020202020312E3235313620202020302E303030302043202020302020302020302020302020302020302020302020302020302020302020302020300A2020202D312E3938363620202020312E3530363520202020302E303030302043202020302020302020302020302020302020302020302020302020302020302020302020300A2020202D322E3437313620202020302E3833393120202020302E30303030204E202020302020302020302020302020302020302020302020302020302020302020302020300A2020202D312E3938363620202020302E3137313620202020302E303030302043202020302020302020302020302020302020302020302020302020302020302020302020300A2020202D302E3431373420202020302E3137313620202020302E303030302043202020302020302020302020302020302020302020302020302020302020302020302020300A20202020302E3036373520202020302E3833393120202020302E30303030204E202020302020302020302020302020302020302020302020302020302020302020302020300A2020202D302E3431373420202020312E3530363520202020302E303030302043202020302020302020302020302020302020302020302020302020302020302020302020300A2020202D302E3136323520202020322E3239313120202020302E30303030204F202020302020302020302020302020302020302020302020302020302020302020302020300A20202020302E3839323520202020302E3833393120202020302E303030302043202020302020302020302020302020302020302020302020302020302020302020302020300A2020202D302E313632352020202D302E3631333020202020302E30303030204F202020302020302020302020302020302020302020302020302020302020302020302020300A2020202D312E3230323020202020322E3037363620202020302E303030302048202020302020302020302020302020302020302020302020302020302020302020302020300A2020202D312E323032302020202D302E3339383420202020302E303030302048202020302020302020302020302020302020302020302020302020302020302020302020300A2020202D312E3737333120202020322E3330333420202020302E303030302048202020302020302020302020302020302020302020302020302020302020302020302020300A2020202D312E393836362020202D302E3635333420202020302E303030302043202020302020302020302020302020302020302020302020302020302020302020302020300A2020202D322E353730302020202D302E3431313720202020302E303030302048202020302020302020302020302020302020302020302020302020302020302020302020300A20202020312E3330353020202020302E3132343620202020302E303030302043202020302020302020302020302020302020302020302020302020302020302020302020300A20202020322E3133303020202020302E3132343620202020302E303030302043202020302020302020302020302020302020302020302020302020302020302020302020300A20202020322E3534323520202020302E3833393120202020302E303030302043202020302020302020302020302020302020302020302020302020302020302020302020300A20202020322E3133303020202020312E3535333520202020302E303030302043202020302020302020302020302020302020302020302020302020302020302020302020300A20202020312E3330353020202020312E3535333520202020302E303030302043202020302020302020302020302020302020302020302020302020302020302020302020300A2020202D312E323732312020202D312E3036353920202020302E30303030204F202020302020302020302020302020302020302020302020302020302020302020302020300A2020202D322E373031312020202D312E3036353920202020302E30303030204F202020302020302020302020302020302020302020302020302020302020302020302020300A2020202D322E373031312020202D312E3839303920202020302E303030302043202020302020302020302020302020302020302020302020302020302020302020302020300A2020202D312E393836362020202D322E3330333420202020302E303030302043202020302020302020302020302020302020302020302020302020302020302020302020300A2020202D332E3336373120202020312E3837383020202020302E303030302043202020302020302020302020302020302020302020302020302020302020302020302020300A20202020332E3336373120202020302E3833393120202020302E303030302043202020302020302020302020302020302020302020302020302020302020302020302020300A2020202D332E3239373520202020302E3833393120202020302E303030302043202020302020302020302020302020302020302020302020302020302020302020302020300A2020322020332020312020302020202020200A2020332020342020312020302020202020200A2020342020352020312020302020202020200A2020352020362020312020302020202020200A2020362020322020312020302020202020200A2020322020372020312020302020202020200A2020372020382020312020302020202020200A2020382020392020312020302020202020200A2020392020332020312020302020202020200A2020392031302020322020302020202020200A2020382031312020312020302020202020200A2020372031322020322020302020202020200A2020332031332020312020312020202020200A2020322031342020312020312020202020200A2020342031352020312020312020202020200A2020362031362020312020312020202020200A2031312031382020322020302020202020200A2031382031392020312020302020202020200A2031392032302020322020302020202020200A2032302032312020312020302020202020200A2032312032322020322020302020202020200A2032322031312020312020302020202020200A2020362031372020312020362020202020200A2020342020312020312020362020202020200A2031362032332020322020302020202020200A2031362032342020312020302020202020200A2032342032352020312020302020202020200A2032352032362020312020302020202020200A2020312032372020312020302020202020200A2032302032382020312020302020202020200A2020352032392020312020302020202020200A4D202053545920203120202031205355500A4D2020534C4220203120202031202020310A4D202053414C20202031202031202032380A4D202053424C20202031202031202033300A4D2020534D5420202031204D650A4D2020534256202020312033302020202D352E3832333420202020372E383737380A4D202053545920203120202032205355500A4D2020534C4220203120202032202020320A4D202053414C20202032202031202032390A4D202053424C20202032202031202033310A4D2020534D5420202032204D650A4D2020534256202020322033312020202D372E3437333920202020372E383737380A4D2020454E44
Contributor: KANEMASA S, INST. OF ADVANCED MATERIAL STUDY KYUSHU UNIV.
InstType: EI
InstName: JEOL JMS-01-SG-2
IoniMethod: _ENERGY 75 eV
IonPolarity: pos
Date: 2010-10-09 19:48:36+02:00
Num Peaks: 32
39 22 41 30 42 39 43 45 55 26 57 24 67 20 77 25 81 49 82 87 
91 31 94 27 104 22 108 23 110 194 132 26 133 27 135 31 149 22 154 20 
257 22 265 72 266 11 269 11 271 999 272 175 273 25 283 19 285 13 315 199 
316 34 344 22 
