Name: 3-(4-NITROPHENYL)HYDROXYMETHYL-5-HYDROXYTROPOLONE
MW: 289
Formula: C14H11NO6
Synonym: MassBank: JP011003
Synonym: 3-(4-NITROPHENYL)HYDROXYMETHYL-5-HYDROXYTROPOLONE
Structure: 332D28342D4E4954524F5048454E594C29485944524F58594D455448594C2D352D485944524F585954524F504F4C4F4E452E6D6F6C0A20204368656D447261773032323231303130323332440A2032312032322020302020302020302020302020302020302020302020303939392056323030300A2020202D322E303839352020202D302E3831343720202020302E30303030204F202020302020302020302020302020302020302020302020302020302020302020302020300A2020202D312E393037392020202D302E3030393920202020302E303030302043202020302020302020302020302020302020302020302020302020302020302020302020300A2020202D322E3535353320202020302E3530323820202020302E303030302043202020302020302020302020302020302020302020302020302020302020302020302020300A2020202D322E3535353320202020312E3332373820202020302E303030302043202020302020302020302020302020302020302020302020302020302020302020302020300A2020202D312E3931323620202020312E3834333820202020302E303030302043202020302020302020302020302020302020302020302020302020302020302020302020300A2020202D312E3130373820202020312E3636323320202020302E303030302043202020302020302020302020302020302020302020302020302020302020302020302020300A2020202D302E3734383020202020302E3932303920202020302E303030302043202020302020302020302020302020302020302020302020302020302020302020302020300A2020202D312E3130343120202020302E3137353720202020302E303030302043202020302020302020302020302020302020302020302020302020302020302020302020300A2020202D302E353838312020202D302E3436383120202020302E30303030204F202020302020302020302020302020302020302020302020302020302020302020302020300A2020202D322E3039383120202020322E3634373720202020302E30303030204F202020302020302020302020302020302020302020302020302020302020302020302020300A20202020302E3037373020202020302E3932333420202020302E303030302043202020302020302020302020302020302020302020302020302020302020302020302020300A20202020302E3439313720202020302E3231303220202020302E303030302043202020302020302020302020302020302020302020302020302020302020302020302020300A20202020302E3438373320202020312E3633393120202020302E30303030204F202020302020302020302020302020302020302020302020302020302020302020302020300A20202020302E303833352020202D302E3530363820202020302E303030302043202020302020302020302020302020302020302020302020302020302020302020302020300A20202020302E343931372020202D312E3231383720202020302E303030302043202020302020302020302020302020302020302020302020302020302020302020302020300A20202020312E333136372020202D312E3231383720202020302E303030302043202020302020302020302020302020302020302020302020302020302020302020302020300A20202020312E373234382020202D302E3530363820202020302E303030302043202020302020302020302020302020302020302020302020302020302020302020302020300A20202020312E3331363720202020302E3231303220202020302E303030302043202020302020302020302020302020302020302020302020302020302020302020302020300A20202020312E373330332020202D312E3933323620202020302E30303030204E202020302020332020302020302020302020302020302020302020302020302020302020300A20202020312E333138382020202D322E3634373720202020302E30303030204F202020302020302020302020302020302020302020302020302020302020302020302020300A20202020322E353535332020202D312E3933313320202020302E30303030204F202020302020352020302020302020302020302020302020302020302020302020302020300A2020312020322020322020302020202020200A2020322020332020312020302020202020200A2020332020342020322020302020202020200A2020342020352020312020302020202020200A2020352020362020322020302020202020200A2020362020372020312020302020202020200A2020372020382020322020302020202020200A2020322020382020312020302020202020200A2020382020392020312020302020202020200A2020352031302020312020302020202020200A2020372031312020312020302020202020200A2031312031322020312020302020202020200A2031312031332020312020302020202020200A2031322031342020322020302020202020200A2031342031352020312020302020202020200A2031352031362020322020302020202020200A2031362031372020312020302020202020200A2031372031382020322020302020202020200A2031382031322020312020302020202020200A2031362031392020312020302020202020200A2031392032302020322020302020202020200A2031392032312020312020302020202020200A4D202043484720203220203139202020312020323120202D310A4D2020454E44
Contributor: TAKESHITA H, INST. OF ADVANCED MATERIAL STUDY KYUSHU UNIV.
InstType: EI
InstName: JEOL JMS-01-SG-2
IoniMethod: _ENERGY 75 eV
IonPolarity: pos
Date: 2010-10-09 19:48:36+02:00
Num Peaks: 50
30 716 39 719 50 570 51 730 52 469 53 587 54 273 55 800 63 633 64 276 
65 564 75 354 76 701 77 999 78 424 81 404 82 268 92 423 93 294 105 419 
115 860 128 300 137 368 139 695 141 637 168 391 169 328 196 709 197 616 198 121 
199 26 212 26 213 98 214 26 215 103 216 35 224 36 225 51 226 212 227 47 
228 21 241 32 242 52 243 306 244 54 271 21 272 27 273 25 289 175 290 29 
