Name: TRIMETHYLPROPYLSILANE
MW: 116
Formula: C6H16Si
Synonym: MassBank: JP010614
Synonym: TRIMETHYLPROPYLSILANE
Structure: 310A31380A5452494D455448594C50524F50594C53494C414E452E6D6F6C0A20204368656D447261773038313231303038343732440A2020372020362020302020302020302020302020302020302020302020303939392056323030300A20202020302E373134352020202D302E3030303020202020302E303030302053692020302020302020302020302020302020302020302020302020302020302020302020300A20202020302E303030302020202D302E3431323520202020302E303030302043202020302020302020302020302020302020302020302020302020302020302020302020300A2020202D302E373134352020202D302E3030303020202020302E303030302043202020302020302020302020302020302020302020302020302020302020302020302020300A2020202D312E343238392020202D302E3431323520202020302E303030302043202020302020302020302020302020302020302020302020302020302020302020302020300A20202020302E3330323020202020302E3731343520202020302E303030302043202020302020302020302020302020302020302020302020302020302020302020302020300A20202020312E3432383920202020302E3431323520202020302E303030302043202020302020302020302020302020302020302020302020302020302020302020302020300A20202020312E313237302020202D302E3731343520202020302E303030302043202020302020302020302020302020302020302020302020302020302020302020302020300A2020322020332020312020302020202020200A2020332020342020312020302020202020200A2020312020322020312020302020202020200A2020312020352020312020302020202020200A2020312020362020312020302020202020200A2020312020372020312020302020202020200A4D2020454E44
Contributor: YAMAMOTO M, DEP. CHEMISTRY, FAC. SCIENCE, NARA WOMEN'S UNIV.
InstType: EI
InstName: HITACHI RMU-6M
IoniMethod: _ENERGY 70 eV
IonPolarity: pos
Date: 2010-10-09 19:48:36+02:00
Num Peaks: 36
15 12 27 27 28 20 29 5 30 12 31 42 32 12 39 2 41 14 42 28 
43 155 44 4 45 122 46 13 47 10 53 2 54 10 55 32 56 12 58 4 
59 460 60 40 61 21 67 1 69 10 71 13 72 29 73 999 74 91 75 42 
85 16 101 16 102 24 103 12 116 59 117 14 
