Name: MassBank: JP010706
MW: 200
Formula: C13H12O2
Synonym: MassBank: JP010706
Synonym: (2E)-2-(2,4-HEXADIYNYLIDENE)-1,6-DIOXASPIRO(4,4)NON-3-ENE
Structure: 283245292D322D28322C342D484558414449594E594C4944454E45292D312C362D44494F5841535049524F28342C34294E4F4E2D332D454E452E6D6F6C0A20204368656D447261773130323030393039323032440A2031382031392020302020302020302020302020302020302020302020303939392056323030300A20202020332E3434373020202020302E3330303820202020302E303030302043202020302020302020302020302020302020302020302020302020302020302020302020300A20202020322E3639363220202020302E3633313420202020302E30303030204F202020302020302020302020302020302020302020302020302020302020302020302020300A20202020322E3134313320202020302E3032333220202020302E303030302043202020302020302020302020302020302020302020302020302020302020302020302020300A20202020322E353533382020202D302E3639313220202020302E303030302043202020302020302020302020302020302020302020302020302020302020302020302020300A20202020332E333630382020202D302E3531393720202020302E303030302043202020302020302020302020302020302020302020302020302020302020302020302020300A20202020312E3732393720202020302E3733383220202020302E303030302043202020302020302020302020302020302020302020302020302020302020302020302020300A20202020302E3932313820202020302E3536363220202020302E303030302043202020302020302020302020302020302020302020302020302020302020302020302020300A20202020302E383335342020202D302E3235333920202020302E303030302043202020302020302020302020302020302020302020302020302020302020302020302020300A20202020312E353935332020202D302E3539303820202020302E30303030204F202020302020302020302020302020302020302020302020302020302020302020302020300A20202020302E313231312020202D302E3636383720202020302E303030302043202020302020302020302020302020302020302020302020302020302020302020302020300A20202020322E3036383320202020312E3439313120202020302E303030302048202020302020302020302020302020302020302020302020302020302020302020302020300A20202020302E3331333420202020312E3131343320202020302E303030302048202020302020302020302020302020302020302020302020302020302020302020302020300A2020202D302E353933302020202D302E3235383620202020302E303030302043202020302020302020302020302020302020302020302020302020302020302020302020300A20202020302E313235382020202D312E3439313120202020302E303030302048202020302020302020302020302020302020302020302020302020302020302020302020300A2020202D312E3330353420202020302E3135333920202020302E303030302043202020302020302020302020302020302020302020302020302020302020302020302020300A2020202D322E3031373820202020302E3536363420202020302E303030302043202020302020302020302020302020302020302020302020302020302020302020302020300A2020202D322E3733353620202020302E3937383920202020302E303030302043202020302020302020302020302020302020302020302020302020302020302020302020300A2020202D332E3434373020202020312E3339353520202020302E303030302043202020302020302020302020302020302020302020302020302020302020302020302020300A2020312020322020312020302020202020200A2020322020332020312020302020202020200A2020332020342020312020302020202020200A2020342020352020312020302020202020200A2020352020312020312020302020202020200A2020332020362020312020302020202020200A2020362020372020322020302020202020200A2020372020382020312020302020202020200A2020382020392020312020302020202020200A2020392020332020312020302020202020200A2020382031302020322020302020202020200A2020362031312020312020302020202020200A2020372031322020312020302020202020200A2031302031332020312020302020202020200A2031302031342020312020302020202020200A2031332031352020332020302020202020200A2031352031362020312020302020202020200A2031362031372020332020302020202020200A2031372031382020312020302020202020200A4D2020454E44
Contributor: EGUCHI S, FAC. OF SCIENCE, HIROSHIMA UNIV.
InstType: EI
InstName: HITACHI RMU-6L
IoniMethod: _ENERGY 70 eV
IonPolarity: pos
Date: 2010-10-09 19:48:36+02:00
Num Peaks: 87
41 160 42 130 43 60 47 8 50 250 51 160 52 70 53 9 54 130 55 140 
62 60 63 11 64 40 65 80 66 60 67 12 68 55 69 65 74 120 75 14 
76 250 77 160 78 105 79 15 82 90 83 230 85 320 86 4 87 70 88 60 
89 60 91 11 92 30 93 30 94 30 95 6 96 55 100 30 101 30 102 19 
103 70 104 55 105 60 106 6 107 115 108 70 109 30 113 3 114 40 115 320 
116 140 117 6 118 30 119 20 127 120 128 20 129 220 130 155 131 70 132 4 
133 30 139 40 141 130 142 4 143 100 144 130 145 45 152 5 153 55 155 60 
156 60 157 20 158 170 159 80 169 165 170 26 171 180 172 140 173 30 183 3 
184 45 185 165 186 30 199 19 200 999 201 150 202 30 
