Name: (1R)-2-(2-TETRAHYDROPYRANYLOXY)-1-PROPIONYLAMINOETHYLBENZENE
MW: 277
Formula: C16H23NO3
Synonym: MassBank: JP010833
Synonym: (1R)-2-(2-TETRAHYDROPYRANYLOXY)-1-PROPIONYLAMINOETHYLBENZENE
Structure: 283152292D322D28322D5445545241485944524F505952414E594C4F5859292D312D50524F50494F4E594C414D494E4F455448594C42454E5A454E452E6D6F6C0A20204368656D447261773130313930393132323932440A2032312032322020302020302020302020302020302020302020302020303939392056323030300A2020202D322E3638333820202020312E3032313520202020302E303030302043202020302020302020302020302020302020302020302020302020302020302020302020300A2020202D332E3039333720202020302E3330353520202020302E303030302043202020302020302020302020302020302020302020302020302020302020302020302020300A2020202D322E363738372020202D302E3430373520202020302E303030302043202020302020302020302020302020302020302020302020302020302020302020302020300A2020202D312E383533372020202D302E3430343520202020302E303030302043202020302020302020302020302020302020302020302020302020302020302020302020300A2020202D312E3434333720202020302E3331333020202020302E303030302043202020302020302020302020302020302020302020302020302020302020302020302020300A2020202D312E3835383820202020312E3032343520202020302E303030302043202020302020302020302020302020302020302020302020302020302020302020302020300A2020202D302E3631383820202020302E3331333020202020302E303030302043202020302020302020302020302020302020302020302020302020302020302020302020300A2020202D302E3631383820202020312E3133393520202020302E303030302048202020302020302020302020302020302020302020302020302020302020302020302020300A2020202D302E363138382020202D302E3531303520202020302E30303030204E202020302020302020302020302020302020302020302020302020302020302020302020300A20202020302E3230363220202020302E3331333020202020302E303030302043202020302020302020302020302020302020302020302020302020302020302020302020300A20202020302E3631393420202020312E3032383620202020302E30303030204F202020302020302020302020302020302020302020302020302020302020302020302020300A20202020312E3434333720202020312E3032383620202020302E303030302043202020302020302020302020302020302020302020302020302020302020302020302020300A20202020312E3835373120202020302E3331353020202020302E303030302043202020302020302020302020302020302020302020302020302020302020302020302020300A20202020322E3638333920202020302E3331393020202020302E303030302043202020302020302020302020302020302020302020302020302020302020302020302020300A20202020332E3039333720202020312E3033353020202020302E303030302043202020302020302020302020302020302020302020302020302020302020302020302020300A20202020322E3637383620202020312E3734383020202020302E303030302043202020302020302020302020302020302020302020302020302020302020302020302020300A20202020312E3835353320202020312E3734343120202020302E30303030204F202020302020302020302020302020302020302020302020302020302020302020302020300A20202020302E303935372020202D302E3932333020202020302E303030302043202020302020302020302020302020302020302020302020302020302020302020302020300A20202020302E303935372020202D312E3734383020202020302E30303030204F202020302020302020302020302020302020302020302020302020302020302020302020300A20202020302E383130312020202D302E3531303420202020302E303030302043202020302020302020302020302020302020302020302020302020302020302020302020300A20202020312E353234352020202D302E3932323920202020302E303030302043202020302020302020302020302020302020302020302020302020302020302020302020300A2020312020322020322020302020202020200A2020322020332020312020302020202020200A2020332020342020322020302020202020200A2020342020352020312020302020202020200A2020352020362020322020302020202020200A2020362020312020312020302020202020200A2020352020372020312020302020202020200A2020372020382020312020312020202020200A2020372020392020312020312020202020200A2020372031302020312020302020202020200A2031302031312020312020302020202020200A2031312031322020312020302020202020200A2031322031332020312020302020202020200A2031332031342020312020302020202020200A2031342031352020312020302020202020200A2031352031362020312020302020202020200A2031362031372020312020302020202020200A2031372031322020312020302020202020200A2020392031382020312020302020202020200A2031382031392020322020302020202020200A2031382032302020312020302020202020200A2032302032312020312020302020202020200A4D202053545920203120202031205355500A4D2020534C4220203120202031202020310A4D202053414C2020203120203220203230202032310A4D202053424C20202031202031202032310A4D2020534D5420202031204348324348330A4D2020534256202020312032312020202D362E3639313420202020352E393838300A4D2020454E44
Contributor: HAMAMATSU UNIV. SCHOOL OF MEDICINE
InstType: EI
InstName: SHIMADZU LKB-9000B
IoniMethod: _ENERGY 70 eV
IonPolarity: pos
Date: 2010-10-09 19:48:36+02:00
Num Peaks: 27
29 187 41 141 43 87 55 78 57 289 67 91 74 91 77 72 78 72 79 52 
85 882 86 52 91 84 103 57 104 123 106 729 107 87 119 80 120 251 162 135 
163 783 164 93 175 76 176 180 194 999 195 138 278 175 
