Name: MassBank: JP010418
MW: 263
Formula: C8Cl4N2
Synonym: MassBank: JP010418
Synonym: 1,3,4,5-TETRACHLORO-2,6-DICYANOBENZENE
Synonym: TPN
Structure: 312C332C342C352D544554524143484C4F524F2D322C362D44494359414E4F42454E5A454E452E6D6F6C0A20204368656D447261773131313130393137343332440A2031342031342020302020302020302020302020302020302020302020303939392056323030300A20202020302E3030303020202020302E3335373220202020302E303030302043202020302020302020302020302020302020302020302020302020302020302020302020300A20202020302E343132352020202D302E3335373220202020302E303030302043202020302020302020302020302020302020302020302020302020302020302020302020300A20202020302E303030302020202D312E3037313720202020302E303030302043202020302020302020302020302020302020302020302020302020302020302020302020300A2020202D302E383235302020202D312E3037313720202020302E303030302043202020302020302020302020302020302020302020302020302020302020302020302020300A2020202D312E323337352020202D302E3335373220202020302E303030302043202020302020302020302020302020302020302020302020302020302020302020302020300A2020202D302E3832353020202020302E3335373220202020302E303030302043202020302020302020302020302020302020302020302020302020302020302020302020300A2020202D312E3233373520202020312E3037313720202020302E303030302043202020302020302020302020302020302020302020302020302020302020302020302020300A2020202D312E3635303020202020312E3738363220202020302E30303030204E202020302020302020302020302020302020302020302020302020302020302020302020300A20202020312E323337352020202D302E3335373220202020302E303030302043202020302020302020302020302020302020302020302020302020302020302020302020300A20202020322E303632352020202D302E3335373220202020302E30303030204E202020302020302020302020302020302020302020302020302020302020302020302020300A2020202D322E303632352020202D302E3335373220202020302E3030303020436C2020302020302020302020302020302020302020302020302020302020302020302020300A2020202D312E323337352020202D312E3738363220202020302E3030303020436C2020302020302020302020302020302020302020302020302020302020302020302020300A20202020302E343132352020202D312E3738363220202020302E3030303020436C2020302020302020302020302020302020302020302020302020302020302020302020300A20202020302E3431323520202020312E3037313720202020302E3030303020436C2020302020302020302020302020302020302020302020302020302020302020302020300A2020312020322020312020302020202020200A2020322020332020322020302020202020200A2020332020342020312020302020202020200A2020342020352020322020302020202020200A2020352020362020312020302020202020200A2020312020362020322020302020202020200A2020372020382020332020302020202020200A2020362020372020312020302020202020200A2020392031302020332020302020202020200A2020322020392020312020302020202020200A2020352031312020312020302020202020200A2020342031322020312020302020202020200A2020332031332020312020302020202020200A2020312031342020312020302020202020200A4D2020454E44
Contributor: UOEH
InstType: EI
InstName: JEOL JMS-DX-303
IoniMethod: _ENERGY 70 eV
IonPolarity: pos
Date: 2010-10-09 19:48:36+02:00
Num Peaks: 47
47 14 62 20 71 10 74 20 85 11 86 17 94 19 96 11 97 14 98 41 
101 16 102 18 106 11 109 96 111 34 118 14 120 13 124 96 125 11 132 45 
133 73 134 33 135 19 144 17 146 11 159 31 161 10 168 63 170 43 179 12 
181 11 194 59 196 40 203 23 205 20 229 110 230 15 231 115 232 16 233 32 
264 773 266 999 267 104 268 490 269 44 270 114 272 14 
