Name: 2-METHYL-4-(TRIMETHYLSILYL)METHYL-5-HEXEN-3-ONE
MW: 198
Formula: C11H22OSi
Synonym: MassBank: JP011395
Synonym: 2-METHYL-4-(TRIMETHYLSILYL)METHYL-5-HEXEN-3-ONE
Structure: 322D4D455448594C2D342D285452494D455448594C53494C594C294D455448594C2D352D484558454E2D332D4F4E452E6D6F6C0A20204368656D447261773031323231303036353232440A2031332031322020302020302020302020302020302020302020302020303939392056323030300A2020202D322E303632352020202D302E3635393220202020302E303030302043202020302020302020302020302020302020302020302020302020302020302020302020300A2020202D312E323337352020202D302E3635393220202020302E303030302053692020302020302020302020302020302020302020302020302020302020302020302020300A2020202D302E343132352020202D302E3635393220202020302E303030302043202020302020302020302020302020302020302020302020302020302020302020302020300A2020202D312E3233373520202020302E3136353820202020302E303030302043202020302020302020302020302020302020302020302020302020302020302020302020300A2020202D312E323337352020202D312E3438343220202020302E303030302043202020302020302020302020302020302020302020302020302020302020302020302020300A20202020302E3030303020202020302E3035353320202020302E303030302043202020302020302020302020302020302020302020302020302020302020302020302020300A20202020302E3832353020202020302E3035353320202020302E303030302043202020302020302020302020302020302020302020302020302020302020302020302020300A2020202D302E3431323520202020302E3736393720202020302E303030302043202020302020302020302020302020302020302020302020302020302020302020302020300A20202020302E3030303020202020312E3438343220202020302E303030302043202020302020302020302020302020302020302020302020302020302020302020302020300A20202020312E3233373520202020302E3736393720202020302E30303030204F202020302020302020302020302020302020302020302020302020302020302020302020300A20202020312E323337352020202D302E3635393220202020302E303030302043202020302020302020302020302020302020302020302020302020302020302020302020300A20202020302E383235302020202D312E3337333720202020302E303030302043202020302020302020302020302020302020302020302020302020302020302020302020300A20202020322E303632352020202D302E3635393220202020302E303030302043202020302020302020302020302020302020302020302020302020302020302020302020300A2020312020322020312020302020202020200A2020322020332020312020302020202020200A2020322020342020312020312020202020200A2020322020352020312020312020202020200A2020332020362020312020302020202020200A2020362020372020312020302020202020200A2020362020382020312020302020202020200A2020382020392020322020302020202020200A2020372031302020322020302020202020200A2020372031312020312020302020202020200A2031312031322020312020302020202020200A2031312031332020312020302020202020200A4D2020454E44
Contributor: HISAHIRO HAGIWARA, INSTITUTE FOR CHEMICAL REACTION SCIENCE TOHOKU UNIV.
InstType: EI
InstName: JEOL JMS-DX-300
IoniMethod: _ENERGY 70 eV
IonPolarity: pos
Date: 2010-10-09 19:48:36+02:00
Num Peaks: 24
39 37 41 86 43 289 44 36 45 145 55 24 58 29 59 63 67 21 71 148 
72 25 73 999 74 121 75 243 97 39 127 98 129 204 130 26 144 27 155 261 
156 43 183 117 184 20 198 26 
