Name: MassBank: JP010291
MW: 291
Formula: C18H13NO3
Synonym: MassBank: JP010291
Synonym: (E)-3-BENZOYLMETHYLENE-1-PHENYL-2,5-PYRROLIDINEDIONE
Structure: 2845292D332D42454E5A4F594C4D455448594C454E452D312D5048454E594C2D322C352D505952524F4C4944494E4544494F4E452E6D6F6C0A20204368656D447261773130323230393136333832440A2032332032352020302020302020302020302020302020302020302020303939392056323030300A20202020322E3732333720202020312E3033313620202020302E303030302043202020302020302020302020302020302020302020302020302020302020302020302020300A20202020312E3839383720202020312E3033313620202020302E303030302043202020302020302020302020302020302020302020302020302020302020302020302020300A20202020312E3438363220202020302E3331373120202020302E303030302043202020302020302020302020302020302020302020302020302020302020302020302020300A20202020312E383938372020202D302E3339373420202020302E303030302043202020302020302020302020302020302020302020302020302020302020302020302020300A20202020322E373233372020202D302E3339373420202020302E303030302043202020302020302020302020302020302020302020302020302020302020302020302020300A20202020332E3133363120202020302E3331373120202020302E303030302043202020302020302020302020302020302020302020302020302020302020302020302020300A20202020312E343836322020202D312E3131313820202020302E303030302043202020302020302020302020302020302020302020302020302020302020302020302020300A20202020312E383938372020202D312E3832363320202020302E30303030204F202020302020302020302020302020302020302020302020302020302020302020302020300A20202020302E363631322020202D312E3131313820202020302E303030302043202020302020302020302020302020302020302020302020302020302020302020302020300A20202020302E323131382020202D302E3431393920202020302E303030302043202020302020302020302020302020302020302020302020302020302020302020302020300A20202020302E323438372020202D312E3832363320202020302E303030302048202020302020302020302020302020302020302020302020302020302020302020302020300A20202020302E3530373520202020302E3335303320202020302E303030302043202020302020302020302020302020302020302020302020302020302020302020302020300A2020202D302E3133333720202020302E3836393520202020302E303030302043202020302020302020302020302020302020302020302020302020302020302020302020300A2020202D302E3832353620202020302E3432303120202020302E30303030204E202020302020302020302020302020302020302020302020302020302020302020302020300A2020202D302E363132302020202D302E3337363720202020302E303030302043202020302020302020302020302020302020302020302020302020302020302020302020300A2020202D312E313331322020202D312E3031373920202020302E30303030204F202020302020302020302020302020302020302020302020302020302020302020302020300A2020202D312E3539353820202020302E3731353820202020302E303030302043202020302020302020302020302020302020302020302020302020302020302020302020300A2020202D302E3039303520202020312E3639333320202020302E30303030204F202020302020302020302020302020302020302020302020302020302020302020302020300A2020202D312E3732343820202020312E3533303620202020302E303030302043202020302020302020302020302020302020302020302020302020302020302020302020300A2020202D322E3439353020202020312E3832363320202020302E303030302043202020302020302020302020302020302020302020302020302020302020302020302020300A2020202D332E3133363120202020312E3330373120202020302E303030302043202020302020302020302020302020302020302020302020302020302020302020302020300A2020202D332E3030373120202020302E3439323320202020302E303030302043202020302020302020302020302020302020302020302020302020302020302020302020300A2020202D322E3233363920202020302E3139363620202020302E303030302043202020302020302020302020302020302020302020302020302020302020302020302020300A2020312020322020322020302020202020200A2020322020332020312020302020202020200A2020332020342020322020302020202020200A2020342020352020312020302020202020200A2020352020362020322020302020202020200A2020362020312020312020302020202020200A2020342020372020312020302020202020200A2020372020382020322020302020202020200A2020372020392020312020302020202020200A2020392031302020322020302020202020200A2020392031312020312020302020202020200A2031302031322020312020302020202020200A2031322031332020312020302020202020200A2031332031342020312020302020202020200A2031342031352020312020302020202020200A2031352031302020312020302020202020200A2031352031362020322020302020202020200A2031342031372020312020302020202020200A2031332031382020322020302020202020200A2031372031392020322020302020202020200A2031392032302020312020302020202020200A2032302032312020322020302020202020200A2032312032322020312020302020202020200A2032322032332020322020302020202020200A2032332031372020312020302020202020200A4D2020454E44
Contributor: KANEMASA S, INST. OF ADVANCED MATERIAL STUDY KYUSHU UNIV.
InstType: EI
InstName: JEOL JMS-01-SG-2
IoniMethod: _ENERGY 75 eV
IonPolarity: pos
Date: 2010-10-09 19:48:36+02:00
Num Peaks: 25
38 63 39 381 50 113 51 406 52 40 63 78 64 104 65 75 66 40 67 202 
75 37 76 54 77 999 78 83 91 152 105 738 106 54 115 92 116 34 119 98 
171 40 199 35 263 12 291 53 292 13 
