Name: DIMETHYLDI(1-NAPHTHYL)SILANE
MW: 312
Formula: C22H20Si
Synonym: MassBank: JP011677
Synonym: DIMETHYLDI(1-NAPHTHYL)SILANE
Structure: 44494D455448594C444928312D4E4150485448594C2953494C414E452E6D6F6C0A20204368656D447261773130313831303137333032440A2032332032362020302020302020302020302020302020302020302020303939392056323030300A20202020302E303134382020202D302E3435333020202020302E303030302053692020302020302020302020302020302020302020302020302020302020302020302020300A2020202D302E3339373720202020302E3236313520202020302E303030302043202020302020302020302020302020302020302020302020302020302020302020302020300A20202020302E3031343820202020302E3937363020202020302E303030302043202020302020302020302020302020302020302020302020302020302020302020302020300A2020202D302E3339373720202020312E3639303520202020302E303030302043202020302020302020302020302020302020302020302020302020302020302020302020300A2020202D312E3232323720202020312E3639303520202020302E303030302043202020302020302020302020302020302020302020302020302020302020302020302020300A2020202D312E3633353220202020302E3937363020202020302E303030302043202020302020302020302020302020302020302020302020302020302020302020302020300A2020202D322E3436303220202020302E3937363020202020302E303030302043202020302020302020302020302020302020302020302020302020302020302020302020300A2020202D322E3837323720202020302E3236313520202020302E303030302043202020302020302020302020302020302020302020302020302020302020302020302020300A2020202D322E343630322020202D302E3435333020202020302E303030302043202020302020302020302020302020302020302020302020302020302020302020302020300A2020202D312E363335322020202D302E3435333020202020302E303030302043202020302020302020302020302020302020302020302020302020302020302020302020300A2020202D312E3232323720202020302E3236313520202020302E303030302043202020302020302020302020302020302020302020302020302020302020302020302020300A20202020302E373239332020202D302E3034303520202020302E303030302043202020302020302020302020302020302020302020302020302020302020302020302020300A20202020302E3732393320202020302E3738343520202020302E303030302043202020302020302020302020302020302020302020302020302020302020302020302020300A20202020312E3434333820202020312E3139373020202020302E303030302043202020302020302020302020302020302020302020302020302020302020302020302020300A20202020322E3135383220202020302E3738343520202020302E303030302043202020302020302020302020302020302020302020302020302020302020302020302020300A20202020322E313538322020202D302E3034303520202020302E303030302043202020302020302020302020302020302020302020302020302020302020302020302020300A20202020322E383732372020202D302E3435333020202020302E303030302043202020302020302020302020302020302020302020302020302020302020302020302020300A20202020322E383732372020202D312E3237383020202020302E303030302043202020302020302020302020302020302020302020302020302020302020302020302020300A20202020322E313538322020202D312E3639303520202020302E303030302043202020302020302020302020302020302020302020302020302020302020302020302020300A20202020312E343433372020202D312E3237383020202020302E303030302043202020302020302020302020302020302020302020302020302020302020302020302020300A20202020312E343433372020202D302E3435333020202020302E303030302043202020302020302020302020302020302020302020302020302020302020302020302020300A20202020302E343237332020202D312E3136373420202020302E303030302043202020302020302020302020302020302020302020302020302020302020302020302020300A2020202D302E363939372020202D302E3836353520202020302E303030302043202020302020302020302020302020302020302020302020302020302020302020302020300A2020322020332020312020302020202020200A2020332020342020322020302020202020200A2020342020352020312020302020202020200A2020352020362020322020302020202020200A2020362020372020312020302020202020200A2020372020382020322020302020202020200A2020382020392020312020302020202020200A2020392031302020322020302020202020200A2031302031312020312020302020202020200A2020322031312020322020302020202020200A2020362031312020312020302020202020200A2020312020322020312020302020202020200A2031322031332020312020302020202020200A2031332031342020322020302020202020200A2031342031352020312020302020202020200A2031352031362020322020302020202020200A2031362031372020312020302020202020200A2031372031382020322020302020202020200A2031382031392020312020302020202020200A2031392032302020322020302020202020200A2032302032312020312020302020202020200A2031322032312020322020302020202020200A2031362032312020312020302020202020200A2020312031322020312020302020202020200A2020312032322020312020302020202020200A2020312032332020312020302020202020200A4D2020454E44
Contributor: FAC. TECHNOLOGY, HIROSHIMA UNIV.
InstType: EI
InstName: SHIMADZU QP-1000
IoniMethod: _ENERGY 70 eV
IonPolarity: pos
Date: 2010-10-09 19:48:36+02:00
Num Peaks: 39
43 43 53 11 59 11 115 21 127 11 128 11 129 32 140 11 141 21 143 11 
147 21 148 21 153 11 154 11 155 74 156 21 167 213 168 43 169 415 170 74 
171 11 181 21 183 43 185 85 250 11 252 106 253 128 254 32 265 21 279 11 
281 11 295 43 297 999 298 277 299 64 311 64 312 585 313 160 314 32 
