Name: META-BROMONITROBENZENE
MW: 200
Formula: C6H4BrNO2
Synonym: MassBank: JP011273
Synonym: META-BROMONITROBENZENE
Synonym: 3-BROMONITROBENZENE
Structure: 4D4554412D42524F4D4F4E4954524F42454E5A454E452E6D6F6C0A20204368656D447261773032323231303134323332440A2031302031302020302020302020302020302020302020302020302020303939392056323030300A2020202D302E323036332020202D302E3335373220202020302E303030302043202020302020302020302020302020302020302020302020302020302020302020302020300A20202020302E3230363320202020302E3335373220202020302E303030302043202020302020302020302020302020302020302020302020302020302020302020302020300A20202020312E3033313320202020302E3335373220202020302E303030302043202020302020302020302020302020302020302020302020302020302020302020302020300A20202020312E343433382020202D302E3335373220202020302E303030302043202020302020302020302020302020302020302020302020302020302020302020302020300A20202020312E303331332020202D312E3037313720202020302E303030302043202020302020302020302020302020302020302020302020302020302020302020302020300A20202020302E323036332020202D312E3037313720202020302E303030302043202020302020302020302020302020302020302020302020302020302020302020302020300A20202020312E3434333820202020312E3037313720202020302E303030302042722020302020302020302020302020302020302020302020302020302020302020302020300A2020202D312E303331322020202D302E3335373220202020302E30303030204E202020302020332020302020302020302020302020302020302020302020302020302020300A2020202D312E343433382020202D312E3037313720202020302E30303030204F202020302020302020302020302020302020302020302020302020302020302020302020300A2020202D312E3434333820202020302E3335373220202020302E30303030204F202020302020352020302020302020302020302020302020302020302020302020302020300A2020312020322020312020302020202020200A2020322020332020322020302020202020200A2020332020342020312020302020202020200A2020342020352020322020302020202020200A2020352020362020312020302020202020200A2020312020362020322020302020202020200A2020332020372020312020302020202020200A2020382020392020322020302020202020200A2020382031302020312020302020202020200A2020312020382020312020302020202020200A4D202043484720203220202038202020312020313020202D310A4D2020454E44
Contributor: TAJIMA S, GUNMA COLLEGE OF TECHNOLOGY
InstType: EI
InstName: HITACHI M-80A
IoniMethod: _ENERGY 70 eV
IonPolarity: pos
Date: 2010-10-09 19:48:36+02:00
Num Peaks: 49
26 18 27 13 30 621 37 59 38 90 39 55 40 11 46 64 49 37 50 600 
51 95 61 23 62 31 63 113 64 76 65 10 69 37 73 42 74 261 75 836 
76 861 77 71 79 13 81 13 90 25 92 87 117 17 119 16 129 20 131 19 
143 247 144 14 145 238 146 14 155 673 156 57 157 650 158 53 169 10 171 105 
172 12 173 93 185 137 186 13 188 13 201 999 202 96 203 987 204 92 
