Name: MassBank: JP010544
CAS: 709-09-1
MW: 183
Formula: C8H9NO4
Synonym: MassBank: JP010544
Synonym: 1,2-DIMETHOXY-4-NITROBENZENE
Synonym: 4-NITROVERATROLE
Structure: 312C322D44494D4554484F58592D342D4E4954524F42454E5A454E452E6D6F6C0A20204368656D447261773131303530393133303232440A2031332031332020302020302020302020302020302020302020302020303939392056323030300A2020202D302E3335373220202020302E3832353020202020302E303030302043202020302020302020302020302020302020302020302020302020302020302020302020300A20202020302E3335373220202020302E3431323520202020302E303030302043202020302020302020302020302020302020302020302020302020302020302020302020300A20202020302E333537322020202D302E3431323520202020302E303030302043202020302020302020302020302020302020302020302020302020302020302020302020300A2020202D302E333537322020202D302E3832353020202020302E303030302043202020302020302020302020302020302020302020302020302020302020302020302020300A2020202D312E303731372020202D302E3431323520202020302E303030302043202020302020302020302020302020302020302020302020302020302020302020302020300A2020202D312E3037313720202020302E3431323520202020302E303030302043202020302020302020302020302020302020302020302020302020302020302020302020300A2020202D302E333537322020202D312E3635303020202020302E30303030204E202020302020332020302020302020302020302020302020302020302020302020302020300A20202020302E333537322020202D322E3036323520202020302E30303030204F202020302020302020302020302020302020302020302020302020302020302020302020300A2020202D312E303731372020202D322E3036323520202020302E30303030204F202020302020352020302020302020302020302020302020302020302020302020302020300A20202020312E3037313720202020302E3832353020202020302E30303030204F202020302020302020302020302020302020302020302020302020302020302020302020300A20202020312E3037313720202020312E3635303020202020302E303030302043202020302020302020302020302020302020302020302020302020302020302020302020300A2020202D302E3335373220202020312E3635303020202020302E30303030204F202020302020302020302020302020302020302020302020302020302020302020302020300A2020202D312E3037313720202020322E3036323520202020302E303030302043202020302020302020302020302020302020302020302020302020302020302020302020300A2020312020322020312020302020202020200A2020322020332020322020302020202020200A2020332020342020312020302020202020200A2020342020352020322020302020202020200A2020352020362020312020302020202020200A2020312020362020322020302020202020200A2020372020382020322020302020202020200A2020372020392020312020302020202020200A2020342020372020312020302020202020200A2031302031312020312020302020202020200A2020322031302020312020302020202020200A2031322031332020312020302020202020200A2020312031322020312020302020202020200A4D202043484720203220202037202020312020203920202D310A4D2020454E44
Contributor: NARA WOMEN'S UNIVERSITY
InstType: EI
InstName: HITACHI M-80
IoniMethod: _ENERGY 70 eV
IonPolarity: pos
Date: 2010-10-09 19:48:36+02:00
Num Peaks: 55
15 60 18 11 28 13 29 19 30 148 38 10 39 20 40 45 42 18 44 11 
47 20 51 94 52 237 53 50 54 52 56 17 61 19 62 57 63 111 64 44 
65 42 66 82 67 12 69 39 74 28 75 32 76 50 77 202 78 41 79 396 
80 41 82 21 91 20 92 124 93 34 94 112 95 53 107 147 108 68 109 31 
110 71 121 23 122 71 123 24 125 128 126 10 137 147 138 19 153 168 154 15 
167 28 168 50 183 999 184 96 185 12 
