Name: 3-BUTEN-1-OL
MW: 72
Formula: C4H8O
Synonym: MassBank: JP010317
Synonym: 3-BUTEN-1-OL
Structure: 310A31340A332D425554454E2D312D4F4C2E6D6F6C0A20204368656D447261773032323231303134343132440A2020352020342020302020302020302020302020302020302020302020303939392056323030300A2020202D302E3731343520202020302E3230363220202020302E303030302043202020302020302020302020302020302020302020302020302020302020302020302020300A20202020302E303030302020202D302E3230363220202020302E303030302043202020302020302020302020302020302020302020302020302020302020302020302020300A20202020302E3731343520202020302E3230363220202020302E303030302043202020302020302020302020302020302020302020302020302020302020302020302020300A20202020312E343238392020202D302E3230363220202020302E303030302043202020302020302020302020302020302020302020302020302020302020302020302020300A2020202D312E343238392020202D302E3230363220202020302E30303030204F202020302020302020302020302020302020302020302020302020302020302020302020300A2020312020322020312020302020202020200A2020322020332020312020302020202020200A2020332020342020322020302020202020200A2020312020352020312020302020202020200A4D2020454E44
Contributor: TAJIMA S, GUNMA COLLEGE OF TECHNOLOGY
InstType: EI
InstName: HITACHI M-80A
IoniMethod: _ENERGY 70 eV
IonPolarity: pos
Date: 2010-10-09 19:48:36+02:00
Num Peaks: 31
15 157 17 12 18 39 19 11 25 29 26 174 27 439 28 54 29 271 30 33 
31 995 37 93 38 153 39 739 40 138 41 476 42 999 43 520 44 112 45 14 
49 14 50 62 51 61 52 16 53 46 54 48 55 24 57 82 58 71 71 26 
72 76 
