Name: DECYL ISOVALERATE
MW: 242
Formula: C15H30O2
Synonym: MassBank: JP010892
Synonym: DECYL ISOVALERATE
Structure: 444543594C2049534F56414C45524154452E6D6F6C0A20204368656D447261773039323031303130323132440A2031372031362020302020302020302020302020302020302020302020303939392056323030300A20202020322E383537392020202D302E3230363320202020302E303030302043202020302020302020302020302020302020302020302020302020302020302020302020300A20202020332E3537323420202020302E3230363320202020302E303030302043202020302020302020302020302020302020302020302020302020302020302020302020300A20202020332E3537323420202020312E3033313220202020302E303030302043202020302020302020302020302020302020302020302020302020302020302020302020300A20202020322E3835373920202020312E3434333820202020302E303030302043202020302020302020302020302020302020302020302020302020302020302020302020300A20202020342E3238363820202020312E3434333820202020302E303030302043202020302020302020302020302020302020302020302020302020302020302020302020300A20202020322E3134333420202020302E3230363220202020302E30303030204F202020302020302020302020302020302020302020302020302020302020302020302020300A20202020322E383537392020202D312E3033313320202020302E30303030204F202020302020302020302020302020302020302020302020302020302020302020302020300A20202020322E313433342020202D312E3434333820202020302E303030302043202020302020302020302020302020302020302020302020302020302020302020302020300A20202020312E343238392020202D312E3033313320202020302E303030302043202020302020302020302020302020302020302020302020302020302020302020302020300A20202020302E373134352020202D312E3434333820202020302E303030302043202020302020302020302020302020302020302020302020302020302020302020302020300A2020202D302E303030302020202D312E3033313320202020302E303030302043202020302020302020302020302020302020302020302020302020302020302020302020300A2020202D302E373134352020202D312E3434333820202020302E303030302043202020302020302020302020302020302020302020302020302020302020302020302020300A2020202D312E343238392020202D312E3033313320202020302E303030302043202020302020302020302020302020302020302020302020302020302020302020302020300A2020202D322E313433342020202D312E3434333820202020302E303030302043202020302020302020302020302020302020302020302020302020302020302020302020300A2020202D322E383537392020202D312E3033313320202020302E303030302043202020302020302020302020302020302020302020302020302020302020302020302020300A2020202D332E353732342020202D312E3434333820202020302E303030302043202020302020302020302020302020302020302020302020302020302020302020302020300A2020202D342E323836382020202D312E3033313320202020302E303030302043202020302020302020302020302020302020302020302020302020302020302020302020300A2020312020322020312020302020202020200A2020322020332020312020302020202020200A2020332020342020312020302020202020200A2020332020352020312020302020202020200A2020312020362020322020302020202020200A2020312020372020312020302020202020200A2020382020392020312020302020202020200A2020392031302020312020302020202020200A2031302031312020312020302020202020200A2031312031322020312020302020202020200A2031322031332020312020302020202020200A2031332031342020312020302020202020200A2031342031352020312020302020202020200A2031352031362020312020302020202020200A2031362031372020312020302020202020200A2020372020382020312020302020202020200A4D2020454E44
Contributor: SODA AROMATIC CO., LTD.
InstType: EI
InstName: HITACHI M-80B
IoniMethod: _ENERGY 70 eV
IonPolarity: pos
Date: 2010-10-09 19:48:36+02:00
Num Peaks: 48
27 155 28 28 29 359 31 16 39 106 40 31 41 750 42 212 43 732 44 25 
45 20 53 33 54 43 55 469 56 403 57 964 58 37 59 38 60 62 61 116 
67 45 68 80 69 276 70 371 71 169 72 14 81 19 82 104 83 293 84 220 
85 739 86 34 99 16 100 12 101 14 102 71 103 999 104 54 110 21 111 105 
112 171 113 16 115 11 116 10 140 347 141 32 158 24 185 20 
