Name: MassBank: JP010260
MW: 279
Formula: C10H17NO4S2
Synonym: MassBank: JP010260
Synonym: N-((2,3-DIMETHOXYCARBONYL)PROPYL)BIS(METHYLTHIO)IMINE
Structure: 303835345F4E2D2828322C332D44494D4554484F5859434152424F4E594C2950524F50594C29424953284D455448594C5448494F29494D494E452E6D6F6C0A20204368656D447261773130323031303138313932440A2031372031362020302020302020302020302020302020302020302020303939392056323030300A20202020302E3230363320202020302E3335373220202020302E303030302043202020302020302020302020302020302020302020302020302020302020302020302020300A20202020312E3033313320202020302E3335373220202020302E30303030204E202020302020302020302020302020302020302020302020302020302020302020302020300A20202020312E3434333820202020312E3037313720202020302E303030302043202020302020302020302020302020302020302020302020302020302020302020302020300A20202020322E3236383720202020312E3037313720202020302E303030302053202020302020302020302020302020302020302020302020302020302020302020302020300A20202020322E3638313220202020312E3738363220202020302E303030302043202020302020302020302020302020302020302020302020302020302020302020302020300A20202020312E3033313220202020312E3738363220202020302E303030302053202020302020302020302020302020302020302020302020302020302020302020302020300A20202020302E3230363220202020312E3738363220202020302E303030302043202020302020302020302020302020302020302020302020302020302020302020302020300A2020202D302E323036322020202D302E3335373220202020302E303030302043202020302020302020302020302020302020302020302020302020302020302020302020300A20202020302E323036332020202D312E3037313720202020302E303030302043202020302020302020302020302020302020302020302020302020302020302020302020300A2020202D312E303331322020202D302E3335373220202020302E303030302043202020302020302020302020302020302020302020302020302020302020302020302020300A2020202D302E323036322020202D312E3738363220202020302E30303030204F202020302020302020302020302020302020302020302020302020302020302020302020300A20202020312E303331332020202D312E3037313720202020302E30303030204F202020302020302020302020302020302020302020302020302020302020302020302020300A20202020312E343433382020202D302E3335373220202020302E303030302043202020302020302020302020302020302020302020302020302020302020302020302020300A2020202D312E3434333720202020302E3335373220202020302E303030302043202020302020302020302020302020302020302020302020302020302020302020302020300A2020202D322E3236383720202020302E3335373220202020302E30303030204F202020302020302020302020302020302020302020302020302020302020302020302020300A2020202D312E3033313220202020312E3037313720202020302E30303030204F202020302020302020302020302020302020302020302020302020302020302020302020300A2020202D322E3638313220202020312E3037313720202020302E303030302043202020302020302020302020302020302020302020302020302020302020302020302020300A2020382020312020312020302020202020200A2020312020322020312020302020202020200A2020322020332020322020302020202020200A2020332020342020312020302020202020200A2020342020352020312020302020202020200A2020332020362020312020302020202020200A2020362020372020312020302020202020200A2020382020392020312020302020202020200A2020382031302020312020302020202020200A2020392031312020322020302020202020200A2020392031322020312020302020202020200A2031322031332020312020302020202020200A2031302031342020312020302020202020200A2031342031352020312020302020202020200A2031342031362020322020302020202020200A2031352031372020312020302020202020200A4D2020454E44
Contributor: KANEMASA S, INST. OF ADVANCED MATERIAL STUDY KYUSHU UNIV.
InstType: EI
InstName: JEOL JMS-01-SG-2
IoniMethod: _ENERGY 75 eV
IonPolarity: pos
Date: 2010-10-09 19:48:36+02:00
Num Peaks: 51
39 123 41 300 42 65 43 65 44 50 45 233 46 104 47 218 48 115 55 62 
59 384 61 198 67 49 69 122 71 64 72 163 73 65 74 252 75 48 87 109 
91 83 98 94 99 270 100 102 114 63 127 653 128 37 134 41 140 32 154 36 
156 40 157 42 159 999 160 117 161 29 171 89 172 96 175 111 186 30 190 29 
199 30 200 56 206 31 231 81 232 287 233 37 234 38 248 166 279 373 280 41 
281 71 
