Name: DIETHYL 4-HYDROXY-2-OXO-6-PHENYLHEXYLPHOSPHONATE
MW: 328
Formula: C16H25O5P
Synonym: MassBank: JP010204
Synonym: DIETHYL 4-HYDROXY-2-OXO-6-PHENYLHEXYLPHOSPHONATE
Structure: 4449455448594C20342D485944524F58592D322D4F584F2D362D5048454E594C484558594C50484F5350484F4E4154452E6D6F6C0A20204368656D447261773039323131303139323132440A2032322032322020302020302020302020302020302020302020302020303939392056323030300A20202020312E343238392020202D302E3631383820202020302E303030302043202020302020302020302020302020302020302020302020302020302020302020302020300A20202020302E373134352020202D312E3033313320202020302E303030302043202020302020302020302020302020302020302020302020302020302020302020302020300A2020202D302E303030302020202D302E3631383820202020302E303030302043202020302020302020302020302020302020302020302020302020302020302020302020300A2020202D302E373134352020202D312E3033313320202020302E303030302043202020302020302020302020302020302020302020302020302020302020302020302020300A2020202D312E343238392020202D302E3631383820202020302E303030302043202020302020302020302020302020302020302020302020302020302020302020302020300A2020202D312E3432383920202020302E3230363220202020302E303030302043202020302020302020302020302020302020302020302020302020302020302020302020300A20202020322E313433342020202D312E3033313320202020302E303030302050202020302020302020302020302020302020302020302020302020302020302020302020300A20202020312E373330392020202D312E3734353720202020302E30303030204F202020302020302020302020302020302020302020302020302020302020302020302020300A20202020322E353535392020202D302E3331363820202020302E30303030204F202020302020302020302020302020302020302020302020302020302020302020302020300A20202020322E383537392020202D312E3434333820202020302E30303030204F202020302020302020302020302020302020302020302020302020302020302020302020300A2020202D322E3134333420202020302E3631383720202020302E303030302043202020302020302020302020302020302020302020302020302020302020302020302020300A2020202D322E3835373920202020302E3230363220202020302E303030302043202020302020302020302020302020302020302020302020302020302020302020302020300A2020202D332E3537323420202020302E3631383720202020302E303030302043202020302020302020302020302020302020302020302020302020302020302020302020300A2020202D332E3537323420202020312E3434333720202020302E303030302043202020302020302020302020302020302020302020302020302020302020302020302020300A2020202D322E3835373920202020312E3835363320202020302E303030302043202020302020302020302020302020302020302020302020302020302020302020302020300A2020202D322E3134333420202020312E3434333820202020302E303030302043202020302020302020302020302020302020302020302020302020302020302020302020300A20202020302E373134352020202D312E3835363320202020302E30303030204F202020302020302020302020302020302020302020302020302020302020302020302020300A2020202D302E373134352020202D312E3835363320202020302E30303030204F202020302020302020302020302020302020302020302020302020302020302020302020300A20202020322E3134333420202020302E3339373720202020302E303030302043202020302020302020302020302020302020302020302020302020302020302020302020300A20202020322E3535353920202020312E3131323220202020302E303030302043202020302020302020302020302020302020302020302020302020302020302020302020300A20202020332E353732342020202D312E3033313320202020302E303030302043202020302020302020302020302020302020302020302020302020302020302020302020300A20202020332E353732342020202D302E3230363320202020302E303030302043202020302020302020302020302020302020302020302020302020302020302020302020300A2020312020322020312020302020202020200A2020322020332020312020302020202020200A2020332020342020312020302020202020200A2020342020352020312020302020202020200A2020352020362020312020302020202020200A2020372020382020322020302020202020200A2020372020392020312020302020202020200A2020372031302020312020302020202020200A2020312020372020312020302020202020200A2031312031322020312020302020202020200A2031322031332020322020302020202020200A2031332031342020312020302020202020200A2031342031352020322020302020202020200A2031352031362020312020302020202020200A2031312031362020322020302020202020200A2020362031312020312020302020202020200A2020322031372020322020302020202020200A2020342031382020312020302020202020200A2031392032302020312020302020202020200A2020392031392020312020302020202020200A2032312032322020312020302020202020200A2031302032312020312020302020202020200A4D2020454E44
Contributor: KANEMASA S, INST. OF ADVANCED MATERIAL STUDY KYUSHU UNIV.
InstType: EI
InstName: JEOL JMS-01-SG-2
IoniMethod: _ENERGY 75 eV
IonPolarity: pos
Date: 2010-10-09 19:48:36+02:00
Num Peaks: 46
43 257 51 139 65 165 77 249 78 141 79 136 81 255 91 999 92 198 96 176 
97 302 104 181 105 209 109 209 117 135 121 177 123 455 125 374 139 394 151 253 
152 505 164 147 167 260 172 201 179 345 194 230 195 336 219 196 220 285 221 41 
223 472 224 69 236 26 237 23 277 218 278 165 279 29 281 22 282 24 292 41 
310 432 311 84 325 28 326 26 328 161 329 31 
