Name: MALEIMIDE
MW: 97
Formula: C4H3NO2
Synonym: MassBank: JP010406
Synonym: MALEIMIDE
Structure: 310A31390A4D414C45494D4944452E6D6F6C0A20204368656D447261773038313131303232323932440A2020372020372020302020302020302020302020302020302020302020303939392056323030300A2020202D302E373133362020202D302E3239373520202020302E303030302043202020302020302020302020302020302020302020302020302020302020302020302020300A2020202D312E333831302020202D302E3738323420202020302E30303030204F202020302020302020302020302020302020302020302020302020302020302020302020300A2020202D302E3731333620202020302E3532373520202020302E303030302043202020302020302020302020302020302020302020302020302020302020302020302020300A20202020302E3037313120202020302E3738323420202020302E303030302043202020302020302020302020302020302020302020302020302020302020302020302020300A20202020302E3535363020202020302E3131353020202020302E303030302043202020302020302020302020302020302020302020302020302020302020302020302020300A20202020312E3338313020202020302E3131353020202020302E30303030204F202020302020302020302020302020302020302020302020302020302020302020302020300A20202020302E303731312020202D302E3535323420202020302E30303030204E202020302020302020302020302020302020302020302020302020302020302020302020300A2020312020322020322020302020202020200A2020312020332020312020302020202020200A2020332020342020322020302020202020200A2020342020352020312020302020202020200A2020352020362020322020302020202020200A2020312020372020312020302020202020200A2020352020372020312020302020202020200A4D2020454E44
Contributor: MASS SPECTROSCOPY SOC. OF JAPAN (MSSJ)
InstType: EI
InstName: HITACHI RMU-6M
IoniMethod: _ENERGY 20 eV
IonPolarity: pos
Date: 2010-10-09 19:48:36+02:00
Num Peaks: 23
41 52 42 36 43 85 44 2 45 12 53 88 54 779 55 5 56 68 57 31 
58 25 60 2 68 13 69 385 70 32 71 2 82 30 83 12 84 11 85 1 
97 999 98 61 99 55 
