Name: MassBank: JP010538
CAS: 930-87-0
MW: 109
Formula: C7H11N
Synonym: MassBank: JP010538
Synonym: 1,2,5-TRIMEHYLPYRROLE
Structure: 312C322C352D5452494D4548594C505952524F4C452E6D6F6C0A20204368656D447261773130323330393133343732440A2031302031302020302020302020302020302020302020302020302020303939392056323030300A2020202D302E343132352020202D302E3731333620202020302E303030302043202020302020302020302020302020302020302020302020302020302020302020302020300A20202020302E343132352020202D302E3731333620202020302E303030302043202020302020302020302020302020302020302020302020302020302020302020302020300A20202020302E3636373420202020302E3037313120202020302E303030302043202020302020302020302020302020302020302020302020302020302020302020302020300A20202020302E3030303020202020302E3535363020202020302E30303030204E202020302020302020302020302020302020302020302020302020302020302020302020300A2020202D302E3636373420202020302E3037313120202020302E303030302043202020302020302020302020302020302020302020302020302020302020302020302020300A20202020302E3030303020202020312E3338313020202020302E303030302043202020302020302020302020302020302020302020302020302020302020302020302020300A20202020312E3435323120202020302E3332363020202020302E303030302043202020302020302020302020302020302020302020302020302020302020302020302020300A20202020302E383937342020202D312E3338313020202020302E303030302048202020302020302020302020302020302020302020302020302020302020302020302020300A2020202D312E3435323120202020302E3332363020202020302E303030302043202020302020302020302020302020302020302020302020302020302020302020302020300A2020202D302E383937342020202D312E3338313020202020302E303030302048202020302020302020302020302020302020302020302020302020302020302020302020300A2020312020322020312020302020202020200A2020322020332020322020302020202020200A2020332020342020312020302020202020200A2020342020352020312020302020202020200A2020352020312020322020302020202020200A2020342020362020312020302020202020200A2020332020372020312020302020202020200A2020322020382020312020302020202020200A2020352020392020312020302020202020200A2020312031302020312020302020202020200A4D2020454E44
Contributor: NARA WOMEN'S UNIVERSITY
InstType: EI
InstName: HITACHI M-80
IoniMethod: _ENERGY 70 eV
IonPolarity: pos
Date: 2010-10-09 19:48:36+02:00
Num Peaks: 28
15 37 27 40 28 24 40 47 41 11 42 44 43 45 51 22 52 41 53 32 
54 39 55 19 56 45 65 31 66 21 67 36 77 19 78 11 79 20 92 30 
93 34 94 192 95 14 106 35 107 57 108 999 109 659 110 51 
