Name: TRIETHYLIODOSILANE
MW: 241
Formula: C6H15ISi
Synonym: MassBank: JP011959
Synonym: TRIETHYLIODOSILANE
Structure: 310A32300A545249455448594C494F444F53494C414E452E6D6F6C0A20204368656D447261773038313231303038333532440A2020382020372020302020302020302020302020302020302020302020303939392056323030300A20202020302E323036332020202D302E3030303020202020302E303030302053692020302020302020302020302020302020302020302020302020302020302020302020300A20202020312E303331332020202D302E3030303020202020302E303030302049202020302020302020302020302020302020302020302020302020302020302020302020300A20202020302E323036332020202D302E3832353020202020302E303030302043202020302020302020302020302020302020302020302020302020302020302020302020300A20202020302E393230372020202D312E3233373520202020302E303030302043202020302020302020302020302020302020302020302020302020302020302020302020300A2020202D302E363138372020202D302E3030303020202020302E303030302043202020302020302020302020302020302020302020302020302020302020302020302020300A2020202D312E303331332020202D302E3731343520202020302E303030302043202020302020302020302020302020302020302020302020302020302020302020302020300A20202020302E3230363320202020302E3832353020202020302E303030302043202020302020302020302020302020302020302020302020302020302020302020302020300A20202020302E3932303720202020312E3233373520202020302E303030302043202020302020302020302020302020302020302020302020302020302020302020302020300A2020312020322020312020302020202020200A2020332020342020312020302020202020200A2020312020332020312020302020202020200A2020352020362020312020302020202020200A2020312020352020312020302020202020200A2020372020382020312020302020202020200A2020312020372020312020302020202020200A4D2020454E44
Contributor: ISHIKAWA M, HIROSHIMA UNIV. FAC. TEQUNOLOGY
InstType: EI
InstName: SHIMADZU QP-1000
IoniMethod: _ENERGY 70 eV
IonPolarity: pos
Date: 2010-10-09 19:48:36+02:00
Num Peaks: 22
53 121 54 42 55 179 56 79 57 253 58 263 59 816 60 58 61 21 87 516 
88 42 89 11 115 999 116 116 117 26 155 26 156 11 157 63 185 126 213 46 
214 6 242 15 
