Name: MassBank: JP010540
MW: 168
Formula: C7H8N2O3
Synonym: MassBank: JP010540
Synonym: 2,5-DIHYDROXYBENZOIC ACID HYDRAZIDE
Synonym: 2,5-DIHYDROXYBENZOYLHYDRAZIDE
Structure: 322C352D4449485944524F585942454E5A4F494320414349442048594452415A4944452E6D6F6C0A20204368656D447261773132323130393031323232440A2031322031322020302020302020302020302020302020302020302020303939392056323030300A2020202D312E3033313320202020302E3030303020202020302E303030302043202020302020302020302020302020302020302020302020302020302020302020302020300A2020202D302E3230363220202020302E3030303020202020302E303030302043202020302020302020302020302020302020302020302020302020302020302020302020300A20202020302E3230363220202020302E3731343520202020302E303030302043202020302020302020302020302020302020302020302020302020302020302020302020300A20202020312E3033313220202020302E3731343520202020302E303030302043202020302020302020302020302020302020302020302020302020302020302020302020300A20202020312E343433382020202D302E3030303020202020302E303030302043202020302020302020302020302020302020302020302020302020302020302020302020300A20202020312E303331332020202D302E3731343520202020302E303030302043202020302020302020302020302020302020302020302020302020302020302020302020300A20202020302E323036322020202D302E3731343520202020302E303030302043202020302020302020302020302020302020302020302020302020302020302020302020300A2020202D312E3434333820202020302E3731343520202020302E30303030204F202020302020302020302020302020302020302020302020302020302020302020302020300A2020202D312E343433382020202D302E3731343520202020302E30303030204E202020302020302020302020302020302020302020302020302020302020302020302020300A2020202D312E303331332020202D312E3432383920202020302E30303030204E202020302020302020302020302020302020302020302020302020302020302020302020300A20202020312E343433382020202D312E3432383920202020302E30303030204F202020302020302020302020302020302020302020302020302020302020302020302020300A2020202D302E3230363220202020312E3432383920202020302E30303030204F202020302020302020302020302020302020302020302020302020302020302020302020300A2020312020322020312020302020202020200A2020322020332020312020302020202020200A2020332020342020322020302020202020200A2020342020352020312020302020202020200A2020352020362020322020302020202020200A2020362020372020312020302020202020200A2020322020372020322020302020202020200A2020312020382020322020302020202020200A2020392031302020312020302020202020200A2020312020392020312020302020202020200A2020362031312020312020302020202020200A2020332031322020312020302020202020200A4D2020454E44
Contributor: NARA WOMEN'S UNIVERSITY
InstType: EI
InstName: HITACHI M-80
IoniMethod: _ENERGY 70 eV
IonPolarity: pos
Date: 2010-10-09 19:48:36+02:00
Num Peaks: 54
14 13 15 13 25 12 26 59 27 174 28 37 29 91 30 20 31 82 32 81 
37 16 38 23 39 85 40 16 41 28 42 21 43 27 44 16 50 68 51 155 
52 280 53 500 54 101 55 107 56 13 61 25 62 46 63 91 64 17 65 11 
66 17 67 19 68 20 69 195 70 11 77 11 79 55 80 74 81 509 82 58 
87 12 92 12 96 10 107 28 108 111 109 277 110 26 135 18 136 87 137 999 
138 135 139 14 168 345 169 38 
