Name: 1-METHYLSILACYCLOPENTANE
MW: 100
Formula: C5H12Si
Synonym: MassBank: JP011993
Synonym: 1-METHYLSILACYCLOPENTANE
Structure: 310A31370A312D4D455448594C53494C414359434C4F50454E54414E452E6D6F6C0A20204368656D447261773131323130393138343132440A2020362020362020302020302020302020302020302020302020302020303939392056323030300A2020202D302E3030303020202020302E3232323320202020302E303030302053692020302020302020302020302020302020302020302020302020302020302020302020300A20202020302E363637342020202D302E3236323720202020302E303030302043202020302020302020302020302020302020302020302020302020302020302020302020300A20202020302E343132352020202D312E3034373320202020302E303030302043202020302020302020302020302020302020302020302020302020302020302020302020300A2020202D302E343132352020202D312E3034373320202020302E303030302043202020302020302020302020302020302020302020302020302020302020302020302020300A2020202D302E363637342020202D302E3236323720202020302E303030302043202020302020302020302020302020302020302020302020302020302020302020302020300A2020202D302E3030303020202020312E3034373320202020302E303030302043202020302020302020302020302020302020302020302020302020302020302020302020300A2020312020322020312020302020202020200A2020322020332020312020302020202020200A2020332020342020312020302020202020200A2020342020352020312020302020202020200A2020312020352020312020302020202020200A2020312020362020312020302020202020200A4D2020454E44
Contributor: YAMAMOTO M, DEP. CHEMISTRY, FAC. SCIENCE, NARA WOMEN'S UNIV.
InstType: EI
InstName: HITACHI RMU-6M
IoniMethod: _ENERGY 20 eV
IonPolarity: pos
Date: 2010-10-09 19:48:36+02:00
Num Peaks: 21
43 48 44 141 45 42 56 14 57 51 58 61 59 43 70 37 71 71 72 999 
73 101 74 43 83 18 84 14 85 91 86 10 97 10 99 39 100 200 101 23 
102 9 
