Name: MassBank: JP012076
MW: 228
Formula: C13H24O3
Synonym: MassBank: JP012076
Synonym: 9,9-DIETHOXY-7-NONYN-6-OL
Structure: 392C392D44494554484F58592D372D4E4F4E594E2D362D4F4C2E6D6F6C0A20204368656D447261773035323431303232343432440A2031362031352020302020302020302020302020302020302020302020303939392056323030300A20202020322E3838373520202020312E3738363220202020302E303030302043202020302020302020302020302020302020302020302020302020302020302020302020300A20202020322E3437353020202020312E3037313720202020302E303030302043202020302020302020302020302020302020302020302020302020302020302020302020300A20202020312E3635303020202020312E3037313720202020302E303030302043202020302020302020302020302020302020302020302020302020302020302020302020300A20202020312E3233373520202020302E3335373220202020302E303030302043202020302020302020302020302020302020302020302020302020302020302020302020300A20202020302E3431323520202020302E3335373220202020302E303030302043202020302020302020302020302020302020302020302020302020302020302020302020300A2020202D302E303030302020202D302E3335373220202020302E303030302043202020302020302020302020302020302020302020302020302020302020302020302020300A2020202D302E383235302020202D302E3335373220202020302E303030302043202020302020302020302020302020302020302020302020302020302020302020302020300A2020202D312E363530302020202D302E3335373220202020302E303030302043202020302020302020302020302020302020302020302020302020302020302020302020300A2020202D322E343735302020202D302E3335373220202020302E303030302043202020302020302020302020302020302020302020302020302020302020302020302020300A20202020302E343132352020202D312E3037313720202020302E30303030204F202020302020302020302020302020302020302020302020302020302020302020302020300A2020202D322E383837352020202D312E3037313720202020302E30303030204F202020302020302020302020302020302020302020302020302020302020302020302020300A2020202D322E343735302020202D312E3738363220202020302E303030302043202020302020302020302020302020302020302020302020302020302020302020302020300A2020202D312E363530302020202D312E3738363220202020302E303030302043202020302020302020302020302020302020302020302020302020302020302020302020300A2020202D322E3838373520202020302E3335373220202020302E30303030204F202020302020302020302020302020302020302020302020302020302020302020302020300A2020202D322E3437353020202020312E3037313720202020302E303030302043202020302020302020302020302020302020302020302020302020302020302020302020300A2020202D322E3838373520202020312E3738363220202020302E303030302043202020302020302020302020302020302020302020302020302020302020302020302020300A2020312020322020312020302020202020200A2020322020332020312020302020202020200A2020332020342020312020302020202020200A2020342020352020312020302020202020200A2020352020362020312020302020202020200A2020362020372020312020302020202020200A2020372020382020332020302020202020200A2020382020392020312020302020202020200A2020362031302020312020302020202020200A2031322031332020312020302020202020200A2031312031322020312020302020202020200A2020392031312020312020302020202020200A2031352031362020312020302020202020200A2031342031352020312020302020202020200A2020392031342020312020302020202020200A4D2020454E44
Contributor: SUMITA Y, KYOTO COLLEGE OF PHARMACY
InstType: EI
InstName: HITACHI M-80
IoniMethod: _ENERGY 20 eV
IonPolarity: pos
Date: 2010-10-09 19:48:36+02:00
Num Peaks: 78
27 15 29 101 31 14 41 85 42 26 43 177 44 20 45 33 47 40 53 15 
55 235 56 85 57 562 58 30 59 80 60 91 61 14 67 164 68 22 69 127 
70 83 71 141 72 24 73 79 75 49 79 38 81 110 82 37 83 346 84 119 
85 459 86 35 87 45 91 19 93 48 95 132 96 20 97 63 98 26 99 161 
100 19 101 70 103 91 107 38 109 198 110 29 111 264 112 145 113 40 114 11 
116 15 117 40 119 22 123 16 124 15 125 48 126 12 127 42 128 11 129 31 
135 12 137 34 139 50 141 27 153 25 154 47 155 39 157 10 165 13 169 28 
181 138 182 35 183 999 184 126 185 15 211 13 227 34 228 5 
