Name: 3-HYDROXYMETHYL-4-METHYLPERHYDROPYRAN-4-OL
MW: 146
Formula: C7H14O3
Synonym: MassBank: JP010034
Synonym: 3-HYDROXYMETHYL-4-METHYLPERHYDROPYRAN-4-OL
Structure: 332D485944524F58594D455448594C2D342D4D455448594C504552485944524F505952414E2D342D4F4C2E6D6F6C0A20204368656D447261773032323231303231333832440A2031302031302020302020302020302020302020302020302020302020303939392056323030300A20202020302E3230363220202020312E3132303720202020302E303030302043202020302020302020302020302020302020302020302020302020302020302020302020300A2020202D302E3230363320202020302E3430363220202020302E303030302043202020302020302020302020302020302020302020302020302020302020302020302020300A20202020302E323036322020202D302E3330383220202020302E303030302043202020302020302020302020302020302020302020302020302020302020302020302020300A20202020312E303331322020202D302E3330383220202020302E303030302043202020302020302020302020302020302020302020302020302020302020302020302020300A20202020312E3434333820202020302E3430363220202020302E303030302043202020302020302020302020302020302020302020302020302020302020302020302020300A20202020312E3033313320202020312E3132303720202020302E30303030204F202020302020302020302020302020302020302020302020302020302020302020302020300A20202020302E333439352020202D312E3132303720202020302E30303030204F202020302020302020302020302020302020302020302020302020302020302020302020300A2020202D302E353639302020202D302E3539303420202020302E303030302043202020302020302020302020302020302020302020302020302020302020302020302020300A2020202D312E3033313320202020302E3430363220202020302E303030302043202020302020302020302020302020302020302020302020302020302020302020302020300A2020202D312E3434333820202020312E3132303720202020302E30303030204F202020302020302020302020302020302020302020302020302020302020302020302020300A2020312020322020312020302020202020200A2020322020332020312020302020202020200A2020332020342020312020302020202020200A2020342020352020312020302020202020200A2020352020362020312020302020202020200A2020312020362020312020302020202020200A2020332020372020312020302020202020200A2020332020382020312020302020202020200A2020392031302020312020302020202020200A2020322020392020312020302020202020200A4D2020454E44
Contributor: KURARAY CO., LTD.
InstType: EI
InstName: JEOL JMS-D-300
IoniMethod: _ENERGY 70 eV
IonPolarity: pos
Date: 2010-10-09 19:48:36+02:00
Num Peaks: 48
27 66 29 71 30 34 31 9 39 66 41 253 42 42 43 999 44 25 45 18 
53 34 55 29 56 32 57 244 58 221 59 6 61 118 65 18 67 51 68 3 
69 86 70 121 71 497 72 18 73 45 79 26 81 35 82 7 83 229 84 19 
85 35 87 8 88 21 89 315 90 12 95 2 97 158 98 64 99 111 100 3 
101 78 112 19 113 35 115 5 117 55 119 16 128 80 131 21 
