Name: MassBank: JP011949
MW: 326
Formula: C20H30Si2
Synonym: MassBank: JP011949
Synonym: 1,8-BIS(TRIETHYLSILYL)-1,3,5,7-OCTATETRAYNE
Structure: 312C382D42495328545249455448594C53494C594C292D312C332C352C372D4F4354415445545241594E452E6D6F6C0A20204368656D447261773131313730393037343032440A2032322032312020302020302020302020302020302020302020302020303939392056323030300A20202020322E3838373520202020302E3030303020202020302E303030302043202020302020302020302020302020302020302020302020302020302020302020302020300A20202020322E3036323520202020302E3030303020202020302E303030302043202020302020302020302020302020302020302020302020302020302020302020302020300A20202020312E3233373520202020302E3030303020202020302E303030302043202020302020302020302020302020302020302020302020302020302020302020302020300A20202020302E3431323520202020302E3030303020202020302E303030302043202020302020302020302020302020302020302020302020302020302020302020302020300A2020202D302E3431323520202020302E3030303020202020302E303030302043202020302020302020302020302020302020302020302020302020302020302020302020300A2020202D312E3233373520202020302E3030303020202020302E303030302043202020302020302020302020302020302020302020302020302020302020302020302020300A2020202D322E3036323520202020302E3030303020202020302E303030302043202020302020302020302020302020302020302020302020302020302020302020302020300A2020202D322E3838373520202020302E3030303020202020302E303030302043202020302020302020302020302020302020302020302020302020302020302020302020300A2020202D332E3731323520202020302E3030303020202020302E303030302053692020302020302020302020302020302020302020302020302020302020302020302020300A2020202D332E3731323520202020302E3832353020202020302E303030302043202020302020302020302020302020302020302020302020302020302020302020302020300A2020202D322E3939383020202020312E3233373520202020302E303030302043202020302020302020302020302020302020302020302020302020302020302020302020300A2020202D332E373132352020202D302E3832353020202020302E303030302043202020302020302020302020302020302020302020302020302020302020302020302020300A2020202D322E393938302020202D312E3233373520202020302E303030302043202020302020302020302020302020302020302020302020302020302020302020302020300A2020202D342E3533373520202020302E3030303020202020302E303030302043202020302020302020302020302020302020302020302020302020302020302020302020300A2020202D342E393530302020202D302E3731343520202020302E303030302043202020302020302020302020302020302020302020302020302020302020302020302020300A20202020332E3731323520202020302E3030303020202020302E303030302053692020302020302020302020302020302020302020302020302020302020302020302020300A20202020332E3731323520202020302E3832353020202020302E303030302043202020302020302020302020302020302020302020302020302020302020302020302020300A20202020342E3432373020202020312E3233373520202020302E303030302043202020302020302020302020302020302020302020302020302020302020302020302020300A20202020342E3533373520202020302E3030303020202020302E303030302043202020302020302020302020302020302020302020302020302020302020302020302020300A20202020342E3935303020202020302E3731343520202020302E303030302043202020302020302020302020302020302020302020302020302020302020302020302020300A20202020332E373132352020202D302E3832353020202020302E303030302043202020302020302020302020302020302020302020302020302020302020302020302020300A20202020342E343237302020202D312E3233373520202020302E303030302043202020302020302020302020302020302020302020302020302020302020302020302020300A2020312020322020332020302020202020200A2020322020332020312020302020202020200A2020332020342020332020302020202020200A2020342020352020312020302020202020200A2020352020362020332020302020202020200A2020362020372020312020302020202020200A2020372020382020332020302020202020200A2031302031312020312020302020202020200A2020392031302020312020312020202020200A2031322031332020312020302020202020200A2020392031322020312020312020202020200A2031342031352020312020302020202020200A2020392031342020312020302020202020200A2020382020392020312020302020202020200A2031372031382020312020302020202020200A2031362031372020312020312020202020200A2031392032302020312020302020202020200A2031362031392020312020302020202020200A2032312032322020312020302020202020200A2031362032312020312020312020202020200A2020312031362020312020302020202020200A4D2020454E44
Contributor: ISHIKAWA M, HIROSHIMA UNIV. FAC. TEQUNOLOGY
InstType: EI
InstName: SHIMADZU QP-1000
IoniMethod: _ENERGY 70 eV
IonPolarity: pos
Date: 2010-10-09 19:48:36+02:00
Num Peaks: 56
53 58 55 32 57 84 58 42 59 63 67 11 69 11 77 42 78 111 79 42 
81 68 83 21 85 21 87 21 91 27 92 179 93 42 101 26 103 11 105 63 
106 179 107 32 120 111 121 32 127 21 128 11 129 63 130 21 131 42 134 32 
155 53 156 84 157 89 158 21 159 26 183 32 184 74 185 100 186 32 187 11 
211 11 212 32 213 42 241 568 242 147 243 58 269 800 270 242 271 84 272 11 
297 999 298 453 299 147 326 232 327 74 328 16 
