Name: MassBank: JP011504
MW: 400
Formula: C20H20F4O4
Synonym: MassBank: JP011504
Synonym: ANTI-5,8,13,16-TETRAFLUORO-4,6,12,14-TETRAMETHOXY(2.2)METACYCLOPHANE
Structure: 414E54492D352C382C31332C31362D5445545241464C554F524F2D342C362C31322C31342D54455452414D4554484F585928322E32294D4554414359434C4F5048414E452E6D6F6C0A20204368656D447261773038313331303132353832440A2032382033302020302020302020302020302020302020302020302020303939392056323030300A2020202D302E333630392020202D302E3933383320202020302E303030302043202020302020302020302020302020302020302020302020302020302020302020302020300A2020202D302E383732352020202D302E3538393620202020302E303030302043202020302020302020302020302020302020302020302020302020302020302020302020300A2020202D312E303938362020202D302E3031323720202020302E303030302043202020302020302020302020302020302020302020302020302020302020302020302020300A2020202D312E3638383420202020302E3332373820202020302E303030302043202020302020302020302020302020302020302020302020302020302020302020302020300A2020202D312E3638383420202020312E3030393520202020302E303030302043202020302020302020302020302020302020302020302020302020302020302020302020300A20202020312E363838352020202D302E3933383120202020302E303030302043202020302020302020302020302020302020302020302020302020302020302020302020300A20202020302E393733322020202D312E3335313120202020302E303030302043202020302020302020302020302020302020302020302020302020302020302020302020300A20202020302E323538322020202D302E3933383320202020302E303030302043202020302020302020302020302020302020302020302020302020302020302020302020300A2020202D312E3039383220202020312E3335303220202020302E303030302043202020302020302020302020302020302020302020302020302020302020302020302020300A2020202D302E3530383820202020312E3031303020202020302E303030302043202020302020302020302020302020302020302020302020302020302020302020302020300A20202020302E3130343520202020312E3130343620202020302E303030302043202020302020302020302020302020302020302020302020302020302020302020302020300A20202020302E3636323820202020302E3833363520202020302E303030302043202020302020302020302020302020302020302020302020302020302020302020302020300A20202020302E3937323420202020302E3330303220202020302E303030302043202020302020302020302020302020302020302020302020302020302020302020302020300A20202020312E363837352020202D302E3131323620202020302E303030302043202020302020302020302020302020302020302020302020302020302020302020302020300A20202020302E323538322020202D302E3131323820202020302E303030302043202020302020302020302020302020302020302020302020302020302020302020302020300A2020202D302E3934353120202020302E3537333620202020302E303030302043202020302020302020302020302020302020302020302020302020302020302020302020300A2020202D322E343032392020202D302E3038343720202020302E30303030204F202020302020302020302020302020302020302020302020302020302020302020302020300A2020202D312E3039383220202020322E3137363320202020302E30303030204F202020302020302020302020302020302020302020302020302020302020302020302020300A2020202D312E3737303120202020302E3537333620202020302E303030302046202020302020302020302020302020302020302020302020302020302020302020302020300A2020202D302E3435373020202020302E3330303220202020302E303030302046202020302020302020302020302020302020302020302020302020302020302020302020300A20202020302E393733322020202D322E3137363320202020302E30303030204F202020302020302020302020302020302020302020302020302020302020302020302020300A20202020322E343033302020202D312E3335303620202020302E303030302046202020302020302020302020302020302020302020302020302020302020302020302020300A20202020322E3430323920202020302E3330303420202020302E30303030204F202020302020302020302020302020302020302020302020302020302020302020302020300A20202020312E363837372020202D322E3538383820202020302E303030302043202020302020302020302020302020302020302020302020302020302020302020302020300A20202020332E313137342020202D302E3131323120202020302E303030302043202020302020302020302020302020302020302020302020302020302020302020302020300A2020202D322E3430323920202020312E3432323020202020302E303030302046202020302020302020302020302020302020302020302020302020302020302020302020300A2020202D312E3831323720202020322E3538383820202020302E303030302043202020302020302020302020302020302020302020302020302020302020302020302020300A2020202D332E3131373420202020302E3332373920202020302E303030302043202020302020302020302020302020302020302020302020302020302020302020302020300A2020312020322020312020302020202020200A2020322020332020312020302020202020200A2020332020342020322020302020202020200A2020342020352020312020302020202020200A2020362020372020322020302020202020200A2020372020382020312020302020202020200A2020382020312020312020302020202020200A2020352020392020322020302020202020200A2020392031302020312020302020202020200A2031302031312020312020302020202020200A2031312031322020312020302020202020200A2031322031332020312020302020202020200A2031332031342020322020302020202020200A2031342020362020312020302020202020200A2020382031352020322020302020202020200A2031352031332020312020302020202020200A2020332031362020312020302020202020200A2031362031302020322020302020202020200A2020342031372020312020302020202020200A2020392031382020312020302020202020200A2031362031392020312020302020202020200A2031352032302020312020302020202020200A2020372032312020312020302020202020200A2020362032322020312020302020202020200A2031342032332020312020302020202020200A2032312032342020312020302020202020200A2032332032352020312020302020202020200A2020352032362020312020302020202020200A2031382032372020312020302020202020200A2031372032382020312020302020202020200A4D2020454E44
Contributor: TASHIRO M, INST. OF ADVANCED MATERIAL STUDY KYUSHU UNIV.
InstType: EI
InstName: JEOL JMS-01-SG-2
IoniMethod: _ENERGY 75 eV
IonPolarity: pos
Date: 2010-10-09 19:48:36+02:00
Num Peaks: 23
43 103 44 348 570 279 69 124 75 104 101 126 114 163 127 262 140 373 155 174 
170 435 171 128 185 113 187 112 199 561 200 188 201 406 214 159 374 113 385 628 
386 166 400 999 401 222 
