Name: N-ETHENYLPHTHALIMIDE
MW: 173
Formula: C10H7NO2
Synonym: MassBank: JP010140
Synonym: N-ETHENYLPHTHALIMIDE
Structure: 4E2D455448454E594C50485448414C494D4944452E6D6F6C0A20204368656D447261773038313231303032303232440A2031332031342020302020302020302020302020302020302020302020303939392056323030300A2020202D302E363137352020202D302E3139363520202020302E303030302043202020302020302020302020302020302020302020302020302020302020302020302020300A2020202D312E343234352020202D302E3336383120202020302E30303030204F202020302020302020302020302020302020302020302020302020302020302020302020300A2020202D302E303034342020202D302E3734383620202020302E303030302043202020302020302020302020302020302020302020302020302020302020302020302020300A20202020302E373130302020202D302E3333363120202020302E303030302043202020302020302020302020302020302020302020302020302020302020302020302020300A20202020302E3533383520202020302E3437303920202020302E303030302043202020302020302020302020302020302020302020302020302020302020302020302020300A20202020312E3039303520202020312E3038343020202020302E30303030204F202020302020302020302020302020302020302020302020302020302020302020302020300A20202020312E343234352020202D302E3734383620202020302E303030302043202020302020302020302020302020302020302020302020302020302020302020302020300A20202020312E343234352020202D312E3537333620202020302E303030302043202020302020302020302020302020302020302020302020302020302020302020302020300A20202020302E373130302020202D312E3938363120202020302E303030302043202020302020302020302020302020302020302020302020302020302020302020302020300A2020202D302E303034342020202D312E3537333620202020302E303030302043202020302020302020302020302020302020302020302020302020302020302020302020300A2020202D302E3238323020202020302E3535373120202020302E30303030204E202020302020302020302020302020302020302020302020302020302020302020302020300A2020202D302E3639343520202020312E3237313620202020302E303030302043202020302020302020302020302020302020302020302020302020302020302020302020300A2020202D302E3238323020202020312E3938363120202020302E303030302043202020302020302020302020302020302020302020302020302020302020302020302020300A2020312020322020322020302020202020200A2020312020332020312020302020202020200A2020332020342020312020302020202020200A2020342020352020312020302020202020200A2020352020362020322020302020202020200A2020342020372020322020302020202020200A2020372020382020312020302020202020200A2020382020392020322020302020202020200A2020392031302020312020302020202020200A2020332031302020322020302020202020200A2020312031312020312020302020202020200A2020352031312020312020302020202020200A2031322031332020322020302020202020200A2031312031322020312020302020202020200A4D2020454E44
Contributor: KURARAY CO., LTD.
InstType: EI
InstName: JEOL JMS-D-300
IoniMethod: _ENERGY 70 eV
IonPolarity: pos
Date: 2010-10-09 19:48:36+02:00
Num Peaks: 33
27 20 38 40 41 30 43 2 50 200 51 30 52 90 55 3 57 20 66 120 
69 30 73 3 74 70 75 90 76 460 77 8 89 20 90 90 102 20 103 11 
104 430 105 100 117 130 118 5 129 60 132 50 133 60 145 8 146 100 161 40 
172 50 173 999 174 130 
