Name: MassBank: JP011847
MW: 149
Formula: C7H7N3O
Synonym: MassBank: JP011847
Synonym: 3H,4H-3-METHYLPYRRO(1,2-D)(1,2,4)TRIAZIN-4-ONE
Structure: 313132335F33482C34482D332D4D455448594C505952524F28312C322D442928312C322C3429545249415A494E2D342D4F4E452E6D6F6C0A20204368656D447261773130323031303230333632440A2031312031322020302020302020302020302020302020302020302020303939392056323030300A2020202D312E323132392020202D302E3338333720202020302E303030302043202020302020302020302020302020302020302020302020302020302020302020302020300A2020202D312E323132392020202D312E3230383720202020302E303030302043202020302020302020302020302020302020302020302020302020302020302020302020300A2020202D302E343238332020202D312E3436333620202020302E303030302043202020302020302020302020302020302020302020302020302020302020302020302020300A20202020302E303536372020202D302E3739363220202020302E303030302043202020302020302020302020302020302020302020302020302020302020302020302020300A2020202D302E343237332020202D302E3132393620202020302E30303030204E202020302020302020302020302020302020302020302020302020302020302020302020300A20202020302E383737312020202D302E3730393920202020302E303030302043202020302020302020302020302020302020302020302020302020302020302020302020300A20202020312E3231323920202020302E3034333520202020302E30303030204E202020302020302020302020302020302020302020302020302020302020302020302020300A20202020302E3732383420202020302E3731303120202020302E30303030204E202020302020302020302020302020302020302020302020302020302020302020302020300A2020202D302E3039323720202020302E3632343920202020302E303030302043202020302020302020302020302020302020302020302020302020302020302020302020300A2020202D302E3537373520202020312E3239323320202020302E30303030204F202020302020302020302020302020302020302020302020302020302020302020302020300A20202020312E3036343420202020312E3436333620202020302E303030302043202020302020302020302020302020302020302020302020302020302020302020302020300A2020312020322020322020302020202020200A2020322020332020312020302020202020200A2020332020342020322020302020202020200A2020342020352020312020302020202020200A2020352020312020312020302020202020200A2020342020362020312020302020202020200A2020362020372020322020302020202020200A2020372020382020312020302020202020200A2020382020392020312020302020202020200A2020392020352020312020302020202020200A2020392031302020322020302020202020200A2020382031312020312020302020202020200A4D2020454E44
Contributor: YOSHIKI O, FAC, TECHNOLOGY, OSAKA UNIV.
InstType: EI
InstName: Unknown
IoniMethod: _ENERGY 70 eV
IonPolarity: pos
Date: 2010-10-09 19:48:36+02:00
Num Peaks: 33
51 224 52 79 53 18 56 68 58 14 61 14 63 23 64 69 65 92 66 47 
67 31 74 17 75 19 76 12 77 16 78 250 79 140 80 40 91 14 92 39 
93 110 94 163 95 12 105 26 106 80 107 16 119 10 120 48 121 103 122 11 
148 55 149 999 150 81 
