Name: 2-CYCLOHEXEN-1-OL
MW: 98
Formula: C6H10O
Synonym: MassBank: JP010462
Synonym: 2-CYCLOHEXEN-1-OL
Structure: 310A31390A322D4359434C4F484558454E2D312D4F4C2E6D6F6C0A20204368656D447261773031303331303132303832440A2020372020372020302020302020302020302020302020302020302020303939392056323030300A2020202D302E3431323520202020302E3030303020202020302E303030302043202020302020302020302020302020302020302020302020302020302020302020302020300A20202020302E3030303020202020302E3731343520202020302E303030302043202020302020302020302020302020302020302020302020302020302020302020302020300A20202020302E3832353020202020302E3731343520202020302E303030302043202020302020302020302020302020302020302020302020302020302020302020302020300A20202020312E323337352020202D302E3030303020202020302E303030302043202020302020302020302020302020302020302020302020302020302020302020302020300A20202020302E383235302020202D302E3731343520202020302E303030302043202020302020302020302020302020302020302020302020302020302020302020302020300A20202020302E303030302020202D302E3731343520202020302E303030302043202020302020302020302020302020302020302020302020302020302020302020302020300A2020202D312E3233373520202020302E3030303020202020302E30303030204F202020302020302020302020302020302020302020302020302020302020302020302020300A2020312020322020312020302020202020200A2020322020332020322020302020202020200A2020332020342020312020302020202020200A2020342020352020312020302020202020200A2020352020362020312020302020202020200A2020312020362020312020302020202020200A2020312020372020312020302020202020200A4D2020454E44
Contributor: TAJIMA S, GUNMA COLLEGE OF TECHNOLOGY
InstType: EI
InstName: HITACHI M-80A
IoniMethod: _ENERGY 70 eV
IonPolarity: pos
Date: 2010-10-09 19:48:36+02:00
Num Peaks: 45
15 36 18 22 26 43 27 187 28 17 29 131 31 42 37 16 38 39 39 261 
40 51 41 236 42 167 43 151 44 41 50 43 51 66 52 40 53 68 54 84 
55 250 56 48 57 118 58 12 63 14 65 28 66 15 67 71 68 32 69 217 
70 999 71 54 77 88 78 30 79 254 80 264 81 268 82 35 83 426 84 24 
86 12 96 10 97 351 98 538 99 48 
