Name: LOBOHEDLEOLIDE PRYAZOLINE METHYL ESTER
MW: 386
Formula: C22H30N2O4
Synonym: MassBank: JP010640
Synonym: LOBOHEDLEOLIDE PRYAZOLINE METHYL ESTER
Structure: 303932395F4C4F424F4845444C454F4C49444520505259415A4F4C494E45204D455448594C2045535445522E6D6F6C0A20204368656D447261773130323031303138353032440A2033302033322020302020302020302020302020302020302020302020303939392056323030300A20202020332E343531342020202D302E3130393320202020302E303030302043202020302020302020302020302020302020302020302020302020302020302020302020300A20202020322E3935353020202020302E3532343120202020302E303030302043202020302020302020302020302020302020302020302020302020302020302020302020300A20202020322E393633362020202D302E3830323620202020302E30303030204F202020302020302020302020302020302020302020302020302020302020302020302020300A20202020322E313834362020202D302E3535343420202020302E303030302043202020302020302020302020302020302020302020302020302020302020302020302020300A20202020322E3138343620202020302E3239333020202020302E303030302043202020302020302020302020302020302020302020302020302020302020302020302020300A20202020312E343635362020202D302E3935363820202020302E303030302043202020302020302020302020302020302020302020302020302020302020302020302020300A2020202D322E383331342020202D302E3937333920202020302E303030302043202020302020302020302020302020302020302020302020302020302020302020302020300A2020202D322E313033382020202D302E3534353820202020302E303030302043202020302020302020302020302020302020302020302020302020302020302020302020300A20202020312E3436353620202020302E3730333920202020302E303030302043202020302020302020302020302020302020302020302020302020302020302020302020300A20202020302E373535312020202D302E3534353820202020302E303030302043202020302020302020302020302020302020302020302020302020302020302020302020300A20202020342E323733322020202D302E3130393320202020302E30303030204F202020302020302020302020302020302020302020302020302020302020302020302020300A20202020302E3033363120202020302E3730333920202020302E303030302043202020302020302020302020302020302020302020302020302020302020302020302020300A2020202D322E383331342020202D312E3832313320202020302E30303030204F202020302020302020302020302020302020302020302020302020302020302020302020300A2020202D312E333637372020202D302E3934383220202020302E303030302043202020302020302020302020302020302020302020302020302020302020302020302020300A2020202D302E3637343320202020302E3238343520202020302E303030302043202020302020302020302020302020302020302020302020302020302020302020302020300A20202020302E3735353120202020302E3238343520202020302E303030302043202020302020302020302020302020302020302020302020302020302020302020302020300A2020202D332E353539302020202D302E3535343420202020302E30303030204F202020302020302020302020302020302020302020302020302020302020302020302020300A2020202D312E3339333420202020302E3730333920202020302E303030302043202020302020302020302020302020302020302020302020302020302020302020302020300A2020202D302E363832392020202D302E3536323920202020302E303030302043202020302020302020302020302020302020302020302020302020302020302020302020300A2020202D322E3130333820202020302E3238343520202020302E303030302043202020302020302020302020302020302020302020302020302020302020302020302020300A20202020302E303336312020202D302E3935363820202020302E303030302043202020302020302020302020302020302020302020302020302020302020302020302020300A20202020302E3336393920202020302E3132313820202020302E303030302043202020302020302020302020302020302020302020302020302020302020302020302020300A20202020302E3033363120202020312E3532353720202020302E303030302043202020302020302020302020302020302020302020302020302020302020302020302020300A20202020322E3138343620202020312E3131343720202020302E303030302048202020302020302020302020302020302020302020302020302020302020302020302020300A20202020322E313834362020202D312E3434343720202020302E303030302048202020302020302020302020302020302020302020302020302020302020302020302020300A20202020332E3737373620202020302E3538363720202020302E30303030204E202020302020302020302020302020302020302020302020302020302020302020302020300A20202020332E3937323320202020312E3338383420202020302E30303030204E202020302020302020302020302020302020302020302020302020302020302020302020300A20202020332E3237303020202020312E3832313320202020302E303030302043202020302020302020302020302020302020302020302020302020302020302020302020300A20202020322E3634313320202020312E3238373120202020302E303030302043202020302020302020302020302020302020302020302020302020302020302020302020300A2020202D342E323733322020202D302E3936373420202020302E303030302043202020302020302020302020302020302020302020302020302020302020302020302020300A2020322020312020312020302020202020200A2020332020312020312020302020202020200A2031312020312020322020302020202020200A2020352020322020312020302020202020200A2020342020332020312020302020202020200A2020362020342020312020302020202020200A2020342032352020312020362020202020200A2020342020352020312020302020202020200A2020392020352020312020302020202020200A2020352032342020312020362020202020200A2031302020362020322020302020202020200A2020372020382020312020302020202020200A2031332020372020322020302020202020200A2031372020372020312020302020202020200A2020382031342020322020302020202020200A2020382032302020312020302020202020200A2031362020392020312020302020202020200A2032312031302020312020302020202020200A2032322031302020312020302020202020200A2031322031362020312020302020202020200A2031352031322020322020302020202020200A2032332031322020312020302020202020200A2031342031392020312020302020202020200A2031382031352020312020302020202020200A2032302031382020312020302020202020200A2031392032312020312020302020202020200A2020322032362020312020302020202020200A2032362032372020322020302020202020200A2032372032382020312020302020202020200A2032382032392020312020302020202020200A2032392020322020312020302020202020200A2031372033302020312020302020202020200A4D2020454E44
Contributor: EGUCHI S, FAC. OF SCIENCE, HIROSHIMA UNIV.
InstType: EI
InstName: HITACHI RMU-6L
IoniMethod: _ENERGY 70 eV
IonPolarity: pos
Date: 2010-10-09 19:48:36+02:00
Num Peaks: 183
40 103 41 999 42 75 43 20 45 65 51 65 52 47 53 65 54 93 55 626 
56 47 57 7 59 187 65 252 66 131 67 63 68 136 69 140 71 65 77 34 
78 103 79 514 80 140 81 77 82 150 83 121 84 65 85 5 91 607 92 121 
93 327 94 12 95 280 96 75 97 56 103 7 104 56 105 421 106 93 107 30 
108 75 109 131 110 47 111 8 112 56 113 37 115 65 116 5 117 150 118 93 
119 327 120 12 121 168 122 75 123 65 124 5 125 37 128 47 129 84 130 4 
131 168 132 93 133 140 134 12 135 131 136 75 137 93 138 4 139 33 143 75 
144 37 145 17 146 84 147 252 148 65 149 11 150 56 151 65 152 37 153 3 
157 75 158 42 159 121 160 7 161 121 162 84 163 149 164 7 165 121 166 42 
169 37 171 7 172 37 173 112 174 56 175 8 176 56 177 112 178 93 179 8 
180 37 181 28 183 37 185 8 186 54 187 93 188 47 189 6 190 47 191 84 
192 65 193 4 197 47 198 37 199 84 200 5 201 75 202 47 203 75 204 5 
205 56 206 37 207 33 211 5 212 37 213 84 214 47 215 7 216 37 217 65 
218 47 219 4 225 37 226 28 227 47 229 4 230 37 231 65 241 37 243 6 
244 33 245 37 246 56 247 3 253 56 254 23 255 37 257 4 265 37 269 35 
270 33 279 3 280 56 281 65 282 28 283 4 284 28 285 19 291 19 293 3 
297 37 298 102 299 56 300 2 308 56 309 37 310 14 311 4 312 37 313 19 
326 159 327 8 328 28 329 10 341 45 342 3 343 20 344 10 358 102 359 4 
360 10 386 28 387 10 
