Name: MassBank: JP011863
MW: 549
Formula: C32H31N3O4Si
Synonym: MassBank: JP011863
Synonym: 7-METHYL-1-PHENYL-4-TRIMETHYLSILYL-7-AZOBICYCLO(2,2,1)HEPTANE-N,N-DIPHENYL-2,3,5,6-TETRACARBOXODIIMIDO
Structure: 372D4D455448594C2D312D5048454E594C2D342D5452494D455448594C53494C594C2D372D415A4F42494359434C4F28322C322C312948455054414E452D4E2C4E2D44495048454E594C2D322C332C352C362D5445545241434152424F584F4449494D49444F2E6D6F6C0A20204368656D447261773035323231303034343332440A2034302034362020302020302020302020302020302020302020302020303939392056323030300A2020202D302E3731343520202020302E3832353020202020302E303030302043202020302020302020302020302020302020302020302020302020302020302020302020300A2020202D302E3731343520202020302E3030303020202020302E303030302043202020302020302020302020302020302020302020302020302020302020302020302020300A20202020302E303030302020202D302E3431323520202020302E303030302043202020302020302020302020302020302020302020302020302020302020302020302020300A20202020302E3731343520202020302E3030303020202020302E303030302043202020302020302020302020302020302020302020302020302020302020302020302020300A20202020302E3731343520202020302E3832353020202020302E303030302043202020302020302020302020302020302020302020302020302020302020302020302020300A20202020302E3030303020202020312E3233373520202020302E303030302043202020302020302020302020302020302020302020302020302020302020302020302020300A2020202D312E3439393120202020312E3037393920202020302E303030302043202020302020302020302020302020302020302020302020302020302020302020302020300A2020202D312E3938343020202020302E3431323520202020302E30303030204E202020302020302020302020302020302020302020302020302020302020302020302020300A2020202D312E343939312020202D302E3235343920202020302E303030302043202020302020302020302020302020302020302020302020302020302020302020302020300A20202020312E343939312020202D302E3235343920202020302E303030302043202020302020302020302020302020302020302020302020302020302020302020302020300A20202020312E3938343020202020302E3431323520202020302E30303030204E202020302020302020302020302020302020302020302020302020302020302020302020300A20202020312E3439393120202020312E3037393920202020302E303030302043202020302020302020302020302020302020302020302020302020302020302020302020300A2020202D312E3735343020202020312E3836343620202020302E30303030204F202020302020302020302020302020302020302020302020302020302020302020302020300A20202020312E3735343020202020312E3836343620202020302E30303030204F202020302020302020302020302020302020302020302020302020302020302020302020300A20202020322E3830393020202020302E3431323520202020302E303030302043202020302020302020302020302020302020302020302020302020302020302020302020300A2020202D322E3830393020202020302E3431323520202020302E303030302043202020302020302020302020302020302020302020302020302020302020302020302020300A2020202D312E373534302020202D312E3033393620202020302E30303030204F202020302020302020302020302020302020302020302020302020302020302020302020300A20202020302E303030302020202D312E3233373520202020302E303030302043202020302020302020302020302020302020302020302020302020302020302020302020300A20202020312E373534302020202D312E3033393620202020302E30303030204F202020302020302020302020302020302020302020302020302020302020302020302020300A20202020302E3231333520202020302E3434303620202020302E30303030204E202020302020302020302020302020302020302020302020302020302020302020302020300A20202020312E3033383520202020302E3434303620202020302E303030302043202020302020302020302020302020302020302020302020302020302020302020302020300A20202020302E3030303020202020322E3036323520202020302E303030302053692020302020302020302020302020302020302020302020302020302020302020302020300A20202020302E3030303020202020322E3838373520202020302E303030302043202020302020302020302020302020302020302020302020302020302020302020302020300A20202020302E3832353020202020322E3036323520202020302E303030302043202020302020302020302020302020302020302020302020302020302020302020302020300A2020202D302E3832353020202020322E3036323520202020302E303030302043202020302020302020302020302020302020302020302020302020302020302020302020300A2020202D332E3232313520202020312E3132373020202020302E303030302043202020302020302020302020302020302020302020302020302020302020302020302020300A2020202D342E3034363520202020312E3132373020202020302E303030302043202020302020302020302020302020302020302020302020302020302020302020302020300A2020202D342E3435393020202020302E3431323520202020302E303030302043202020302020302020302020302020302020302020302020302020302020302020302020300A2020202D342E303436352020202D302E3330323020202020302E303030302043202020302020302020302020302020302020302020302020302020302020302020302020300A2020202D332E323231352020202D302E3330323020202020302E303030302043202020302020302020302020302020302020302020302020302020302020302020302020300A20202020332E323231352020202D302E3330323020202020302E303030302043202020302020302020302020302020302020302020302020302020302020302020302020300A20202020342E303436352020202D302E3330323020202020302E303030302043202020302020302020302020302020302020302020302020302020302020302020302020300A20202020342E3435393020202020302E3431323520202020302E303030302043202020302020302020302020302020302020302020302020302020302020302020302020300A20202020342E3034363520202020312E3132373020202020302E303030302043202020302020302020302020302020302020302020302020302020302020302020302020300A20202020332E3232313520202020312E3132373020202020302E303030302043202020302020302020302020302020302020302020302020302020302020302020302020300A2020202D302E373134352020202D312E3635303020202020302E303030302043202020302020302020302020302020302020302020302020302020302020302020302020300A2020202D302E373134352020202D322E3437353020202020302E303030302043202020302020302020302020302020302020302020302020302020302020302020302020300A20202020302E303030302020202D322E3838373520202020302E303030302043202020302020302020302020302020302020302020302020302020302020302020302020300A20202020302E373134352020202D322E3437353020202020302E303030302043202020302020302020302020302020302020302020302020302020302020302020302020300A20202020302E373134352020202D312E3635303020202020302E303030302043202020302020302020302020302020302020302020302020302020302020302020302020300A2020312020322020312020302020202020200A2020322020332020312020302020202020200A2020332020342020312020302020202020200A2020342020352020312020302020202020200A2020352020362020312020302020202020200A2020362020312020312020302020202020200A2020312020372020312020302020202020200A2020372020382020312020302020202020200A2020382020392020312020302020202020200A2020392020322020312020302020202020200A2020342031302020312020302020202020200A2031302031312020312020302020202020200A2031312031322020312020302020202020200A2031322020352020312020302020202020200A2020372031332020322020302020202020200A2031322031342020322020302020202020200A2031312031352020312020302020202020200A2020382031362020312020302020202020200A2020392031372020322020302020202020200A2020332031382020312020302020202020200A2031302031392020322020302020202020200A2020362032302020312020302020202020200A2032302020332020312020302020202020200A2032302032312020312020302020202020200A2020362032322020312020302020202020200A2032322032332020312020302020202020200A2032322032342020312020302020202020200A2032322032352020312020302020202020200A2031362032362020322020302020202020200A2032362032372020312020302020202020200A2032372032382020322020302020202020200A2032382032392020312020302020202020200A2032392033302020322020302020202020200A2033302031362020312020302020202020200A2031352033312020322020302020202020200A2033312033322020312020302020202020200A2033322033332020322020302020202020200A2033332033342020312020302020202020200A2033342033352020322020302020202020200A2033352031352020312020302020202020200A2031382033362020322020302020202020200A2033362033372020312020302020202020200A2033372033382020322020302020202020200A2033382033392020312020302020202020200A2033392034302020322020302020202020200A2034302031382020312020302020202020200A4D2020454E44
Contributor: YOSHIKI O, FAC, TECHNOLOGY, OSAKA UNIV.
InstType: EI
InstName: Unknown
IoniMethod: _ENERGY 70 eV
IonPolarity: pos
Date: 2010-10-09 19:48:36+02:00
Num Peaks: 56
51 34 54 50 55 23 58 21 59 220 64 29 73 370 74 36 75 57 77 138 
91 72 103 39 115 64 117 22 118 109 119 41 128 30 129 45 130 22 154 29 
155 21 156 40 157 21 166 25 167 28 170 22 173 53 180 37 181 50 182 58 
184 62 198 20 199 29 212 27 214 428 215 89 216 27 229 166 230 41 256 262 
257 112 258 47 259 93 271 128 272 31 333 49 347 82 348 28 375 377 376 999 
377 293 378 82 476 28 534 57 535 23 549 23 
