Name: ACETANILIDE
CAS: 103-84-4
MW: 135
Formula: C8H9NO
Synonym: MassBank: JP010523
Synonym: ACETANILIDE
Structure: 41434554414E494C4944452E6D6F6C0A20204368656D447261773036323431303035343932440A2031302031302020302020302020302020302020302020302020302020303939392056323030300A2020202D312E303731372020202D302E3431323520202020302E303030302043202020302020302020302020302020302020302020302020302020302020302020302020300A2020202D312E373836322020202D302E3832353020202020302E303030302043202020302020302020302020302020302020302020302020302020302020302020302020300A2020202D312E3037313720202020302E3431323520202020302E30303030204F202020302020302020302020302020302020302020302020302020302020302020302020300A2020202D302E333537322020202D302E3832353020202020302E30303030204E202020302020302020302020302020302020302020302020302020302020302020302020300A20202020302E333537322020202D302E3431323520202020302E303030302043202020302020302020302020302020302020302020302020302020302020302020302020300A20202020302E3335373220202020302E3431323520202020302E303030302043202020302020302020302020302020302020302020302020302020302020302020302020300A20202020312E3037313720202020302E3832353020202020302E303030302043202020302020302020302020302020302020302020302020302020302020302020302020300A20202020312E3738363220202020302E3431323520202020302E303030302043202020302020302020302020302020302020302020302020302020302020302020302020300A20202020312E373836322020202D302E3431323520202020302E303030302043202020302020302020302020302020302020302020302020302020302020302020302020300A20202020312E303731372020202D302E3832353020202020302E303030302043202020302020302020302020302020302020302020302020302020302020302020302020300A2020312020322020312020302020202020200A2020342020352020312020302020202020200A2020352020362020312020302020202020200A2020362020372020322020302020202020200A2020372020382020312020302020202020200A2020382020392020322020302020202020200A2020392031302020312020302020202020200A2020352031302020322020302020202020200A2020312020332020322020302020202020200A2020312020342020312020302020202020200A4D2020454E44
Contributor: NARA WOMEN'S UNIVERSITY
InstType: EI
InstName: HITACHI M-80
IoniMethod: _ENERGY 70 eV
IonPolarity: pos
Date: 2010-10-09 19:48:36+02:00
Num Peaks: 39
14 28 15 141 26 18 27 39 28 19 29 13 37 43 38 112 39 435 40 84 
41 56 42 71 43 637 44 22 47 11 50 79 51 150 52 88 53 19 54 31 
61 17 62 54 63 109 64 99 65 370 66 334 67 43 74 19 75 15 76 12 
77 93 78 26 91 44 92 98 93 999 94 121 106 21 135 434 136 47 
