Name: MassBank: JP012037
MW: 155
Formula: C2H5I
Synonym: MassBank: JP012037
Synonym: IODOETHANE (2,2,2-D3)
Structure: 310A31370A494F444F455448414E452028322C322C322D4433292E6D6F6C0A20204368656D447261773038313131303230353332440A2020362020352020302020302020302020302020302020302020302020303939392056323030300A20202020302E3335373220202020302E3431323520202020302E303030302043202020302020302020302020302020302020302020302020302020302020302020302020300A2020202D302E3335373220202020302E3030303020202020302E303030302043202020302020302020302020302020302020302020302020302020302020302020302020300A20202020302E303535332020202D302E3731343520202020302E303030302048202020312020302020302020302020302020302020302020302020302020302020302020300A2020202D312E303731372020202D302E3431323520202020302E303030302048202020312020302020302020302020302020302020302020302020302020302020302020300A2020202D302E3736393720202020302E3731343520202020302E303030302048202020312020302020302020302020302020302020302020302020302020302020302020300A20202020312E3037313720202020302E3030303020202020302E303030302049202020302020302020302020302020302020302020302020302020302020302020302020300A2020312020322020312020302020202020200A2020322020332020312020302020202020200A2020322020342020312020302020202020200A2020322020352020312020302020202020200A2020312020362020312020302020202020200A4D202049534F2020332020203320202032202020342020203220202035202020320A4D2020454E44
Contributor: YAMAMOTO M, DEP. CHEMISTRY, FAC. SCIENCE, NARA WOMEN'S UNIV.
InstType: EI
InstName: HITACHI RMU-6M
IoniMethod: _ENERGY 70 eV
IonPolarity: pos
Date: 2010-10-09 19:48:36+02:00
Num Peaks: 19
18 15 26 13 27 52 28 177 29 357 30 117 31 36 32 999 33 27 48 11 
127 169 128 22 129 26 139 10 140 12 141 15 158 16 159 757 160 25 
