Name: DEOXYCORTICOSTERONE ACETATE
MW: 372
Formula: C23H32O4
Synonym: MassBank: JP011422
Synonym: DEOXYCORTICOSTERONE ACETATE
Synonym: 4-PREGNEN-21-OL-3,20-DIONE ACETATE
Structure: 44454F5859434F525449434F535445524F4E4520414345544154452E6D6F6C0A20204368656D447261773034323231303231303432440A2033312033342020302020302020302020302020302020302020302020303939392056323030300A2020202D322E343533392020202D322E3534303120202020302E303030302043202020302020302020302020302020302020302020302020302020302020302020302020300A2020202D322E343533392020202D312E3731353120202020302E303030302043202020302020302020302020302020302020302020302020302020302020302020302020300A2020202D312E373339352020202D312E3330323620202020302E303030302043202020302020302020302020302020302020302020302020302020302020302020302020300A2020202D312E373339352020202D322E3935323620202020302E303030302043202020302020302020302020302020302020302020302020302020302020302020302020300A2020202D312E303235302020202D322E3534303120202020302E303030302043202020302020302020302020302020302020302020302020302020302020302020302020300A2020202D302E333130352020202D322E3935323620202020302E303030302043202020302020302020302020302020302020302020302020302020302020302020302020300A20202020302E343034302020202D322E3534303120202020302E303030302043202020302020302020302020302020302020302020302020302020302020302020302020300A20202020302E343034302020202D312E3731353120202020302E303030302043202020302020302020302020302020302020302020302020302020302020302020302020300A20202020312E313138342020202D312E3330323620202020302E303030302043202020302020302020302020302020302020302020302020302020302020302020302020300A20202020312E393033302020202D312E3535373620202020302E303030302043202020302020302020302020302020302020302020302020302020302020302020302020300A20202020322E333838302020202D302E3839303120202020302E303030302043202020302020302020302020302020302020302020302020302020302020302020302020300A20202020312E393033302020202D302E3232323720202020302E303030302043202020302020302020302020302020302020302020302020302020302020302020302020300A20202020322E3135383020202020302E3536313920202020302E303030302043202020302020302020302020302020302020302020302020302020302020302020302020300A20202020312E3537343620202020312E3134353320202020302E303030302043202020302020302020302020302020302020302020302020302020302020302020302020300A20202020312E313138342020202D302E3437373620202020302E303030302043202020302020302020302020302020302020302020302020302020302020302020302020300A20202020312E3131383420202020302E3334373420202020302E303030302043202020302020302020302020302020302020302020302020302020302020302020302020300A20202020302E343034302020202D302E3036353120202020302E303030302043202020302020302020302020302020302020302020302020302020302020302020302020300A2020202D302E333130352020202D302E3437373620202020302E303030302043202020302020302020302020302020302020302020302020302020302020302020302020300A2020202D302E333130352020202D312E3330323620202020302E303030302043202020302020302020302020302020302020302020302020302020302020302020302020300A2020202D312E303235302020202D312E3731353120202020302E303030302043202020302020302020302020302020302020302020302020302020302020302020302020300A2020202D302E333130352020202D322E3132373620202020302E303030302043202020302020302020302020302020302020302020302020302020302020302020302020300A2020202D332E313638342020202D322E3935323620202020302E30303030204F202020302020302020302020302020302020302020302020302020302020302020302020300A20202020322E3936353020202020302E3733333520202020302E30303030204F202020302020302020302020302020302020302020302020302020302020302020302020300A20202020322E3538353020202020322E3135353720202020302E303030302043202020302020302020302020302020302020302020302020302020302020302020302020300A20202020322E3739383620202020322E3935323620202020302E303030302043202020302020302020302020302020302020302020302020302020302020302020302020300A20202020332E3136383420202020312E3537323420202020302E30303030204F202020302020302020302020302020302020302020302020302020302020302020302020300A20202020312E3738383120202020312E3934323220202020302E30303030204F202020302020302020302020302020302020302020302020302020302020302020302020300A2020202D302E383933392020202D302E3732343820202020302E303030302048202020302020302020302020302020302020302020302020302020302020302020302020300A20202020302E393837332020202D322E3239383520202020302E303030302048202020302020302020302020302020302020302020302020302020302020302020302020300A20202020312E353330392020202D322E3031373120202020302E303030302048202020302020302020302020302020302020302020302020302020302020302020302020300A20202020322E363939392020202D302E3030393120202020302E303030302048202020302020302020302020302020302020302020302020302020302020302020302020300A2020312020322020312020302020202020200A2020322020332020312020302020202020200A2020312020342020312020302020202020200A2020342020352020322020302020202020200A2020352020362020312020302020202020200A2020362020372020312020302020202020200A2020372020382020312020302020202020200A2020382020392020312020302020202020200A2020392031302020312020302020202020200A2031302031312020312020302020202020200A2031312031322020312020302020202020200A2031322031332020312020312020202020200A2031332031342020312020302020202020200A2031322031352020312020302020202020200A2020392031352020312020302020202020200A2031352031362020312020312020202020200A2031352031372020312020302020202020200A2031372031382020312020302020202020200A2031382031392020312020302020202020200A2020382031392020312020302020202020200A2031392032302020312020302020202020200A2020332032302020312020302020202020200A2020352032302020312020302020202020200A2032302032312020312020312020202020200A2020312032322020322020302020202020200A2031332032332020322020302020202020200A2032342032352020312020302020202020200A2032342032362020322020302020202020200A2032342032372020312020302020202020200A2031342032372020312020302020202020200A2031392032382020312020362020202020200A2020382032392020312020312020202020200A2020392033302020312020362020202020200A2031322033312020312020362020202020200A4D2020454E44
Contributor: HASHIMOTO K, KYOTO COLLEGE OF PHARMACY
InstType: EI
InstName: HITACHI M-80
IoniMethod: _ENERGY 20 eV
IonPolarity: pos
Date: 2010-10-09 19:48:36+02:00
Num Peaks: 72
43 41 55 21 67 14 69 10 73 13 79 12 81 43 83 14 91 11 93 29 
95 63 97 20 105 22 107 53 108 11 109 48 111 12 119 27 121 67 122 18 
123 67 124 55 131 24 133 58 134 108 136 19 137 33 143 15 145 60 146 13 
147 220 148 30 149 106 150 14 157 30 159 44 161 100 162 19 163 37 171 33 
173 29 175 42 177 12 185 13 187 21 189 19 197 18 201 13 211 13 213 15 
215 20 225 15 227 32 229 65 230 14 243 26 244 24 253 307 254 68 255 14 
257 10 271 500 272 110 273 18 299 999 300 214 301 32 312 103 313 26 330 13 
372 43 373 15 
