Name: MassBank: JP010437
MW: 329
Formula: C13H13Cl2N3O3
Synonym: MassBank: JP010437
Synonym: 3-(3,5-DICHLOROPHENYL)-N-ISOPROPYL-2,4-DIOXOIMIDAZOLIDINE-1-CARBOXAMIDE
Structure: 332D28332C352D444943484C4F524F5048454E594C292D4E2D49534F50524F50594C2D322C342D44494F584F494D4944415A4F4C4944494E452D312D434152424F58414D4944452E6D6F6C0A20204368656D447261773032323231303130303032440A2032312032322020302020302020302020302020302020302020302020303939392056323030300A2020202D302E323234342020202D302E3530373320202020302E303030302043202020302020302020302020302020302020302020302020302020302020302020302020300A2020202D302E3737363420202020302E3130353820202020302E30303030204E202020302020302020302020302020302020302020302020302020302020302020302020300A2020202D302E3336333920202020302E3832303320202020302E303030302043202020302020302020302020302020302020302020302020302020302020302020302020300A20202020302E3434333120202020302E3634383820202020302E303030302043202020302020302020302020302020302020302020302020302020302020302020302020300A20202020302E353239332020202D302E3137313720202020302E30303030204E202020302020302020302020302020302020302020302020302020302020302020302020300A20202020312E323433382020202D302E3538343220202020302E303030302043202020302020302020302020302020302020302020302020302020302020302020302020300A20202020312E323433382020202D312E3430393220202020302E30303030204F202020302020302020302020302020302020302020302020302020302020302020302020300A20202020312E393538332020202D302E3137313720202020302E30303030204E202020302020302020302020302020302020302020302020302020302020302020302020300A2020202D302E3639393520202020312E3537343020202020302E30303030204F202020302020302020302020302020302020302020302020302020302020302020302020300A2020202D302E333935392020202D312E3331343220202020302E30303030204F202020302020302020302020302020302020302020302020302020302020302020302020300A20202020322E363732372020202D302E3538343220202020302E303030302043202020302020302020302020302020302020302020302020302020302020302020302020300A20202020332E333837322020202D302E3137313720202020302E303030302043202020302020302020302020302020302020302020302020302020302020302020302020300A20202020322E363732372020202D312E3430393220202020302E303030302043202020302020302020302020302020302020302020302020302020302020302020302020300A2020202D312E3539363920202020302E3031393620202020302E303030302043202020302020302020302020302020302020302020302020302020302020302020302020300A2020202D312E393332342020202D302E3733343120202020302E303030302043202020302020302020302020302020302020302020302020302020302020302020302020300A2020202D322E373532392020202D302E3832303320202020302E303030302043202020302020302020302020302020302020302020302020302020302020302020302020300A2020202D332E323337382020202D302E3135323920202020302E303030302043202020302020302020302020302020302020302020302020302020302020302020302020300A2020202D322E3930323320202020302E3630303820202020302E303030302043202020302020302020302020302020302020302020302020302020302020302020302020300A2020202D322E3038313820202020302E3638373020202020302E303030302043202020302020302020302020302020302020302020302020302020302020302020302020300A2020202D332E3338373220202020312E3236383220202020302E3030303020436C2020302020302020302020302020302020302020302020302020302020302020302020300A2020202D332E303838352020202D312E3537343020202020302E3030303020436C2020302020302020302020302020302020302020302020302020302020302020302020300A2020312020322020312020302020202020200A2020322020332020312020302020202020200A2020332020342020312020302020202020200A2020342020352020312020302020202020200A2020312020352020312020302020202020200A2020362020372020322020302020202020200A2020362020382020312020302020202020200A2020352020362020312020302020202020200A2020332020392020322020302020202020200A2020312031302020322020302020202020200A2031312031322020312020302020202020200A2031312031332020312020302020202020200A2020382031312020312020302020202020200A2031342031352020312020302020202020200A2031352031362020322020302020202020200A2031362031372020312020302020202020200A2031372031382020322020302020202020200A2031382031392020312020302020202020200A2031342031392020322020302020202020200A2031382032302020312020302020202020200A2031362032312020312020302020202020200A2020322031342020312020302020202020200A4D2020454E44
Contributor: UOEH
InstType: EI
InstName: JEOL JMS-DX-303
IoniMethod: _ENERGY 70 eV
IonPolarity: pos
Date: 2010-10-09 19:48:36+02:00
Num Peaks: 61
39 15 41 51 42 44 43 139 56 145 58 151 62 11 70 140 84 32 99 17 
109 11 124 48 126 16 145 25 147 20 149 25 153 12 157 32 158 27 159 31 
160 12 161 26 162 13 163 12 166 11 172 10 174 18 181 15 187 220 188 130 
189 165 190 54 191 35 192 14 195 13 216 112 217 12 218 76 219 12 243 12 
244 123 245 212 246 112 247 122 248 31 249 25 271 83 272 13 273 65 275 21 
287 11 314 999 315 150 316 652 317 103 318 105 319 16 329 71 330 18 331 35 
333 12 
