Name: MassBank: JP011509
MW: 494
Formula: C21H22F4O5S2
Synonym: MassBank: JP011509
Synonym: SYN-15-TERT-BUTYL-18-METHOXY-5,6,7,9-TETRAFLUORO-2,11-DITHIA(3.3)METACYCLOPHANE 2,2,11,11-TETRAOXIDE
Structure: 303531395F53594E2D31352D544552542D425554594C2D31382D4D4554484F58592D352C362C372C392D5445545241464C554F524F2D322C31312D44495448494128332E33294D4554414359434C4F5048414E4520322C322C31312C31312D54455452414F584944452E6D6F6C0A20204368656D447261773038323031303035303132440A2033322033342020302020302020302020302020302020302020302020303939392056323030300A2020202D302E3830363120202020312E3634373320202020302E303030302043202020302020302020302020302020302020302020302020302020302020302020302020300A20202020302E3437313820202020312E3634373420202020302E303030302053202020302020302020302020302020302020302020302020302020302020302020302020300A20202020322E323637322020202D302E3032373220202020302E303030302043202020302020302020302020302020302020302020302020302020302020302020302020300A20202020322E3638303920202020302E3638373620202020302E303030302043202020302020302020302020302020302020302020302020302020302020302020302020300A20202020302E343532312020202D312E3637333420202020302E303030302053202020302020302020302020302020302020302020302020302020302020302020302020300A20202020332E3931393320202020312E3430323120202020302E303030302046202020302020302020302020302020302020302020302020302020302020302020302020300A20202020342E373435342020202D302E3032373220202020302E303030302046202020302020302020302020302020302020302020302020302020302020302020302020300A20202020302E3437323220202020302E3832323420202020302E30303030204F202020302020302020302020302020302020302020302020302020302020302020302020300A20202020302E3437313320202020322E3437323420202020302E30303030204F202020302020302020302020302020302020302020302020302020302020302020302020300A20202020302E343731322020202D302E3832323420202020302E30303030204F202020302020302020302020302020302020302020302020302020302020302020302020300A20202020302E343635312020202D322E3437323420202020302E30303030204F202020302020302020302020302020302020302020302020302020302020302020302020300A20202020322E363830392020202D302E3734323920202020302E303030302043202020302020302020302020302020302020302020302020302020302020302020302020300A20202020332E353036382020202D302E3734323920202020302E303030302043202020302020302020302020302020302020302020302020302020302020302020302020300A20202020332E393230342020202D302E3032373220202020302E303030302043202020302020302020302020302020302020302020302020302020302020302020302020300A20202020332E3530363820202020302E3638373620202020302E303030302043202020302020302020302020302020302020302020302020302020302020302020302020300A20202020312E383735322020202D312E3639343020202020302E303030302043202020302020302020302020302020302020302020302020302020302020302020302020300A2020202D322E3638323920202020302E3737333620202020302E303030302043202020302020302020302020302020302020302020302020302020302020302020302020300A2020202D332E3039353420202020302E3035393120202020302E303030302043202020302020302020302020302020302020302020302020302020302020302020302020300A2020202D322E363832392020202D302E3635353320202020302E303030302043202020302020302020302020302020302020302020302020302020302020302020302020300A2020202D312E383537392020202D302E3635353320202020302E303030302043202020302020302020302020302020302020302020302020302020302020302020302020300A2020202D312E3434353420202020302E3035393120202020302E303030302043202020302020302020302020302020302020302020302020302020302020302020302020300A2020202D312E3835373920202020302E3737333620202020302E303030302043202020302020302020302020302020302020302020302020302020302020302020302020300A2020202D302E383236372020202D312E3637333420202020302E303030302043202020302020302020302020302020302020302020302020302020302020302020302020300A20202020312E3831333320202020312E3630363020202020302E303030302043202020302020302020302020302020302020302020302020302020302020302020302020300A20202020312E343432322020202D302E3032373220202020302E303030302046202020302020302020302020302020302020302020302020302020302020302020302020300A2020202D332E3932303420202020302E3035393120202020302E303030302043202020302020302020302020302020302020302020302020302020302020302020302020300A2020202D332E3730363920202020302E3835363020202020302E303030302043202020302020302020302020302020302020302020302020302020302020302020302020300A2020202D332E373036392020202D302E3733373720202020302E303030302043202020302020302020302020302020302020302020302020302020302020302020302020300A2020202D342E3734353420202020302E3035393120202020302E303030302043202020302020302020302020302020302020302020302020302020302020302020302020300A2020202D302E3730323920202020302E3035393120202020302E30303030204F202020302020302020302020302020302020302020302020302020302020302020302020300A20202020302E303131352020202D302E3335333420202020302E303030302043202020302020302020302020302020302020302020302020302020302020302020302020300A20202020332E393139312020202D312E3435373420202020302E303030302046202020302020302020302020302020302020302020302020302020302020302020302020300A2020332020342020322020302020202020200A2020322020382020322020302020202020200A2020322020392020322020302020202020200A2020352031302020322020302020202020200A2020352031312020322020302020202020200A2020332031322020312020302020202020200A2031322031332020322020302020202020200A2031332031342020312020302020202020200A2031342031352020322020302020202020200A2031352020342020312020302020202020200A2031322031362020312020302020202020200A2031362020352020312020302020202020200A2020362031352020312020302020202020200A2031342020372020312020302020202020200A2031372031382020322020302020202020200A2031382031392020312020302020202020200A2031392032302020322020302020202020200A2032302032312020312020302020202020200A2032312032322020322020302020202020200A2032322031372020312020302020202020200A2032332020352020312020302020202020200A2020312020322020312020302020202020200A2020312032322020312020302020202020200A2032302032332020312020302020202020200A2020322032342020312020302020202020200A2032342020342020312020302020202020200A2020332032352020312020302020202020200A2031382032362020312020302020202020200A2032362032372020312020302020202020200A2032362032382020312020302020202020200A2032362032392020312020302020202020200A2032312033302020312020302020202020200A2033302033312020312020302020202020200A2031332033322020312020302020202020200A4D2020454E44
Contributor: TASHIRO M, INST. OF ADVANCED MATERIAL STUDY KYUSHU UNIV.
InstType: EI
InstName: JEOL JMS-01-SG-2
IoniMethod: _ENERGY 75 eV
IonPolarity: pos
Date: 2010-10-09 19:48:36+02:00
Num Peaks: 26
32 137 41 172 43 149 44 89 55 132 57 182 69 92 78 65 80 66 91 117 
95 65 105 90 115 72 117 98 147 85 175 162 176 171 333 76 351 999 352 248 
366 325 367 63 368 10 479 12 494 38 495 12 
