Name: MassBank: JP012004
MW: 100
Formula: C5H12Si
Synonym: MassBank: JP012004
Synonym: DIMETHYLSILACYCLOBUTANE (1,1-D6)
Structure: 313134385F44494D455448594C53494C414359434C4F425554414E452028312C312D4436292E6D6F6C0A20204368656D447261773130323031303230343532440A2031322031322020302020302020302020302020302020302020302020303939392056323030300A2020202D302E393334322020202D302E3632363320202020302E303030302043202020302020302020302020302020302020302020302020302020302020302020302020300A2020202D302E353138372020202D312E3334363020202020302E303030302043202020302020302020302020302020302020302020302020302020302020302020302020300A20202020302E323033352020202D302E3933303020202020302E303030302043202020302020302020302020302020302020302020302020302020302020302020302020300A2020202D302E323132352020202D302E3230393520202020302E303030302053692020302020302020302020302020302020302020302020302020302020302020302020300A2020202D302E3833303220202020302E3637303220202020302E303030302043202020302020302020302020302020302020302020302020302020302020302020302020300A2020202D312E3530363020202020302E3139373020202020302E303030302048202020312020302020302020302020302020302020302020302020302020302020302020300A2020202D312E3330333420202020312E3334363020202020302E303030302048202020312020302020302020302020302020302020302020302020302020302020302020300A2020202D302E3135343420202020312E3134333420202020302E303030302048202020312020302020302020302020302020302020302020302020302020302020302020300A20202020302E3735383320202020302E3234353920202020302E303030302043202020302020302020302020302020302020302020302020302020302020302020302020300A20202020312E313037302020202D302E3530313820202020302E303030302048202020312020302020302020302020302020302020302020302020302020302020302020300A20202020312E3530363020202020302E3539343620202020302E303030302048202020312020302020302020302020302020302020302020302020302020302020302020300A20202020302E3430393620202020302E3939333620202020302E303030302048202020312020302020302020302020302020302020302020302020302020302020302020300A2020312020322020312020302020202020200A2020332020342020312020302020202020200A2020342020312020312020302020202020200A2020342020392020312020302020202020200A2020342020352020312020302020202020200A2020352020362020312020302020202020200A2020352020372020312020302020202020200A2020352020382020312020302020202020200A2020392031302020312020302020202020200A2020392031312020312020302020202020200A2020392031322020312020302020202020200A2020322020332020312020302020202020200A4D202049534F2020362020203620202032202020372020203220202038202020322020313020202032202031312020203220203132202020320A4D2020454E44
Contributor: YAMAMOTO M, DEP. CHEMISTRY, FAC. SCIENCE, NARA WOMEN'S UNIV.
InstType: EI
InstName: HITACHI RMU-6M
IoniMethod: _ENERGY 20 eV
IonPolarity: pos
Date: 2010-10-09 19:48:36+02:00
Num Peaks: 19
46 67 47 94 48 103 49 13 60 15 62 10 64 16 65 99 75 19 76 19 
77 43 78 999 79 93 80 38 88 43 91 16 106 242 107 27 108 11 
