Name: MassBank: JP011871
MW: 396
Formula: C25H20N2O3
Synonym: MassBank: JP011871
Synonym: (2S,2AR,5AS)-1-BENZOYL-3,5-DIOXO-2,4-DIPHENYL-1,2,3,4,5,6-HEXAHYDROPYRROLO(3,4-C)PYRROLE
Structure: 2832532C3241522C354153292D312D42454E5A4F594C2D332C352D44494F584F2D322C342D44495048454E594C2D312C322C332C342C352C362D48455841485944524F505952524F4C4F28332C342D4329505952524F4C452E6D6F6C0A20204368656D447261773130323030393135313332440A2033332033372020302020302020302020302020302020302020302020303939392056323030300A20202020302E303030302020202D302E3931323020202020302E303030302043202020302020302020302020302020302020302020302020302020302020302020302020300A20202020302E303030302020202D302E3038373020202020302E303030302043202020302020302020302020302020302020302020302020302020302020302020302020300A2020202D302E3738343620202020302E3136373920202020302E303030302043202020302020302020302020302020302020302020302020302020302020302020302020300A2020202D312E323639352020202D302E3439393520202020302E30303030204E202020302020302020302020302020302020302020302020302020302020302020302020300A2020202D302E373834362020202D312E3136373020202020302E303030302043202020302020302020302020302020302020302020302020302020302020302020302020300A20202020302E373834362020202D312E3136373020202020302E303030302043202020302020302020302020302020302020302020302020302020302020302020302020300A20202020312E323639352020202D302E3439393520202020302E30303030204E202020302020302020302020302020302020302020302020302020302020302020302020300A20202020302E3738343620202020302E3136373920202020302E303030302043202020302020302020302020302020302020302020302020302020302020302020302020300A20202020302E3030303020202020302E3733383020202020302E303030302048202020302020302020302020302020302020302020302020302020302020302020302020300A20202020302E303030302020202D312E3733373020202020302E303030302048202020302020302020302020302020302020302020302020302020302020302020302020300A20202020312E3033393620202020302E3935323520202020302E30303030204F202020302020302020302020302020302020302020302020302020302020302020302020300A20202020312E303339362020202D312E3935313620202020302E30303030204F202020302020302020302020302020302020302020302020302020302020302020302020300A20202020322E303934352020202D302E3439393520202020302E303030302043202020302020302020302020302020302020302020302020302020302020302020302020300A20202020322E353037302020202D312E3231343020202020302E303030302043202020302020302020302020302020302020302020302020302020302020302020302020300A20202020332E333332302020202D312E3231343020202020302E303030302043202020302020302020302020302020302020302020302020302020302020302020302020300A20202020332E373434352020202D302E3439393520202020302E303030302043202020302020302020302020302020302020302020302020302020302020302020302020300A20202020332E3333323020202020302E3231353020202020302E303030302043202020302020302020302020302020302020302020302020302020302020302020302020300A20202020322E3530373020202020302E3231353020202020302E303030302043202020302020302020302020302020302020302020302020302020302020302020302020300A2020202D302E3738343620202020302E3939323920202020302E303030302043202020302020302020302020302020302020302020302020302020302020302020302020300A2020202D312E3536393220202020302E3432323920202020302E303030302048202020302020302020302020302020302020302020302020302020302020302020302020300A2020202D302E3037303220202020312E3430353420202020302E303030302043202020302020302020302020302020302020302020302020302020302020302020302020300A2020202D302E3037303220202020322E3233303420202020302E303030302043202020302020302020302020302020302020302020302020302020302020302020302020300A2020202D302E3738343620202020322E3634323920202020302E303030302043202020302020302020302020302020302020302020302020302020302020302020302020300A2020202D312E3439393120202020322E3233303420202020302E303030302043202020302020302020302020302020302020302020302020302020302020302020302020300A2020202D312E3439393120202020312E3430353420202020302E303030302043202020302020302020302020302020302020302020302020302020302020302020302020300A2020202D322E303934352020202D302E3439393520202020302E303030302043202020302020302020302020302020302020302020302020302020302020302020302020300A2020202D322E3530373020202020302E3231353020202020302E30303030204F202020302020302020302020302020302020302020302020302020302020302020302020300A2020202D322E353037302020202D312E3231343020202020302E303030302043202020302020302020302020302020302020302020302020302020302020302020302020300A2020202D332E333332302020202D312E3231343020202020302E303030302043202020302020302020302020302020302020302020302020302020302020302020302020300A2020202D332E373434352020202D312E3932383520202020302E303030302043202020302020302020302020302020302020302020302020302020302020302020302020300A2020202D332E333332302020202D322E3634323920202020302E303030302043202020302020302020302020302020302020302020302020302020302020302020302020300A2020202D322E353037302020202D322E3634323920202020302E303030302043202020302020302020302020302020302020302020302020302020302020302020302020300A2020202D322E303934352020202D312E3932383520202020302E303030302043202020302020302020302020302020302020302020302020302020302020302020302020300A2020312020322020312020302020202020200A2020322020332020312020302020202020200A2020332020342020312020302020202020200A2020342020352020312020302020202020200A2020352020312020312020302020202020200A2020312020362020312020302020202020200A2020362020372020312020302020202020200A2020372020382020312020302020202020200A2020382020322020312020302020202020200A2020322020392020312020312020202020200A2020312031302020312020312020202020200A2020382031312020322020302020202020200A2020362031322020322020302020202020200A2020372031332020312020302020202020200A2031332031342020322020302020202020200A2031342031352020312020302020202020200A2031352031362020322020302020202020200A2031362031372020312020302020202020200A2031372031382020322020302020202020200A2031382031332020312020302020202020200A2020332031392020312020362020202020200A2020332032302020312020312020202020200A2031392032312020322020302020202020200A2032312032322020312020302020202020200A2032322032332020322020302020202020200A2032332032342020312020302020202020200A2032342032352020322020302020202020200A2032352031392020312020302020202020200A2020342032362020312020302020202020200A2032362032372020322020302020202020200A2032362032382020312020302020202020200A2032382032392020322020302020202020200A2032392033302020312020302020202020200A2033302033312020322020302020202020200A2033312033322020312020302020202020200A2033322033332020322020302020202020200A2033332032382020312020302020202020200A4D2020454E44
Contributor: YOSHIKI O, FAC, TECHNOLOGY, OSAKA UNIV.
InstType: EI
InstName: Unknown
IoniMethod: _ENERGY 70 eV
IonPolarity: pos
Date: 2010-10-09 19:48:36+02:00
Num Peaks: 45
50 27 51 127 52 15 54 18 55 16 63 18 64 20 65 29 67 14 68 28 
69 19 76 23 77 605 90 22 91 116 92 12 93 12 103 24 105 999 106 89 
115 40 116 15 117 56 118 51 119 20 128 21 143 15 144 50 145 10 173 26 
188 74 208 10 209 66 210 12 248 23 291 136 292 30 78 57 84 24 86 15 
89 21 129 23 131 10 396 104 397 28 
