Name: TETRADECAMETHYLHEXASILANE
MW: 378
Formula: C14H42Si6
Synonym: MassBank: JP012105
Synonym: TETRADECAMETHYLHEXASILANE
Structure: 5445545241444543414D455448594C4845584153494C414E452E6D6F6C0A20204368656D447261773038313231303037313732440A2032302031392020302020302020302020302020302020302020302020303939392056323030300A2020202D312E3835303520202020302E3932343120202020302E303030302053692020302020302020302020302020302020302020302020302020302020302020302020300A2020202D312E3236373620202020302E3032363720202020302E303030302053692020302020302020302020302020302020302020302020302020302020302020302020300A2020202D302E3237393220202020302E3434333720202020302E303030302053692020302020302020302020302020302020302020302020302020302020302020302020300A20202020302E323334352020202D302E3737323620202020302E303030302053692020302020302020302020302020302020302020302020302020302020302020302020300A20202020312E343137352020202D302E3138373020202020302E303030302053692020302020302020302020302020302020302020302020302020302020302020302020300A20202020312E383330302020202D302E3930313520202020302E303030302053692020302020302020302020302020302020302020302020302020302020302020302020300A2020202D322E3239393920202020312E3631363020202020302E303030302043202020302020302020302020302020302020302020302020302020302020302020302020300A2020202D322E3534323420202020302E3437343820202020302E303030302043202020302020302020302020302020302020302020302020302020302020302020302020300A2020202D312E3135383620202020312E3337333420202020302E303030302043202020302020302020302020302020302020302020302020302020302020302020302020300A2020202D312E393832312020202D302E3338353820202020302E303030302043202020302020302020302020302020302020302020302020302020302020302020302020300A2020202D302E393030342020202D302E3731343820202020302E303030302043202020302020302020302020302020302020302020302020302020302020302020302020300A2020202D302E3630313520202020312E3230333120202020302E303030302043202020302020302020302020302020302020302020302020302020302020302020302020300A20202020302E3438303320202020302E3736363020202020302E303030302043202020302020302020302020302020302020302020302020302020302020302020302020300A20202020302E363437302020202D312E3438373120202020302E303030302043202020302020302020302020302020302020302020302020302020302020302020302020300A2020202D302E343535332020202D312E3232303720202020302E303030302043202020302020302020302020302020302020302020302020302020302020302020302020300A20202020322E3133343120202020302E3232363720202020302E303030302043202020302020302020302020302020302020302020302020302020302020302020302020300A20202020312E3030353020202020302E3532373420202020302E303030302043202020302020302020302020302020302020302020302020302020302020302020302020300A20202020312E313133352020202D312E3331353220202020302E303030302043202020302020302020302020302020302020302020302020302020302020302020302020300A20202020322E323432352020202D312E3631363020202020302E303030302043202020302020302020302020302020302020302020302020302020302020302020302020300A20202020322E353432342020202D302E3439303220202020302E303030302043202020302020302020302020302020302020302020302020302020302020302020302020300A2020312020322020312020302020202020200A2020322020332020312020302020202020200A2020332020342020312020302020202020200A2020342020352020312020302020202020200A2020352020362020312020302020202020200A2020312020372020312020302020202020200A2020312020382020312020302020202020200A2020312020392020312020302020202020200A2020322031302020312020302020202020200A2020322031312020312020302020202020200A2020332031322020312020302020202020200A2020332031332020312020302020202020200A2020342031342020312020302020202020200A2020342031352020312020302020202020200A2020352031362020312020302020202020200A2020352031372020312020302020202020200A2020362031382020312020302020202020200A2020362031392020312020302020202020200A2020362032302020312020302020202020200A4D2020454E44
Contributor: HISAHIRO HAGIWARA, INSTITUTE FOR CHEMICAL REACTION SCIENCE TOHOKU UNIV.
InstType: EI
InstName: JEOL JMS-DX-300
IoniMethod: _ENERGY 70 eV
IonPolarity: pos
Date: 2010-10-09 19:48:36+02:00
Num Peaks: 42
33 64 42 54 43 996 45 120 47 90 58 412 59 146 73 999 74 88 75 341 
77 188 79 70 81 126 99 67 101 65 113 59 115 115 116 222 117 85 129 108 
131 257 145 59 157 107 158 62 159 121 171 74 173 477 174 328 175 129 187 53 
189 317 190 83 191 58 205 103 215 83 231 119 232 93 247 179 248 63 378 295 
379 143 380 100 
