Name: MassBank: JP010946
MW: 282
Formula: C16H34Si2
Synonym: MassBank: JP010946
Synonym: (2Z,6E)-7-METHYL-1-TRIMETHYLSILYL-3-TRIMETHYLSILYLMETHYL-2,6-OCTADIENE
Structure: 28325A2C3645292D372D4D455448594C2D312D5452494D455448594C53494C594C2D332D5452494D455448594C53494C594C4D455448594C2D322C362D4F4354414449454E452E6D6F6C0A20204368656D447261773130323030393232353832440A2031392031382020302020302020302020302020302020302020302020303939392056323030300A2020202D312E373836302020202D312E3033313320202020302E303030302053692020302020302020302020302020302020302020302020302020302020302020302020300A2020202D312E303731352020202D312E3434333820202020302E303030302043202020302020302020302020302020302020302020302020302020302020302020302020300A2020202D302E333537302020202D312E3033313320202020302E303030302043202020302020302020302020302020302020302020302020302020302020302020302020300A20202020302E333537342020202D312E3434333820202020302E303030302043202020302020302020302020302020302020302020302020302020302020302020302020300A20202020312E303731392020202D312E3033313320202020302E303030302043202020302020302020302020302020302020302020302020302020302020302020302020300A20202020312E373836342020202D312E3434333820202020302E303030302053692020302020302020302020302020302020302020302020302020302020302020302020300A2020202D302E333537302020202D302E3230363220202020302E303030302043202020302020302020302020302020302020302020302020302020302020302020302020300A20202020302E333537342020202D322E3236383720202020302E303030302048202020302020302020302020302020302020302020302020302020302020302020302020300A2020202D312E3037313520202020302E3230363220202020302E303030302043202020302020302020302020302020302020302020302020302020302020302020302020300A2020202D312E3037313520202020312E3033313320202020302E303030302043202020302020302020302020302020302020302020302020302020302020302020302020300A2020202D312E3738363020202020312E3434333820202020302E303030302043202020302020302020302020302020302020302020302020302020302020302020302020300A2020202D312E3738363020202020322E3236383720202020302E303030302043202020302020302020302020302020302020302020302020302020302020302020302020300A2020202D322E3530303420202020312E3033313320202020302E303030302043202020302020302020302020302020302020302020302020302020302020302020302020300A2020202D312E373836382020202D312E3835363320202020302E303030302043202020302020302020302020302020302020302020302020302020302020302020302020300A2020202D322E353030342020202D312E3434333820202020302E303030302043202020302020302020302020302020302020302020302020302020302020302020302020300A20202020312E373835342020202D302E3631383820202020302E303030302043202020302020302020302020302020302020302020302020302020302020302020302020300A2020202D312E373836382020202D302E3230363220202020302E303030302043202020302020302020302020302020302020302020302020302020302020302020302020300A20202020312E373835342020202D322E3236383720202020302E303030302043202020302020302020302020302020302020302020302020302020302020302020302020300A20202020322E353030342020202D312E3033313320202020302E303030302043202020302020302020302020302020302020302020302020302020302020302020302020300A2020312020322020312020302020202020200A2020322020332020312020302020202020200A2020332020342020322020302020202020200A2020342020352020312020302020202020200A2020352020362020312020302020202020200A2020332020372020312020302020202020200A2020342020382020312020302020202020200A2020372020392020312020302020202020200A2020392031302020312020302020202020200A2031302031312020322020302020202020200A2031312031322020312020302020202020200A2031312031332020312020302020202020200A2020312031342020312020312020202020200A2020312031352020312020302020202020200A2020362031362020312020312020202020200A2020312031372020312020312020202020200A2020362031382020312020312020202020200A2020362031392020312020302020202020200A4D202053545920203120202031205355500A4D2020534C4220203120202031202020310A4D202053414C20202031202031202031340A4D202053424C20202031202031202031330A4D2020534D5420202031204D650A4D2020534256202020312031332020202D372E3330363920202020342E393239340A4D202053545920203120202032205355500A4D2020534C4220203120202032202020320A4D202053414C20202032202031202031350A4D202053424C20202032202031202031340A4D2020534D5420202032204D650A4D2020534256202020322031342020202D382E3032303520202020352E333431390A4D202053545920203120202033205355500A4D2020534C4220203120202033202020330A4D202053414C20202033202031202031360A4D202053424C20202033202031202031350A4D2020534D5420202033204D650A4D2020534256202020332031352020202D372E3330373020202020362E353739340A4D202053545920203120202034205355500A4D2020534C4220203120202034202020340A4D202053414C20202034202031202031370A4D202053424C20202034202031202031360A4D2020534D5420202034204D650A4D2020534256202020342031362020202D372E3330363920202020362E353739340A4D202053545920203120202035205355500A4D2020534C4220203120202035202020350A4D202053414C20202035202031202031380A4D202053424C20202035202031202031370A4D2020534D5420202035204D650A4D2020534256202020352031372020202D372E3330373020202020342E393239340A4D202053545920203120202036205355500A4D2020534C4220203120202036202020360A4D202053414C20202036202031202031390A4D202053424C20202036202031202031380A4D2020534D5420202036204D650A4D2020534256202020362031382020202D362E3539323020202020362E313636390A4D2020454E44
Contributor: HISAHIRO HAGIWARA, INSTITUTE FOR CHEMICAL REACTION SCIENCE TOHOKU UNIV.
InstType: EI
InstName: JEOL JMS-DX-300
IoniMethod: _ENERGY 70 eV
IonPolarity: pos
Date: 2010-10-09 19:48:36+02:00
Num Peaks: 28
41 44 43 15 45 101 59 93 69 27 72 17 73 999 74 113 75 44 85 17 
97 56 109 12 125 485 126 80 127 25 137 11 151 14 179 40 193 27 195 17 
213 365 214 91 215 36 239 24 267 14 282 174 283 52 284 19 
