Name: MassBank: JP011550
MW: 112
Formula: C7H12O
Synonym: MassBank: JP011550
Synonym: 2,2-DIMETHYLCYCLOPENTANONE-D6(METHYL)
Structure: 322C322D44494D455448594C4359434C4F50454E54414E4F4E452D4436284D455448594C292E6D6F6C0A20204368656D447261773132323030393036353532440A2031342031342020302020302020302020302020302020302020302020303939392056323030300A20202020312E323336332020202D312E3134383020202020302E303030302043202020302020302020302020302020302020302020302020302020302020302020302020300A20202020312E343931322020202D302E3336333420202020302E303030302043202020302020302020302020302020302020302020302020302020302020302020302020300A20202020302E3832333820202020302E3132313520202020302E303030302043202020302020302020302020302020302020302020302020302020302020302020302020300A20202020302E313531372020202D302E3335353220202020302E303030302043202020302020302020302020302020302020302020302020302020302020302020302020300A20202020302E343131332020202D312E3134383020202020302E303030302043202020302020302020302020302020302020302020302020302020302020302020302020300A20202020302E3832333820202020302E3934363520202020302E30303030204F202020302020302020302020302020302020302020302020302020302020302020302020300A2020202D302E3430313520202020302E3833323920202020302E303030302043202020302020302020302020302020302020302020302020302020302020302020302020300A2020202D302E3731303620202020312E3539373920202020302E303030302048202020312020302020302020302020302020302020302020302020302020302020302020300A20202020302E3336333420202020312E3134323020202020302E303030302048202020312020302020302020302020302020302020302020302020302020302020302020300A2020202D312E3136363420202020302E3532333920202020302E303030302048202020312020302020302020302020302020302020302020302020302020302020302020300A2020202D302E373737312020202D302E3839313520202020302E303030302043202020302020302020302020302020302020302020302020302020302020302020302020300A2020202D312E343931322020202D312E3330333820202020302E303030302048202020312020302020302020302020302020302020302020302020302020302020302020300A2020202D312E313934322020202D302E3136383920202020302E303030302048202020312020302020302020302020302020302020302020302020302020302020302020300A2020202D302E333639322020202D312E3539373920202020302E303030302048202020312020302020302020302020302020302020302020302020302020302020302020300A2020312020322020312020302020202020200A2020322020332020312020302020202020200A2020332020342020312020302020202020200A2020342020352020312020302020202020200A2020352020312020312020302020202020200A2020332020362020322020302020202020200A2020342020372020312020302020202020200A2020372020382020312020302020202020200A2020372020392020312020302020202020200A2020372031302020312020302020202020200A2020342031312020312020302020202020200A2031312031322020312020302020202020200A2031312031332020312020302020202020200A2031312031342020312020302020202020200A4D202049534F2020362020203820202032202020392020203220203130202020322020313220202032202031332020203220203134202020320A4D2020454E44
Contributor: YAMAMOTO M, DEP. CHEMISTRY, FAC. SCIENCE, NARA WOMEN'S UNIV.
InstType: EI
InstName: HITACHI RMU-6M
IoniMethod: _ENERGY 20 eV
IonPolarity: pos
Date: 2010-10-09 19:48:36+02:00
Num Peaks: 29
31 34 32 198 39 39 40 69 41 111 42 138 43 62 44 160 45 249 46 95 
55 54 56 42 57 23 58 75 59 42 60 54 61 112 62 999 63 62 72 75 
73 71 74 29 75 35 76 24 99 52 100 71 101 21 118 195 119 19 
