Name: 4-HYDROXYBENZOIC ACID
MW: 138
Formula: C7H6O3
Synonym: MassBank: JP010824
Synonym: 4-HYDROXYBENZOIC ACID
Structure: 342D485944524F585942454E5A4F494320414349442E6D6F6C0A20204368656D447261773034323031303130343832440A2031302031302020302020302020302020302020302020302020302020303939392056323030300A2020202D302E3030303020202020312E3434333720202020302E303030302043202020302020302020302020302020302020302020302020302020302020302020302020300A2020202D302E3030303020202020302E3631383720202020302E303030302043202020302020302020302020302020302020302020302020302020302020302020302020300A20202020302E3731343520202020302E3230363220202020302E303030302043202020302020302020302020302020302020302020302020302020302020302020302020300A20202020302E373134352020202D302E3631383720202020302E303030302043202020302020302020302020302020302020302020302020302020302020302020302020300A2020202D302E303030302020202D312E3033313320202020302E303030302043202020302020302020302020302020302020302020302020302020302020302020302020300A2020202D302E373134352020202D302E3631383820202020302E303030302043202020302020302020302020302020302020302020302020302020302020302020302020300A2020202D302E3731343520202020302E3230363220202020302E303030302043202020302020302020302020302020302020302020302020302020302020302020302020300A20202020302E3731343520202020312E3835363320202020302E30303030204F202020302020302020302020302020302020302020302020302020302020302020302020300A2020202D302E3731343520202020312E3835363320202020302E30303030204F202020302020302020302020302020302020302020302020302020302020302020302020300A2020202D302E303030302020202D312E3835363320202020302E30303030204F202020302020302020302020302020302020302020302020302020302020302020302020300A2020312020322020312020302020202020200A2020322020332020312020302020202020200A2020332020342020322020302020202020200A2020342020352020312020302020202020200A2020352020362020322020302020202020200A2020362020372020312020302020202020200A2020322020372020322020302020202020200A2020312020382020322020302020202020200A2020312020392020312020302020202020200A2020352031302020312020302020202020200A4D2020454E44
Contributor: FUJISE Y, HAMAMATSU UNIV. SCHOOL OF MEDICINE
InstType: EI
InstName: JEOL JMS-D-3000
IoniMethod: _ENERGY 70 eV
IonPolarity: pos
Date: 2010-10-09 19:48:36+02:00
Num Peaks: 38
41 47 42 11 43 53 44 331 45 47 46 28 27 12 50 37 51 34 53 42 
55 70 56 12 57 38 60 52 61 32 62 39 63 101 64 27 65 187 66 20 
69 25 71 19 73 42 74 20 77 53 78 53 81 24 83 13 85 10 92 19 
93 239 94 23 105 85 121 999 122 139 123 10 138 862 139 63 
