Name: MassBank: JP010289
MW: 279
Formula: C18H17NO2
Synonym: MassBank: JP010289
Synonym: METHYL 3,5-DIPHENYL-1-PYRROLINE-4-CARBOXYLATE (3,4-TRANS-4,5-CIS)
Synonym: METHYL (3S,4R,5S)-3,5-DIPHENYL-1-PYRROLINE-4-CARBOXYLATE
Structure: 4D455448594C202833532C34522C3553292D332C352D44495048454E594C2D312D505952524F4C494E452D342D434152424F58594C4154452E6D6F6C0A20204368656D447261773038313131303233313632440A2032312032332020302020302020302020302020302020302020302020303939392056323030300A20202020302E383238302020202D312E3238363520202020302E30303030204E202020302020302020302020302020302020302020302020302020302020302020302020300A20202020302E303433342020202D312E3534313420202020302E303030302043202020302020302020302020302020302020302020302020302020302020302020302020300A2020202D302E343431352020202D302E3837343020202020302E303030302043202020302020302020302020302020302020302020302020302020302020302020302020300A20202020302E303433342020202D302E3230363620202020302E303030302043202020302020302020302020302020302020302020302020302020302020302020302020300A20202020302E383238302020202D302E3436313520202020302E303030302043202020302020302020302020302020302020302020302020302020302020302020302020300A2020202D302E3231313620202020302E3537383120202020302E303030302043202020302020302020302020302020302020302020302020302020302020302020302020300A20202020302E3337313820202020312E3136313420202020302E30303030204F202020302020302020302020302020302020302020302020302020302020302020302020300A2020202D312E3030383520202020302E3739313620202020302E30303030204F202020302020302020302020302020302020302020302020302020302020302020302020300A20202020312E3439353420202020302E3032333420202020302E303030302043202020302020302020302020302020302020302020302020302020302020302020302020300A20202020312E3430393220202020302E3834333920202020302E303030302043202020302020302020302020302020302020302020302020302020302020302020302020300A20202020322E3037363620202020312E3332383820202020302E303030302043202020302020302020302020302020302020302020302020302020302020302020302020300A20202020322E3833303320202020302E3939333320202020302E303030302043202020302020302020302020302020302020302020302020302020302020302020302020300A20202020322E3931363520202020302E3137323820202020302E303030302043202020302020302020302020302020302020302020302020302020302020302020302020300A20202020322E323439312020202D302E3331323120202020302E303030302043202020302020302020302020302020302020302020302020302020302020302020302020300A2020202D312E323636352020202D302E3837343020202020302E303030302043202020302020302020302020302020302020302020302020302020302020302020302020300A2020202D312E363739302020202D312E3538383520202020302E303030302043202020302020302020302020302020302020302020302020302020302020302020302020300A2020202D322E353034302020202D312E3538383520202020302E303030302043202020302020302020302020302020302020302020302020302020302020302020302020300A2020202D322E393136352020202D302E3837343020202020302E303030302043202020302020302020302020302020302020302020302020302020302020302020302020300A2020202D322E353034302020202D302E3135393520202020302E303030302043202020302020302020302020302020302020302020302020302020302020302020302020300A2020202D312E363739302020202D302E3135393520202020302E303030302043202020302020302020302020302020302020302020302020302020302020302020302020300A2020202D312E3232323020202020312E3538383520202020302E303030302043202020302020302020302020302020302020302020302020302020302020302020302020300A2020312020322020322020302020202020200A2020322020332020312020302020202020200A2020332020342020312020302020202020200A2020342020352020312020302020202020200A2020312020352020312020302020202020200A2020362020372020322020302020202020200A2020362020382020312020302020202020200A2020342020362020312020312020202020200A2020392031302020312020302020202020200A2031302031312020322020302020202020200A2031312031322020312020302020202020200A2031322031332020322020302020202020200A2031332031342020312020302020202020200A2020392031342020322020302020202020200A2020352020392020312020312020202020200A2031352031362020312020302020202020200A2031362031372020322020302020202020200A2031372031382020312020302020202020200A2031382031392020322020302020202020200A2031392032302020312020302020202020200A2031352032302020322020302020202020200A2020332031352020312020362020202020200A2020382032312020312020302020202020200A4D2020454E44
Contributor: KANEMASA S, INST. OF ADVANCED MATERIAL STUDY KYUSHU UNIV.
InstType: EI
InstName: JEOL JMS-01-SG-2
IoniMethod: _ENERGY 75 eV
IonPolarity: pos
Date: 2010-10-09 19:48:36+02:00
Num Peaks: 47
32 274 35 88 39 84 41 97 43 307 47 251 48 107 49 89 51 179 59 110 
77 409 78 88 83 999 85 666 87 120 89 187 90 306 91 175 103 145 104 123 
105 534 106 184 115 301 116 93 117 827 118 86 130 106 131 285 158 224 159 32 
163 246 164 42 165 37 174 47 176 102 178 113 189 33 191 52 192 46 193 55 
201 48 219 44 220 230 221 45 248 31 279 130 280 25 
