Name: N-METHYL-N-BIS(TRIMETHYLSILYL)METHYLBENZAMIDE
MW: 293
Formula: C15H27NOSi2
Synonym: MassBank: JP011852
Synonym: N-METHYL-N-BIS(TRIMETHYLSILYL)METHYLBENZAMIDE
Structure: 313132375F4E2D4D455448594C2D4E2D424953285452494D455448594C53494C594C294D455448594C42454E5A414D4944452E6D6F6C0A20204368656D447261773130323031303230333832440A2031392031392020302020302020302020302020302020302020302020303939392056323030300A2020202D302E3631383420202020302E3030303020202020302E303030302043202020302020302020302020302020302020302020302020302020302020302020302020300A2020202D312E3033303920202020302E3731343520202020302E303030302043202020302020302020302020302020302020302020302020302020302020302020302020300A2020202D312E3835353820202020302E3731343520202020302E303030302043202020302020302020302020302020302020302020302020302020302020302020302020300A2020202D322E3236383420202020312E3432393020202020302E303030302043202020302020302020302020302020302020302020302020302020302020302020302020300A2020202D312E3835353920202020322E3134333420202020302E303030302043202020302020302020302020302020302020302020302020302020302020302020302020300A2020202D312E3033303920202020322E3134333420202020302E303030302043202020302020302020302020302020302020302020302020302020302020302020302020300A2020202D302E3631383320202020312E3432393020202020302E303030302043202020302020302020302020302020302020302020302020302020302020302020302020300A2020202D312E303330392020202D302E3731343520202020302E30303030204F202020302020302020302020302020302020302020302020302020302020302020302020300A20202020302E3230363620202020302E3030303020202020302E30303030204E202020302020302020302020302020302020302020302020302020302020302020302020300A20202020312E343433342020202D302E3731343520202020302E303030302053692020302020302020302020302020302020302020302020302020302020302020302020300A20202020322E323638342020202D302E3731393620202020302E303030302043202020302020302020302020302020302020302020302020302020302020302020302020300A20202020312E353936342020202D312E3532353120202020302E303030302043202020302020302020302020302020302020302020302020302020302020302020302020300A20202020312E3730383520202020302E3036363820202020302E303030302043202020302020302020302020302020302020302020302020302020302020302020302020300A20202020302E363139312020202D302E3731343520202020302E303030302043202020302020302020302020302020302020302020302020302020302020302020302020300A20202020302E323036362020202D312E3432383920202020302E303030302053692020302020302020302020302020302020302020302020302020302020302020302020300A20202020302E393231312020202D312E3834313420202020302E303030302043202020302020302020302020302020302020302020302020302020302020302020302020300A2020202D302E323035392020202D322E3134333420202020302E303030302043202020302020302020302020302020302020302020302020302020302020302020302020300A2020202D302E353037392020202D312E3031363420202020302E303030302043202020302020302020302020302020302020302020302020302020302020302020302020300A20202020302E3631393120202020302E3731343520202020302E303030302043202020302020302020302020302020302020302020302020302020302020302020302020300A2020312020322020312020302020202020200A2020322020332020312020302020202020200A2020332020342020322020302020202020200A2020342020352020312020302020202020200A2020352020362020322020302020202020200A2020362020372020312020302020202020200A2020322020372020322020302020202020200A2020312020382020322020302020202020200A2020312020392020312020302020202020200A2031302031312020312020302020202020200A2031302031322020312020302020202020200A2031302031332020312020302020202020200A2020392031342020312020302020202020200A2031342031302020312020302020202020200A2031342031352020312020302020202020200A2031352031362020312020302020202020200A2031352031372020312020302020202020200A2031352031382020312020302020202020200A2020392031392020312020302020202020200A4D2020454E44
Contributor: YOSHIKI O, FAC, TECHNOLOGY, OSAKA UNIV.
InstType: EI
InstName: Unknown
IoniMethod: _ENERGY 70 eV
IonPolarity: pos
Date: 2010-10-09 19:48:36+02:00
Num Peaks: 43
50 21 51 105 57 27 58 42 59 288 60 24 61 21 72 28 73 966 74 89 
75 62 77 609 78 44 86 26 91 45 100 60 103 23 104 53 105 620 106 49 
114 25 116 25 118 370 119 42 130 20 133 20 135 33 147 74 162 21 188 32 
190 55 204 35 205 31 219 43 220 126 221 25 278 867 279 223 280 90 292 999 
293 388 294 147 295 29 
