Name: BICYCLO(4.3.0)NONAN-8-OL (7-D)
MW: 140
Formula: C9H16O
Synonym: MassBank: JP011875
Synonym: BICYCLO(4.3.0)NONAN-8-OL (7-D)
Structure: 42494359434C4F28342E332E30294E4F4E414E2D382D4F4C2028372D44292E6D6F6C0A20204368656D447261773039303531303139303632440A2031312031322020302020302020302020302020302020302020302020303939392056323030300A20202020302E333332382020202D302E3732363020202020302E303030302043202020302020302020302020302020302020302020302020302020302020302020302020300A20202020312E303437332020202D312E3133383520202020302E303030302043202020302020302020302020302020302020302020302020302020302020302020302020300A20202020312E373631372020202D302E3732363020202020302E303030302043202020302020302020302020302020302020302020302020302020302020302020302020300A20202020312E3736313720202020302E3039393020202020302E303030302043202020302020302020302020302020302020302020302020302020302020302020302020300A20202020312E3034373320202020302E3531313520202020302E303030302043202020302020302020302020302020302020302020302020302020302020302020302020300A20202020302E3333323820202020302E3039393020202020302E303030302043202020302020302020302020302020302020302020302020302020302020302020302020300A2020202D302E3435313820202020302E3335333920202020302E303030302043202020302020302020302020302020302020302020302020302020302020302020302020300A2020202D302E393336372020202D302E3331333520202020302E303030302043202020302020302020302020302020302020302020302020302020302020302020302020300A2020202D302E343531382020202D302E3938313020202020302E303030302043202020302020302020302020302020302020302020302020302020302020302020302020300A2020202D312E373631372020202D302E3331333520202020302E30303030204F202020302020302020302020302020302020302020302020302020302020302020302020300A2020202D302E3730363820202020312E3133383520202020302E303030302048202020312020302020302020302020302020302020302020302020302020302020302020300A2020312020322020312020302020202020200A2020322020332020312020302020202020200A2020332020342020312020302020202020200A2020342020352020312020302020202020200A2020352020362020312020302020202020200A2020362020372020312020302020202020200A2020372020382020312020302020202020200A2020382020392020312020302020202020200A2020312020392020312020302020202020200A2020312020362020312020302020202020200A2020382031302020312020302020202020200A2020372031312020312020302020202020200A4D202049534F20203120203131202020320A4D2020454E44
Contributor: YAMAMOTO M, DEP. CHEMISTRY, FAC. SCIENCE, NARA WOMEN'S UNIV.
InstType: EI
InstName: HITACHI RMU-6M
IoniMethod: _ENERGY 70 eV
IonPolarity: pos
Date: 2010-10-09 19:48:36+02:00
Num Peaks: 78
21 10 22 13 24 11 25 11 26 29 27 237 28 103 29 247 30 59 31 349 
32 43 33 11 38 18 39 200 40 76 41 294 42 111 43 85 44 53 45 149 
46 30 50 13 51 39 52 33 53 100 54 184 55 223 56 83 57 39 58 105 
59 155 60 18 61 18 62 11 63 15 64 15 65 40 66 49 67 315 68 200 
69 65 70 36 71 125 72 31 73 25 74 96 75 10 76 19 77 41 78 31 
79 108 80 258 81 999 82 168 83 34 84 123 85 36 91 20 92 24 93 99 
94 324 95 194 96 174 97 31 98 31 99 19 100 11 101 15 107 19 108 63 
109 30 110 13 111 16 112 16 122 31 123 645 124 74 125 15 
