Name: MassBank: JP012000
MW: 72
Formula: C3H8Si
Synonym: MassBank: JP012000
Synonym: SILACYCLOBUTANE (1,1-D2)
Structure: 310A31380A53494C414359434C4F425554414E452028312C312D4432292E6D6F6C0A20204368656D447261773038313231303036343532440A2020362020362020302020302020302020302020302020302020302020303939392056323030300A20202020302E3030303020202020302E3030303020202020302E303030302053692020302020302020302020302020302020302020302020302020302020302020302020300A20202020302E3030303020202020302E3832353020202020302E303030302043202020302020302020302020302020302020302020302020302020302020302020302020300A20202020302E3832353020202020302E3832353020202020302E303030302043202020302020302020302020302020302020302020302020302020302020302020302020300A20202020302E3832353020202020302E3030303020202020302E303030302043202020302020302020302020302020302020302020302020302020302020302020302020300A20202020302E303030302020202D302E3832353020202020302E303030302048202020312020302020302020302020302020302020302020302020302020302020302020300A2020202D302E3832353020202020302E3030303020202020302E303030302048202020312020302020302020302020302020302020302020302020302020302020302020300A2020312020322020312020302020202020200A2020322020332020312020302020202020200A2020332020342020312020302020202020200A2020312020342020312020302020202020200A2020312020352020312020302020202020200A2020312020362020312020302020202020200A4D202049534F202032202020352020203220202036202020320A4D2020454E44
Contributor: YAMAMOTO M, DEP. CHEMISTRY, FAC. SCIENCE, NARA WOMEN'S UNIV.
InstType: EI
InstName: HITACHI RMU-6M
IoniMethod: _ENERGY 20 eV
IonPolarity: pos
Date: 2010-10-09 19:48:36+02:00
Num Peaks: 29
28 227 29 31 30 24 31 13 32 20 33 21 39 17 40 12 41 33 42 35 
43 86 44 461 45 818 46 884 47 113 48 35 55 38 56 42 57 50 58 88 
59 67 69 16 70 90 71 110 72 221 73 219 74 999 75 104 76 42 
