Name: ORTHO-DIMETHOXYBENZENE
MW: 138
Formula: C8H10O2
Synonym: MassBank: JP010480
Synonym: ORTHO-DIMETHOXYBENZENE
Synonym: 1,2-DIMETHOXYBENENE
Structure: 4F5254484F2D44494D4554484F585942454E5A454E452E6D6F6C0A20204368656D447261773131303530393133303332440A2031302031302020302020302020302020302020302020302020302020303939392056323030300A2020202D302E3431323520202020302E3335373220202020302E303030302043202020302020302020302020302020302020302020302020302020302020302020302020300A20202020302E3431323520202020302E3335373220202020302E303030302043202020302020302020302020302020302020302020302020302020302020302020302020300A20202020302E383235302020202D302E3335373220202020302E303030302043202020302020302020302020302020302020302020302020302020302020302020302020300A20202020302E343132352020202D312E3037313720202020302E303030302043202020302020302020302020302020302020302020302020302020302020302020302020300A2020202D302E343132352020202D312E3037313720202020302E303030302043202020302020302020302020302020302020302020302020302020302020302020302020300A2020202D302E383235302020202D302E3335373220202020302E303030302043202020302020302020302020302020302020302020302020302020302020302020302020300A20202020302E3832353020202020312E3037313720202020302E30303030204F202020302020302020302020302020302020302020302020302020302020302020302020300A20202020312E3635303020202020312E3037313720202020302E303030302043202020302020302020302020302020302020302020302020302020302020302020302020300A2020202D302E3832353020202020312E3037313720202020302E30303030204F202020302020302020302020302020302020302020302020302020302020302020302020300A2020202D312E3635303020202020312E3037313720202020302E303030302043202020302020302020302020302020302020302020302020302020302020302020302020300A2020312020322020312020302020202020200A2020322020332020322020302020202020200A2020332020342020312020302020202020200A2020342020352020322020302020202020200A2020352020362020312020302020202020200A2020312020362020322020302020202020200A2020372020382020312020302020202020200A2020322020372020312020302020202020200A2020392031302020312020302020202020200A2020312020392020312020302020202020200A4D2020454E44
Contributor: TAJIMA S, GUNMA COLLEGE OF TECHNOLOGY
InstType: EI
InstName: HITACHI M-80A
IoniMethod: _ENERGY 70 eV
IonPolarity: pos
Date: 2010-10-09 19:48:36+02:00
Num Peaks: 49
26 75 27 72 29 100 30 16 31 27 37 44 38 125 39 365 40 30 41 282 
49 24 50 280 51 568 52 505 53 117 54 28 55 35 61 32 62 92 63 288 
64 122 65 572 66 50 67 100 73 11 74 53 75 36 76 40 77 682 78 124 
79 308 80 128 81 14 89 64 90 41 91 972 92 999 93 104 95 559 96 38 
105 89 106 13 107 119 108 15 121 24 123 190 124 17 138 472 139 46 
