Name: MassBank: JP010072
MW: 382
Formula: C22H26N2O2S
Synonym: MassBank: JP010072
Synonym: 3,4-DIHYDRO-6-HYDROXY-2,5,7,8-TETRAMETHYL-2-(2-BENZIMIDAZOLETHIO)ETHYL-2H-1-BENZOPYRAN
Structure: 332C342D4449485944524F2D362D485944524F58592D322C352C372C382D54455452414D455448594C2D322D28322D42454E5A494D4944415A4F4C455448494F29455448594C2D32482D312D42454E5A4F505952414E2E6D6F6C0A20204368656D447261773032323131303232333032440A2032372033302020302020302020302020302020302020302020302020303939392056323030300A2020202D302E383839332020202D302E3539313120202020302E303030302043202020302020302020302020302020302020302020302020302020302020302020302020300A2020202D312E333031382020202D312E3330353620202020302E303030302043202020302020302020302020302020302020302020302020302020302020302020302020300A2020202D322E313236382020202D312E3330353620202020302E303030302043202020302020302020302020302020302020302020302020302020302020302020302020300A2020202D322E353339332020202D302E3539313120202020302E303030302043202020302020302020302020302020302020302020302020302020302020302020302020300A2020202D322E3132363820202020302E3132333420202020302E303030302043202020302020302020302020302020302020302020302020302020302020302020302020300A2020202D312E3330303520202020302E3132333120202020302E30303030204F202020302020302020302020302020302020302020302020302020302020302020302020300A2020202D322E3533393320202020302E3833373820202020302E303030302043202020302020302020302020302020302020302020302020302020302020302020302020300A2020202D332E3336343320202020302E3833373820202020302E303030302043202020302020302020302020302020302020302020302020302020302020302020302020300A2020202D332E3737363820202020302E3132333420202020302E303030302043202020302020302020302020302020302020302020302020302020302020302020302020300A2020202D332E333634332020202D302E3539313120202020302E303030302043202020302020302020302020302020302020302020302020302020302020302020302020300A20202020312E313439362020202D312E3337303420202020302E303030302053202020302020302020302020302020302020302020302020302020302020302020302020300A20202020312E393235302020202D312E3038383520202020302E303030302043202020302020302020302020302020302020302020302020302020302020302020302020300A20202020322E313533342020202D302E3238313120202020302E30303030204E202020302020302020302020302020302020302020302020302020302020302020302020300A20202020322E393736392020202D302E3238313120202020302E303030302043202020302020302020302020302020302020302020302020302020302020302020302020300A20202020332E323539302020202D312E3034313920202020302E303030302043202020302020302020302020302020302020302020302020302020302020302020302020300A20202020322E363039312020202D312E3535323320202020302E30303030204E202020302020302020302020302020302020302020302020302020302020302020302020300A20202020332E3530373220202020302E3336353320202020302E303030302043202020302020302020302020302020302020302020302020302020302020302020302020300A20202020342E3331393620202020302E3232323020202020302E303030302043202020302020302020302020302020302020302020302020302020302020302020302020300A20202020342E363031382020202D302E3535333220202020302E303030302043202020302020302020302020302020302020302020302020302020302020302020302020300A20202020342E303731352020202D312E3138353220202020302E303030302043202020302020302020302020302020302020302020302020302020302020302020302020300A2020202D322E3132363820202020312E3535323320202020302E303030302043202020302020302020302020302020302020302020302020302020302020302020302020300A2020202D332E3737363820202020312E3535323320202020302E303030302043202020302020302020302020302020302020302020302020302020302020302020302020300A2020202D332E373736382020202D312E3330353620202020302E303030302043202020302020302020302020302020302020302020302020302020302020302020302020300A2020202D302E323536392020202D302E3036313320202020302E303030302043202020302020302020302020302020302020302020302020302020302020302020302020300A2020202D342E3630313820202020302E3132333420202020302E30303030204F202020302020302020302020302020302020302020302020302020302020302020302020300A2020202D302E323537352020202D312E3132313720202020302E303030302043202020302020302020302020302020302020302020302020302020302020302020302020300A20202020302E353137382020202D302E3833393820202020302E303030302043202020302020302020302020302020302020302020302020302020302020302020302020300A2020312020322020312020302020202020200A2020322020332020312020302020202020200A2020332020342020312020302020202020200A2020342020352020312020302020202020200A2020352020362020312020302020202020200A2020312020362020312020302020202020200A2020372020382020312020302020202020200A2020382020392020322020302020202020200A2020392031302020312020302020202020200A2020342031302020322020302020202020200A2020352020372020322020302020202020200A2031322031332020322020302020202020200A2031332031342020312020302020202020200A2031342031352020312020302020202020200A2031352031362020312020302020202020200A2031322031362020312020302020202020200A2031372031382020312020302020202020200A2031382031392020322020302020202020200A2031392032302020312020302020202020200A2031352032302020322020302020202020200A2031342031372020322020302020202020200A2031312031322020312020302020202020200A2020372032312020312020302020202020200A2020382032322020312020302020202020200A2031302032332020312020302020202020200A2020312032342020312020302020202020200A2020392032352020312020302020202020200A2020312032362020312020302020202020200A2032362032372020312020302020202020200A2032372031312020312020302020202020200A4D2020454E44
Contributor: KURARAY CO., LTD.
InstType: EI
InstName: JEOL JMS-D-300
IoniMethod: _ENERGY 70 eV
IonPolarity: pos
Date: 2010-10-09 19:48:36+02:00
Num Peaks: 62
28 43 41 91 43 113 49 8 51 29 53 35 55 49 65 3 67 32 69 28 
77 34 79 3 84 62 86 39 91 73 93 5 105 26 107 23 118 49 119 7 
121 92 122 48 131 31 135 4 136 86 137 32 149 52 150 6 151 425 152 47 
153 24 159 13 160 27 161 31 163 45 164 70 165 271 166 34 172 41 175 5 
176 36 177 159 178 27 185 6 189 130 190 59 191 70 203 22 204 99 205 92 
206 51 215 2 217 142 218 29 219 106 231 4 232 999 233 168 234 20 382 64 
383 165 384 60 
