Name: 6-METHYL-5-TRIMETHYLSILYLMETHYL-6-HEPTEN-2-ONE
MW: 212
Formula: C12H24OSi
Synonym: MassBank: JP012098
Synonym: 6-METHYL-5-TRIMETHYLSILYLMETHYL-6-HEPTEN-2-ONE
Structure: 362D4D455448594C2D352D5452494D455448594C53494C594C4D455448594C2D362D48455054454E2D322D4F4E452E6D6F6C0A20204368656D447261773035313931303132343432440A2031342031332020302020302020302020302020302020302020302020303939392056323030300A20202020312E3835363320202020302E3335373220202020302E303030302043202020302020302020302020302020302020302020302020302020302020302020302020300A20202020312E343433372020202D302E3335373220202020302E303030302043202020302020302020302020302020302020302020302020302020302020302020302020300A20202020302E363138372020202D302E3335373220202020302E303030302043202020302020302020302020302020302020302020302020302020302020302020302020300A20202020302E3230363220202020302E3335373220202020302E303030302043202020302020302020302020302020302020302020302020302020302020302020302020300A2020202D302E3631383820202020302E3335373220202020302E303030302043202020302020302020302020302020302020302020302020302020302020302020302020300A2020202D312E3033313320202020312E3037313720202020302E303030302043202020302020302020302020302020302020302020302020302020302020302020302020300A2020202D312E3835363320202020312E3037313720202020302E303030302043202020302020302020302020302020302020302020302020302020302020302020302020300A20202020312E383536332020202D312E3037313720202020302E30303030204F202020302020302020302020302020302020302020302020302020302020302020302020300A2020202D312E303331332020202D302E3335373220202020302E303030302043202020302020302020302020302020302020302020302020302020302020302020302020300A2020202D302E363138382020202D312E3037313720202020302E303030302053692020302020302020302020302020302020302020302020302020302020302020302020300A20202020302E303935372020202D302E3635393220202020302E303030302043202020302020302020302020302020302020302020302020302020302020302020302020300A2020202D302E323036332020202D312E3738363220202020302E303030302043202020302020302020302020302020302020302020302020302020302020302020302020300A2020202D312E333333322020202D312E3438343220202020302E303030302043202020302020302020302020302020302020302020302020302020302020302020302020300A2020202D302E3631383820202020312E3738363220202020302E303030302043202020302020302020302020302020302020302020302020302020302020302020302020300A2020312020322020312020302020202020200A2020322020332020312020302020202020200A2020332020342020312020302020202020200A2020342020352020312020302020202020200A2020352020362020312020302020202020200A2020362020372020322020302020202020200A2020322020382020322020302020202020200A2031302031312020312020302020202020200A2031302031322020312020302020202020200A2031302031332020312020302020202020200A2020392031302020312020302020202020200A2020352020392020312020302020202020200A2020362031342020312020302020202020200A4D2020454E44
Contributor: HISAHIRO HAGIWARA, INSTITUTE FOR CHEMICAL REACTION SCIENCE TOHOKU UNIV.
InstType: EI
InstName: JEOL JMS-DX-300
IoniMethod: _ENERGY 70 eV
IonPolarity: pos
Date: 2010-10-09 19:48:36+02:00
Num Peaks: 41
39 22 41 33 43 161 44 29 45 103 53 22 55 21 58 26 59 84 67 24 
72 26 73 999 74 108 75 416 76 33 77 27 85 31 93 22 99 28 107 151 
111 34 112 26 115 117 121 30 122 177 123 27 127 26 129 54 130 93 139 25 
141 145 142 25 143 44 144 43 154 98 155 22 169 36 183 18 194 16 197 51 
212 6 
