Name: 2-METHYL-6-METHYLENE-8-TRIMETHYLSILYL-2-OCTENE
MW: 210
Formula: C13H26Si
Synonym: MassBank: JP011391
Synonym: 2-METHYL-6-METHYLENE-8-TRIMETHYLSILYL-2-OCTENE
Structure: 322D4D455448594C2D362D4D455448594C454E452D382D5452494D455448594C53494C594C2D322D4F4354454E452E6D6F6C0A20204368656D447261773031323231303037323632440A2031342031332020302020302020302020302020302020302020302020303939392056323030300A20202020322E383837352020202D312E3132373020202020302E303030302043202020302020302020302020302020302020302020302020302020302020302020302020300A20202020322E343735302020202D302E3431323520202020302E303030302043202020302020302020302020302020302020302020302020302020302020302020302020300A20202020312E363530302020202D302E3431323520202020302E303030302043202020302020302020302020302020302020302020302020302020302020302020302020300A20202020312E3233373520202020302E3330323020202020302E303030302043202020302020302020302020302020302020302020302020302020302020302020302020300A20202020302E3431323520202020302E3330323020202020302E303030302043202020302020302020302020302020302020302020302020302020302020302020302020300A2020202D302E303030302020202D302E3431323520202020302E303030302043202020302020302020302020302020302020302020302020302020302020302020302020300A2020202D302E383235302020202D302E3431323520202020302E303030302043202020302020302020302020302020302020302020302020302020302020302020302020300A2020202D312E3233373520202020302E3330323020202020302E303030302043202020302020302020302020302020302020302020302020302020302020302020302020300A2020202D322E3036323520202020302E3330323020202020302E303030302053692020302020302020302020302020302020302020302020302020302020302020302020300A2020202D322E303632352020202D302E3532333020202020302E303030302043202020302020302020302020302020302020302020302020302020302020302020302020300A2020202D322E3838373520202020302E3330323020202020302E303030302043202020302020302020302020302020302020302020302020302020302020302020302020300A2020202D322E3036323520202020312E3132373020202020302E303030302043202020302020302020302020302020302020302020302020302020302020302020302020300A20202020302E343132352020202D312E3132373020202020302E303030302043202020302020302020302020302020302020302020302020302020302020302020302020300A20202020322E3838373520202020302E3330323020202020302E303030302043202020302020302020302020302020302020302020302020302020302020302020302020300A2020312020322020312020302020202020200A2020322020332020322020302020202020200A2020332020342020312020302020202020200A2020342020352020312020302020202020200A2020352020362020312020302020202020200A2020362020372020312020302020202020200A2020372020382020312020302020202020200A2020392031302020312020312020202020200A2020392031312020312020302020202020200A2020392031322020312020312020202020200A2020382020392020312020302020202020200A2020362031332020322020302020202020200A2020322031342020312020302020202020200A4D2020454E44
Contributor: HISAHIRO HAGIWARA, INSTITUTE FOR CHEMICAL REACTION SCIENCE TOHOKU UNIV.
InstType: EI
InstName: JEOL JMS-DX-300
IoniMethod: _ENERGY 70 eV
IonPolarity: pos
Date: 2010-10-09 19:48:36+02:00
Num Peaks: 42
39 22 41 212 42 11 43 26 44 14 45 77 53 21 55 15 58 12 59 83 
67 24 68 13 70 26 71 10 72 18 73 999 74 116 75 51 77 12 79 12 
83 14 85 24 93 41 95 10 97 10 99 19 101 18 107 15 108 25 109 67 
111 15 113 17 121 16 127 20 136 78 137 10 139 31 141 75 142 12 153 12 
167 54 210 40 
