Name: MassBank: JP010238
MW: 252
Formula: C13H16O5
Synonym: MassBank: JP010238
Synonym: DIMETHYL TRANS-2,3,4,5,6,7-HEXAHYDROINDEN-1(H)-ONE-5,6-DICARBOXYLATE
Synonym: DIMETHYL (5R,6R)-2,3,4,5,6,7-HEXAHYDROINDEN-1(H)-ONE-5,6-DICARBOXYLATE
Structure: 310A34360A20204143442F4C6162733130323231303135323232440A2032302032312020302020302020312020302020302020302020302020302020312056323030300A20202031392E313233352020202D362E3032313820202020302E303030302043202020302020302020302020302020302020302020302020302020302020302020302020300A20202031392E313233352020202D372E3032313820202020302E303030302043202020302020302020302020302020302020302020302020302020302020302020302020300A20202031382E363233352020202D352E3135353820202020302E303030302043202020302020302020302020302020302020302020302020302020302020302020302020300A20202031392E393839352020202D352E3532313820202020302E303030302043202020302020302020302020302020302020302020302020302020302020302020302020300A20202031382E333233352020202D362E3032313820202020302E303030302048202020302020302020302020302020302020302020302020302020302020302020302020300A20202031382E363233352020202D372E3838373820202020302E303030302043202020302020302020302020302020302020302020302020302020302020302020302020300A20202031392E393839352020202D372E3532313820202020302E303030302043202020302020302020302020302020302020302020302020302020302020302020302020300A20202031382E333233352020202D372E3032313820202020302E303030302048202020302020302020302020302020302020302020302020302020302020302020302020300A20202031392E313233352020202D342E3238393720202020302E30303030204F202020302020302020302020302020302020302020302020302020302020302020302020300A20202031372E363233352020202D352E3135353820202020302E30303030204F202020302020302020302020302020302020302020302020302020302020302020302020300A20202032302E383535362020202D362E3032313820202020302E303030302043202020302020302020302020302020302020302020302020302020302020302020302020300A20202031392E313233352020202D382E3735333820202020302E30303030204F202020302020302020302020302020302020302020302020302020302020302020302020300A20202031372E363233352020202D372E3838373820202020302E30303030204F202020302020302020302020302020302020302020302020302020302020302020302020300A20202032302E383535362020202D372E3032313820202020302E303030302043202020302020302020302020302020302020302020302020302020302020302020302020300A20202031382E363233352020202D332E3432333720202020302E303030302043202020302020302020302020302020302020302020302020302020302020302020302020300A20202032312E383036352020202D352E3731323820202020302E303030302043202020302020302020302020302020302020302020302020302020302020302020302020300A20202031382E363233352020202D392E3631393920202020302E303030302043202020302020302020302020302020302020302020302020302020302020302020302020300A20202032312E383036352020202D372E3333303820202020302E303030302043202020302020302020302020302020302020302020302020302020302020302020302020300A20202032322E333934342020202D362E3532313820202020302E303030302043202020302020302020302020302020302020302020302020302020302020302020302020300A20202032322E313135362020202D382E3238313920202020302E30303030204F202020302020302020302020302020302020302020302020302020302020302020302020300A2020312020322020312020302020302020302020300A2020312020332020312020362020302020302020300A2020312020342020312020302020302020302020300A2020312020352020312020312020302020302020300A2020322020362020312020312020302020302020300A2020322020372020312020302020302020302020300A2020322020382020312020362020302020302020300A2020332020392020312020302020302020302020300A2020332031302020322020302020302020302020300A2020342031312020312020302020302020302020300A2020362031322020312020302020302020302020300A2020362031332020322020302020302020302020300A2020372031342020312020302020302020302020300A2020392031352020312020302020302020302020300A2031312031342020322020302020302020302020300A2031312031362020312020302020302020302020300A2031322031372020312020302020302020302020300A2031342031382020312020302020302020302020300A2031362031392020312020302020302020302020300A2031382031392020312020302020302020302020300A2031382032302020322020302020302020302020300A4D2020454E44
Contributor: KANEMASA S, INST. OF ADVANCED MATERIAL STUDY KYUSHU UNIV.
InstType: EI
InstName: JEOL JMS-01-SG-2
IoniMethod: _ENERGY 75 eV
IonPolarity: pos
Date: 2010-10-09 19:48:36+02:00
Num Peaks: 37
39 70 51 59 52 50 55 47 59 196 65 75 77 148 78 119 79 104 91 431 
92 60 103 81 104 68 105 447 106 52 132 71 133 999 134 138 135 38 136 12 
148 22 150 35 151 13 159 12 160 11 161 53 163 11 177 29 191 25 192 415 
193 263 194 39 220 279 221 172 222 22 252 50 253 12 
