Name: 2-HYDROXY-3-METHOXYBENZALDEHYDE
MW: 152
Formula: C8H8O3
Synonym: MassBank: JP010728
Synonym: 2-HYDROXY-3-METHOXYBENZALDEHYDE
Structure: 322D485944524F58592D332D4D4554484F585942454E5A414C4445485944452E6D6F6C0A20204368656D447261773031323131303134343732440A2031312031312020302020302020302020302020302020302020302020303939392056323030300A20202020312E343238392020202D302E3431323520202020302E303030302043202020302020302020302020302020302020302020302020302020302020302020302020300A20202020302E373134352020202D302E3030303020202020302E303030302043202020302020302020302020302020302020302020302020302020302020302020302020300A2020202D302E303030302020202D302E3431323520202020302E303030302043202020302020302020302020302020302020302020302020302020302020302020302020300A2020202D302E373134352020202D302E3030303020202020302E303030302043202020302020302020302020302020302020302020302020302020302020302020302020300A2020202D302E3731343520202020302E3832353020202020302E303030302043202020302020302020302020302020302020302020302020302020302020302020302020300A20202020302E3030303020202020312E3233373520202020302E303030302043202020302020302020302020302020302020302020302020302020302020302020302020300A20202020302E3731343520202020302E3832353020202020302E303030302043202020302020302020302020302020302020302020302020302020302020302020302020300A20202020322E313433342020202D302E3030303020202020302E30303030204F202020302020302020302020302020302020302020302020302020302020302020302020300A2020202D312E343238392020202D302E3431323520202020302E30303030204F202020302020302020302020302020302020302020302020302020302020302020302020300A2020202D322E313433342020202D302E3030303020202020302E303030302043202020302020302020302020302020302020302020302020302020302020302020302020300A2020202D302E303030302020202D312E3233373520202020302E30303030204F202020302020302020302020302020302020302020302020302020302020302020302020300A2020312020322020312020302020202020200A2020322020332020312020302020202020200A2020332020342020322020302020202020200A2020342020352020312020302020202020200A2020352020362020322020302020202020200A2020362020372020312020302020202020200A2020322020372020322020302020202020200A2020312020382020322020302020202020200A2020392031302020312020302020202020200A2020342020392020312020302020202020200A2020332031312020312020302020202020200A4D2020454E44
Contributor: SUMITA Y, KYOTO COLLEGE OF PHARMACY
InstType: EI
InstName: HITACHI M-80
IoniMethod: _ENERGY 20 eV
IonPolarity: pos
Date: 2010-10-09 19:48:36+02:00
Num Peaks: 37
27 22 39 13 52 19 53 67 55 44 65 41 66 16 67 14 76 71 77 31 
78 43 80 15 81 148 92 31 93 31 94 11 95 20 104 16 105 60 106 377 
107 49 108 61 109 232 110 17 120 43 121 61 122 117 123 46 124 16 133 18 
134 16 136 28 137 26 151 172 152 999 153 89 154 11 
