Name: MassBank: JP010107
MW: 228
Formula: C12H20O4
Synonym: MassBank: JP010107
Synonym: ADIPICACID 3-METHYL-1,5-PENTANDIOL DIESTER
Synonym: 4-METHYL-1,7-DIOXATRIDECANE-8,12-DIONE
Structure: 4144495049434143494420332D4D455448594C2D312C352D50454E54414E44494F4C20444945535445522E6D6F6C0A20204368656D447261773034323131303030353632440A2031362031362020302020302020302020302020302020302020302020303939392056323030300A20202020302E3332303320202020302E3431323520202020302E303030302043202020302020302020302020302020302020302020302020302020302020302020302020300A20202020302E333230332020202D302E3431323520202020302E303030302043202020302020302020302020302020302020302020302020302020302020302020302020300A20202020302E393033362020202D302E3939353920202020302E303030302043202020302020302020302020302020302020302020302020302020302020302020302020300A20202020312E373238362020202D302E3939353920202020302E30303030204F202020302020302020302020302020302020302020302020302020302020302020302020300A20202020322E333132302020202D302E3431323520202020302E303030302043202020302020302020302020302020302020302020302020302020302020302020302020300A20202020322E3331323020202020302E3431323520202020302E303030302043202020302020302020302020302020302020302020302020302020302020302020302020300A20202020312E3732383620202020302E3939353920202020302E303030302043202020302020302020302020302020302020302020302020302020302020302020302020300A20202020302E3930333620202020302E3939353920202020302E303030302043202020302020302020302020302020302020302020302020302020302020302020302020300A2020202D302E3332343720202020302E3932363920202020302E30303030204F202020302020302020302020302020302020302020302020302020302020302020302020300A2020202D312E3132393020202020302E3734333320202020302E303030302043202020302020302020302020302020302020302020302020302020302020302020302020300A2020202D312E343837302020202D302E3030303020202020302E303030302043202020302020302020302020302020302020302020302020302020302020302020302020300A2020202D312E313239302020202D302E3734333320202020302E303030302043202020302020302020302020302020302020302020302020302020302020302020302020300A2020202D302E333234372020202D302E3932363920202020302E303030302043202020302020302020302020302020302020302020302020302020302020302020302020300A20202020322E3034343420202020312E3735383120202020302E303030302043202020302020302020302020302020302020302020302020302020302020302020302020300A20202020302E353837392020202D312E3735383120202020302E30303030204F202020302020302020302020302020302020302020302020302020302020302020302020300A2020202D322E333132302020202D302E3030303020202020302E30303030204F202020302020302020302020302020302020302020302020302020302020302020302020300A2020322020332020312020302020202020200A2020332020342020312020302020202020200A2020342020352020312020302020202020200A2020352020362020312020302020202020200A2020362020372020312020302020202020200A2020372020382020312020302020202020200A2020382020312020312020302020202020200A2020312020392020312020302020202020200A2020392031302020312020302020202020200A2031302031312020312020302020202020200A2031312031322020312020302020202020200A2031322031332020312020302020202020200A2031332020322020312020302020202020200A2020372031342020312020302020202020200A2020332031352020322020302020202020200A2031312031362020322020302020202020200A4D2020454E44
Contributor: KURARAY CO., LTD.
InstType: EI
InstName: JEOL JMS-D-300
IoniMethod: _ENERGY 70 eV
IonPolarity: pos
Date: 2010-10-09 19:48:36+02:00
Num Peaks: 18
29 134 41 287 42 163 43 18 55 766 56 163 67 628 68 8 69 86 82 999 
83 441 84 14 99 134 100 230 101 272 111 25 115 111 129 456 
