Name: MassBank: JP011819
MW: 326
Formula: C22H30O2
Synonym: MassBank: JP011819
Synonym: (E,E)-(1'R,2'S,5'R)-8'-PHENYLMENTHYL 2,4-HEXADIENOATE
Structure: 28452C45292D283127522C3227532C352752292D38272D5048454E594C4D454E5448594C20322C342D484558414449454E4F4154452E6D6F6C0A20204368656D447261773130323230393136353932440A2033312033322020302020302020302020302020302020302020302020303939392056323030300A2020202D312E3936363020202020322E3437353020202020302E303030302043202020302020302020302020302020302020302020302020302020302020302020302020300A2020202D312E3936363020202020312E3635303020202020302E303030302043202020302020302020302020302020302020302020302020302020302020302020302020300A2020202D312E3235313620202020312E3233373520202020302E303030302043202020302020302020302020302020302020302020302020302020302020302020302020300A2020202D302E3533373120202020312E3635303020202020302E303030302043202020302020302020302020302020302020302020302020302020302020302020302020300A2020202D302E3533373120202020322E3437353020202020302E303030302043202020302020302020302020302020302020302020302020302020302020302020302020300A2020202D312E3235313620202020322E3838373520202020302E303030302043202020302020302020302020302020302020302020302020302020302020302020302020300A2020202D312E3235313620202020302E3431323520202020302E30303030204F202020302020302020302020302020302020302020302020302020302020302020302020300A2020202D322E3337383520202020302E3933353520202020302E303030302043202020302020302020302020302020302020302020302020302020302020302020302020300A20202020302E3238373920202020322E3437353020202020302E303030302043202020302020302020302020302020302020302020302020302020302020302020302020300A2020202D302E3132343620202020332E3138393520202020302E303030302048202020302020302020302020302020302020302020302020302020302020302020302020300A2020202D302E3533373120202020302E3832353020202020302E303030302048202020302020302020302020302020302020302020302020302020302020302020302020300A2020202D322E3736323920202020312E3433363520202020302E303030302048202020302020302020302020302020302020302020302020302020302020302020302020300A2020202D302E3533373120202020302E3030303020202020302E303030302043202020302020302020302020302020302020302020302020302020302020302020302020300A2020202D302E353337312020202D302E3832353020202020302E303030302043202020302020302020302020302020302020302020302020302020302020302020302020300A20202020302E3137373420202020302E3431323520202020302E30303030204F202020302020302020302020302020302020302020302020302020302020302020302020300A20202020302E313737342020202D312E3233373520202020302E303030302048202020302020302020302020302020302020302020302020302020302020302020302020300A2020202D312E323531362020202D312E3233373520202020302E303030302043202020302020302020302020302020302020302020302020302020302020302020302020300A2020202D312E393636302020202D302E3832353020202020302E303030302048202020302020302020302020302020302020302020302020302020302020302020302020300A2020202D312E323531362020202D322E3036323520202020302E303030302043202020302020302020302020302020302020302020302020302020302020302020302020300A2020202D302E353337312020202D322E3437353020202020302E303030302043202020302020302020302020302020302020302020302020302020302020302020302020300A2020202D312E393636302020202D322E3437353020202020302E303030302048202020302020302020302020302020302020302020302020302020302020302020302020300A20202020302E313737342020202D322E3036323520202020302E303030302048202020302020302020302020302020302020302020302020302020302020302020302020300A2020202D302E353337312020202D332E3330303020202020302E303030302043202020302020302020302020302020302020302020302020302020302020302020302020300A20202020312E3131323920202020322E3437353020202020302E303030302043202020302020302020302020302020302020302020302020302020302020302020302020300A20202020302E3238373920202020312E3635303020202020302E303030302043202020302020302020302020302020302020302020302020302020302020302020302020300A20202020302E3238373920202020332E3330303020202020302E303030302043202020302020302020302020302020302020302020302020302020302020302020302020300A20202020312E3532353420202020312E3736303520202020302E303030302043202020302020302020302020302020302020302020302020302020302020302020302020300A20202020322E3335303420202020312E3736303520202020302E303030302043202020302020302020302020302020302020302020302020302020302020302020302020300A20202020322E3736323920202020322E3437353020202020302E303030302043202020302020302020302020302020302020302020302020302020302020302020302020300A20202020322E3335303420202020332E3138393520202020302E303030302043202020302020302020302020302020302020302020302020302020302020302020302020300A20202020312E3532353420202020332E3138393520202020302E303030302043202020302020302020302020302020302020302020302020302020302020302020302020300A2020312020322020312020302020202020200A2020322020332020312020302020202020200A2020332020342020312020302020202020200A2020342020352020312020302020202020200A2020352020362020312020302020202020200A2020362020312020312020302020202020200A2020332020372020312020312020202020200A2020322020382020312020312020202020200A2020352020392020312020312020202020200A2020352031302020312020362020202020200A2020332031312020312020362020202020200A2020322031322020312020362020202020200A2020372031332020312020302020202020200A2031332031342020312020302020202020200A2031332031352020322020302020202020200A2031342031362020312020302020202020200A2031342031372020322020302020202020200A2031372031382020312020302020202020200A2031372031392020312020302020202020200A2031392032302020322020302020202020200A2031392032312020312020302020202020200A2032302032322020312020302020202020200A2032302032332020312020302020202020200A2020392032342020312020302020202020200A2020392032352020312020302020202020200A2020392032362020312020302020202020200A2032342032372020322020302020202020200A2032372032382020312020302020202020200A2032382032392020322020302020202020200A2032392033302020312020302020202020200A2033302033312020322020302020202020200A2033312032342020312020302020202020200A4D2020454E44
Contributor: YOSHINORI Y, FAC. SCIENCE, TOHOKU UNIV.
InstType: EI
InstName: Unknown
IoniMethod: _ENERGY 20 eV
IonPolarity: pos
Date: 2010-10-09 19:48:36+02:00
Num Peaks: 17
143 38 157 13 185 34 199 135 200 17 207 509 208 75 214 999 215 185 217 29 
229 45 230 519 231 168 232 19 314 20 326 601 327 139 
