Name: MassBank: JP010219
MW: 291
Formula: C16H21NO4
Synonym: MassBank: JP010219
Synonym: 2-ETHOXYCARBONYL-4-METHOXYCARBONYL-1-METHYL-5-PHENYLPYRROLIDINE (2,4-TRANS-4,5-CIS)
Synonym: (4S,5R)-2-ETHOXYCARBONYL-4-METHOXYCARBONYL-1-METHYL-5-PHENYLPYRROLIDINE
Structure: 2834532C3552292D322D4554484F5859434152424F4E594C2D342D4D4554484F5859434152424F4E594C2D312D4D455448594C2D352D5048454E594C505952524F4C4944494E452E6D6F6C0A20204368656D447261773130323230393032343132440A2032342032352020302020302020302020302020302020302020302020303939392056323030300A20202020302E313037302020202D302E3033383020202020302E30303030204E202020302020302020302020302020302020302020302020302020302020302020302020300A20202020302E383630372020202D302E3337333620202020302E303030302043202020302020302020302020302020302020302020302020302020302020302020302020300A20202020312E3431323720202020302E3233393520202020302E303030302043202020302020302020302020302020302020302020302020302020302020302020302020300A20202020312E3030303220202020302E3935343020202020302E303030302043202020302020302020302020302020302020302020302020302020302020302020302020300A20202020302E3139333220202020302E3738323420202020302E303030302043202020302020302020302020302020302020302020302020302020302020302020302020300A20202020302E3636383820202020312E3937343020202020302E303030302043202020302020302020302020302020302020302020302020302020302020302020302020300A20202020302E343438322020202D312E3038383120202020302E303030302048202020302020302020302020302020302020302020302020302020302020302020302020300A2020202D302E3633313820202020302E3738323420202020302E303030302043202020302020302020302020302020302020302020302020302020302020302020302020300A20202020302E3130373020202020312E3630323920202020302E303030302048202020302020302020302020302020302020302020302020302020302020302020302020300A20202020312E3735333920202020312E3238393520202020302E303030302048202020302020302020302020302020302020302020302020302020302020302020302020300A20202020312E353238312020202D302E3835383520202020302E303030302043202020302020302020302020302020302020302020302020302020302020302020302020300A20202020312E3235323120202020322E3535373320202020302E30303030204F202020302020302020302020302020302020302020302020302020302020302020302020300A2020202D302E3132383120202020322E3138373520202020302E30303030204F202020302020302020302020302020302020302020302020302020302020302020302020300A2020202D302E3334313620202020322E3938343420202020302E303030302043202020302020302020302020302020302020302020302020302020302020302020302020300A20202020312E343431392020202D312E3637393020202020302E30303030204F202020302020302020302020302020302020302020302020302020302020302020302020300A20202020322E323831382020202D302E3532333020202020302E30303030204F202020302020302020302020302020302020302020302020302020302020302020302020300A20202020322E313039332020202D322E3136333920202020302E303030302043202020302020302020302020302020302020302020302020302020302020302020302020300A20202020322E303233312020202D322E3938343420202020302E303030302043202020302020302020302020302020302020302020302020302020302020302020302020300A2020202D312E3034343320202020312E3439363920202020302E303030302043202020302020302020302020302020302020302020302020302020302020302020302020300A2020202D312E3836393320202020312E3439363920202020302E303030302043202020302020302020302020302020302020302020302020302020302020302020302020300A2020202D322E3238313820202020302E3738323420202020302E303030302043202020302020302020302020302020302020302020302020302020302020302020302020300A2020202D312E3836393320202020302E3036383020202020302E303030302043202020302020302020302020302020302020302020302020302020302020302020302020300A2020202D312E3034343320202020302E3036383020202020302E303030302043202020302020302020302020302020302020302020302020302020302020302020302020300A2020202D302E363037392020202D302E3435303020202020302E303030302043202020302020302020302020302020302020302020302020302020302020302020302020300A2020312020322020312020302020202020200A2020322020332020312020302020202020200A2020332020342020312020302020202020200A2020342020352020312020302020202020200A2020352020312020312020302020202020200A2020342020362020312020312020202020200A2020322020372020312020312020202020200A2020352020382020312020312020202020200A2020352020392020312020362020202020200A2020342031302020312020362020202020200A2020322031312020312020362020202020200A2020362031322020322020302020202020200A2020362031332020312020302020202020200A2031332031342020312020302020202020200A2031312031352020312020302020202020200A2031312031362020322020302020202020200A2031352031372020312020302020202020200A2031372031382020312020302020202020200A2020382031392020322020302020202020200A2031392032302020312020302020202020200A2032302032312020322020302020202020200A2032312032322020312020302020202020200A2032322032332020322020302020202020200A2032332020382020312020302020202020200A2020312032342020312020302020202020200A4D202053545920203120202031205355500A4D2020534C4220203120202031202020310A4D202053414C20202031202031202032340A4D202053424C20202031202031202032350A4D2020534D5420202031204D650A4D2020534256202020312032352020202D372E3632393920202020362E303632310A4D2020454E44
Contributor: KANEMASA S, INST. OF ADVANCED MATERIAL STUDY KYUSHU UNIV.
InstType: EI
InstName: JEOL JMS-01-SG-2
IoniMethod: _ENERGY 75 eV
IonPolarity: pos
Date: 2010-10-09 19:48:36+02:00
Num Peaks: 34
38 16 40 12 41 110 42 133 55 18 57 14 58 43 77 21 82 25 91 43 
103 14 104 12 109 11 115 31 116 17 117 32 118 21 121 12 128 16 129 27 
131 18 132 12 143 31 144 12 157 11 158 145 159 37 186 96 187 14 218 999 
219 148 220 15 260 26 291 53 
