Name: 3-HYDROXY-4-METHOXYCINNAMIC ACID
CAS: 537-73-5
MW: 194
Formula: C10H10O4
Synonym: MassBank: JP011308
Synonym: 3-HYDROXY-4-METHOXYCINNAMIC ACID
Synonym: FERULIC ACID
Structure: 332D485944524F58592D342D4D4554484F585943494E4E414D494320414349442E6D6F6C0A20204368656D447261773032323231303231323332440A2031342031342020302020302020302020302020302020302020302020303939392056323030300A20202020322E3036323520202020302E3731343520202020302E303030302043202020302020302020302020302020302020302020302020302020302020302020302020300A20202020312E3233373520202020302E3731343520202020302E303030302043202020302020302020302020302020302020302020302020302020302020302020302020300A20202020302E383235302020202D302E3030303020202020302E303030302043202020302020302020302020302020302020302020302020302020302020302020302020300A20202020302E303030302020202D302E3030303020202020302E303030302043202020302020302020302020302020302020302020302020302020302020302020302020300A2020202D302E343132352020202D302E3731343520202020302E303030302043202020302020302020302020302020302020302020302020302020302020302020302020300A2020202D312E323337352020202D302E3731343520202020302E303030302043202020302020302020302020302020302020302020302020302020302020302020302020300A2020202D312E3635303020202020302E3030303020202020302E303030302043202020302020302020302020302020302020302020302020302020302020302020302020300A2020202D312E3233373520202020302E3731343520202020302E303030302043202020302020302020302020302020302020302020302020302020302020302020302020300A2020202D302E3431323520202020302E3731343520202020302E303030302043202020302020302020302020302020302020302020302020302020302020302020302020300A20202020322E3437353020202020312E3432383920202020302E30303030204F202020302020302020302020302020302020302020302020302020302020302020302020300A20202020322E343735302020202D302E3030303020202020302E30303030204F202020302020302020302020302020302020302020302020302020302020302020302020300A2020202D322E3437353020202020302E3030303020202020302E30303030204F202020302020302020302020302020302020302020302020302020302020302020302020300A2020202D312E363530302020202D312E3432383920202020302E30303030204F202020302020302020302020302020302020302020302020302020302020302020302020300A2020202D322E343735302020202D312E3432383920202020302E303030302043202020302020302020302020302020302020302020302020302020302020302020302020300A2020312020322020312020302020202020200A2020322020332020322020302020202020200A2020332020342020312020302020202020200A2020342020352020312020302020202020200A2020352020362020322020302020202020200A2020362020372020312020302020202020200A2020372020382020322020302020202020200A2020382020392020312020302020202020200A2020342020392020322020302020202020200A2020312031302020322020302020202020200A2020312031312020312020302020202020200A2020372031322020312020302020202020200A2020362031332020312020302020202020200A2031332031342020312020302020202020200A4D2020454E44
Contributor: YAMAMOTO M, DEP. CHEMISTRY, FAC. SCIENCE, NARA WOMEN'S UNIV.
InstType: EI
InstName: HITACHI M-2500
IoniMethod: _ENERGY 70 eV
IonPolarity: pos
Date: 2010-10-09 19:48:36+02:00
Num Peaks: 43
15 16 39 25 41 11 45 20 50 21 51 57 52 25 53 17 55 27 62 12 
63 30 65 17 67 28 69 20 77 76 78 41 79 22 81 11 89 50 91 17 
95 45 105 66 106 18 107 47 109 14 117 22 123 44 133 136 134 51 145 10 
147 26 148 27 149 30 151 51 161 27 177 177 178 21 179 204 180 32 193 28 
194 999 195 221 196 27 
