Name: MassBank: JP012124
MW: 226
Formula: C13H22O3
Synonym: MassBank: JP012124
Synonym: METHYL (1S,2R,4S,(4A)R,(8A)R)-DECAHYDRO-4-HYDROXY-2-METHYLNAPHTHALEN-1-CARBOXYLATE
Structure: 313135345F4D455448594C202831532C32522C34532C28344129522C2838412952292D44454341485944524F2D342D485944524F58592D322D4D455448594C4E4150485448414C454E2D312D434152424F58594C4154452E6D6F6C0A20204368656D447261773130323031303230343932440A2031382031392020302020302020302020302020302020302020302020303939392056323030300A2020202D302E3335373220202020302E3631383720202020302E303030302043202020302020302020302020302020302020302020302020302020302020302020302020300A2020202D312E3037313720202020302E3230363220202020302E303030302043202020302020302020302020302020302020302020302020302020302020302020302020300A2020202D312E303731372020202D302E3631383820202020302E303030302043202020302020302020302020302020302020302020302020302020302020302020302020300A2020202D302E333537322020202D312E3033313320202020302E303030302043202020302020302020302020302020302020302020302020302020302020302020302020300A20202020302E333537322020202D302E3631383820202020302E303030302043202020302020302020302020302020302020302020302020302020302020302020302020300A20202020312E303731372020202D312E3033313320202020302E303030302043202020302020302020302020302020302020302020302020302020302020302020302020300A20202020312E373836312020202D302E3631383820202020302E303030302043202020302020302020302020302020302020302020302020302020302020302020302020300A20202020312E3738363120202020302E3230363220202020302E303030302043202020302020302020302020302020302020302020302020302020302020302020302020300A20202020312E3037313720202020302E3631383820202020302E303030302043202020302020302020302020302020302020302020302020302020302020302020302020300A20202020302E3335373220202020302E3230363220202020302E303030302043202020302020302020302020302020302020302020302020302020302020302020302020300A2020202D302E3335373220202020312E3434333720202020302E303030302043202020302020302020302020302020302020302020302020302020302020302020302020300A2020202D312E3037313720202020312E3835363220202020302E30303030204F202020302020302020302020302020302020302020302020302020302020302020302020300A20202020302E3335373220202020312E3835363220202020302E30303030204F202020302020302020302020302020302020302020302020302020302020302020302020300A2020202D312E3738363120202020302E3631383720202020302E303030302043202020302020302020302020302020302020302020302020302020302020302020302020300A2020202D302E333537322020202D312E3835363220202020302E30303030204F202020302020302020302020302020302020302020302020302020302020302020302020300A20202020312E3037313720202020312E3434333720202020302E303030302043202020302020302020302020302020302020302020302020302020302020302020302020300A20202020302E343235382020202D312E3434303920202020302E303030302048202020302020302020302020302020302020302020302020302020302020302020302020300A20202020302E3432353520202020312E3032383420202020302E303030302048202020302020302020302020302020302020302020302020302020302020302020302020300A2020312020322020312020302020202020200A2020322020332020312020302020202020200A2020332020342020312020302020202020200A2020342020352020312020302020202020200A2020352020362020312020302020202020200A2020362020372020312020302020202020200A2020372020382020312020302020202020200A2020382020392020312020302020202020200A2020392031302020312020302020202020200A2020312031302020312020302020202020200A2020352031302020312020302020202020200A2031312031322020322020302020202020200A2031312031332020312020302020202020200A2020312031312020312020362020202020200A2020322031342020312020312020202020200A2020342031352020312020312020202020200A2031332031362020312020302020202020200A2020352031372020312020362020202020200A2031302031382020312020312020202020200A4D2020454E44
Contributor: HISAHIRO HAGIWARA, INSTITUTE FOR CHEMICAL REACTION SCIENCE TOHOKU UNIV.
InstType: EI
InstName: JEOL JMS-DX-300
IoniMethod: _ENERGY 70 eV
IonPolarity: pos
Date: 2010-10-09 19:48:36+02:00
Num Peaks: 54
39 98 41 252 43 88 51 41 53 106 55 163 57 55 59 75 65 81 66 55 
67 219 69 150 71 43 74 48 77 135 78 89 79 360 80 92 81 300 82 56 
83 86 91 285 92 90 93 342 94 109 95 117 101 168 103 48 105 202 106 164 
107 230 108 656 109 99 114 43 117 59 119 118 120 64 121 86 124 57 125 48 
131 40 133 162 134 79 135 52 146 49 147 104 148 847 149 999 150 145 166 46 
176 293 177 74 208 249 209 45 
