Name: MassBank: JP010634
MW: 272
Formula: C20H32
Synonym: MassBank: JP010634
Synonym: (1R,2E,4Z,7E,11E)-CEMBRA-2,4,7,11-TETRAENE
Structure: 2831522C32452C345A2C37452C313145292D43454D4252412D322C342C372C31312D5445545241454E452E6D6F6C0A20204368656D447261773130313930393133303432440A2032362032362020302020302020302020302020302020302020302020303939392056323030300A2020202D312E3631303320202020302E3732353120202020302E303030302043202020302020302020302020302020302020302020302020302020302020302020302020300A2020202D312E363130332020202D302E3039393920202020302E303030302043202020302020302020302020302020302020302020302020302020302020302020302020300A2020202D312E303237302020202D302E3638333220202020302E303030302043202020302020302020302020302020302020302020302020302020302020302020302020300A2020202D302E323032302020202D302E3638333220202020302E303030302043202020302020302020302020302020302020302020302020302020302020302020302020300A20202020302E333831342020202D302E3039393920202020302E303030302043202020302020302020302020302020302020302020302020302020302020302020302020300A20202020302E3338313420202020302E3732353120202020302E303030302043202020302020302020302020302020302020302020302020302020302020302020302020300A2020202D302E3230323020202020312E3330383520202020302E303030302043202020302020302020302020302020302020302020302020302020302020302020302020300A2020202D312E3032373020202020312E3330383520202020302E303030302043202020302020302020302020302020302020302020302020302020302020302020302020300A20202020302E393634372020202D302E3638333220202020302E303030302043202020302020302020302020302020302020302020302020302020302020302020302020300A20202020312E373839372020202D302E3638333220202020302E303030302043202020302020302020302020302020302020302020302020302020302020302020302020300A20202020322E333733312020202D302E3039393920202020302E303030302043202020302020302020302020302020302020302020302020302020302020302020302020300A20202020322E3337333120202020302E3732353120202020302E303030302043202020302020302020302020302020302020302020302020302020302020302020302020300A20202020312E3738393720202020312E3330383520202020302E303030302043202020302020302020302020302020302020302020302020302020302020302020302020300A20202020302E3936343720202020312E3330383520202020302E303030302043202020302020302020302020302020302020302020302020302020302020302020302020300A20202020302E3338343420202020312E3534383120202020302E303030302048202020302020302020302020302020302020302020302020302020302020302020302020300A2020202D312E3333393720202020322E3036343120202020302E303030302048202020302020302020302020302020302020302020302020302020302020302020302020300A2020202D302E3839303220202020302E3331303620202020302E303030302048202020302020302020302020302020302020302020302020302020302020302020302020300A2020202D312E323331352020202D312E3438373520202020302E303030302048202020302020302020302020302020302020302020302020302020302020302020302020300A20202020312E3537383220202020302E3130353920202020302E303030302048202020302020302020302020302020302020302020302020302020302020302020302020300A2020202D302E343036352020202D312E3438373520202020302E303030302048202020302020302020302020302020302020302020302020302020302020302020302020300A20202020302E333833322020202D312E3237303220202020302E303030302043202020302020302020302020302020302020302020302020302020302020302020302020300A20202020312E313833392020202D312E3035343720202020302E303030302043202020302020302020302020302020302020302020302020302020302020302020302020300A20202020302E313734352020202D322E3036343120202020302E303030302043202020302020302020302020302020302020302020302020302020302020302020302020300A20202020322E313035332020202D312E3434343620202020302E303030302043202020302020302020302020302020302020302020302020302020302020302020302020300A20202020312E3137373120202020302E3531323020202020302E303030302043202020302020302020302020302020302020302020302020302020302020302020302020300A2020202D322E3337333120202020312E3034313420202020302E303030302043202020302020302020302020302020302020302020302020302020302020302020302020300A2020312020322020312020302020202020200A2020322020332020322020302020202020200A2020332020342020312020302020202020200A2020342020352020312020302020202020200A2020362020372020312020302020202020200A2020372020382020312020302020202020200A2020382020312020322020302020202020200A2020352020392020312020302020202020200A2020392031302020312020302020202020200A2031302031312020322020302020202020200A2031312031322020312020302020202020200A2031322031332020312020302020202020200A2031332031342020312020302020202020200A2031342020362020322020302020202020200A2020362031352020312020302020202020200A2020382031362020312020302020202020200A2020322031372020312020302020202020200A2020332031382020312020302020202020200A2031312031392020312020302020202020200A2020342032302020312020312020202020200A2020342032312020312020362020202020200A2032312032322020312020302020202020200A2032312032332020312020302020202020200A2031302032342020312020302020202020200A2031342032352020312020302020202020200A2020312032362020312020302020202020200A4D202053545920203120202031205355500A4D2020534C4220203120202031202020310A4D202053414C20202031202031202032340A4D202053424C20202031202031202032340A4D2020534D5420202031204D650A4D2020534256202020312032342020202D362E3730373420202020372E333233330A4D202053545920203120202032205355500A4D2020534C4220203120202032202020320A4D202053414C20202032202031202032350A4D202053424C20202032202031202032350A4D2020534D5420202032204D650A4D2020534256202020322032352020202D362E3831303620202020372E323838320A4D202053545920203120202033205355500A4D2020534C4220203120202033202020330A4D202053414C20202033202031202032360A4D202053424C20202033202031202032360A4D2020534D5420202033204D650A4D2020534256202020332032362020202D372E3738353820202020382E343031300A4D2020454E44
Contributor: EGUCHI S, FAC. OF SCIENCE, HIROSHIMA UNIV.
InstType: EI
InstName: HITACHI RMU-6L
IoniMethod: _ENERGY 70 eV
IonPolarity: pos
Date: 2010-10-09 19:48:36+02:00
Num Peaks: 165
40 76 41 919 42 76 43 43 44 35 50 23 51 81 52 6 53 291 54 47 
55 634 56 6 57 116 58 17 62 12 63 3 64 23 65 128 66 58 67 48 
68 360 69 483 70 47 71 5 76 23 77 349 78 99 79 49 80 209 81 999 
82 149 83 15 84 29 85 58 89 23 90 2 91 535 92 180 93 959 94 22 
95 430 96 76 97 87 102 2 103 58 104 41 105 587 106 20 107 657 108 250 
109 384 110 6 111 64 115 93 116 64 117 11 118 70 119 500 120 256 121 52 
122 186 123 233 124 52 125 2 126 17 127 29 128 58 129 8 130 70 131 185 
132 81 133 45 134 256 135 320 136 244 137 10 138 23 139 35 140 12 141 7 
142 58 143 70 144 58 145 21 146 76 147 285 148 186 149 22 150 116 151 70 
152 47 153 5 154 35 155 47 156 35 157 8 158 70 159 302 160 105 161 29 
162 128 163 93 164 70 165 6 166 47 167 52 168 52 169 5 170 29 171 64 
172 47 173 16 174 70 175 116 176 70 178 9 179 58 180 35 181 47 182 4 
183 47 184 47 185 93 186 8 187 151 188 81 189 186 190 9 191 81 192 58 
193 52 194 5 195 47 196 47 197 128 198 5 199 47 200 64 201 105 202 9 
203 81 204 75 205 52 206 5 213 17 214 23 215 75 216 7 217 64 218 17 
219 12 228 4 229 302 230 93 231 47 242 2 243 58 244 47 245 47 257 13 
258 58 259 35 272 395 273 12 274 17 
