Name: MassBank: JP011348
MW: 182
Formula: C10H14O3
Synonym: MassBank: JP011348
Synonym: 1-HYDROXY-6-METHYLBICYCLO(4.3.0)NONANE-3,7-DIONE
Structure: 312D485944524F58592D362D4D455448594C42494359434C4F28342E332E30294E4F4E414E452D332C372D44494F4E452E6D6F6C0A20204368656D447261773131313930393134333632440A2031332031342020302020302020302020302020302020302020302020303939392056323030300A2020202D302E313135302020202D302E3333373620202020302E303030302043202020302020302020302020302020302020302020302020302020302020302020302020300A20202020302E373130302020202D302E3333373620202020302E303030302043202020302020302020302020302020302020302020302020302020302020302020302020300A20202020312E3132323520202020302E3337363820202020302E303030302043202020302020302020302020302020302020302020302020302020302020302020302020300A20202020302E3731303020202020312E3039313320202020302E303030302043202020302020302020302020302020302020302020302020302020302020302020302020300A2020202D302E3131353020202020312E3039313320202020302E303030302043202020302020302020302020302020302020302020302020302020302020302020302020300A2020202D302E3532373520202020302E3337363820202020302E303030302043202020302020302020302020302020302020302020302020302020302020302020302020300A2020202D312E3333343420202020302E3230353320202020302E303030302043202020302020302020302020302020302020302020302020302020302020302020302020300A2020202D312E343230372020202D302E3631353220202020302E303030302043202020302020302020302020302020302020302020302020302020302020302020302020300A2020202D302E363637302020202D302E3935303720202020302E303030302043202020302020302020302020302020302020302020302020302020302020302020302020300A20202020312E3934373520202020302E3337363820202020302E30303030204F202020302020302020302020302020302020302020302020302020302020302020302020300A2020202D312E3934373520202020302E3735373320202020302E30303030204F202020302020302020302020302020302020302020302020302020302020302020302020300A2020202D312E3031323420202020312E3034343320202020302E303030302043202020302020302020302020302020302020302020302020302020302020302020302020300A20202020302E323230362020202D312E3039313320202020302E30303030204F202020302020302020302020302020302020302020302020302020302020302020302020300A2020312020322020312020302020202020200A2020322020332020312020302020202020200A2020332020342020312020302020202020200A2020342020352020312020302020202020200A2020352020362020312020302020202020200A2020362020372020312020302020202020200A2020372020382020312020302020202020200A2020382020392020312020302020202020200A2020312020392020312020302020202020200A2020312020362020312020302020202020200A2020332031302020322020302020202020200A2020372031312020322020302020202020200A2020362031322020312020302020202020200A2020312031332020312020302020202020200A4D2020454E44
Contributor: YAMAMOTO M, DEP. CHEMISTRY, FAC. SCIENCE, NARA WOMEN'S UNIV.
InstType: EI
InstName: HITACHI RMU-6M
IoniMethod: _ENERGY 70 eV
IonPolarity: pos
Date: 2010-10-09 19:48:36+02:00
Num Peaks: 78
38 25 39 340 40 102 41 510 42 110 43 637 44 42 45 25 50 64 51 113 
52 85 53 234 54 93 55 323 56 229 57 93 58 38 59 13 62 15 63 47 
64 13 65 117 66 70 67 110 68 49 69 478 70 119 71 194 72 21 73 36 
74 15 77 149 78 64 79 500 80 149 81 140 82 66 83 183 84 289 85 66 
86 15 91 74 92 28 93 155 94 195 95 340 96 93 97 378 98 119 99 81 
100 11 105 25 107 191 108 85 109 395 110 108 111 121 112 132 113 238 114 25 
121 178 122 577 123 270 124 89 125 999 126 178 127 76 136 141 137 49 139 38 
140 66 149 40 164 395 165 59 167 47 182 941 183 142 185 19 
