Name: MassBank: JP011548
MW: 112
Formula: C7H12O
Synonym: MassBank: JP011548
Synonym: 2,5-DIMETHYLCYCLOPENTANONE(2,5-D2)
Structure: 322C352D44494D455448594C4359434C4F50454E54414E4F4E4528322C352D4432292E6D6F6C0A20204368656D447261773132323130393031343832440A2031302031302020302020302020302020302020302020302020302020303939392056323030300A2020202D302E3239353520202020302E3334313220202020302E303030302043202020302020302020302020302020302020302020302020302020302020302020302020300A20202020302E3532353020202020302E3235343920202020302E303030302043202020302020302020302020302020302020302020302020302020302020302020302020300A20202020302E363936352020202D302E3535323020202020302E303030302043202020302020302020302020302020302020302020302020302020302020302020302020300A2020202D302E303137392020202D302E3936343520202020302E303030302043202020302020302020302020302020302020302020302020302020302020302020302020300A2020202D302E363331302020202D302E3431323520202020302E303030302043202020302020302020302020302020302020302020302020302020302020302020302020300A2020202D312E313135392020202D312E3037393920202020302E303030302043202020302020302020302020302020302020302020302020302020302020302020302020300A20202020302E3532353020202020312E3037393920202020302E303030302043202020302020302020302020302020302020302020302020302020302020302020302020300A2020202D302E3730383020202020312E3035353620202020302E30303030204F202020302020302020302020302020302020302020302020302020302020302020302020300A2020202D312E3334353520202020302E3030303020202020302E303030302048202020312020302020302020302020302020302020302020302020302020302020302020300A20202020312E3334353520202020302E3334313220202020302E303030302048202020312020302020302020302020302020302020302020302020302020302020302020300A2020312020322020312020302020202020200A2020322020332020312020302020202020200A2020332020342020312020302020202020200A2020342020352020312020302020202020200A2020312020352020312020302020202020200A2020352020362020312020302020202020200A2020322020372020312020302020202020200A2020312020382020322020302020202020200A2020352020392020312020302020202020200A2020322031302020312020302020202020200A4D202049534F202032202020392020203220203130202020320A4D2020454E44
Contributor: YAMAMOTO M, DEP. CHEMISTRY, FAC. SCIENCE, NARA WOMEN'S UNIV.
InstType: EI
InstName: HITACHI RMU-6M
IoniMethod: _ENERGY 20 eV
IonPolarity: pos
Date: 2010-10-09 19:48:36+02:00
Num Peaks: 30
28 45 29 55 30 27 41 110 42 174 43 999 44 217 45 43 55 93 56 412 
57 317 58 136 59 102 67 55 68 30 69 442 70 262 71 265 72 56 81 92 
82 42 83 40 84 62 85 72 86 99 96 70 99 173 113 58 114 686 115 58 
