Name: ISOBUTYL LAURATE
MW: 256
Formula: C16H32O2
Synonym: MassBank: JP010778
Synonym: ISOBUTYL LAURATE
Structure: 49534F425554594C20444F444543414E4F4154452E6D6F6C0A20204368656D447261773038313131303231303632440A2031382031372020302020302020302020302020302020302020302020303939392056323030300A20202020322E303632352020202D312E3037313720202020302E303030302043202020302020302020302020302020302020302020302020302020302020302020302020300A20202020312E363530302020202D312E3738363220202020302E303030302043202020302020302020302020302020302020302020302020302020302020302020302020300A20202020302E383235302020202D312E3738363220202020302E303030302043202020302020302020302020302020302020302020302020302020302020302020302020300A20202020302E343132352020202D312E3037313720202020302E303030302043202020302020302020302020302020302020302020302020302020302020302020302020300A2020202D302E343132352020202D312E3037313720202020302E303030302043202020302020302020302020302020302020302020302020302020302020302020302020300A2020202D302E383235302020202D302E3335373220202020302E303030302043202020302020302020302020302020302020302020302020302020302020302020302020300A2020202D312E363530302020202D302E3335373220202020302E303030302043202020302020302020302020302020302020302020302020302020302020302020302020300A2020202D322E3036323520202020302E3335373220202020302E303030302043202020302020302020302020302020302020302020302020302020302020302020302020300A2020202D322E3838373520202020302E3335373220202020302E303030302043202020302020302020302020302020302020302020302020302020302020302020302020300A2020202D332E3330303020202020312E3037313720202020302E303030302043202020302020302020302020302020302020302020302020302020302020302020302020300A2020202D342E3132353020202020312E3037313720202020302E303030302043202020302020302020302020302020302020302020302020302020302020302020302020300A2020202D342E3533373520202020312E3738363220202020302E303030302043202020302020302020302020302020302020302020302020302020302020302020302020300A20202020312E363530302020202D302E3335373220202020302E30303030204F202020302020302020302020302020302020302020302020302020302020302020302020300A20202020322E383837352020202D312E3037313720202020302E30303030204F202020302020302020302020302020302020302020302020302020302020302020302020300A20202020332E333030302020202D302E3335373220202020302E303030302043202020302020302020302020302020302020302020302020302020302020302020302020300A20202020342E313235302020202D302E3335373220202020302E303030302043202020302020302020302020302020302020302020302020302020302020302020302020300A20202020342E3533373520202020302E3335373220202020302E303030302043202020302020302020302020302020302020302020302020302020302020302020302020300A20202020342E353337352020202D312E3037313720202020302E303030302043202020302020302020302020302020302020302020302020302020302020302020302020300A2020312020322020312020302020202020200A2020322020332020312020302020202020200A2020332020342020312020302020202020200A2020342020352020312020302020202020200A2020352020362020312020302020202020200A2020362020372020312020302020202020200A2020372020382020312020302020202020200A2020382020392020312020302020202020200A2020392031302020312020302020202020200A2031302031312020312020302020202020200A2031312031322020312020302020202020200A2020312031332020322020302020202020200A2020312031342020312020302020202020200A2031352031362020312020302020202020200A2031362031372020312020302020202020200A2031362031382020312020302020202020200A2031342031352020312020302020202020200A4D2020454E44
Contributor: YAMAMOTO M, DEP. CHEMISTRY, FAC. SCIENCE, NARA WOMEN'S UNIV.
InstType: EI
InstName: HITACHI RMU-6M
IoniMethod: _ENERGY 20 eV
IonPolarity: pos
Date: 2010-10-09 19:48:36+02:00
Num Peaks: 41
29 10 41 17 43 45 55 1 56 999 57 572 58 24 60 15 61 59 69 17 
70 14 71 6 73 80 74 12 81 10 83 3 84 23 85 51 87 28 95 2 
97 24 98 30 99 17 101 3 109 14 111 12 115 30 116 10 117 31 129 59 
138 10 140 1 143 16 157 37 171 16 183 29 184 40 200 152 201 274 202 4 
256 28 
