Name: MassBank: JP012071
MW: 262
Formula: C13H14N2O4
Synonym: MassBank: JP012071
Synonym: 2,5-DIHYDRO-4-HYDROXY-1-METHYL-5-OXO-2-(3-PYRIDINYL)1H-PYRROLE-3-CARBOXYLIC ACID ETHYL ESTER
Structure: 322C352D4449485944524F2D342D485944524F58592D312D4D455448594C2D352D4F584F2D322D28332D5059524944494E594C2931482D505952524F4C452D332D434152424F58594C4943204143494420455448594C2045535445522E6D6F6C0A20204368656D447261773132323130393031313832440A2031392032302020302020302020302020302020302020302020302020303939392056323030300A20202020302E303934382020202D312E3437343420202020302E30303030204E202020302020302020302020302020302020302020302020302020302020302020302020300A20202020302E303038362020202D302E3635333920202020302E303030302043202020302020302020302020302020302020302020302020302020302020302020302020300A20202020302E373632332020202D302E3331383420202020302E303030302043202020302020302020302020302020302020302020302020302020302020302020302020300A20202020312E333134332020202D302E3933313520202020302E303030302043202020302020302020302020302020302020302020302020302020302020302020302020300A20202020302E393031382020202D312E3634353920202020302E303030302043202020302020302020302020302020302020302020302020302020302020302020302020300A20202020302E3933333820202020302E3438383620202020302E303030302043202020302020302020302020302020302020302020302020302020302020302020302020300A20202020312E3731383420202020302E3734333520202020302E30303030204F202020302020302020302020302020302020302020302020302020302020302020302020300A20202020302E3332303720202020312E3034303620202020302E30303030204F202020302020302020302020302020302020302020302020302020302020302020302020300A2020202D302E3730353920202020302E3538333620202020302E303030302043202020302020302020302020302020302020302020302020302020302020302020302020300A2020202D302E373035392020202D302E3234313420202020302E303030302043202020302020302020302020302020302020302020302020302020302020302020302020300A2020202D312E343230332020202D302E3635333920202020302E303030302043202020302020302020302020302020302020302020302020302020302020302020302020300A2020202D322E313334382020202D302E3234313420202020302E303030302043202020302020302020302020302020302020302020302020302020302020302020302020300A2020202D322E3133343820202020302E3538333620202020302E303030302043202020302020302020302020302020302020302020302020302020302020302020302020300A2020202D312E3432303320202020302E3939363120202020302E30303030204E202020302020302020302020302020302020302020302020302020302020302020302020300A20202020312E323337342020202D322E3339393620202020302E30303030204F202020302020302020302020302020302020302020302020302020302020302020302020300A2020202D302E353138322020202D322E3032363520202020302E303030302043202020302020302020302020302020302020302020302020302020302020302020302020300A20202020322E313334382020202D302E3834353220202020302E30303030204F202020302020302020302020302020302020302020302020302020302020302020302020300A20202020302E3439323220202020312E3834373620202020302E303030302043202020302020302020302020302020302020302020302020302020302020302020302020300A2020202D302E3132303820202020322E3339393620202020302E303030302043202020302020302020302020302020302020302020302020302020302020302020302020300A2020312020322020312020302020202020200A2020322020332020312020302020202020200A2020332020342020322020302020202020200A2020342020352020312020302020202020200A2020312020352020312020302020202020200A2020362020372020322020302020202020200A2020362020382020312020302020202020200A2020332020362020312020302020202020200A2020392031302020312020302020202020200A2031302031312020322020302020202020200A2031312031322020312020302020202020200A2031322031332020322020302020202020200A2031332031342020312020302020202020200A2020392031342020322020302020202020200A2020322031302020312020302020202020200A2020352031352020322020302020202020200A2020312031362020312020302020202020200A2020342031372020312020302020202020200A2031382031392020312020302020202020200A2020382031382020312020302020202020200A4D2020454E44
Contributor: SUMITA Y, KYOTO COLLEGE OF PHARMACY
InstType: EI
InstName: HITACHI M-80
IoniMethod: _ENERGY 20 eV
IonPolarity: pos
Date: 2010-10-09 19:48:36+02:00
Num Peaks: 50
27 15 29 72 31 99 42 69 44 19 45 53 46 20 58 32 77 13 78 22 
79 55 80 10 92 13 103 90 104 88 105 59 106 55 108 24 110 15 118 13 
119 65 120 41 121 16 130 16 131 93 132 97 133 69 134 28 138 63 139 13 
147 11 148 13 159 35 160 13 161 67 162 11 176 31 187 17 189 999 190 245 
191 25 202 27 204 12 216 28 217 80 218 30 248 12 262 443 263 82 264 11 
