Name: MassBank: JP010266
MW: 279
Formula: C18H17NO2
Synonym: MassBank: JP010266
Synonym: METHYL 2,4-DIPHENYL-1-PYRROLINE-3-CARBOXYLATE(3,4-TRANS)
Synonym: METHYL (3S,4R)-2,4-DIPHENYL-1-PYRROLINE-3-CARBOXYLATE
Structure: 4D455448594C202833532C3452292D322C342D44495048454E594C2D312D505952524F4C494E452D332D434152424F58594C4154452E6D6F6C0A20204368656D447261773038313131303233313532440A2032312032332020302020302020302020302020302020302020302020303939392056323030300A2020202D302E303831332020202D312E3539383220202020302E30303030204E202020302020302020302020302020302020302020302020302020302020302020302020300A2020202D302E343933382020202D302E3838333820202020302E303030302043202020302020302020302020302020302020302020302020302020302020302020302020300A20202020302E303538322020202D302E3237303720202020302E303030302043202020302020302020302020302020302020302020302020302020302020302020302020300A20202020302E383131392020202D302E3630363220202020302E303030302043202020302020302020302020302020302020302020302020302020302020302020302020300A20202020302E373235362020202D312E3432363720202020302E303030302043202020302020302020302020302020302020302020302020302020302020302020302020300A2020202D302E3131333320202020302E3533363320202020302E303030302043202020302020302020302020302020302020302020302020302020302020302020302020300A20202020302E3439393820202020312E3038383320202020302E30303030204F202020302020302020302020302020302020302020302020302020302020302020302020300A2020202D302E3839383020202020302E3739313320202020302E30303030204F202020302020302020302020302020302020302020302020302020302020302020302020300A20202020312E353236332020202D302E3139333720202020302E303030302043202020302020302020302020302020302020302020302020302020302020302020302020300A20202020312E3532363320202020302E3633313320202020302E303030302043202020302020302020302020302020302020302020302020302020302020302020302020300A20202020322E3234303820202020312E3034333820202020302E303030302043202020302020302020302020302020302020302020302020302020302020302020302020300A20202020322E3935353320202020302E3633313320202020302E303030302043202020302020302020302020302020302020302020302020302020302020302020302020300A20202020322E393535332020202D302E3139333720202020302E303030302043202020302020302020302020302020302020302020302020302020302020302020302020300A20202020322E323430382020202D302E3630363220202020302E303030302043202020302020302020302020302020302020302020302020302020302020302020302020300A2020202D312E333134332020202D302E3739373520202020302E303030302043202020302020302020302020302020302020302020302020302020302020302020302020300A2020202D312E373939322020202D312E3436353020202020302E303030302043202020302020302020302020302020302020302020302020302020302020302020302020300A2020202D322E363139372020202D312E3337383720202020302E303030302043202020302020302020302020302020302020302020302020302020302020302020302020300A2020202D322E393535332020202D302E3632353020202020302E303030302043202020302020302020302020302020302020302020302020302020302020302020302020300A2020202D322E3437303420202020302E3034323420202020302E303030302043202020302020302020302020302020302020302020302020302020302020302020302020300A2020202D312E363439392020202D302E3034333820202020302E303030302043202020302020302020302020302020302020302020302020302020302020302020302020300A2020202D312E3036393520202020312E3539383220202020302E303030302043202020302020302020302020302020302020302020302020302020302020302020302020300A2020312020322020322020302020202020200A2020322020332020312020302020202020200A2020332020342020312020302020202020200A2020342020352020312020302020202020200A2020312020352020312020302020202020200A2020362020372020322020302020202020200A2020362020382020312020302020202020200A2020332020362020312020312020202020200A2020392031302020312020302020202020200A2031302031312020322020302020202020200A2031312031322020312020302020202020200A2031322031332020322020302020202020200A2031332031342020312020302020202020200A2020392031342020322020302020202020200A2020342020392020312020362020202020200A2031352031362020312020302020202020200A2031362031372020322020302020202020200A2031372031382020312020302020202020200A2031382031392020322020302020202020200A2031392032302020312020302020202020200A2031352032302020322020302020202020200A2020322031352020312020302020202020200A2020382032312020312020302020202020200A4D2020454E44
Contributor: KANEMASA S, INST. OF ADVANCED MATERIAL STUDY KYUSHU UNIV.
InstType: EI
InstName: JEOL JMS-01-SG-2
IoniMethod: _ENERGY 75 eV
IonPolarity: pos
Date: 2010-10-09 19:48:36+02:00
Num Peaks: 62
39 172 45 89 50 129 51 369 52 95 55 108 59 130 63 173 65 124 75 86 
76 173 77 856 78 283 79 93 89 238 90 239 91 379 102 132 103 594 104 906 
105 422 116 286 117 999 118 230 131 282 132 114 133 218 148 78 151 19 153 25 
160 22 162 20 163 37 165 48 174 54 175 28 176 43 177 31 178 57 179 31 
188 22 189 101 190 79 191 74 192 123 193 25 204 18 206 30 216 25 217 59 
218 45 219 30 220 35 222 42 236 30 246 122 247 22 277 113 278 24 279 20 
295 108 296 37 
