Name: 2-OXAZOLIDONE
MW: 87
Formula: C3H5NO2
Synonym: MassBank: JP010407
Synonym: 2-OXAZOLIDONE
Structure: 310A31370A322D4F58415A4F4C49444F4E452E6D6F6C0A20204368656D447261773032323131303132333232440A2020362020362020302020302020302020302020302020302020302020303939392056323030300A2020202D302E3236323720202020302E3636373420202020302E30303030204F202020302020302020302020302020302020302020302020302020302020302020302020300A20202020302E3232323320202020302E3030303020202020302E303030302043202020302020302020302020302020302020302020302020302020302020302020302020300A2020202D302E323632372020202D302E3636373420202020302E30303030204E202020302020302020302020302020302020302020302020302020302020302020302020300A2020202D312E303437332020202D302E3431323520202020302E303030302043202020302020302020302020302020302020302020302020302020302020302020302020300A2020202D312E3034373320202020302E3431323520202020302E303030302043202020302020302020302020302020302020302020302020302020302020302020302020300A20202020312E3034373320202020302E3030303020202020302E30303030204F202020302020302020302020302020302020302020302020302020302020302020302020300A2020312020322020312020302020202020200A2020322020332020312020302020202020200A2020332020342020312020302020202020200A2020342020352020312020302020202020200A2020312020352020312020302020202020200A2020322020362020322020302020202020200A4D2020454E44
Contributor: MASS SPECTROSCOPY SOC. OF JAPAN (MSSJ)
InstType: EI
InstName: HITACHI RMU-6M
IoniMethod: _ENERGY 20 eV
IonPolarity: pos
Date: 2010-10-09 19:48:36+02:00
Num Peaks: 32
39 10 40 60 41 290 42 29 43 80 44 50 45 10 54 1 55 100 56 180 
57 240 58 14 59 590 60 110 61 10 67 3 68 30 69 90 70 70 71 10 
72 30 73 40 74 20 81 4 82 30 83 60 84 40 85 7 86 60 87 999 
88 50 89 10 
