Name: META-BROMOANISOLE
MW: 185
Formula: C7H7BrO
Synonym: MassBank: JP011782
Synonym: META-BROMOANISOLE
Synonym: 3-METHOXYBROMOBENZENE
Structure: 310A32330A4D4554412D42524F4D4F414E49534F4C452E6D6F6C0A20204368656D447261773032323231303233313132440A2020392020392020302020302020302020302020302020302020302020303939392056323030300A20202020312E373836322020202D302E3431323520202020302E303030302043202020302020302020302020302020302020302020302020302020302020302020302020300A20202020312E303731372020202D302E3832353020202020302E30303030204F202020302020302020302020302020302020302020302020302020302020302020302020300A20202020302E333537322020202D302E3431323520202020302E303030302043202020302020302020302020302020302020302020302020302020302020302020302020300A2020202D302E333537322020202D302E3832353020202020302E303030302043202020302020302020302020302020302020302020302020302020302020302020302020300A2020202D312E303731372020202D302E3431323520202020302E303030302043202020302020302020302020302020302020302020302020302020302020302020302020300A2020202D312E3037313720202020302E3431323520202020302E303030302043202020302020302020302020302020302020302020302020302020302020302020302020300A2020202D302E3335373220202020302E3832353020202020302E303030302043202020302020302020302020302020302020302020302020302020302020302020302020300A20202020302E3335373220202020302E3431323520202020302E303030302043202020302020302020302020302020302020302020302020302020302020302020302020300A2020202D312E373836322020202D302E3832353020202020302E303030302042722020302020302020302020302020302020302020302020302020302020302020302020300A2020312020322020312020302020202020200A2020322020332020312020302020202020200A2020332020342020312020302020202020200A2020342020352020322020302020202020200A2020352020362020312020302020202020200A2020362020372020322020302020202020200A2020372020382020312020302020202020200A2020332020382020322020302020202020200A2020352020392020312020302020202020200A4D2020454E44
Contributor: TAJIMA S, GUNMA COLLEGE OF TECHNOLOGY
InstType: EI
InstName: HITACHI M-80A
IoniMethod: _ENERGY 70 eV
IonPolarity: pos
Date: 2010-10-09 19:48:36+02:00
Num Peaks: 39
29 35 37 45 38 122 39 50 49 20 50 154 51 66 53 30 61 44 62 95 
63 330 64 210 65 16 73 23 74 87 75 109 76 86 77 581 78 66 79 94 
92 232 93 29 107 53 117 37 119 37 143 248 144 17 145 228 155 46 156 136 
157 64 158 133 159 23 171 49 173 49 186 999 187 86 188 969 189 74 
