Name: MassBank: JP010235
MW: 392
Formula: C23H24N2O4
Synonym: MassBank: JP010235
Synonym: 4-ETHOXYCARBONYL-5-METHYL-6-PHENYL-2-(PARA-TOLYL)PERHYDROPYRROLO(3,4-C)PYRROLE-1,3-DIONE (3A,4-TRANS-6,6A-CIS)
Synonym: (4R,6R)-4-ETHOXYCARBONYL-5-METHYL-6-PHENYL-2-(PARA-TOLYL)PERHYDROPYRROLO(3,4-C)PYRROLE-1,3-DIONE
Structure: 2834522C3652292D342D4554484F5859434152424F4E594C2D352D4D455448594C2D362D5048454E594C2D322D28504152412D544F4C594C29504552485944524F505952524F4C4F28332C342D4329505952524F4C452D312C332D44494F4E452E6D6F6C0A20204368656D447261773130323130393138333132440A2033332033362020302020302020302020302020302020302020302020303939392056323030300A2020202D312E3838303020202020312E3739383420202020302E303030302043202020302020302020302020302020302020302020302020302020302020302020302020300A2020202D302E3531313920202020302E3133343720202020302E303030302043202020302020302020302020302020302020302020302020302020302020302020302020300A2020202D302E3531313920202020302E3935393720202020302E303030302043202020302020302020302020302020302020302020302020302020302020302020302020300A2020202D312E3239363520202020312E3231343620202020302E303030302043202020302020302020302020302020302020302020302020302020302020302020302020300A2020202D312E3738313520202020302E3534373220202020302E30303030204E202020302020302020302020302020302020302020302020302020302020302020302020300A2020202D312E323936352020202D302E3132303320202020302E303030302043202020302020302020302020302020302020302020302020302020302020302020302020300A20202020302E323732372020202D302E3132303320202020302E303030302043202020302020302020302020302020302020302020302020302020302020302020302020300A20202020302E3735373620202020302E3534373220202020302E30303030204E202020302020302020302020302020302020302020302020302020302020302020302020300A20202020302E3237323720202020312E3231343620202020302E303030302043202020302020302020302020302020302020302020302020302020302020302020302020300A20202020302E3532373620202020312E3939393220202020302E30303030204F202020302020302020302020302020302020302020302020302020302020302020302020300A20202020312E3538323620202020302E3534373220202020302E303030302043202020302020302020302020302020302020302020302020302020302020302020302020300A20202020302E353237362020202D302E3930343920202020302E30303030204F202020302020302020302020302020302020302020302020302020302020302020302020300A2020202D302E3531313920202020312E3738343720202020302E303030302048202020302020302020302020302020302020302020302020302020302020302020302020300A2020202D302E353131392020202D302E3639303320202020302E303030302048202020302020302020302020302020302020302020302020302020302020302020302020300A2020202D312E3038333020202020322E3031313520202020302E303030302048202020302020302020302020302020302020302020302020302020302020302020302020300A2020202D312E323936352020202D302E3934353320202020302E303030302043202020302020302020302020302020302020302020302020302020302020302020302020300A2020202D312E383739392020202D302E3730333620202020302E303030302048202020302020302020302020302020302020302020302020302020302020302020302020300A2020202D322E303131302020202D312E3335373820202020302E303030302043202020302020302020302020302020302020302020302020302020302020302020302020300A2020202D322E303131302020202D322E3138323820202020302E303030302043202020302020302020302020302020302020302020302020302020302020302020302020300A2020202D312E323936352020202D322E3539353320202020302E303030302043202020302020302020302020302020302020302020302020302020302020302020302020300A2020202D302E353832312020202D322E3138323820202020302E303030302043202020302020302020302020302020302020302020302020302020302020302020302020300A2020202D302E353832312020202D312E3335373820202020302E303030302043202020302020302020302020302020302020302020302020302020302020302020302020300A20202020312E393935312020202D302E3136373320202020302E303030302043202020302020302020302020302020302020302020302020302020302020302020302020300A20202020322E383230312020202D302E3136373320202020302E303030302043202020302020302020302020302020302020302020302020302020302020302020302020300A20202020332E3233323620202020302E3534373220202020302E303030302043202020302020302020302020302020302020302020302020302020302020302020302020300A20202020322E3832303120202020312E3236313620202020302E303030302043202020302020302020302020302020302020302020302020302020302020302020302020300A20202020312E3939353120202020312E3236313620202020302E303030302043202020302020302020302020302020302020302020302020302020302020302020302020300A2020202D322E3637373020202020312E3538353120202020302E30303030204F202020302020302020302020302020302020302020302020302020302020302020302020300A2020202D312E3636363320202020322E3539353320202020302E30303030204F202020302020302020302020302020302020302020302020302020302020302020302020300A2020202D332E3236303220202020322E3136383620202020302E303030302043202020302020302020302020302020302020302020302020302020302020302020302020300A2020202D342E3035373220202020312E3935353320202020302E303030302043202020302020302020302020302020302020302020302020302020302020302020302020300A20202020342E3035373220202020302E3534373220202020302E303030302043202020302020302020302020302020302020302020302020302020302020302020302020300A2020202D322E3630373420202020302E3534373220202020302E303030302043202020302020302020302020302020302020302020302020302020302020302020302020300A2020322020332020312020302020202020200A2020332020342020312020302020202020200A2020342020352020312020302020202020200A2020352020362020312020302020202020200A2020362020322020312020302020202020200A2020322020372020312020302020202020200A2020372020382020312020302020202020200A2020382020392020312020302020202020200A2020392020332020312020302020202020200A2020392031302020322020302020202020200A2020382031312020312020302020202020200A2020372031322020322020302020202020200A2020332031332020312020362020202020200A2020322031342020312020362020202020200A2020342031352020312020362020202020200A2020362031362020312020362020202020200A2020362031372020312020312020202020200A2031362031382020322020302020202020200A2031382031392020312020302020202020200A2031392032302020322020302020202020200A2032302032312020312020302020202020200A2032312032322020322020302020202020200A2032322031362020312020302020202020200A2031312032332020322020302020202020200A2032332032342020312020302020202020200A2032342032352020322020302020202020200A2032352032362020312020302020202020200A2032362032372020322020302020202020200A2032372031312020312020302020202020200A2020342020312020312020312020202020200A2020312032382020312020302020202020200A2020312032392020322020302020202020200A2032382033302020312020302020202020200A2033302033312020312020302020202020200A2032352033322020312020302020202020200A2020352033332020312020302020202020200A4D202053545920203120202031205355500A4D2020534C4220203120202031202020310A4D202053414C20202031202031202033320A4D202053424C20202031202031202033350A4D2020534D5420202031204D650A4D2020534256202020312033352020202D362E3834353220202020362E353331360A4D202053545920203120202032205355500A4D2020534C4220203120202032202020320A4D202053414C20202032202031202033330A4D202053424C20202032202031202033360A4D2020534D5420202032204D650A4D2020534256202020322033362020202D382E3439353720202020362E353331360A4D2020454E44
Contributor: KANEMASA S, INST. OF ADVANCED MATERIAL STUDY KYUSHU UNIV.
InstType: EI
InstName: JEOL JMS-01-SG-2
IoniMethod: _ENERGY 75 eV
IonPolarity: pos
Date: 2010-10-09 19:48:36+02:00
Num Peaks: 34
39 19 42 122 43 11 51 15 65 16 77 36 78 15 81 15 89 14 90 15 
91 83 103 15 104 15 115 59 116 31 117 41 118 23 128 14 129 11 131 27 
132 29 133 17 143 103 144 17 156 18 157 28 158 417 159 55 160 49 319 999 
320 247 321 31 377 14 392 30 
