Name: MassBank: JP010925
MW: 152
Formula: C10H16O
Synonym: MassBank: JP010925
Synonym: 2,3,3-TRIMETHYLCYCLOPENTENE-4-ACETALDEHYDE
Structure: 322C332C332D5452494D455448594C4359434C4F50454E54454E452D342D41434554414C4445485944452E6D6F6C0A20204368656D447261773132323030393037303732440A2031312031312020302020302020302020302020302020302020302020303939392056323030300A2020202D302E393031382020202D312E3032313020202020302E303030302043202020302020302020302020302020302020302020302020302020302020302020302020300A2020202D312E333134332020202D302E3330363520202020302E303030302043202020302020302020302020302020302020302020302020302020302020302020302020300A2020202D302E3736323320202020302E3330363520202020302E303030302043202020302020302020302020302020302020302020302020302020302020302020302020300A2020202D302E303038362020202D302E3032393020202020302E303030302043202020302020302020302020302020302020302020302020302020302020302020302020300A2020202D302E303934382020202D302E3834393520202020302E303030302043202020302020302020302020302020302020302020302020302020302020302020302020300A20202020312E343230332020202D302E3032393020202020302E303030302043202020302020302020302020302020302020302020302020302020302020302020302020300A20202020302E3730353920202020302E3338333520202020302E303030302043202020302020302020302020302020302020302020302020302020302020302020302020300A20202020322E3133343820202020302E3338333520202020302E30303030204F202020302020302020302020302020302020302020302020302020302020302020302020300A2020202D312E3432393720202020302E3739313520202020302E303030302043202020302020302020302020302020302020302020302020302020302020302020302020300A2020202D302E3334393820202020312E3032313020202020302E303030302043202020302020302020302020302020302020302020302020302020302020302020302020300A2020202D322E313334382020202D302E3232303320202020302E303030302043202020302020302020302020302020302020302020302020302020302020302020302020300A2020312020322020322020302020202020200A2020322020332020312020302020202020200A2020332020342020312020302020202020200A2020342020352020312020302020202020200A2020312020352020312020302020202020200A2020362020372020312020302020202020200A2020362020382020322020302020202020200A2020342020372020312020302020202020200A2020332020392020312020362020202020200A2020332031302020312020312020202020200A2020322031312020312020302020202020200A4D2020454E44
Contributor: KURARAY CO., LTD.
InstType: EI
InstName: JEOL JMS-D-300
IoniMethod: _ENERGY 70 eV
IonPolarity: pos
Date: 2010-10-09 19:48:36+02:00
Num Peaks: 51
27 86 28 28 29 76 49 311 51 52 52 23 53 136 54 21 55 221 56 14 
57 29 62 4 63 16 65 81 66 20 67 429 68 49 69 113 70 14 77 219 
78 41 79 179 80 45 81 293 82 36 83 37 89 3 91 309 92 56 93 814 
94 150 95 691 96 77 97 10 103 10 104 6 105 45 106 14 107 172 108 999 
109 643 110 63 117 6 119 114 120 9 121 13 122 2 123 21 137 51 138 9 
152 37 
