Name: TRI CHLORFON
MW: 255
Formula: C4H8Cl3O4P
Synonym: MassBank: JP010742
Synonym: TRI CHLORFON
Synonym: O,O-DIMETHYL 2,2,2-TRICHLORO-1-HYDROXYETHYLPHOSPHONATE
Structure: 4F2C4F2D44494D455448594C20322C322C322D54524943484C4F524F2D312D485944524F5859455448594C50484F5350484F4E4154452E6D6F6C0A20204368656D447261773038313231303033313432440A2031322031312020302020302020302020302020302020302020302020303939392056323030300A2020202D302E303935372020202D302E3436373820202020302E303030302043202020302020302020302020302020302020302020302020302020302020302020302020300A20202020302E363138382020202D302E3838303320202020302E303030302043202020302020302020302020302020302020302020302020302020302020302020302020300A2020202D302E3039353720202020302E3335373220202020302E303030302050202020302020302020302020302020302020302020302020302020302020302020302020300A2020202D302E3932303720202020302E3335373220202020302E30303030204F202020302020302020302020302020302020302020302020302020302020302020302020300A20202020302E3732393320202020302E3335373220202020302E30303030204F202020302020302020302020302020302020302020302020302020302020302020302020300A2020202D302E3039353720202020312E3138323220202020302E30303030204F202020302020302020302020302020302020302020302020302020302020302020302020300A2020202D302E383130322020202D302E3838303320202020302E30303030204F202020302020302020302020302020302020302020302020302020302020302020302020300A20202020312E303331332020202D302E3136353820202020302E3030303020436C2020302020302020302020302020302020302020302020302020302020302020302020300A20202020312E333333322020202D312E3239323820202020302E3030303020436C2020302020302020302020302020302020302020302020302020302020302020302020300A20202020302E323036322020202D312E3539343720202020302E3030303020436C2020302020302020302020302020302020302020302020302020302020302020302020300A20202020302E3631383820202020312E3539343720202020302E303030302043202020302020302020302020302020302020302020302020302020302020302020302020300A2020202D312E333333322020202D302E3335373220202020302E303030302043202020302020302020302020302020302020302020302020302020302020302020302020300A2020312020322020312020302020202020200A2020332020342020312020302020202020200A2020332020352020322020302020202020200A2020332020362020312020302020202020200A2020312020332020312020302020202020200A2020312020372020312020302020202020200A2020322020382020312020302020202020200A2020322020392020312020302020202020200A2020322031302020312020302020202020200A2020362031312020312020302020202020200A2020342031322020312020302020202020200A4D2020454E44
Contributor: HASHIMOTO K, KYOTO COLLEGE OF PHARMACY
InstType: EI
InstName: HITACHI M-80
IoniMethod: _ENERGY 20 eV
IonPolarity: pos
Date: 2010-10-09 19:48:36+02:00
Num Peaks: 60
15 75 29 90 31 122 32 40 33 27 36 96 38 29 47 109 48 75 49 28 
50 48 55 11 63 28 65 12 76 36 77 42 78 71 79 617 80 170 82 207 
83 95 84 131 85 57 86 21 93 322 94 11 95 150 96 15 97 24 109 999 
110 528 111 136 112 241 113 120 114 160 115 30 116 31 117 19 118 27 119 21 
120 25 127 26 130 25 132 23 139 333 140 12 145 438 146 17 147 144 148 11 
169 39 171 12 185 92 186 11 187 31 192 19 194 12 221 77 223 51 256 1 
