Name: MassBank: JP010319
MW: 172
Formula: C8H12O4
Synonym: MassBank: JP010319
Synonym: TRANS-1,2-CYCLOHEXANEDICARBOXYLIC ACID
Structure: 5452414E532D312C322D4359434C4F484558414E454449434152424F58594C494320414349442E6D6F6C0A20204368656D447261773038313231303037343432440A2031322031322020302020302020302020302020302020302020302020303939392056323030300A2020202D302E323036322020202D302E3731343520202020302E303030302043202020302020302020302020302020302020302020302020302020302020302020302020300A20202020302E3230363220202020302E3030303020202020302E303030302043202020302020302020302020302020302020302020302020302020302020302020302020300A20202020312E3033313320202020302E3030303020202020302E303030302043202020302020302020302020302020302020302020302020302020302020302020302020300A20202020312E343433382020202D302E3731343520202020302E303030302043202020302020302020302020302020302020302020302020302020302020302020302020300A20202020312E303331332020202D312E3432383920202020302E303030302043202020302020302020302020302020302020302020302020302020302020302020302020300A20202020302E323036322020202D312E3432383920202020302E303030302043202020302020302020302020302020302020302020302020302020302020302020302020300A2020202D312E303331332020202D302E3731343520202020302E303030302043202020302020302020302020302020302020302020302020302020302020302020302020300A2020202D312E3434333820202020302E3030303020202020302E30303030204F202020302020302020302020302020302020302020302020302020302020302020302020300A2020202D312E343433382020202D312E3432383920202020302E30303030204F202020302020302020302020302020302020302020302020302020302020302020302020300A2020202D302E3230363220202020302E3731343520202020302E303030302043202020302020302020302020302020302020302020302020302020302020302020302020300A2020202D312E3033313320202020302E3731343520202020302E30303030204F202020302020302020302020302020302020302020302020302020302020302020302020300A20202020302E3230363220202020312E3432383920202020302E30303030204F202020302020302020302020302020302020302020302020302020302020302020302020300A2020312020322020312020302020202020200A2020322020332020312020302020202020200A2020332020342020312020302020202020200A2020342020352020312020302020202020200A2020352020362020312020302020202020200A2020312020362020312020302020202020200A2020372020382020322020302020202020200A2020372020392020312020302020202020200A2020312020372020312020312020202020200A2031302031312020322020302020202020200A2031302031322020312020302020202020200A2020322031302020312020362020202020200A4D2020454E44
Contributor: TAJIMA S, GUNMA COLLEGE OF TECHNOLOGY
InstType: EI
InstName: HITACHI M-80A
IoniMethod: _ENERGY 70 eV
IonPolarity: pos
Date: 2010-10-09 19:48:36+02:00
Num Peaks: 72
15 29 17 11 18 47 19 11 26 42 27 335 29 149 31 55 38 25 39 390 
40 59 41 461 42 50 43 217 44 13 45 355 46 13 47 22 50 31 51 74 
52 44 53 207 54 274 55 216 56 100 57 51 58 11 59 11 60 79 61 43 
63 12 65 38 66 75 67 435 68 178 69 80 70 16 71 24 73 193 74 17 
77 75 78 16 79 174 80 240 81 999 82 320 83 70 84 13 85 26 86 54 
87 41 94 12 95 25 97 58 98 15 99 192 100 34 108 200 109 93 110 44 
111 32 112 26 113 15 123 15 126 364 127 76 128 448 129 35 136 19 154 90 
155 86 173 11 
