Name: MassBank: JP012023
MW: 174
Formula: C8H22Si2
Synonym: MassBank: JP012023
Synonym: 1,4-BIS(DIMETHYLSILYL)BUTANE
Structure: 312C342D4249532844494D455448594C53494C594C29425554414E452E6D6F6C0A20204368656D447261773131313430393232333532440A2031302020392020302020302020302020302020302020302020302020303939392056323030300A2020202D312E3037313720202020302E3230363320202020302E303030302043202020302020302020302020302020302020302020302020302020302020302020302020300A2020202D302E333537322020202D302E3230363320202020302E303030302043202020302020302020302020302020302020302020302020302020302020302020302020300A20202020302E3335373220202020302E3230363320202020302E303030302043202020302020302020302020302020302020302020302020302020302020302020302020300A20202020312E303731372020202D302E3230363220202020302E303030302043202020302020302020302020302020302020302020302020302020302020302020302020300A20202020312E3738363220202020302E3230363320202020302E303030302053692020302020302020302020302020302020302020302020302020302020302020302020300A20202020312E3738363220202020312E3033313320202020302E303030302043202020302020302020302020302020302020302020302020302020302020302020302020300A20202020322E353030362020202D302E3230363220202020302E303030302043202020302020302020302020302020302020302020302020302020302020302020302020300A2020202D312E373836322020202D302E3230363320202020302E303030302053692020302020302020302020302020302020302020302020302020302020302020302020300A2020202D312E373836322020202D312E3033313320202020302E303030302043202020302020302020302020302020302020302020302020302020302020302020302020300A2020202D322E3530303620202020302E3230363220202020302E303030302043202020302020302020302020302020302020302020302020302020302020302020302020300A2020312020322020312020302020202020200A2020322020332020312020302020202020200A2020332020342020312020302020202020200A2020352020362020312020302020202020200A2020352020372020312020302020202020200A2020342020352020312020302020202020200A2020382020392020312020302020202020200A2020382031302020312020302020202020200A2020312020382020312020302020202020200A4D2020454E44
Contributor: YAMAMOTO M, DEP. CHEMISTRY, FAC. SCIENCE, NARA WOMEN'S UNIV.
InstType: EI
InstName: HITACHI RMU-6M
IoniMethod: _ENERGY 70 eV
IonPolarity: pos
Date: 2010-10-09 19:48:36+02:00
Num Peaks: 40
28 14 29 23 31 88 41 14 43 130 44 32 45 86 55 19 57 30 58 81 
59 999 60 67 61 35 71 51 72 63 73 97 74 14 85 37 86 164 87 280 
88 29 97 37 98 23 99 319 100 34 101 14 112 10 113 34 114 100 115 60 
116 30 117 13 144 90 145 16 157 30 159 74 160 12 173 58 174 44 175 16 
