Name: KETOEMBLIDE
MW: 360
Formula: C21H28O5
Synonym: MassBank: JP010840
Synonym: KETOEMBLIDE
Structure: 303935345F4B45544F454D424C4944452E6D6F6C0A20204368656D447261773130323031303139313432440A2032362032372020302020302020302020302020302020302020302020303939392056323030300A2020202D322E343234372020202D302E3430333520202020302E303030302043202020302020302020302020302020302020302020302020302020302020302020302020300A2020202D322E343234372020202D312E3232383520202020302E303030302043202020302020302020302020302020302020302020302020302020302020302020302020300A2020202D312E383431342020202D312E3831313920202020302E303030302043202020302020302020302020302020302020302020302020302020302020302020302020300A2020202D312E303136342020202D312E3831313920202020302E303030302043202020302020302020302020302020302020302020302020302020302020302020302020300A2020202D302E343333302020202D312E3232383520202020302E303030302043202020302020302020302020302020302020302020302020302020302020302020302020300A2020202D302E343333302020202D302E3430333520202020302E303030302043202020302020302020302020302020302020302020302020302020302020302020302020300A2020202D312E3031363420202020302E3137393820202020302E303030302043202020302020302020302020302020302020302020302020302020302020302020302020300A2020202D312E3834313420202020302E3137393820202020302E303030302043202020302020302020302020302020302020302020302020302020302020302020302020300A20202020302E313530342020202D312E3831313920202020302E303030302043202020302020302020302020302020302020302020302020302020302020302020302020300A20202020302E393735342020202D312E3831313920202020302E303030302043202020302020302020302020302020302020302020302020302020302020302020302020300A20202020312E353538372020202D312E3232383520202020302E303030302043202020302020302020302020302020302020302020302020302020302020302020302020300A20202020312E353538372020202D302E3430333520202020302E303030302043202020302020302020302020302020302020302020302020302020302020302020302020300A20202020302E3937353420202020302E3137393820202020302E303030302043202020302020302020302020302020302020302020302020302020302020302020302020300A20202020302E3135303420202020302E3137393820202020302E303030302043202020302020302020302020302020302020302020302020302020302020302020302020300A2020202D302E3730303720202020302E3934323020202020302E30303030204F202020302020302020302020302020302020302020302020302020302020302020302020300A20202020312E3239313120202020302E3934323020202020302E303030302043202020302020302020302020302020302020302020302020302020302020302020302020300A20202020322E3130393020202020312E3034393720202020302E30303030204F202020302020302020302020302020302020302020302020302020302020302020302020300A20202020302E3738383820202020312E3539363520202020302E30303030204F202020302020302020302020302020302020302020302020302020302020302020302020300A20202020322E3432343720202020312E3831313920202020302E303030302043202020302020302020302020302020302020302020302020302020302020302020302020300A20202020302E363332312020202D312E3036313720202020302E303030302043202020302020302020302020302020302020302020302020302020302020302020302020300A2020202D302E313839322020202D302E3938333920202020302E303030302043202020302020302020302020302020302020302020302020302020302020302020302020300A20202020312E313130322020202D302E3338393320202020302E303030302043202020302020302020302020302020302020302020302020302020302020302020302020300A2020202D322E3135373120202020302E3934323020202020302E303030302043202020302020302020302020302020302020302020302020302020302020302020302020300A2020202D312E363837322020202D302E3633303620202020302E30303030204F202020302020302020302020302020302020302020302020302020302020302020302020300A2020202D302E393436302020202D302E3939333020202020302E303030302043202020302020302020302020302020302020302020302020302020302020302020302020300A2020202D312E303032352020202D302E3136393920202020302E30303030204F202020302020302020302020302020302020302020302020302020302020302020302020300A2020312020322020312020302020202020200A2020322020332020312020302020202020200A2020332020342020322020302020202020200A2020342020352020312020302020202020200A2020362020372020312020302020202020200A2020372020382020312020302020202020200A2020382020312020312020302020202020200A2020352020392020312020302020202020200A2020392031302020312020302020202020200A2031302031312020322020302020202020200A2031312031322020312020302020202020200A2031322031332020322020302020202020200A2031332031342020312020302020202020200A2031342020362020312020302020202020200A2020372031352020322020302020202020200A2031332031362020312020302020202020200A2031362031372020312020302020202020200A2031362031382020322020302020202020200A2031372031392020312020302020202020200A2031302032302020312020302020202020200A2032302032312020312020302020202020200A2032302032322020312020302020202020200A2020382032332020312020312020202020200A2020382032342020312020362020202020200A2032342032352020312020302020202020200A2020342032352020312020362020202020200A2032352032362020322020302020202020200A4D2020454E44
Contributor: HAMAMATSU UNIV. SCHOOL OF MEDICINE
InstType: EI
InstName: HITACHI RMU-6L
IoniMethod: _ENERGY 70 eV
IonPolarity: pos
Date: 2010-10-09 19:48:36+02:00
Num Peaks: 161
41 253 42 34 43 389 44 1 45 24 47 365 48 173 49 16 50 50 51 24 
52 16 53 8 54 15 55 98 57 25 58 2 59 56 65 49 66 24 67 9 
68 19 69 105 70 17 71 3 72 12 77 107 78 29 79 10 80 16 81 55 
82 43 83 999 84 115 85 666 86 65 87 9 91 151 92 29 93 57 94 2 
95 58 96 12 97 19 103 2 104 13 105 72 106 23 107 4 108 17 109 30 
110 27 111 2 115 28 116 12 117 33 118 3 119 66 120 24 121 42 122 2 
123 20 124 13 125 12 127 1 128 20 129 29 130 11 131 3 132 12 133 33 
134 24 135 3 136 13 137 34 138 15 141 2 143 23 145 29 146 12 147 4 
148 33 149 40 150 12 151 2 152 58 153 12 155 15 157 2 159 26 160 16 
161 28 162 2 163 16 165 18 166 13 169 1 171 25 172 13 173 23 175 2 
177 13 179 17 185 17 186 1 187 28 188 14 189 35 190 2 191 12 192 16 
197 15 199 3 200 15 201 25 202 15 203 1 207 11 211 13 213 16 214 1 
215 30 216 13 217 15 219 1 227 13 228 10 229 24 230 2 231 20 239 17 
241 15 242 2 243 30 244 16 249 12 255 1 257 21 258 12 267 18 268 1 
275 17 282 13 283 13 284 1 285 18 289 32 290 7 300 1 301 9 313 9 
314 6 315 0 317 35 318 7 319 2 328 12 329 39 330 9 332 3 360 3 
361 5 
