Name: FENITROTHION
MW: 277
Formula: C9H12NO5PS
Synonym: MassBank: JP010747
Synonym: FENITROTHION
Synonym: O,O-DIMETHYL O-4-NITRO-M-TOLYL PHOSPHOROTHIOATE
Structure: 4F2C4F2D44494D455448594C204F2D28332D4D455448594C2D342D4E4954524F5048454E594C292050484F5350484F524F5448494F4154452E6D6F6C0A20204368656D447261773038313231303033313432440A2031372031372020302020302020302020302020302020302020302020303939392056323030300A20202020312E343238392020202D302E3637343020202020302E303030302050202020302020302020302020302020302020302020302020302020302020302020302020300A20202020322E313433342020202D302E3236313520202020302E30303030204F202020302020302020302020302020302020302020302020302020302020302020302020300A20202020312E3031363420202020302E3034303520202020302E30303030204F202020302020302020302020302020302020302020302020302020302020302020302020300A20202020302E373134352020202D312E3038363520202020302E30303030204F202020302020302020302020302020302020302020302020302020302020302020302020300A20202020312E383431342020202D312E3338383520202020302E303030302053202020302020302020302020302020302020302020302020302020302020302020302020300A2020202D302E303030302020202D302E3637343020202020302E303030302043202020302020302020302020302020302020302020302020302020302020302020302020300A2020202D302E373134352020202D312E3038363520202020302E303030302043202020302020302020302020302020302020302020302020302020302020302020302020300A2020202D312E343238392020202D302E3637343020202020302E303030302043202020302020302020302020302020302020302020302020302020302020302020302020300A2020202D312E3432383920202020302E3135313020202020302E303030302043202020302020302020302020302020302020302020302020302020302020302020302020300A2020202D302E3731343520202020302E3536333520202020302E303030302043202020302020302020302020302020302020302020302020302020302020302020302020300A20202020302E3030303020202020302E3135313020202020302E303030302043202020302020302020302020302020302020302020302020302020302020302020302020300A2020202D322E3134333420202020302E3536333520202020302E30303030204E202020302020332020302020302020302020302020302020302020302020302020302020300A2020202D322E3134333420202020312E3338383520202020302E30303030204F202020302020302020302020302020302020302020302020302020302020302020302020300A2020202D322E3835373920202020302E3135313020202020302E30303030204F202020302020352020302020302020302020302020302020302020302020302020302020300A2020202D322E313433342020202D312E3038363520202020302E303030302043202020302020302020302020302020302020302020302020302020302020302020302020300A20202020322E383537392020202D302E3637343020202020302E303030302043202020302020302020302020302020302020302020302020302020302020302020302020300A20202020312E3432383920202020302E3735343920202020302E303030302043202020302020302020302020302020302020302020302020302020302020302020302020300A2020312020322020312020302020202020200A2020312020332020312020302020202020200A2020312020342020312020302020202020200A2020312020352020322020302020202020200A2020362020372020312020302020202020200A2020372020382020322020302020202020200A2020382020392020312020302020202020200A2020392031302020322020302020202020200A2031302031312020312020302020202020200A2020362031312020322020302020202020200A2031322031332020322020302020202020200A2031322031342020312020302020202020200A2020392031322020312020302020202020200A2020382031352020312020302020202020200A2020342020362020312020302020202020200A2020322031362020312020302020202020200A2020332031372020312020302020202020200A4D202043484720203220203132202020312020313420202D310A4D2020454E44
Contributor: HASHIMOTO K, KYOTO COLLEGE OF PHARMACY
InstType: EI
InstName: HITACHI M-80
IoniMethod: _ENERGY 20 eV
IonPolarity: pos
Date: 2010-10-09 19:48:36+02:00
Num Peaks: 40
47 28 62 16 77 11 79 94 80 16 91 11 93 104 96 18 109 758 110 27 
120 37 121 42 122 21 123 20 124 15 125 718 126 23 127 57 136 40 137 11 
150 48 151 17 152 35 153 15 169 18 199 11 214 46 216 10 228 13 230 15 
231 37 232 11 246 23 247 19 260 346 261 46 262 26 277 999 278 112 279 61 
