Name: 5-PARA-NITROPHENYL-3-PHENYLOXAZOLIDINE
MW: 270
Formula: C15H14N2O3
Synonym: MassBank: JP010175
Synonym: 5-PARA-NITROPHENYL-3-PHENYLOXAZOLIDINE
Structure: 352D504152412D4E4954524F5048454E594C2D332D5048454E594C4F58415A4F4C4944494E452E6D6F6C0A20204368656D447261773034323331303037333332440A2032302032322020302020302020302020302020302020302020302020303939392056323030300A20202020302E363632312020202D312E3431313620202020302E30303030204F202020302020302020302020302020302020302020302020302020302020302020302020300A20202020312E343436372020202D312E3135363720202020302E303030302043202020302020302020302020302020302020302020302020302020302020302020302020300A20202020312E343436372020202D302E3333313720202020302E30303030204E202020302020302020302020302020302020302020302020302020302020302020302020300A20202020302E363632312020202D302E3037363720202020302E303030302043202020302020302020302020302020302020302020302020302020302020302020302020300A20202020302E313737322020202D302E3734343220202020302E303030302043202020302020302020302020302020302020302020302020302020302020302020302020300A20202020322E3131343220202020302E3135333220202020302E303030302043202020302020302020302020302020302020302020302020302020302020302020302020300A20202020322E383637392020202D302E3138323320202020302E303030302043202020302020302020302020302020302020302020302020302020302020302020302020300A20202020332E3533353320202020302E3330323620202020302E303030302043202020302020302020302020302020302020302020302020302020302020302020302020300A20202020332E3434393120202020312E3132333120202020302E303030302043202020302020302020302020302020302020302020302020302020302020302020302020300A20202020322E3639353420202020312E3435383620202020302E303030302043202020302020302020302020302020302020302020302020302020302020302020302020300A20202020322E3032373920202020302E3937333720202020302E303030302043202020302020302020302020302020302020302020302020302020302020302020302020300A2020202D302E363437382020202D302E3734343220202020302E303030302043202020302020302020302020302020302020302020302020302020302020302020302020300A2020202D312E303630332020202D302E3032393720202020302E303030302043202020302020302020302020302020302020302020302020302020302020302020302020300A2020202D312E383835332020202D302E3032393720202020302E303030302043202020302020302020302020302020302020302020302020302020302020302020302020300A2020202D322E323937382020202D302E3734343220202020302E303030302043202020302020302020302020302020302020302020302020302020302020302020302020300A2020202D312E383835332020202D312E3435383620202020302E303030302043202020302020302020302020302020302020302020302020302020302020302020302020300A2020202D312E303630332020202D312E3435383620202020302E303030302043202020302020302020302020302020302020302020302020302020302020302020302020300A2020202D332E313232382020202D302E3734343220202020302E30303030204E202020302020332020302020302020302020302020302020302020302020302020302020300A2020202D332E353335332020202D302E3032393720202020302E30303030204F202020302020302020302020302020302020302020302020302020302020302020302020300A2020202D332E353335332020202D312E3435383620202020302E30303030204F202020302020352020302020302020302020302020302020302020302020302020302020300A2020312020322020312020302020202020200A2020322020332020312020302020202020200A2020332020342020312020302020202020200A2020342020352020312020302020202020200A2020312020352020312020302020202020200A2020362020372020312020302020202020200A2020372020382020322020302020202020200A2020382020392020312020302020202020200A2020392031302020322020302020202020200A2031302031312020312020302020202020200A2020362031312020322020302020202020200A2020332020362020312020302020202020200A2031322031332020312020302020202020200A2031332031342020322020302020202020200A2031342031352020312020302020202020200A2031352031362020322020302020202020200A2031362031372020312020302020202020200A2031322031372020322020302020202020200A2031382031392020322020302020202020200A2031382032302020312020302020202020200A2031352031382020312020302020202020200A2020352031322020312020302020202020200A4D202043484720203220203138202020312020323020202D310A4D2020454E44
Contributor: KANEMASA S, INST. OF ADVANCED MATERIAL STUDY KYUSHU UNIV.
InstType: EI
InstName: JEOL JMS-01-SG-2
IoniMethod: _ENERGY 75 eV
IonPolarity: pos
Date: 2010-10-09 19:48:36+02:00
Num Peaks: 20
38 50 41 37 51 114 63 43 65 66 77 346 78 71 89 55 90 44 91 999 
92 97 104 143 105 144 106 65 118 63 119 917 120 102 135 59 270 320 271 51 
