Name: MassBank: JP011741
MW: 426
Formula: C18H34S2Si4
Synonym: MassBank: JP011741
Synonym: 5,5'-BIS(PENTAMETHYLDISILANYL)-2,2'-BITHIOPHENE
Structure: 352C35272D4249532850454E54414D455448594C444953494C414E594C292D322C32272D42495448494F5048454E452E6D6F6C0A20204368656D447261773034323331303031313732440A2032342032352020302020302020302020302020302020302020302020303939392056323030300A20202020302E3335373220202020302E3230363320202020302E303030302043202020302020302020302020302020302020302020302020302020302020302020302020300A20202020302E3434333520202020312E3032363720202020302E303030302043202020302020302020302020302020302020302020302020302020302020302020302020300A20202020312E3235303420202020312E3139383320202020302E303030302043202020302020302020302020302020302020302020302020302020302020302020302020300A20202020312E3636323920202020302E3438333820202020302E303030302043202020302020302020302020302020302020302020302020302020302020302020302020300A20202020312E313130392020202D302E3132393320202020302E303030302053202020302020302020302020302020302020302020302020302020302020302020302020300A2020202D302E333537322020202D302E3230363320202020302E303030302043202020302020302020302020302020302020302020302020302020302020302020302020300A2020202D302E343433352020202D312E3032363720202020302E303030302043202020302020302020302020302020302020302020302020302020302020302020302020300A2020202D312E323530342020202D312E3139383320202020302E303030302043202020302020302020302020302020302020302020302020302020302020302020302020300A2020202D312E363632392020202D302E3438333820202020302E303030302043202020302020302020302020302020302020302020302020302020302020302020302020300A2020202D312E3131303920202020302E3132393320202020302E303030302053202020302020302020302020302020302020302020302020302020302020302020302020300A2020202D322E373239362020202D302E3337313720202020302E303030302053692020302020302020302020302020302020302020302020302020302020302020302020300A2020202D322E383135382020202D312E3139323220202020302E303030302053692020302020302020302020302020302020302020302020302020302020302020302020300A2020202D332E353530302020202D302E3238353420202020302E303030302043202020302020302020302020302020302020302020302020302020302020302020302020300A2020202D322E3634333320202020302E3434383820202020302E303030302043202020302020302020302020302020302020302020302020302020302020302020302020300A2020202D332E363336332020202D312E3130353920202020302E303030302043202020302020302020302020302020302020302020302020302020302020302020302020300A2020202D312E393935332020202D312E3237383420202020302E303030302043202020302020302020302020302020302020302020302020302020302020302020302020300A2020202D322E393032302020202D322E3031323620202020302E303030302043202020302020302020302020302020302020302020302020302020302020302020302020300A20202020322E3732393620202020302E3337313720202020302E303030302053692020302020302020302020302020302020302020302020302020302020302020302020300A20202020322E3831353820202020312E3139323220202020302E303030302053692020302020302020302020302020302020302020302020302020302020302020302020300A20202020332E3535303020202020302E3238353420202020302E303030302043202020302020302020302020302020302020302020302020302020302020302020302020300A20202020322E363433332020202D302E3434383820202020302E303030302043202020302020302020302020302020302020302020302020302020302020302020302020300A20202020312E3939353320202020312E3237383420202020302E303030302043202020302020302020302020302020302020302020302020302020302020302020302020300A20202020322E3930323020202020322E3031323620202020302E303030302043202020302020302020302020302020302020302020302020302020302020302020302020300A20202020332E3633363320202020312E3130353920202020302E303030302043202020302020302020302020302020302020302020302020302020302020302020302020300A2020312020322020322020302020202020200A2020322020332020312020302020202020200A2020332020342020322020302020202020200A2020342020352020312020302020202020200A2020312020352020312020302020202020200A2020362020372020322020302020202020200A2020372020382020312020302020202020200A2020382020392020322020302020202020200A2020392031302020312020302020202020200A2020362031302020312020302020202020200A2020312020362020312020302020202020200A2031312031322020312020302020202020200A2031312031332020312020302020202020200A2031312031342020312020302020202020200A2031322031352020312020302020202020200A2031322031362020312020302020202020200A2031322031372020312020302020202020200A2020392031312020312020302020202020200A2031382031392020312020302020202020200A2031382032302020312020302020202020200A2031382032312020312020302020202020200A2031392032322020312020302020202020200A2031392032332020312020302020202020200A2031392032342020312020302020202020200A2020342031382020312020302020202020200A4D2020454E44
Contributor: FAC. TECHNOLOGY, HIROSHIMA UNIV.
InstType: EI
InstName: SHIMADZU QP-1000
IoniMethod: _ENERGY 20 eV
IonPolarity: pos
Date: 2010-10-09 19:48:36+02:00
Num Peaks: 30
40 17 43 56 44 37 45 188 46 12 55 13 59 54 69 11 73 999 75 58 
83 81 85 11 91 31 97 11 115 58 131 64 132 14 133 17 145 23 147 19 
165 40 173 17 175 13 321 14 336 26 353 44 354 16 355 11 426 19 428 11 
