Name: MassBank: JP010079
MW: 397
Formula: C23H27NO5
Synonym: MassBank: JP010079
Synonym: 2-(N-(2-CARBOXYPHENYL)ACETAMIDE-1-XY)-3,4-DIHYDRO-6-METHOXY-2,5,7,8-TETRAMETHYL-2H-1-BENZOPYRAN
Synonym: N-(2-CARBOXYPHENYL)-1-(3,4-DIHYDRO-6-METHOXY-2,5,7,8-TETRAMETHYL-2H-1-BENZOPYRAN-2-YL)-ACETAMIDE
Structure: 322D284E2D28322D434152424F58595048454E594C2941434554414D4944452D312D5859292D332C342D4449485944524F2D362D4D4554484F58592D322C352C372C382D54455452414D455448594C2D32482D312D42454E5A4F505952414E2E6D6F6C0A20204368656D447261773132323130393231303532440A2032392033312020302020302020302020302020302020302020302020303939392056323030300A20202020312E3430353520202020312E3039343820202020302E303030302043202020302020302020302020302020302020302020302020302020302020302020302020300A20202020322E3138303720202020312E3337373120202020302E30303030204F202020302020302020302020302020302020302020302020302020302020302020302020300A20202020312E3236323420202020302E3238323320202020302E30303030204E202020302020302020302020302020302020302020302020302020302020302020302020300A2020202D302E3030313720202020312E3334323720202020302E303030302043202020302020302020302020302020302020302020302020302020302020302020302020300A20202020302E3431303820202020302E3632383320202020302E303030302043202020302020302020302020302020302020302020302020302020302020302020302020300A2020202D302E303031372020202D302E3038363220202020302E303030302043202020302020302020302020302020302020302020302020302020302020302020302020300A2020202D302E383236372020202D302E3038363220202020302E303030302043202020302020302020302020302020302020302020302020302020302020302020302020300A2020202D312E3233393220202020302E3632383320202020302E303030302043202020302020302020302020302020302020302020302020302020302020302020302020300A2020202D302E3832353720202020312E3334323320202020302E30303030204F202020302020302020302020302020302020302020302020302020302020302020302020300A2020202D322E3036343220202020302E3632383320202020302E303030302043202020302020302020302020302020302020302020302020302020302020302020302020300A2020202D322E343736372020202D302E3038363220202020302E303030302043202020302020302020302020302020302020302020302020302020302020302020302020300A2020202D322E303634322020202D302E3830303720202020302E303030302043202020302020302020302020302020302020302020302020302020302020302020302020300A2020202D312E323339322020202D302E3830303720202020302E303030302043202020302020302020302020302020302020302020302020302020302020302020302020300A2020202D322E3437363720202020312E3334323720202020302E303030302043202020302020302020302020302020302020302020302020302020302020302020302020300A2020202D332E333031372020202D302E3038363220202020302E303030302043202020302020302020302020302020302020302020302020302020302020302020302020300A2020202D302E383236372020202D312E3531353220202020302E303030302043202020302020302020302020302020302020302020302020302020302020302020302020300A2020202D302E3134353320202020322E3135353120202020302E303030302043202020302020302020302020302020302020302020302020302020302020302020302020300A2020202D322E343736372020202D312E3531353220202020302E30303030204F202020302020302020302020302020302020302020302020302020302020302020302020300A2020202D332E333031372020202D312E3531353220202020302E303030302043202020302020302020302020302020302020302020302020302020302020302020302020300A20202020312E383934352020202D302E3234373920202020302E303030302043202020302020302020302020302020302020302020302020302020302020302020302020300A20202020312E373531332020202D312E3036303420202020302E303030302043202020302020302020302020302020302020302020302020302020302020302020302020300A20202020322E333833342020202D312E3539303620202020302E303030302043202020302020302020302020302020302020302020302020302020302020302020302020300A20202020332E313538362020202D312E3330383320202020302E303030302043202020302020302020302020302020302020302020302020302020302020302020302020300A20202020332E333031372020202D302E3439353820202020302E303030302043202020302020302020302020302020302020302020302020302020302020302020302020300A20202020322E3636393720202020302E3033343420202020302E303030302043202020302020302020302020302020302020302020302020302020302020302020302020300A20202020302E393736312020202D312E3334323720202020302E303030302043202020302020302020302020302020302020302020302020302020302020302020302020300A20202020302E333434312020202D302E3831323520202020302E30303030204F202020302020302020302020302020302020302020302020302020302020302020302020300A20202020302E383333302020202D322E3135353120202020302E30303030204F202020302020302020302020302020302020302020302020302020302020302020302020300A20202020302E3737333520202020312E3632353020202020302E303030302043202020302020302020302020302020302020302020302020302020302020302020302020300A2020312020322020322020302020202020200A2020312020332020312020302020202020200A2020342020352020312020302020202020200A2020352020362020312020302020202020200A2020362020372020312020302020202020200A2020372020382020312020302020202020200A2020382020392020312020302020202020200A2020342020392020312020302020202020200A2031302031312020312020302020202020200A2031312031322020322020302020202020200A2031322031332020312020302020202020200A2020372031332020322020302020202020200A2020382031302020322020302020202020200A2031302031342020312020302020202020200A2031312031352020312020302020202020200A2031332031362020312020302020202020200A2020342031372020312020302020202020200A2031382031392020312020302020202020200A2031322031382020312020302020202020200A2032302032312020312020302020202020200A2032312032322020322020302020202020200A2032322032332020312020302020202020200A2032332032342020322020302020202020200A2032342032352020312020302020202020200A2032302032352020322020302020202020200A2032362032372020322020302020202020200A2032362032382020312020302020202020200A2032312032362020312020302020202020200A2020332032302020312020302020202020200A2020342032392020312020302020202020200A2032392020312020312020302020202020200A4D2020454E44
Contributor: KURARAY CO., LTD.
InstType: EI
InstName: JEOL JMS-D-300
IoniMethod: _ENERGY 70 eV
IonPolarity: pos
Date: 2010-10-09 19:48:36+02:00
Num Peaks: 46
58 21 61 14 99 12 101 2 173 8 199 65 241 12 242 1 245 9 256 36 
258 20 277 2 278 374 279 154 286 11 292 15 293 34 306 16 310 45 312 1 
314 34 328 18 330 11 342 1 348 20 351 19 359 12 360 2 361 12 363 29 
381 16 383 3 391 11 395 17 396 11 397 999 398 320 399 91 403 11 411 2 
413 39 414 11 415 10 416 1 427 18 430 11 
