Name: 5-METHYL-5-VINYLTETRAHYDRO-2-FURANONE
MW: 126
Formula: C7H10O2
Synonym: MassBank: JP010012
Synonym: 5-METHYL-5-VINYLTETRAHYDRO-2-FURANONE
Synonym: 2-FURANONE-3,4-DIHYDRO-5-METHYL-5-VINYL
Structure: 310A32330A352D4D455448594C2D352D56494E594C5445545241485944524F2D322D465552414E4F4E452E6D6F6C0A20204368656D447261773031303331303133353632440A2020392020392020302020302020302020302020302020302020302020303939392056323030300A20202020302E3238363920202020302E3539353220202020302E30303030204F202020302020302020302020302020302020302020302020302020302020302020302020300A20202020312E3030313420202020302E3138323720202020302E303030302043202020302020302020302020302020302020302020302020302020302020302020302020300A20202020302E383239392020202D302E3632343320202020302E303030302043202020302020302020302020302020302020302020302020302020302020302020302020300A20202020302E303039342020202D302E3731303620202020302E303030302043202020302020302020302020302020302020302020302020302020302020302020302020300A2020202D302E3332363120202020302E3034333120202020302E303030302043202020302020302020302020302020302020302020302020302020302020302020302020300A20202020312E3735353120202020302E3531383220202020302E30303030204F202020302020302020302020302020302020302020302020302020302020302020302020300A2020202D312E303430362020202D302E3336393420202020302E303030302043202020302020302020302020302020302020302020302020302020302020302020302020300A2020202D312E3735353120202020302E3034333120202020302E303030302043202020302020302020302020302020302020302020302020302020302020302020302020300A2020202D302E3831313120202020302E3731303620202020302E303030302043202020302020302020302020302020302020302020302020302020302020302020302020300A2020312020322020312020302020202020200A2020322020332020312020302020202020200A2020332020342020312020302020202020200A2020342020352020312020302020202020200A2020312020352020312020302020202020200A2020322020362020322020302020202020200A2020372020382020322020302020202020200A2020352020372020312020302020202020200A2020352020392020312020302020202020200A4D2020454E44
Contributor: KURARAY CO., LTD.
InstType: EI
InstName: JEOL JMS-D-300
IoniMethod: _ENERGY 70 eV
IonPolarity: pos
Date: 2010-10-09 19:48:36+02:00
Num Peaks: 40
26 55 27 309 28 381 29 5 32 25 38 18 39 166 40 3 41 176 42 86 
43 550 44 2 50 31 51 45 52 23 53 8 54 49 55 679 56 380 57 2 
65 35 66 12 67 365 68 3 69 21 70 34 71 474 72 2 79 18 81 47 
82 25 83 20 84 45 98 232 99 282 100 2 111 999 112 69 126 149 127 18 
