Name: 3-CHLORO-4-NITROANILINE
CAS: 825-41-2
MW: 172
Formula: C6H5ClN2O2
Synonym: MassBank: JP011107
Synonym: 3-CHLORO-4-NITROANILINE
Structure: 332D43484C4F524F2D342D4E4954524F414E494C494E452E6D6F6C0A20204368656D447261773032323231303136313932440A2031312031312020302020302020302020302020302020302020302020303939392056323030300A2020202D312E383536332020202D302E3335373220202020302E30303030204E202020302020302020302020302020302020302020302020302020302020302020302020300A2020202D312E303331332020202D302E3335373220202020302E303030302043202020302020302020302020302020302020302020302020302020302020302020302020300A2020202D302E3631383820202020302E3335373220202020302E303030302043202020302020302020302020302020302020302020302020302020302020302020302020300A20202020302E3230363220202020302E3335373220202020302E303030302043202020302020302020302020302020302020302020302020302020302020302020302020300A20202020302E363138382020202D302E3335373220202020302E303030302043202020302020302020302020302020302020302020302020302020302020302020302020300A20202020302E323036322020202D312E3037313720202020302E303030302043202020302020302020302020302020302020302020302020302020302020302020302020300A2020202D302E363138382020202D312E3037313720202020302E303030302043202020302020302020302020302020302020302020302020302020302020302020302020300A20202020312E343433372020202D302E3335373220202020302E30303030204E202020302020332020302020302020302020302020302020302020302020302020302020300A20202020312E383536332020202D312E3037313720202020302E30303030204F202020302020302020302020302020302020302020302020302020302020302020302020300A20202020312E3835363320202020302E3335373220202020302E30303030204F202020302020352020302020302020302020302020302020302020302020302020302020300A20202020302E3631383820202020312E3037313720202020302E3030303020436C2020302020302020302020302020302020302020302020302020302020302020302020300A2020312020322020312020302020202020200A2020322020332020312020302020202020200A2020332020342020322020302020202020200A2020342020352020312020302020202020200A2020352020362020322020302020202020200A2020362020372020312020302020202020200A2020322020372020322020302020202020200A2020382020392020322020302020202020200A2020382031302020312020302020202020200A2020352020382020312020302020202020200A2020342031312020312020302020202020200A4D202043484720203220202038202020312020313020202D310A4D2020454E44
Contributor: YAMAMOTO M, DEP. CHEMISTRY, FAC. SCIENCE, NARA WOMEN'S UNIV.
InstType: EI
InstName: HITACHI M-80
IoniMethod: _ENERGY 70 eV
IonPolarity: pos
Date: 2010-10-09 19:48:36+02:00
Num Peaks: 52
18 26 27 10 28 15 30 121 37 23 38 36 39 50 40 16 41 85 46 22 
50 19 51 39 52 68 53 18 61 37 62 65 63 211 64 67 65 47 66 13 
72 11 73 52 74 17 75 25 76 13 78 43 79 16 87 26 88 13 89 27 
90 206 91 98 99 290 100 26 101 95 114 215 115 17 116 74 125 14 126 213 
127 20 128 72 142 999 143 78 144 327 145 26 156 37 158 13 172 738 173 57 
174 238 175 19 
