Name: MassBank: JP011584
MW: 100
Formula: C5H12Si
Synonym: MassBank: JP011584
Synonym: 1-METHYL-SILACYCLOPENTANE(2,2,5,5-D4)
Structure: 312D4D455448594C2D53494C414359434C4F50454E54414E4528322C322C352C352D4434292E6D6F6C0A20204368656D447261773131323030393132313132440A2031302031302020302020302020302020302020302020302020302020303939392056323030300A2020202D302E3239353520202020302E3334313220202020302E303030302053692020302020302020302020302020302020302020302020302020302020302020302020300A20202020302E3532353020202020302E3235343920202020302E303030302043202020302020302020302020302020302020302020302020302020302020302020302020300A20202020302E363936352020202D302E3535323020202020302E303030302043202020302020302020302020302020302020302020302020302020302020302020302020300A2020202D302E303137392020202D302E3936343520202020302E303030302043202020302020302020302020302020302020302020302020302020302020302020302020300A2020202D302E363331302020202D302E3431323520202020302E303030302043202020302020302020302020302020302020302020302020302020302020302020302020300A2020202D312E313135392020202D312E3037393920202020302E303030302048202020312020302020302020302020302020302020302020302020302020302020302020300A2020202D312E3334353520202020302E3030303020202020302E303030302048202020312020302020302020302020302020302020302020302020302020302020302020300A20202020302E3532353020202020312E3037393920202020302E303030302048202020312020302020302020302020302020302020302020302020302020302020302020300A20202020312E3334353520202020302E3334313220202020302E303030302048202020312020302020302020302020302020302020302020302020302020302020302020300A2020202D302E3730383020202020312E3035353620202020302E303030302043202020302020302020302020302020302020302020302020302020302020302020302020300A2020312020322020312020302020202020200A2020322020332020312020302020202020200A2020332020342020312020302020202020200A2020342020352020312020302020202020200A2020312020352020312020302020202020200A2020352020362020312020312020202020200A2020352020372020312020362020202020200A2020322020382020312020312020202020200A2020322020392020312020362020202020200A2020312031302020312020302020202020200A4D202049534F20203420202036202020322020203720202032202020382020203220202039202020320A4D2020454E44
Contributor: YAMAMOTO M, DEP. CHEMISTRY, FAC. SCIENCE, NARA WOMEN'S UNIV.
InstType: EI
InstName: HITACHI RMU-6M
IoniMethod: _ENERGY 70 eV
IonPolarity: pos
Date: 2010-10-09 19:48:36+02:00
Num Peaks: 41
27 14 28 52 29 45 30 31 31 12 32 14 40 20 41 14 42 42 43 176 
44 226 45 211 46 89 47 29 53 17 54 23 55 14 56 34 57 39 58 45 
59 82 60 99 61 42 62 23 67 10 68 10 70 10 71 24 72 56 73 108 
74 999 75 171 76 62 86 14 87 37 88 26 89 74 103 47 104 228 105 27 
106 10 
