Name: MassBank: JP010088
MW: 429
Formula: C18H17Cl2NO5S
Synonym: MassBank: JP010088
Synonym: 2,4-DICHLORO-1-(BENZENESULFONYLMETHOXY)-5-(1-PYRROLIDINCARBONYLOXY)-BENZENE
Synonym: 2,4-DICHLORO-5-(1-PYRROLIDINCARBOXY)-PHENOXYMETHYL PHENYL SULFONE
Structure: 322C342D444943484C4F524F2D312D2842454E5A454E4553554C464F4E594C4D4554484F5859292D352D28312D505952524F4C4944494E434152424F4E594C4F5859292D42454E5A454E452E6D6F6C0A20204368656D447261773132323030393133353832440A2032372032392020302020302020302020302020302020302020302020303939392056323030300A2020202D302E3239353620202020312E3835363320202020302E303030302043202020302020302020302020302020302020302020302020302020302020302020302020300A2020202D302E3239353620202020312E3033313320202020302E303030302043202020302020302020302020302020302020302020302020302020302020302020302020300A20202020302E3431383920202020302E3631383820202020302E303030302043202020302020302020302020302020302020302020302020302020302020302020302020300A20202020312E3133333320202020312E3033313320202020302E303030302043202020302020302020302020302020302020302020302020302020302020302020302020300A20202020312E3133333320202020312E3835363320202020302E303030302043202020302020302020302020302020302020302020302020302020302020302020302020300A20202020302E3431383920202020322E3236383720202020302E303030302043202020302020302020302020302020302020302020302020302020302020302020302020300A2020202D312E3031303120202020322E3236383720202020302E3030303020436C2020302020302020302020302020302020302020302020302020302020302020302020300A20202020312E3834373820202020322E3236383720202020302E3030303020436C2020302020302020302020302020302020302020302020302020302020302020302020300A20202020312E3834373820202020302E3631383820202020302E30303030204F202020302020302020302020302020302020302020302020302020302020302020302020300A20202020312E383437382020202D302E3230363220202020302E303030302043202020302020302020302020302020302020302020302020302020302020302020302020300A20202020312E313333332020202D302E3631383820202020302E30303030204F202020302020302020302020302020302020302020302020302020302020302020302020300A20202020322E353632332020202D302E3631383820202020302E30303030204E202020302020302020302020302020302020302020302020302020302020302020302020300A2020202D312E3031303120202020302E3631383820202020302E30303030204F202020302020302020302020302020302020302020302020302020302020302020302020300A2020202D312E303130312020202D302E3230363220202020302E303030302043202020302020302020302020302020302020302020302020302020302020302020302020300A2020202D312E373234362020202D302E3631383820202020302E303030302053202020302020302020302020302020302020302020302020302020302020302020302020300A2020202D322E343339302020202D312E3033313320202020302E303030302043202020302020302020302020302020302020302020302020302020302020302020302020300A2020202D322E3133373120202020302E3039353720202020302E30303030204F202020302020302020302020302020302020302020302020302020302020302020302020300A2020202D312E333132312020202D312E3333333220202020302E30303030204F202020302020302020302020302020302020302020302020302020302020302020302020300A2020202D332E313533352020202D302E3631383820202020302E303030302043202020302020302020302020302020302020302020302020302020302020302020302020300A2020202D332E383638302020202D312E3033313320202020302E303030302043202020302020302020302020302020302020302020302020302020302020302020302020300A2020202D332E383638302020202D312E3835363320202020302E303030302043202020302020302020302020302020302020302020302020302020302020302020302020300A2020202D332E313533352020202D322E3236383720202020302E303030302043202020302020302020302020302020302020302020302020302020302020302020302020300A2020202D322E343339302020202D312E3835363320202020302E303030302043202020302020302020302020302020302020302020302020302020302020302020302020300A20202020322E363438352020202D312E3433393220202020302E303030302043202020302020302020302020302020302020302020302020302020302020302020302020300A20202020332E343535352020202D312E3631303820202020302E303030302043202020302020302020302020302020302020302020302020302020302020302020302020300A20202020332E383638302020202D302E3839363320202020302E303030302043202020302020302020302020302020302020302020302020302020302020302020302020300A20202020332E333135392020202D302E3238333220202020302E303030302043202020302020302020302020302020302020302020302020302020302020302020302020300A2020312020322020322020302020202020200A2020322020332020312020302020202020200A2020332020342020322020302020202020200A2020342020352020312020302020202020200A2020352020362020322020302020202020200A2020362020312020312020302020202020200A2020312020372020312020302020202020200A2020352020382020312020302020202020200A2020342020392020312020302020202020200A2020392031302020312020302020202020200A2031302031312020322020302020202020200A2031302031322020312020302020202020200A2020322031332020312020302020202020200A2031332031342020312020302020202020200A2031342031352020312020302020202020200A2031352031362020312020302020202020200A2031352031372020322020302020202020200A2031352031382020322020302020202020200A2031362031392020322020302020202020200A2031392032302020312020302020202020200A2032302032312020322020302020202020200A2032312032322020312020302020202020200A2032322032332020322020302020202020200A2032332031362020312020302020202020200A2031322032342020312020302020202020200A2032342032352020312020302020202020200A2032352032362020312020302020202020200A2032362032372020312020302020202020200A2032372031322020312020302020202020200A4D2020454E44
Contributor: KURARAY CO., LTD.
InstType: EI
InstName: JEOL JMS-D-300
IoniMethod: _ENERGY 70 eV
IonPolarity: pos
Date: 2010-10-09 19:48:36+02:00
Num Peaks: 12
30 22 55 205 56 66 70 13 77 21 97 23 98 999 99 85 125 58 394 15 
429 31 431 23 
