Name: MassBank: JP010784
MW: 206
Formula: C14H22O
Synonym: MassBank: JP010784
Synonym: 2,4-DI-TERT-BUTYLPHENOL
Structure: 322C342D44492D544552542D425554594C5048454E4F4C2E6D6F6C0A20204368656D447261773132323030393133343532440A2031352031352020302020302020302020302020302020302020302020303939392056323030300A20202020302E373134352020202D302E3736393720202020302E303030302043202020302020302020302020302020302020302020302020302020302020302020302020300A20202020302E3731343520202020302E3035353320202020302E303030302043202020302020302020302020302020302020302020302020302020302020302020302020300A2020202D302E3030303020202020302E3436373820202020302E303030302043202020302020302020302020302020302020302020302020302020302020302020302020300A2020202D302E3731343520202020302E3035353320202020302E303030302043202020302020302020302020302020302020302020302020302020302020302020302020300A2020202D302E373134352020202D302E3736393720202020302E303030302043202020302020302020302020302020302020302020302020302020302020302020302020300A20202020302E303030302020202D312E3138323220202020302E303030302043202020302020302020302020302020302020302020302020302020302020302020302020300A2020202D312E3432383920202020302E3436373820202020302E303030302043202020302020302020302020302020302020302020302020302020302020302020302020300A2020202D322E3134333420202020302E3838303320202020302E303030302043202020302020302020302020302020302020302020302020302020302020302020302020300A2020202D312E383431342020202D302E3234363720202020302E303030302043202020302020302020302020302020302020302020302020302020302020302020302020300A2020202D312E3031363420202020312E3138323220202020302E303030302043202020302020302020302020302020302020302020302020302020302020302020302020300A20202020312E3432383920202020302E3436373820202020302E303030302043202020302020302020302020302020302020302020302020302020302020302020302020300A20202020312E3031363420202020312E3138323220202020302E303030302043202020302020302020302020302020302020302020302020302020302020302020302020300A20202020312E383431342020202D302E3234363720202020302E303030302043202020302020302020302020302020302020302020302020302020302020302020302020300A20202020322E3134333420202020302E3838303320202020302E303030302043202020302020302020302020302020302020302020302020302020302020302020302020300A20202020312E343238392020202D312E3138323220202020302E30303030204F202020302020302020302020302020302020302020302020302020302020302020302020300A2020312020322020312020302020202020200A2020322020332020322020302020202020200A2020332020342020312020302020202020200A2020342020352020322020302020202020200A2020352020362020312020302020202020200A2020312020362020322020302020202020200A2020372020382020312020302020202020200A2020372031302020312020302020202020200A2020372020392020312020302020202020200A2020342020372020312020302020202020200A2031312031322020312020302020202020200A2031312031342020312020302020202020200A2031312031332020312020302020202020200A2020322031312020312020302020202020200A2020312031352020312020302020202020200A4D2020454E44
Contributor: FUJISE Y, HAMAMATSU UNIV. SCHOOL OF MEDICINE
InstType: EI
InstName: JEOL JMS-D-300
IoniMethod: _ENERGY 70 eV
IonPolarity: pos
Date: 2010-10-09 19:48:36+02:00
Num Peaks: 42
420 162 430 14 510 25 520 11 530 18 550 30 570 431 580 21 600 41 640 14 
650 21 660 25 670 11 720 11 730 46 740 112 770 35 790 17 870 11 880 47 
910 47 1050 23 1070 36 1150 31 1160 12 1170 16 1190 12 1210 12 1280 17 1290 11 
1330 15 1350 20 1470 18 1490 10 1610 17 1630 48 1750 37 1910 999 1920 151 1930 11 
2060 158 2070 24 
