Name: 1-METHYLSILACYCLOPENTANE (1D)
MW: 100
Formula: C5H12Si
Synonym: MassBank: JP011994
Synonym: 1-METHYLSILACYCLOPENTANE (1D)
Structure: 310A32300A312D4D455448594C53494C414359434C4F50454E54414E4520283144292E6D6F6C0A20204368656D447261773131323130393138343232440A2020372020372020302020302020302020302020302020302020302020303939392056323030300A2020202D302E343132352020202D302E3939323020202020302E303030302043202020302020302020302020302020302020302020302020302020302020302020302020300A20202020302E343132352020202D302E3939323020202020302E303030302043202020302020302020302020302020302020302020302020302020302020302020302020300A20202020302E363637342020202D302E3230373420202020302E303030302043202020302020302020302020302020302020302020302020302020302020302020302020300A20202020302E3030303020202020302E3237373520202020302E303030302053692020302020302020302020302020302020302020302020302020302020302020302020300A2020202D302E363637342020202D302E3230373420202020302E303030302043202020302020302020302020302020302020302020302020302020302020302020302020300A2020202D302E3431323520202020302E3939323020202020302E303030302043202020302020302020302020302020302020302020302020302020302020302020302020300A20202020302E3631333120202020302E3832393620202020302E303030302048202020312020302020302020302020302020302020302020302020302020302020302020300A2020312020322020312020302020202020200A2020322020332020312020302020202020200A2020332020342020312020302020202020200A2020342020352020312020302020202020200A2020352020312020312020302020202020200A2020342020362020312020302020202020200A2020342020372020312020302020202020200A4D202049534F20203120202037202020320A4D2020454E44
Contributor: YAMAMOTO M, DEP. CHEMISTRY, FAC. SCIENCE, NARA WOMEN'S UNIV.
InstType: EI
InstName: HITACHI RMU-6M
IoniMethod: _ENERGY 20 eV
IonPolarity: pos
Date: 2010-10-09 19:48:36+02:00
Num Peaks: 22
43 36 44 115 45 90 46 25 57 27 58 72 59 51 60 25 70 18 71 62 
72 159 73 999 74 98 75 40 84 18 85 21 86 86 87 13 99 24 101 203 
102 24 103 11 
