Name: MassBank: JP010358
MW: 214
Formula: C12H26OSi
Synonym: MassBank: JP010358
Synonym: (Z)-5-METHOXY-3,5-DIMETHYL-2-HEXENYLTRIMETHYLSILANE
Structure: 285A292D352D4D4554484F58592D332C352D44494D455448594C2D322D484558454E594C5452494D455448594C53494C414E452E6D6F6C0A20204368656D447261773130323230393231323532440A2031352031342020302020302020302020302020302020302020302020303939392056323030300A2020202D302E3631383820202020302E3431323520202020302E303030302043202020302020302020302020302020302020302020302020302020302020302020302020300A20202020302E3230363220202020302E3431323520202020302E303030302043202020302020302020302020302020302020302020302020302020302020302020302020300A2020202D312E3033313320202020312E3132363920202020302E303030302048202020302020302020302020302020302020302020302020302020302020302020302020300A20202020302E363138382020202D302E3330313920202020302E303030302043202020302020302020302020302020302020302020302020302020302020302020302020300A2020202D312E303331332020202D302E3330313920202020302E303030302043202020302020302020302020302020302020302020302020302020302020302020302020300A20202020302E3631383820202020312E3132363920202020302E303030302043202020302020302020302020302020302020302020302020302020302020302020302020300A20202020312E343433382020202D302E3330313920202020302E303030302043202020302020302020302020302020302020302020302020302020302020302020302020300A2020202D312E383536332020202D302E3330313920202020302E303030302053692020302020302020302020302020302020302020302020302020302020302020302020300A2020202D322E363831322020202D302E3330313920202020302E303030302043202020302020302020302020302020302020302020302020302020302020302020302020300A2020202D312E383536332020202D312E3132363920202020302E303030302043202020302020302020302020302020302020302020302020302020302020302020302020300A2020202D312E3835363320202020302E3532333120202020302E303030302043202020302020302020302020302020302020302020302020302020302020302020302020300A20202020322E323638372020202D302E3330313920202020302E30303030204F202020302020302020302020302020302020302020302020302020302020302020302020300A20202020312E3434333820202020302E3532333120202020302E303030302043202020302020302020302020302020302020302020302020302020302020302020302020300A20202020312E343433382020202D312E3132363920202020302E303030302043202020302020302020302020302020302020302020302020302020302020302020302020300A20202020322E3638313220202020302E3431323520202020302E303030302043202020302020302020302020302020302020302020302020302020302020302020302020300A2020312020322020322020302020202020200A2020312020332020312020302020202020200A2020322020342020312020302020202020200A2020312020352020312020302020202020200A2020322020362020312020302020202020200A2020342020372020312020302020202020200A2020352020382020312020302020202020200A2020382020392020312020302020202020200A2020382031302020312020312020202020200A2020382031312020312020312020202020200A2020372031322020312020302020202020200A2020372031332020312020302020202020200A2020372031342020312020302020202020200A2031322031352020312020302020202020200A4D2020454E44
Contributor: HISAHIRO HAGIWARA, CHEMICAL RESEARCH INSTITUTE OF NON-AQUEOUSSOLUTIONS TOHOKU UNIV.
InstType: EI
InstName: JEOL JMS-DX-300
IoniMethod: _ENERGY 70 eV
IonPolarity: pos
Date: 2010-10-09 19:48:36+02:00
Num Peaks: 23
31 7 39 7 41 21 42 1 43 32 44 9 45 52 53 6 55 12 57 6 
59 29 67 9 72 9 73 999 74 73 75 15 89 85 90 7 91 5 95 31 
111 5 142 6 214 5 
