Name: MassBank: JP010954
MW: 376
Formula: C19H20O8
Synonym: MassBank: JP010954
Synonym: BIS(2-HYDROXY-6-(2-HYDROXYETHOXY)-5-OXO-1,3,6-CYCLOHEPTATRIENYL)METHANE
Structure: 42495328322D485944524F58592D362D28322D485944524F58594554484F5859292D352D4F584F2D312C332C362D4359434C4F4845505441545249454E594C294D455448414E452E6D6F6C0A20204368656D447261773039303531303231353632440A2032372032382020302020302020302020302020302020302020302020303939392056323030300A2020202D302E3339363520202020302E3738333720202020302E303030302043202020302020302020302020302020302020302020302020302020302020302020302020300A2020202D302E3830393020202020302E3036393320202020302E303030302043202020302020302020302020302020302020302020302020302020302020302020302020300A2020202D302E333434332020202D302E3631323420202020302E303030302043202020302020302020302020302020302020302020302020302020302020302020302020300A2020202D302E353837342020202D312E3430303720202020302E303030302043202020302020302020302020302020302020302020302020302020302020302020302020300A2020202D312E333535342020202D312E3730323120202020302E303030302043202020302020302020302020302020302020302020302020302020302020302020302020300A2020202D322E303639392020202D312E3238393620202020302E303030302043202020302020302020302020302020302020302020302020302020302020302020302020300A2020202D322E323034302020202D302E3436333120202020302E303030302043202020302020302020302020302020302020302020302020302020302020302020302020300A2020202D312E3632303620202020302E3132303220202020302E303030302043202020302020302020302020302020302020302020302020302020302020302020302020300A2020202D322E373531352020202D312E3735343420202020302E30303030204F202020302020302020302020302020302020302020302020302020302020302020302020300A2020202D322E393931392020202D302E3231393620202020302E30303030204F202020302020302020302020302020302020302020302020302020302020302020302020300A2020202D332E353735332020202D302E3830323920202020302E303030302043202020302020302020302020302020302020302020302020302020302020302020302020300A2020202D332E333732342020202D312E3538383720202020302E303030302043202020302020302020302020302020302020302020302020302020302020302020302020300A2020202D332E393535382020202D322E3137323120202020302E30303030204F202020302020302020302020302020302020302020302020302020302020302020302020300A20202020302E343731352020202D302E3438393420202020302E30303030204F202020302020302020302020302020302020302020302020302020302020302020302020300A20202020302E3432383520202020302E3738333720202020302E303030302043202020302020302020302020302020302020302020302020302020302020302020302020300A20202020302E3738363420202020312E3532373020202020302E303030302043202020302020302020302020302020302020302020302020302020302020302020302020300A20202020312E3539303820202020312E3731303620202020302E303030302043202020302020302020302020302020302020302020302020302020302020302020302020300A20202020322E3233353820202020312E3139363220202020302E303030302043202020302020302020302020302020302020302020302020302020302020302020302020300A20202020322E3233353820202020302E3337313220202020302E303030302043202020302020302020302020302020302020302020302020302020302020302020302020300A20202020312E353930382020202D302E3134333120202020302E303030302043202020302020302020302020302020302020302020302020302020302020302020302020300A20202020302E3738363420202020302E3034303420202020302E303030302043202020302020302020302020302020302020302020302020302020302020302020302020300A20202020322E3937393120202020302E3031333320202020302E30303030204F202020302020302020302020302020302020302020302020302020302020302020302020300A20202020312E373734332020202D302E3934373420202020302E30303030204F202020302020302020302020302020302020302020302020302020302020302020302020300A20202020322E353733342020202D312E3230313720202020302E303030302043202020302020302020302020302020302020302020302020302020302020302020302020300A20202020332E313536382020202D302E3631383420202020302E303030302043202020302020302020302020302020302020302020302020302020302020302020302020300A20202020332E393535382020202D302E3837323620202020302E30303030204F202020302020302020302020302020302020302020302020302020302020302020302020300A20202020302E3237323120202020322E3137323120202020302E30303030204F202020302020302020302020302020302020302020302020302020302020302020302020300A2020322020332020322020302020202020200A2020332020342020312020302020202020200A2020342020352020322020302020202020200A2020352020362020312020302020202020200A2020362020372020312020302020202020200A2020372020382020322020302020202020200A2020322020382020312020302020202020200A2020362020392020322020302020202020200A2031312031322020312020302020202020200A2031302031312020312020302020202020200A2031322031332020312020302020202020200A2020372031302020312020302020202020200A2020332031342020312020302020202020200A2020312020322020312020302020202020200A2031352031362020322020302020202020200A2031362031372020312020302020202020200A2031372031382020322020302020202020200A2031382031392020312020302020202020200A2031392032302020312020302020202020200A2032302032312020322020302020202020200A2031352032312020312020302020202020200A2031392032322020322020302020202020200A2032342032352020312020302020202020200A2032332032342020312020302020202020200A2032352032362020312020302020202020200A2032302032332020312020302020202020200A2031362032372020312020302020202020200A2020312031352020312020302020202020200A4D2020454E44
Contributor: TAKESHITA H, INST. OF ADVANCED MATERIAL STUDY KYUSHU UNIV.
InstType: EI
InstName: JEOL JMS-01-SG-2
IoniMethod: _ENERGY 75 eV
IonPolarity: pos
Date: 2010-10-09 19:48:36+02:00
Num Peaks: 62
39 195 41 137 42 145 43 588 44 750 45 492 53 122 54 132 55 233 57 107 
61 113 62 170 63 124 64 109 65 117 73 132 77 131 81 150 82 126 87 138 
91 162 106 123 110 999 138 215 164 152 165 130 182 531 196 168 212 143 283 142 
284 25 285 20 286 29 287 31 293 18 296 24 297 39 298 35 299 25 308 19 
310 19 311 20 312 23 313 39 314 26 315 40 323 18 324 20 326 88 327 58 
331 62 332 26 340 31 341 45 342 40 345 24 348 18 358 56 359 33 360 24 
376 83 377 17 
