Name: MassBank: JP011044
MW: 152
Formula: C8H8O3
Synonym: MassBank: JP011044
Synonym: 4-METHYL-3-OXATRICYCLO(3.3.0.0(4,6))OCTA-2,8-DIONE
Structure: 342D4D455448594C2D332D4F58415452494359434C4F28332E332E302E3028342C3629294F4354412D322C382D44494F4E452E6D6F6C0A20204368656D447261773034323131303032333432440A2031312031322020302020302020302020302020302020302020302020303939392056323030300A2020202D312E3336303820202020302E3734363220202020302E303030302043202020302020302020302020302020302020302020302020302020302020302020302020300A2020202D312E333630382020202D302E3037383820202020302E303030302043202020302020302020302020302020302020302020302020302020302020302020302020300A2020202D302E353736322020202D302E3333333720202020302E303030302043202020302020302020302020302020302020302020302020302020302020302020302020300A2020202D302E3039313320202020302E3333333720202020302E303030302043202020302020302020302020302020302020302020302020302020302020302020302020300A2020202D302E3537363220202020312E3030313220202020302E303030302043202020302020302020302020302020302020302020302020302020302020302020302020300A2020202D302E303931332020202D312E3030313220202020302E303030302043202020302020302020302020302020302020302020302020302020302020302020302020300A20202020302E363933342020202D302E3734363220202020302E30303030204F202020302020302020302020302020302020302020302020302020302020302020302020300A20202020302E3639333420202020302E3037383820202020302E303030302043202020302020302020302020302020302020302020302020302020302020302020302020300A2020202D302E3332313220202020312E3738353820202020302E30303030204F202020302020302020302020302020302020302020302020302020302020302020302020300A20202020312E3336303820202020302E3536333720202020302E30303030204F202020302020302020302020302020302020302020302020302020302020302020302020300A2020202D302E333436322020202D312E3738353820202020302E303030302043202020302020302020302020302020302020302020302020302020302020302020302020300A2020312020322020312020302020202020200A2020322020332020312020302020202020200A2020332020342020312020302020202020200A2020342020352020312020302020202020200A2020352020312020312020302020202020200A2020332020362020312020302020202020200A2020362020372020312020302020202020200A2020372020382020312020302020202020200A2020382020342020312020302020202020200A2020352020392020322020302020202020200A2020382031302020322020302020202020200A2020362031312020312020302020202020200A4D2020454E44
Contributor: TAKESHITA H, INST. OF ADVANCED MATERIAL STUDY KYUSHU UNIV.
InstType: EI
InstName: JEOL JMS-01-SG-2
IoniMethod: _ENERGY 75 eV
IonPolarity: pos
Date: 2010-10-09 19:48:36+02:00
Num Peaks: 34
38 43 39 109 40 310 41 29 42 69 43 108 44 999 45 27 51 194 52 274 
53 194 54 873 55 107 56 72 62 30 63 51 65 27 67 20 69 78 77 38 
78 35 79 120 80 50 81 585 82 544 83 48 95 86 108 25 109 45 110 399 
111 28 124 46 151 70 152 16 
