Name: 2-CHLORO-6-METHOXYPYRIDINE
MW: 143
Formula: C6H6ClNO
Synonym: MassBank: JP010029
Synonym: 2-CHLORO-6-METHOXYPYRIDINE
Structure: 310A32330A322D43484C4F524F2D362D4D4554484F58595059524944494E452E6D6F6C0A20204368656D447261773031303331303130343432440A2020392020392020302020302020302020302020302020302020302020303939392056323030300A20202020312E3037313720202020302E3431323520202020302E303030302043202020302020302020302020302020302020302020302020302020302020302020302020300A20202020312E303731372020202D302E3431323520202020302E303030302043202020302020302020302020302020302020302020302020302020302020302020302020300A20202020302E333537322020202D302E3832353020202020302E303030302043202020302020302020302020302020302020302020302020302020302020302020302020300A2020202D302E333537322020202D302E3431323520202020302E303030302043202020302020302020302020302020302020302020302020302020302020302020302020300A2020202D302E3335373220202020302E3431323520202020302E303030302043202020302020302020302020302020302020302020302020302020302020302020302020300A20202020302E3335373220202020302E3832353020202020302E30303030204E202020302020302020302020302020302020302020302020302020302020302020302020300A2020202D312E3037313720202020302E3832353020202020302E30303030204F202020302020302020302020302020302020302020302020302020302020302020302020300A2020202D312E3738363220202020302E3431323520202020302E303030302043202020302020302020302020302020302020302020302020302020302020302020302020300A20202020312E3738363220202020302E3832353020202020302E3030303020436C2020302020302020302020302020302020302020302020302020302020302020302020300A2020312020322020312020302020202020200A2020322020332020322020302020202020200A2020332020342020312020302020202020200A2020342020352020322020302020202020200A2020352020362020312020302020202020200A2020312020362020322020302020202020200A2020372020382020312020302020202020200A2020352020372020312020302020202020200A2020312020392020312020302020202020200A4D2020454E44
Contributor: KURARAY CO., LTD.
InstType: EI
InstName: JEOL JMS-D-300
IoniMethod: _ENERGY 70 eV
IonPolarity: pos
Date: 2010-10-09 19:48:36+02:00
Num Peaks: 42
26 10 28 23 37 23 38 8 39 161 49 14 50 43 51 5 52 21 53 21 
63 13 64 5 65 58 66 12 73 14 75 2 76 99 77 43 78 460 79 4 
80 14 85 20 86 25 93 9 100 28 102 11 106 30 108 8 109 10 112 87 
113 552 114 28 115 196 116 85 138 17 139 2 140 13 142 999 143 759 144 39 
145 252 146 18 
