Name: MassBank: JP010104
MW: 504
Formula: C30H56N2O2Si
Synonym: MassBank: JP010104
Synonym: 1-(1,1,1-TRIDEUTERIOMETHYL)-4-(5,9-DIMETHYL-6-(3,7-DIMETHYL-2,6-OCTADIENYL)-1-OXO-10-TRIMETHYLSYLYLOXY-4-DECAN-1-YL)-PIPERADINE (PIPERADINE-1,1,1-D3METHYL)
Structure: 312D28312C312C312D545249444555544552494F4D455448594C292D342D28352C392D44494D455448594C2D362D28332C372D44494D455448594C2D322C362D4F4354414449454E594C292D312D4F584F2D31302D5452494D455448594C53594C594C4F58592D342D444543414E2D312D594C292D50495045524144494E45202850495045524144494E452D312C312C312D44334D455448594C292E6D6F6C0A20204368656D447261773131313730393135313332440A2033382033382020302020302020302020302020302020302020302020303939392056323030300A2020202D342E3233313620202020302E3631383820202020302E303030302043202020302020302020302020302020302020302020302020302020302020302020302020300A2020202D342E323331362020202D302E3230363220202020302E303030302043202020302020302020302020302020302020302020302020302020302020302020302020300A2020202D332E353137312020202D302E3631383820202020302E30303030204E202020302020302020302020302020302020302020302020302020302020302020302020300A2020202D322E383032362020202D302E3230363220202020302E303030302043202020302020302020302020302020302020302020302020302020302020302020302020300A2020202D322E3830323620202020302E3631383820202020302E303030302043202020302020302020302020302020302020302020302020302020302020302020302020300A2020202D332E3531373120202020312E3033313320202020302E30303030204E202020302020302020302020302020302020302020302020302020302020302020302020300A2020202D332E3531373120202020312E3835363320202020302E303030302043202020302020302020302020302020302020302020302020302020302020302020302020300A2020202D332E353137312020202D312E3434333820202020302E303030302043202020302020302020302020302020302020302020302020302020302020302020302020300A2020202D332E353137312020202D322E3236383720202020302E303030302048202020312020302020302020302020302020302020302020302020302020302020302020300A2020202D322E363932312020202D312E3434333820202020302E303030302048202020312020302020302020302020302020302020302020302020302020302020302020300A2020202D342E333432312020202D312E3434333820202020302E303030302048202020312020302020302020302020302020302020302020302020302020302020302020300A2020202D342E3233313620202020322E3236383720202020302E30303030204F202020302020302020302020302020302020302020302020302020302020302020302020300A2020202D322E3830323620202020322E3236383720202020302E303030302043202020302020302020302020302020302020302020302020302020302020302020302020300A2020202D322E3038383120202020312E3835363320202020302E303030302043202020302020302020302020302020302020302020302020302020302020302020302020300A2020202D312E3337333720202020322E3236383720202020302E303030302043202020302020302020302020302020302020302020302020302020302020302020302020300A2020202D302E3635393220202020312E3835363320202020302E303030302043202020302020302020302020302020302020302020302020302020302020302020302020300A20202020302E3035353320202020322E3236383720202020302E303030302043202020302020302020302020302020302020302020302020302020302020302020302020300A2020202D302E3635393220202020312E3033313320202020302E303030302043202020302020302020302020302020302020302020302020302020302020302020302020300A20202020302E3035353320202020302E3631383820202020302E303030302043202020302020302020302020302020302020302020302020302020302020302020302020300A2020202D312E3337333720202020302E3631383820202020302E303030302043202020302020302020302020302020302020302020302020302020302020302020302020300A2020202D312E333733372020202D302E3230363220202020302E303030302043202020302020302020302020302020302020302020302020302020302020302020302020300A2020202D302E363539322020202D302E3631383820202020302E303030302043202020302020302020302020302020302020302020302020302020302020302020302020300A20202020302E303535332020202D302E3230363220202020302E303030302043202020302020302020302020302020302020302020302020302020302020302020302020300A2020202D302E363539322020202D312E3434333820202020302E303030302043202020302020302020302020302020302020302020302020302020302020302020302020300A20202020302E373639372020202D302E3631383820202020302E30303030204F202020302020302020302020302020302020302020302020302020302020302020302020300A20202020302E373639372020202D312E3434333820202020302E303030302053692020302020302020302020302020302020302020302020302020302020302020302020300A20202020302E373639372020202D322E3236383720202020302E303030302043202020302020302020302020302020302020302020302020302020302020302020302020300A20202020312E353934372020202D312E3434333820202020302E303030302043202020302020302020302020302020302020302020302020302020302020302020302020300A2020202D302E303535332020202D312E3434333820202020302E303030302043202020302020302020302020302020302020302020302020302020302020302020302020300A20202020302E3736393720202020312E3033313320202020302E303030302043202020302020302020302020302020302020302020302020302020302020302020302020300A20202020312E3438343220202020302E3631383820202020302E303030302043202020302020302020302020302020302020302020302020302020302020302020302020300A20202020322E3139383720202020312E3033313320202020302E303030302043202020302020302020302020302020302020302020302020302020302020302020302020300A20202020312E343834322020202D302E3230363220202020302E303030302043202020302020302020302020302020302020302020302020302020302020302020302020300A20202020322E313938372020202D302E3631383820202020302E303030302043202020302020302020302020302020302020302020302020302020302020302020302020300A20202020322E393133312020202D302E3230363220202020302E303030302043202020302020302020302020302020302020302020302020302020302020302020302020300A20202020332E363237362020202D302E3631383820202020302E303030302043202020302020302020302020302020302020302020302020302020302020302020302020300A20202020342E333432312020202D302E3230363220202020302E303030302043202020302020302020302020302020302020302020302020302020302020302020302020300A20202020332E363237362020202D312E3434333820202020302E303030302043202020302020302020302020302020302020302020302020302020302020302020302020300A2020312020322020312020302020202020200A2020322020332020312020302020202020200A2020332020342020312020302020202020200A2020342020352020312020302020202020200A2020352020362020312020302020202020200A2020362020312020312020302020202020200A2020362020372020312020302020202020200A2020332020382020312020302020202020200A2020382020392020312020302020202020200A2020382031302020312020302020202020200A2020382031312020312020302020202020200A2020372031322020322020302020202020200A2020372031332020312020302020202020200A2031332031342020312020302020202020200A2031342031352020312020302020202020200A2031352031362020322020302020202020200A2031362031372020312020302020202020200A2031362031382020312020302020202020200A2031382031392020312020302020202020200A2031382032302020312020302020202020200A2032302032312020312020302020202020200A2032312032322020312020302020202020200A2032322032332020312020302020202020200A2032322032342020312020302020202020200A2032332032352020312020302020202020200A2032352032362020312020302020202020200A2032362032372020312020302020202020200A2032362032382020312020302020202020200A2032362032392020312020302020202020200A2031392033302020312020302020202020200A2033302033312020322020302020202020200A2033312033322020312020302020202020200A2033312033332020312020302020202020200A2033332033342020312020302020202020200A2033342033352020312020302020202020200A2033352033362020322020302020202020200A2033362033372020312020302020202020200A2033362033382020312020302020202020200A4D202049534F2020332020203920202032202031302020203220203131202020320A4D2020454E44
Contributor: KURARAY CO., LTD.
InstType: EI
InstName: JEOL JMS-D-300
IoniMethod: _ENERGY 70 eV
IonPolarity: pos
Date: 2010-10-09 19:48:36+02:00
Num Peaks: 36
28 176 29 39 32 284 40 20 41 418 44 72 60 461 61 622 69 708 73 913 
75 377 81 360 96 11 100 270 101 954 102 616 103 260 104 999 133 269 147 81 
191 116 207 48 212 887 213 310 221 39 281 30 282 9 355 32 370 106 438 561 
439 241 492 27 503 82 505 289 507 748 508 358 
