Name: 3-(4-CHLOROPHENYL)PROPIONIC ACID
MW: 184
Formula: C9H9ClO2
Synonym: MassBank: JP010383
Synonym: 3-(4-CHLOROPHENYL)PROPIONIC ACID
Structure: 332D28342D43484C4F524F5048454E594C2950524F50494F4E494320414349442E6D6F6C0A20204368656D447261773032323231303130303932440A2031322031322020302020302020302020302020302020302020302020303939392056323030300A20202020302E3335373220202020322E3036323520202020302E303030302043202020302020302020302020302020302020302020302020302020302020302020302020300A20202020302E3335373220202020312E3233373520202020302E303030302043202020302020302020302020302020302020302020302020302020302020302020302020300A2020202D302E3335373220202020302E3832353020202020302E303030302043202020302020302020302020302020302020302020302020302020302020302020302020300A2020202D302E3335373220202020322E3437353020202020302E30303030204F202020302020302020302020302020302020302020302020302020302020302020302020300A20202020312E3037313720202020322E3437353020202020302E30303030204F202020302020302020302020302020302020302020302020302020302020302020302020300A2020202D302E333537322020202D302E3030303020202020302E303030302043202020302020302020302020302020302020302020302020302020302020302020302020300A20202020302E333537322020202D302E3431323520202020302E303030302043202020302020302020302020302020302020302020302020302020302020302020302020300A20202020302E333537322020202D312E3233373520202020302E303030302043202020302020302020302020302020302020302020302020302020302020302020302020300A2020202D302E333537322020202D312E3635303020202020302E303030302043202020302020302020302020302020302020302020302020302020302020302020302020300A2020202D312E303731372020202D312E3233373520202020302E303030302043202020302020302020302020302020302020302020302020302020302020302020302020300A2020202D312E303731372020202D302E3431323520202020302E303030302043202020302020302020302020302020302020302020302020302020302020302020302020300A2020202D302E333537322020202D322E3437353020202020302E3030303020436C2020302020302020302020302020302020302020302020302020302020302020302020300A2020312020322020312020302020202020200A2020322020332020312020302020202020200A2020312020342020322020302020202020200A2020312020352020312020302020202020200A2020362020372020312020302020202020200A2020372020382020322020302020202020200A2020382020392020312020302020202020200A2020392031302020322020302020202020200A2031302031312020312020302020202020200A2020362031312020322020302020202020200A2020392031322020312020302020202020200A2020332020362020312020302020202020200A4D2020454E44
Contributor: MASS SPECTROSCOPY SOC. OF JAPAN (MSSJ)
InstType: EI
InstName: HITACHI RMU-6M
IoniMethod: _ENERGY 20 eV
IonPolarity: pos
Date: 2010-10-09 19:48:36+02:00
Num Peaks: 89
40 230 41 80 42 80 43 4 44 190 45 80 54 20 55 2 56 170 57 340 
58 240 59 1 60 150 61 20 67 60 68 1 69 190 70 150 71 220 72 1 
73 70 74 20 77 40 78 0 79 40 80 20 81 110 82 1 83 130 84 120 
85 150 86 0 87 30 89 20 91 180 92 0 93 20 94 20 95 80 96 1 
97 120 98 60 99 80 100 0 101 20 103 90 104 90 105 1 106 20 107 210 
108 40 109 1 110 40 111 70 112 70 113 1 114 20 119 30 120 30 121 0 
122 20 123 40 124 20 125 999 126 100 127 360 128 40 131 0 133 20 135 30 
136 20 137 0 138 240 139 60 140 90 141 1 142 20 149 150 150 90 151 0 
165 20 166 20 167 20 168 0 169 20 181 60 184 460 185 1 186 150 
