Name: METHYLENECYCLOHEXANE
CAS: 1192-37-6
MW: 96
Formula: C7H12
Synonym: MassBank: JP010554
Synonym: METHYLENECYCLOHEXANE
Structure: 310A31390A4D455448594C454E454359434C4F484558414E452E6D6F6C0A20204368656D447261773038313231303030353032440A2020372020372020302020302020302020302020302020302020302020303939392056323030300A2020202D302E3431323520202020302E3030303020202020302E303030302043202020302020302020302020302020302020302020302020302020302020302020302020300A2020202D302E3030303020202020302E3731343520202020302E303030302043202020302020302020302020302020302020302020302020302020302020302020302020300A20202020302E3832353020202020302E3731343520202020302E303030302043202020302020302020302020302020302020302020302020302020302020302020302020300A20202020312E323337352020202D302E3030303020202020302E303030302043202020302020302020302020302020302020302020302020302020302020302020302020300A20202020302E383235302020202D302E3731343520202020302E303030302043202020302020302020302020302020302020302020302020302020302020302020302020300A2020202D302E303030302020202D302E3731343520202020302E303030302043202020302020302020302020302020302020302020302020302020302020302020302020300A2020202D312E3233373520202020302E3030303020202020302E303030302043202020302020302020302020302020302020302020302020302020302020302020302020300A2020312020322020312020302020202020200A2020322020332020312020302020202020200A2020332020342020312020302020202020200A2020342020352020312020302020202020200A2020352020362020312020302020202020200A2020312020362020312020302020202020200A2020312020372020322020302020202020200A4D2020454E44
Contributor: NARA WOMEN'S UNIVERSITY
InstType: EI
InstName: HITACHI M-80
IoniMethod: _ENERGY 70 eV
IonPolarity: pos
Date: 2010-10-09 19:48:36+02:00
Num Peaks: 36
15 32 18 15 26 40 27 286 28 97 29 112 38 52 39 520 40 127 41 325 
42 65 50 51 51 99 52 50 53 259 54 374 55 356 56 30 62 17 63 35 
65 76 66 74 67 744 68 524 69 38 77 65 78 20 79 121 80 22 81 999 
82 75 83 15 91 31 95 74 96 449 97 37 
