Name: ORTHO-AMINOPHENOL
MW: 109
Formula: C6H7NO
Synonym: MassBank: JP010467
Synonym: ORTHO-AMINOPHENOL
Synonym: ORTHO-HYDROXYANILINE
Structure: 310A32310A4F5254484F2D485944524F5859414E494C494E452E6D6F6C0A20204368656D447261773038313231303033333832440A2020382020382020302020302020302020302020302020302020302020303939392056323030300A2020202D312E323337352020202D302E3335373220202020302E30303030204E202020302020302020302020302020302020302020302020302020302020302020302020300A2020202D302E343132352020202D302E3335373220202020302E303030302043202020302020302020302020302020302020302020302020302020302020302020302020300A2020202D302E3030303020202020302E3335373220202020302E303030302043202020302020302020302020302020302020302020302020302020302020302020302020300A20202020302E3832353020202020302E3335373220202020302E303030302043202020302020302020302020302020302020302020302020302020302020302020302020300A20202020312E323337352020202D302E3335373220202020302E303030302043202020302020302020302020302020302020302020302020302020302020302020302020300A20202020302E383235302020202D312E3037313720202020302E303030302043202020302020302020302020302020302020302020302020302020302020302020302020300A2020202D302E303030302020202D312E3037313720202020302E303030302043202020302020302020302020302020302020302020302020302020302020302020302020300A2020202D302E3431323520202020312E3037313720202020302E30303030204F202020302020302020302020302020302020302020302020302020302020302020302020300A2020312020322020312020302020202020200A2020322020332020312020302020202020200A2020332020342020322020302020202020200A2020342020352020312020302020202020200A2020352020362020322020302020202020200A2020362020372020312020302020202020200A2020322020372020322020302020202020200A2020332020382020312020302020202020200A4D2020454E44
Contributor: TAJIMA S, GUNMA COLLEGE OF TECHNOLOGY
InstType: EI
InstName: HITACHI M-80A
IoniMethod: _ENERGY 70 eV
IonPolarity: pos
Date: 2010-10-09 19:48:36+02:00
Num Peaks: 34
26 35 27 84 28 99 29 37 30 13 37 24 38 52 39 96 40 30 41 48 
42 27 49 14 50 55 51 71 52 125 53 163 54 80 55 27 61 10 62 19 
63 80 64 77 65 32 66 13 76 10 78 17 79 16 80 519 81 61 91 19 
92 16 108 72 109 999 110 124 
