Name: CORONENE
MW: 300
Formula: C24H12
Synonym: MassBank: JP011798
Synonym: CORONENE
Structure: 434F524F4E454E452E6D6F6C0A20204368656D447261773039313531303034343232440A2032342033302020302020302020302020302020302020302020302020303939392056323030300A2020202D322E313433312020202D302E3431333620202020302E303030302043202020302020302020302020302020302020302020302020302020302020302020302020300A2020202D322E3134333120202020302E3431313420202020302E303030302043202020302020302020302020302020302020302020302020302020302020302020302020300A2020202D312E3432383620202020302E3832333920202020302E303030302043202020302020302020302020302020302020302020302020302020302020302020302020300A2020202D312E3432383620202020312E3635303020202020302E303030302043202020302020302020302020302020302020302020302020302020302020302020302020300A2020202D302E3731343620202020322E3036323220202020302E303030302043202020302020302020302020302020302020302020302020302020302020302020302020300A2020202D302E3030303420202020312E3634393920202020302E303030302043202020302020302020302020302020302020302020302020302020302020302020302020300A20202020302E3731343220202020322E3036323520202020302E303030302043202020302020302020302020302020302020302020302020302020302020302020302020300A20202020312E3432383620202020312E3635303020202020302E303030302043202020302020302020302020302020302020302020302020302020302020302020302020300A20202020312E3432383620202020302E3832353020202020302E303030302043202020302020302020302020302020302020302020302020302020302020302020302020300A20202020322E3134333120202020302E3431323520202020302E303030302043202020302020302020302020302020302020302020302020302020302020302020302020300A20202020322E313433312020202D302E3431323520202020302E303030302043202020302020302020302020302020302020302020302020302020302020302020302020300A20202020312E343238362020202D302E3832353020202020302E303030302043202020302020302020302020302020302020302020302020302020302020302020302020300A20202020312E343238362020202D312E3635303020202020302E303030302043202020302020302020302020302020302020302020302020302020302020302020302020300A20202020302E373134312020202D322E3036323520202020302E303030302043202020302020302020302020302020302020302020302020302020302020302020302020300A2020202D302E303030332020202D312E3635303020202020302E303030302043202020302020302020302020302020302020302020302020302020302020302020302020300A2020202D302E373134382020202D322E3036323520202020302E303030302043202020302020302020302020302020302020302020302020302020302020302020302020300A2020202D312E343239332020202D312E3635303020202020302E303030302043202020302020302020302020302020302020302020302020302020302020302020302020300A2020202D312E343239332020202D302E3832353020202020302E303030302043202020302020302020302020302020302020302020302020302020302020302020302020300A2020202D302E373134382020202D302E3431323520202020302E303030302043202020302020302020302020302020302020302020302020302020302020302020302020300A2020202D302E3731343820202020302E3431323520202020302E303030302043202020302020302020302020302020302020302020302020302020302020302020302020300A2020202D302E3030303320202020302E3832353020202020302E303030302043202020302020302020302020302020302020302020302020302020302020302020302020300A20202020302E3731343120202020302E3431323520202020302E303030302043202020302020302020302020302020302020302020302020302020302020302020302020300A20202020302E373134312020202D302E3431323520202020302E303030302043202020302020302020302020302020302020302020302020302020302020302020302020300A2020202D302E303030332020202D302E3832353020202020302E303030302043202020302020302020302020302020302020302020302020302020302020302020302020300A2020312020322020312020302020202020200A2020322020332020322020302020202020200A2020332020342020312020302020202020200A2020342020352020322020302020202020200A2020352020362020312020302020202020200A2020362020372020322020302020202020200A2020372020382020312020302020202020200A2020382020392020322020302020202020200A2020392031302020312020302020202020200A2031302031312020322020302020202020200A2031312031322020312020302020202020200A2031322031332020322020302020202020200A2031332031342020312020302020202020200A2031342031352020322020302020202020200A2031352031362020312020302020202020200A2031362031372020322020302020202020200A2031372031382020312020302020202020200A2020312031382020322020302020202020200A2031382031392020312020302020202020200A2031392032302020312020302020202020200A2020332032302020312020302020202020200A2032302032312020322020302020202020200A2020362032312020312020302020202020200A2032312032322020312020302020202020200A2020392032322020312020302020202020200A2032322032332020322020302020202020200A2031322032332020312020302020202020200A2032332032342020312020302020202020200A2031352032342020312020302020202020200A2031392032342020322020302020202020200A4D2020454E44
Contributor: TAJIMA S, GUNMA COLLEGE OF TECHNOLOGY
InstType: EI
InstName: HITACHI M-80A
IoniMethod: _ENERGY 70 eV
IonPolarity: pos
Date: 2010-10-09 19:48:36+02:00
Num Peaks: 38
39 40 41 26 42 16 43 25 50 18 51 23 53 30 54 15 55 18 62 13 
63 14 69 16 74 13 77 13 81 24 82 15 105 19 110 36 135 20 136 23 
137 12 147 17 148 33 149 87 150 149 272 13 274 13 275 13 276 63 294 25 
295 27 296 92 297 56 298 197 299 121 300 999 301 238 302 40 
