Name: MassBank: JP011512
MW: 485
Formula: C27H23N3O4S
Synonym: MassBank: JP011512
Synonym: 4,7-DI(4-METHOXYPHENYL)-6-(3,4-DIMETHOXYPHENYL)-1,2.5-THIADIAZOLO(3,4-C)PYRIDINE
Structure: 342C372D444928342D4D4554484F58595048454E594C292D362D28332C342D44494D4554484F58595048454E594C292D312C322E352D544849414449415A4F4C4F28332C342D43295059524944494E452E6D6F6C0A20204368656D447261773130313831303137323532440A2033352033392020302020302020302020302020302020302020302020303939392056323030300A20202020302E383235302020202D312E3135313420202020302E303030302043202020302020302020302020302020302020302020302020302020302020302020302020300A20202020302E343132352020202D312E3836353920202020302E303030302043202020302020302020302020302020302020302020302020302020302020302020302020300A2020202D302E343132352020202D312E3836353920202020302E303030302043202020302020302020302020302020302020302020302020302020302020302020302020300A2020202D302E383235302020202D312E3135313420202020302E303030302043202020302020302020302020302020302020302020302020302020302020302020302020300A2020202D302E343132352020202D302E3433363920202020302E303030302043202020302020302020302020302020302020302020302020302020302020302020302020300A20202020302E343132352020202D302E3433363920202020302E30303030204E202020302020302020302020302020302020302020302020302020302020302020302020300A20202020302E303030302020202D332E3133353420202020302E303030302053202020302020302020302020302020302020302020302020302020302020302020302020300A20202020302E363637342020202D322E3635303520202020302E30303030204E202020302020302020302020302020302020302020302020302020302020302020302020300A2020202D302E363637342020202D322E3635303520202020302E30303030204E202020302020302020302020302020302020302020302020302020302020302020302020300A2020202D302E3832353020202020302E3237373520202020302E303030302043202020302020302020302020302020302020302020302020302020302020302020302020300A2020202D312E3635303020202020302E3237373520202020302E303030302043202020302020302020302020302020302020302020302020302020302020302020302020300A2020202D322E3036323520202020302E3939323020202020302E303030302043202020302020302020302020302020302020302020302020302020302020302020302020300A2020202D312E3635303020202020312E3730363520202020302E303030302043202020302020302020302020302020302020302020302020302020302020302020302020300A2020202D302E3832353020202020312E3730363520202020302E303030302043202020302020302020302020302020302020302020302020302020302020302020302020300A2020202D302E3431323520202020302E3939323020202020302E303030302043202020302020302020302020302020302020302020302020302020302020302020302020300A2020202D322E3036323520202020322E3432313020202020302E30303030204F202020302020302020302020302020302020302020302020302020302020302020302020300A2020202D312E3635303020202020332E3133353420202020302E303030302043202020302020302020302020302020302020302020302020302020302020302020302020300A2020202D322E3838373520202020302E3939323020202020302E30303030204F202020302020302020302020302020302020302020302020302020302020302020302020300A2020202D332E3330303020202020312E3730363520202020302E303030302043202020302020302020302020302020302020302020302020302020302020302020302020300A2020202D312E363530302020202D312E3135313420202020302E303030302043202020302020302020302020302020302020302020302020302020302020302020302020300A2020202D322E303632352020202D312E3836353920202020302E303030302043202020302020302020302020302020302020302020302020302020302020302020302020300A2020202D322E383837352020202D312E3836353920202020302E303030302043202020302020302020302020302020302020302020302020302020302020302020302020300A2020202D332E333030302020202D312E3135313420202020302E303030302043202020302020302020302020302020302020302020302020302020302020302020302020300A2020202D322E383837352020202D302E3433363920202020302E303030302043202020302020302020302020302020302020302020302020302020302020302020302020300A2020202D322E303632352020202D302E3433363920202020302E303030302043202020302020302020302020302020302020302020302020302020302020302020302020300A2020202D342E313235302020202D312E3135313420202020302E30303030204F202020302020302020302020302020302020302020302020302020302020302020302020300A2020202D342E353337352020202D312E3836353920202020302E303030302043202020302020302020302020302020302020302020302020302020302020302020302020300A20202020312E363530302020202D312E3135313420202020302E303030302043202020302020302020302020302020302020302020302020302020302020302020302020300A20202020322E303632352020202D302E3433363920202020302E303030302043202020302020302020302020302020302020302020302020302020302020302020302020300A20202020322E383837352020202D302E3433363920202020302E303030302043202020302020302020302020302020302020302020302020302020302020302020302020300A20202020332E333030302020202D312E3135313420202020302E303030302043202020302020302020302020302020302020302020302020302020302020302020302020300A20202020322E383837352020202D312E3836353920202020302E303030302043202020302020302020302020302020302020302020302020302020302020302020302020300A20202020322E303632352020202D312E3836353920202020302E303030302043202020302020302020302020302020302020302020302020302020302020302020302020300A20202020342E313235302020202D312E3135313420202020302E30303030204F202020302020302020302020302020302020302020302020302020302020302020302020300A20202020342E353337352020202D312E3836353920202020302E303030302043202020302020302020302020302020302020302020302020302020302020302020302020300A2020312020322020312020302020202020200A2020322020332020312020302020202020200A2020332020342020312020302020202020200A2020342020352020322020302020202020200A2020352020362020312020302020202020200A2020312020362020322020302020202020200A2020372020382020312020302020202020200A2020372020392020312020302020202020200A2020322020382020322020302020202020200A2020332020392020322020302020202020200A2031302031312020312020302020202020200A2031312031322020322020302020202020200A2031322031332020312020302020202020200A2031332031342020322020302020202020200A2031342031352020312020302020202020200A2031302031352020322020302020202020200A2031362031372020312020302020202020200A2031332031362020312020302020202020200A2031382031392020312020302020202020200A2031322031382020312020302020202020200A2020352031302020312020302020202020200A2032302032312020312020302020202020200A2032312032322020322020302020202020200A2032322032332020312020302020202020200A2032332032342020322020302020202020200A2032342032352020312020302020202020200A2032302032352020322020302020202020200A2032362032372020312020302020202020200A2032332032362020312020302020202020200A2020342032302020312020302020202020200A2032382032392020312020302020202020200A2032392033302020322020302020202020200A2033302033312020312020302020202020200A2033312033322020322020302020202020200A2033322033332020312020302020202020200A2032382033332020322020302020202020200A2033342033352020312020302020202020200A2033312033342020312020302020202020200A2020312032382020312020302020202020200A4D2020454E44
Contributor: TASHIRO M, INST. OF ADVANCED MATERIAL STUDY KYUSHU UNIV.
InstType: EI
InstName: JEOL JMS-01-SG-2
IoniMethod: _ENERGY 75 eV
IonPolarity: pos
Date: 2010-10-09 19:48:36+02:00
Num Peaks: 27
30 183 32 121 41 279 43 372 45 131 51 114 55 247 57 312 69 143 71 105 
73 93 77 202 79 144 91 163 95 140 105 170 107 159 111 100 131 99 173 95 
253 101 454 217 47 106 484 342 485 999 486 339 487 121 
