Name: PHENYL TRIFLUOROACETATE
MW: 190
Formula: C8H5F3O2
Synonym: MassBank: JP011271
Synonym: PHENYL TRIFLUOROACETATE
Synonym: TRIFLUOROACETIC ACID PHENYL ESTER
Structure: 545249464C554F524F4143455449432041434944205048454E594C2045535445522E6D6F6C0A20204368656D447261773038313231303038333632440A2031332031332020302020302020302020302020302020302020302020303939392056323030300A20202020302E363138382020202D302E3330323020202020302E303030302043202020302020302020302020302020302020302020302020302020302020302020302020300A20202020312E343433382020202D302E3330323020202020302E303030302043202020302020302020302020302020302020302020302020302020302020302020302020300A20202020302E323036322020202D312E3031363420202020302E30303030204F202020302020302020302020302020302020302020302020302020302020302020302020300A20202020302E3230363220202020302E3431323520202020302E30303030204F202020302020302020302020302020302020302020302020302020302020302020302020300A20202020312E3434333820202020302E3532333020202020302E303030302046202020302020302020302020302020302020302020302020302020302020302020302020300A20202020322E323638382020202D302E3330323020202020302E303030302046202020302020302020302020302020302020302020302020302020302020302020302020300A20202020312E343433382020202D312E3132373020202020302E303030302046202020302020302020302020302020302020302020302020302020302020302020302020300A2020202D302E3631383820202020302E3431323520202020302E303030302043202020302020302020302020302020302020302020302020302020302020302020302020300A2020202D312E303331332020202D302E3330323020202020302E303030302043202020302020302020302020302020302020302020302020302020302020302020302020300A2020202D312E383536322020202D302E3330323020202020302E303030302043202020302020302020302020302020302020302020302020302020302020302020302020300A2020202D322E3236383820202020302E3431323520202020302E303030302043202020302020302020302020302020302020302020302020302020302020302020302020300A2020202D312E3835363320202020312E3132373020202020302E303030302043202020302020302020302020302020302020302020302020302020302020302020302020300A2020202D312E3033313320202020312E3132373020202020302E303030302043202020302020302020302020302020302020302020302020302020302020302020302020300A2020312020322020312020302020202020200A2020312020332020322020302020202020200A2020312020342020312020302020202020200A2020322020352020312020302020202020200A2020322020362020312020302020202020200A2020322020372020312020302020202020200A2020382020392020312020302020202020200A2020392031302020322020302020202020200A2031302031312020312020302020202020200A2031312031322020322020302020202020200A2031322031332020312020302020202020200A2020382031332020322020302020202020200A2020342020382020312020302020202020200A4D2020454E44
Contributor: TAJIMA S, GUNMA COLLEGE OF TECHNOLOGY
InstType: EI
InstName: HITACHI M-80A
IoniMethod: _ENERGY 70 eV
IonPolarity: pos
Date: 2010-10-09 19:48:36+02:00
Num Peaks: 44
26 23 27 28 29 17 31 33 37 52 38 145 39 547 40 38 45 46 49 18 
50 200 51 212 52 12 53 20 55 13 61 31 62 66 63 157 64 70 65 999 
66 96 69 593 70 15 73 11 74 43 75 26 76 23 77 383 78 34 84 16 
92 17 93 208 94 106 95 17 96 122 97 26 114 18 115 10 121 45 143 46 
162 204 163 16 190 522 191 48 
