Name: MassBank: JP011845
MW: 191
Formula: C10H13N3O
Synonym: MassBank: JP011845
Synonym: 3H,4H-3-TERT-BUTYLPYRRO(1,2-D)(1,2,4)TRIAZIN-4-ONE
Structure: 313132325F33482C34482D332D544552542D425554594C505952524F28312C322D442928312C322C3429545249415A494E2D342D4F4E452E6D6F6C0A20204368656D447261773130323031303230333632440A2031342031352020302020302020302020302020302020302020302020303939392056323030300A2020202D312E353135342020202D302E3736303420202020302E303030302043202020302020302020302020302020302020302020302020302020302020302020302020300A2020202D312E353135342020202D312E3538353420202020302E303030302043202020302020302020302020302020302020302020302020302020302020302020302020300A2020202D302E373330382020202D312E3834303420202020302E303030302043202020302020302020302020302020302020302020302020302020302020302020302020300A2020202D302E323435392020202D312E3137323920202020302E303030302043202020302020302020302020302020302020302020302020302020302020302020302020300A2020202D302E373239382020202D302E3530363320202020302E30303030204E202020302020302020302020302020302020302020302020302020302020302020302020300A20202020302E353734362020202D312E3038363720202020302E303030302043202020302020302020302020302020302020302020302020302020302020302020302020300A20202020302E393130342020202D302E3333333220202020302E30303030204E202020302020302020302020302020302020302020302020302020302020302020302020300A20202020302E3432353920202020302E3333333420202020302E30303030204E202020302020302020302020302020302020302020302020302020302020302020302020300A2020202D302E3339353220202020302E3234383220202020302E303030302043202020302020302020302020302020302020302020302020302020302020302020302020300A2020202D302E3838303020202020302E3931353620202020302E30303030204F202020302020302020302020302020302020302020302020302020302020302020302020300A20202020302E3736313920202020312E3038363920202020302E303030302043202020302020302020302020302020302020302020302020302020302020302020302020300A20202020302E3030383420202020312E3432323920202020302E303030302043202020302020302020302020302020302020302020302020302020302020302020302020300A20202020312E3039373920202020312E3834303420202020302E303030302043202020302020302020302020302020302020302020302020302020302020302020302020300A20202020312E3531353420202020302E3735303920202020302E303030302043202020302020302020302020302020302020302020302020302020302020302020302020300A2020312020322020322020302020202020200A2020322020332020312020302020202020200A2020332020342020322020302020202020200A2020342020352020312020302020202020200A2020352020312020312020302020202020200A2020342020362020312020302020202020200A2020362020372020322020302020202020200A2020372020382020312020302020202020200A2020382020392020312020302020202020200A2020392020352020312020302020202020200A2020392031302020322020302020202020200A2020382031312020312020302020202020200A2031312031322020312020302020202020200A2031312031332020312020302020202020200A2031312031342020312020302020202020200A4D2020454E44
Contributor: YOSHIKI O, FAC, TECHNOLOGY, OSAKA UNIV.
InstType: EI
InstName: Unknown
IoniMethod: _ENERGY 70 eV
IonPolarity: pos
Date: 2010-10-09 19:48:36+02:00
Num Peaks: 21
50 38 51 129 52 114 53 33 54 10 55 27 56 41 57 95 64 23 65 23 
66 23 78 32 79 361 80 26 84 10 93 17 106 12 135 999 136 99 191 113 
192 15 
