Name: MassBank: JP011419
MW: 288
Formula: C19H28O2
Synonym: MassBank: JP011419
Synonym: 5ALPHA-ANDROSTANE-3,17-DIONE
Synonym: ANDROSTADIONE
Structure: 35414C5048412D414E44524F5354414E452D332C31372D44494F4E452E6D6F6C0A20204368656D447261773034323331303037353332440A2032352032382020302020302020302020302020302020302020302020303939392056323030300A2020202D322E303633372020202D312E3133383520202020302E303030302043202020302020302020302020302020302020302020302020302020302020302020302020300A2020202D322E303633372020202D302E3331333520202020302E303030302043202020302020302020302020302020302020302020302020302020302020302020302020300A2020202D312E3334393220202020302E3039393020202020302E303030302043202020302020302020302020302020302020302020302020302020302020302020302020300A2020202D312E333439322020202D312E3535313020202020302E303030302043202020302020302020302020302020302020302020302020302020302020302020302020300A2020202D302E363334382020202D312E3133383520202020302E303030302043202020302020302020302020302020302020302020302020302020302020302020302020300A20202020302E303739372020202D312E3535313020202020302E303030302043202020302020302020302020302020302020302020302020302020302020302020302020300A20202020302E373934322020202D312E3133383520202020302E303030302043202020302020302020302020302020302020302020302020302020302020302020302020300A20202020302E373934322020202D302E3331333520202020302E303030302043202020302020302020302020302020302020302020302020302020302020302020302020300A20202020312E3530383620202020302E3039393020202020302E303030302043202020302020302020302020302020302020302020302020302020302020302020302020300A20202020322E323933332020202D302E3135363020202020302E303030302043202020302020302020302020302020302020302020302020302020302020302020302020300A20202020322E3737383220202020302E3531313520202020302E303030302043202020302020302020302020302020302020302020302020302020302020302020302020300A20202020322E3239333320202020312E3137383920202020302E303030302043202020302020302020302020302020302020302020302020302020302020302020302020300A20202020312E3530383620202020302E3932343020202020302E303030302043202020302020302020302020302020302020302020302020302020302020302020302020300A20202020312E3530383620202020312E3734393020202020302E303030302043202020302020302020302020302020302020302020302020302020302020302020302020300A20202020302E3739343220202020312E3333363520202020302E303030302043202020302020302020302020302020302020302020302020302020302020302020302020300A20202020302E3037393720202020302E3932343020202020302E303030302043202020302020302020302020302020302020302020302020302020302020302020302020300A20202020302E3037393720202020302E3039393020202020302E303030302043202020302020302020302020302020302020302020302020302020302020302020302020300A2020202D302E363334382020202D302E3331333520202020302E303030302043202020302020302020302020302020302020302020302020302020302020302020302020300A2020202D302E3633343820202020302E3531313520202020302E303030302043202020302020302020302020302020302020302020302020302020302020302020302020300A2020202D322E373738322020202D312E3535313020202020302E30303030204F202020302020302020302020302020302020302020302020302020302020302020302020300A20202020322E3534383220202020312E3936333520202020302E30303030204F202020302020302020302020302020302020302020302020302020302020302020302020300A2020202D302E363334382020202D312E3936333520202020302E303030302048202020302020302020302020302020302020302020302020302020302020302020302020300A20202020302E303739372020202D302E3732363020202020302E303030302048202020302020302020302020302020302020302020302020302020302020302020302020300A20202020302E3739343220202020302E3531313520202020302E303030302048202020302020302020302020302020302020302020302020302020302020302020302020300A20202020312E353038362020202D302E3732363020202020302E303030302048202020302020302020302020302020302020302020302020302020302020302020302020300A2020312020322020312020302020202020200A2020322020332020312020302020202020200A2020312020342020312020302020202020200A2020342020352020312020302020202020200A2020352020362020312020302020202020200A2020362020372020312020302020202020200A2020372020382020312020302020202020200A2020382020392020312020302020202020200A2020392031302020312020302020202020200A2031302031312020312020302020202020200A2031312031322020312020302020202020200A2031322031332020312020302020202020200A2020392031332020312020302020202020200A2031332031342020312020312020202020200A2031332031352020312020302020202020200A2031352031362020312020302020202020200A2031362031372020312020302020202020200A2020382031372020312020302020202020200A2031372031382020312020302020202020200A2020332031382020312020302020202020200A2020352031382020312020302020202020200A2031382031392020312020312020202020200A2020312032302020322020302020202020200A2031322032312020322020302020202020200A2020352032322020312020362020202020200A2031372032332020312020362020202020200A2020382032342020312020312020202020200A2020392032352020312020362020202020200A4D2020454E44
Contributor: HASHIMOTO K, KYOTO COLLEGE OF PHARMACY
InstType: EI
InstName: HITACHI M-80
IoniMethod: _ENERGY 20 eV
IonPolarity: pos
Date: 2010-10-09 19:48:36+02:00
Num Peaks: 106
43 14 55 40 67 47 68 30 69 23 79 27 80 12 81 83 82 33 83 24 
91 15 93 76 94 30 95 82 96 23 97 170 98 18 105 50 106 29 107 82 
108 99 109 157 110 122 111 52 118 19 119 54 120 50 121 110 122 85 123 96 
124 243 125 34 131 28 132 15 133 49 134 46 135 76 136 45 137 42 138 16 
143 12 144 11 145 38 146 33 147 101 148 33 149 43 150 14 151 29 157 19 
158 17 159 51 160 47 161 72 162 40 163 86 164 46 165 35 171 28 172 16 
173 37 174 44 175 58 176 31 177 20 178 10 179 11 185 13 186 12 187 31 
188 24 189 33 190 22 191 11 192 13 197 18 199 51 200 14 201 17 203 18 
204 21 211 25 212 14 213 44 214 16 215 31 216 74 217 364 218 74 219 11 
228 11 229 181 230 43 231 135 232 121 233 30 244 399 245 90 246 35 255 25 
270 17 273 101 274 23 288 999 289 206 290 26 
