Name: MassBank: JP012020
MW: 146
Formula: C6H18Si2
Synonym: MassBank: JP012020
Synonym: 1,2-BIS(DIMETHYLSILYL)ETHANE (D6)
Structure: 312C322D4249532844494D455448594C53494C594C29455448414E4520284436292E6D6F6C0A20204368656D447261773131303330393232323132440A2031342031332020302020302020302020302020302020302020302020303939392056323030300A2020202D322E3036323520202020302E3030303020202020302E303030302043202020302020302020302020302020302020302020302020302020302020302020302020300A2020202D312E3233373520202020302E3030303020202020302E303030302053692020302020302020302020302020302020302020302020302020302020302020302020300A2020202D302E3431323520202020302E3030303020202020302E303030302043202020302020302020302020302020302020302020302020302020302020302020302020300A2020202D312E3233373520202020302E3832353020202020302E303030302048202020312020302020302020302020302020302020302020302020302020302020302020300A2020202D312E323337352020202D302E3832353020202020302E303030302043202020302020302020302020302020302020302020302020302020302020302020302020300A20202020302E3431323520202020302E3030303020202020302E303030302043202020302020302020302020302020302020302020302020302020302020302020302020300A2020202D302E3431323520202020302E3832353020202020302E303030302048202020312020302020302020302020302020302020302020302020302020302020302020300A2020202D302E343132352020202D302E3832353020202020302E303030302048202020312020302020302020302020302020302020302020302020302020302020302020300A20202020312E3233373520202020302E3030303020202020302E303030302053692020302020302020302020302020302020302020302020302020302020302020302020300A20202020302E3431323520202020302E3832353020202020302E303030302048202020312020302020302020302020302020302020302020302020302020302020302020300A20202020302E343132352020202D302E3832353020202020302E303030302048202020312020302020302020302020302020302020302020302020302020302020302020300A20202020322E3036323520202020302E3030303020202020302E303030302043202020302020302020302020302020302020302020302020302020302020302020302020300A20202020312E3233373520202020302E3832353020202020302E303030302043202020302020302020302020302020302020302020302020302020302020302020302020300A20202020312E323337352020202D302E3832353020202020302E303030302048202020312020302020302020302020302020302020302020302020302020302020302020300A2020312020322020312020302020202020200A2020322020332020312020302020202020200A2020322020342020312020302020202020200A2020322020352020312020302020202020200A2020332020362020312020302020202020200A2020332020372020312020312020202020200A2020332020382020312020312020202020200A2020362020392020312020302020202020200A2020362031302020312020312020202020200A2020362031312020312020312020202020200A2020392031322020312020302020202020200A2020392031332020312020302020202020200A2020392031342020312020302020202020200A4D202049534F2020362020203420202032202020372020203220202038202020322020313020202032202031312020203220203134202020320A4D2020454E44
Contributor: YAMAMOTO M, DEP. CHEMISTRY, FAC. SCIENCE, NARA WOMEN'S UNIV.
InstType: EI
InstName: HITACHI RMU-6M
IoniMethod: _ENERGY 70 eV
IonPolarity: pos
Date: 2010-10-09 19:48:36+02:00
Num Peaks: 44
28 27 29 39 30 16 31 84 32 69 42 13 43 211 44 78 45 71 46 36 
47 65 56 11 57 16 58 309 59 56 60 999 61 91 62 42 73 143 74 31 
75 142 76 24 77 65 86 13 88 44 89 44 90 902 91 93 92 100 103 38 
104 18 105 311 106 40 107 22 116 67 117 15 118 45 120 11 137 193 138 25 
139 13 150 44 152 71 153 11 
