Name: BENZOFUROXAN
CAS: 480-96-6
MW: 136
Formula: C6H4N2O2
Synonym: MassBank: JP010516
Synonym: BENZOFUROXAN
Synonym: BENZOFURAN 1-OXIDE
Structure: 42454E5A4F4655524F58414E2E6D6F6C0A20204368656D447261773039303331303134303632440A2031302031312020302020302020302020302020302020302020302020303939392056323030300A20202020302E3133353020202020302E3932313920202020302E30303030204E202020302020332020302020302020302020302020302020302020302020302020302020300A20202020302E3638373120202020312E3533353020202020302E30303030204F202020302020352020302020302020302020302020302020302020302020302020302020300A2020202D302E3638353520202020312E3030383220202020302E30303030204F202020302020302020302020302020302020302020302020302020302020302020302020300A2020202D312E3032313020202020302E3235343520202020302E30303030204E202020302020302020302020302020302020302020302020302020302020302020302020300A2020202D302E343037392020202D302E3239373520202020302E303030302043202020302020302020302020302020302020302020302020302020302020302020302020300A2020202D302E343037392020202D312E3132323520202020302E303030302043202020302020302020302020302020302020302020302020302020302020302020302020300A20202020302E333036352020202D312E3533353020202020302E303030302043202020302020302020302020302020302020302020302020302020302020302020302020300A20202020312E303231302020202D312E3132323520202020302E303030302043202020302020302020302020302020302020302020302020302020302020302020302020300A20202020312E303231302020202D302E3239373520202020302E303030302043202020302020302020302020302020302020302020302020302020302020302020302020300A20202020302E3330363520202020302E3131353020202020302E303030302043202020302020302020302020302020302020302020302020302020302020302020302020300A2020312020322020312020302020202020200A2020312020332020312020302020202020200A2020332020342020312020302020202020200A2020342020352020322020302020202020200A2020352020362020312020302020202020200A2020362020372020322020302020202020200A2020372020382020312020302020202020200A2020382020392020322020302020202020200A2020392031302020312020302020202020200A2020352031302020312020302020202020200A2020312031302020322020302020202020200A4D202043484720203220202031202020312020203220202D310A4D2020454E44
Contributor: NARA WOMEN'S UNIVERSITY
InstType: EI
InstName: HITACHI M-80
IoniMethod: _ENERGY 70 eV
IonPolarity: pos
Date: 2010-10-09 19:48:36+02:00
Num Peaks: 22
27 22 28 11 30 151 37 22 38 23 39 48 50 134 51 127 52 39 62 13 
63 32 64 22 74 43 75 37 76 115 77 12 78 46 90 11 120 14 136 999 
137 351 138 33 
