Name: MassBank: JP011163
MW: 209
Formula: C9H11N3O3
Synonym: MassBank: JP011163
Synonym: 1,3-DIMETHYL-1,9A-DIHYDRO-2H-PYRIMIDO(1,2-A)(1,3,5)TRIAZINE-2,4,8(3H,9H)-TRIONE
Structure: 312C332D44494D455448594C2D312C39412D4449485944524F2D32482D505952494D49444F28312C322D412928312C332C3529545249415A494E452D322C342C382833482C3948292D5452494F4E452E6D6F6C0A20204368656D447261773131313230393131333832440A2031372031382020302020302020302020302020302020302020302020303939392056323030300A20202020302E3230363320202020302E3335373220202020302E30303030204E202020302020302020302020302020302020302020302020302020302020302020302020300A2020202D302E323036332020202D302E3335373220202020302E303030302043202020302020302020302020302020302020302020302020302020302020302020302020300A20202020302E323036332020202D312E3037313720202020302E30303030204E202020302020302020302020302020302020302020302020302020302020302020302020300A20202020312E303331332020202D312E3037313720202020302E303030302043202020302020302020302020302020302020302020302020302020302020302020302020300A20202020312E343433382020202D302E3335373220202020302E30303030204E202020302020302020302020302020302020302020302020302020302020302020302020300A20202020312E3033313320202020302E3335373220202020302E303030302043202020302020302020302020302020302020302020302020302020302020302020302020300A2020202D312E303331332020202D302E3335373220202020302E30303030204E202020302020302020302020302020302020302020302020302020302020302020302020300A2020202D312E3434333820202020302E3335373220202020302E303030302043202020302020302020302020302020302020302020302020302020302020302020302020300A2020202D312E3033313320202020312E3037313720202020302E303030302043202020302020302020302020302020302020302020302020302020302020302020302020300A2020202D302E3230363320202020312E3037313720202020302E303030302043202020302020302020302020302020302020302020302020302020302020302020302020300A20202020312E343433382020202D312E3738363220202020302E30303030204F202020302020302020302020302020302020302020302020302020302020302020302020300A20202020312E3434333820202020312E3037313720202020302E30303030204F202020302020302020302020302020302020302020302020302020302020302020302020300A2020202D322E3236383820202020302E3335373220202020302E30303030204F202020302020302020302020302020302020302020302020302020302020302020302020300A20202020322E323638382020202D302E3335373220202020302E303030302043202020302020302020302020302020302020302020302020302020302020302020302020300A2020202D302E323036322020202D312E3738363220202020302E303030302043202020302020302020302020302020302020302020302020302020302020302020302020300A2020202D312E3434333820202020312E3738363220202020302E303030302048202020302020302020302020302020302020302020302020302020302020302020302020300A20202020302E3230363220202020312E3738363220202020302E303030302048202020302020302020302020302020302020302020302020302020302020302020302020300A2020312020322020312020302020202020200A2020322020332020312020302020202020200A2020332020342020312020302020202020200A2020342020352020312020302020202020200A2020352020362020312020302020202020200A2020312020362020312020302020202020200A2020372020382020312020302020202020200A2020382020392020312020302020202020200A2020392031302020322020302020202020200A2020312031302020312020302020202020200A2020322020372020312020302020202020200A2020342031312020322020302020202020200A2020362031322020322020302020202020200A2020382031332020322020302020202020200A2020352031342020312020302020202020200A2020332031352020312020302020202020200A2020392031362020312020302020202020200A2031302031372020312020302020202020200A4D2020454E44
Contributor: SAWADA M, THE INST. OF SCIENTIFIC AND INDUSTRIALRESEARCH OSAKA UNIV.
InstType: EI
InstName: JEOL JMS-DX-300
IoniMethod: _ENERGY 70 eV
IonPolarity: pos
Date: 2010-10-09 19:48:36+02:00
Num Peaks: 90
38 25 39 139 40 361 41 202 42 498 43 100 44 189 45 19 46 10 50 12 
51 28 52 46 53 81 54 159 55 130 56 227 57 149 58 117 60 16 61 10 
63 10 64 18 65 38 66 43 67 582 68 282 69 84 70 58 71 22 73 18 
76 16 77 46 78 14 79 13 80 14 81 30 82 52 83 63 84 61 85 20 
91 13 92 21 93 87 94 91 95 282 96 663 97 68 98 69 99 13 105 28 
106 22 107 30 108 17 109 43 110 16 111 20 112 10 113 48 116 18 119 11 
121 10 122 17 123 26 124 32 125 16 126 30 127 190 128 28 130 11 135 22 
137 17 141 11 142 10 143 11 149 30 151 89 152 26 157 31 166 11 167 18 
171 28 179 20 180 537 181 383 182 45 194 18 208 104 209 999 210 148 211 19 
