Name: MassBank: JP010157
MW: 264
Formula: C17H28O2
Synonym: MassBank: JP010157
Synonym: 3,7,11-TRIMETHYL-(2,6Z,10E)-DODECATRIENE-1-CARBOXYLIC ACID ETHYL ESTER
Structure: 332C372C31312D5452494D455448594C2D28322C365A2C313045292D444F44454341545249454E452D312D434152424F58594C4943204143494420455448594C2045535445522E6D6F6C0A20204368656D447261773032323231303033303932440A2031392031382020302020302020302020302020302020302020302020303939392056323030300A20202020322E3236383820202020312E3037313720202020302E303030302043202020302020302020302020302020302020302020302020302020302020302020302020300A20202020312E3835363220202020302E3335373220202020302E303030302043202020302020302020302020302020302020302020302020302020302020302020302020300A20202020312E3033313320202020302E3335373220202020302E303030302043202020302020302020302020302020302020302020302020302020302020302020302020300A20202020302E363138372020202D302E3335373220202020302E303030302043202020302020302020302020302020302020302020302020302020302020302020302020300A2020202D302E323036322020202D302E3335373220202020302E303030302043202020302020302020302020302020302020302020302020302020302020302020302020300A2020202D302E363138372020202D312E3037313720202020302E303030302043202020302020302020302020302020302020302020302020302020302020302020302020300A2020202D312E343433372020202D312E3037313720202020302E303030302043202020302020302020302020302020302020302020302020302020302020302020302020300A2020202D312E383536332020202D302E3335373220202020302E303030302043202020302020302020302020302020302020302020302020302020302020302020302020300A2020202D322E363831322020202D302E3335373220202020302E303030302043202020302020302020302020302020302020302020302020302020302020302020302020300A2020202D332E3039333720202020302E3335373220202020302E303030302043202020302020302020302020302020302020302020302020302020302020302020302020300A2020202D332E3931383720202020302E3335373220202020302E303030302043202020302020302020302020302020302020302020302020302020302020302020302020300A2020202D342E3333313220202020312E3037313720202020302E303030302043202020302020302020302020302020302020302020302020302020302020302020302020300A20202020332E3039333820202020312E3037313720202020302E30303030204F202020302020302020302020302020302020302020302020302020302020302020302020300A2020202D342E333331332020202D302E3335373220202020302E303030302043202020302020302020302020302020302020302020302020302020302020302020302020300A2020202D312E383536322020202D312E3738363220202020302E303030302043202020302020302020302020302020302020302020302020302020302020302020302020300A20202020302E3631383720202020312E3037313720202020302E303030302043202020302020302020302020302020302020302020302020302020302020302020302020300A20202020312E3835363320202020312E3738363220202020302E30303030204F202020302020302020302020302020302020302020302020302020302020302020302020300A20202020332E3530363320202020312E3738363220202020302E303030302043202020302020302020302020302020302020302020302020302020302020302020302020300A20202020342E3333313320202020312E3738363220202020302E303030302043202020302020302020302020302020302020302020302020302020302020302020302020300A2020312020322020312020302020202020200A2020322020332020322020302020202020200A2020332020342020312020302020202020200A2020342020352020312020302020202020200A2020352020362020312020302020202020200A2020362020372020322020302020202020200A2020372020382020312020302020202020200A2020382020392020312020302020202020200A2020392031302020312020302020202020200A2031302031312020322020302020202020200A2031312031322020312020302020202020200A2020312031332020312020302020202020200A2031312031342020312020302020202020200A2020372031352020312020302020202020200A2020332031362020312020302020202020200A2020312031372020322020302020202020200A2031332031382020312020302020202020200A2031382031392020312020302020202020200A4D2020454E44
Contributor: KURARAY CO., LTD.
InstType: EI
InstName: JEOL JMS-D-300
IoniMethod: _ENERGY 70 eV
IonPolarity: pos
Date: 2010-10-09 19:48:36+02:00
Num Peaks: 77
27 70 28 20 29 190 39 7 41 590 42 30 43 130 53 9 54 30 55 140 
57 30 65 3 67 130 68 80 69 999 70 7 71 30 77 50 79 130 80 5 
81 320 82 140 83 80 85 3 91 130 92 30 93 230 94 5 95 130 96 20 
97 20 100 10 105 80 106 60 107 550 108 8 109 290 110 30 111 40 113 5 
119 60 120 80 121 560 122 10 123 180 124 20 125 20 128 31 129 20 133 100 
134 30 135 6 136 60 137 140 139 40 141 5 142 30 147 150 148 30 149 33 
150 50 151 60 153 20 161 4 163 20 168 40 175 80 176 4 177 40 182 20 
191 30 194 3 207 20 219 20 221 170 222 2 264 170 
