Name: MassBank: JP010327
MW: 200
Formula: C10H16O4
Synonym: MassBank: JP010327
Synonym: TRANS-1,2-CYCLOHEXANEDICARBOXYLIC ACID DIMETHYL ESTER
Structure: 5452414E532D312C322D4359434C4F484558414E454449434152424F58594C494320414349442044494D455448594C2045535445522E6D6F6C0A20204368656D447261773038313231303037343432440A2031342031342020302020302020302020302020302020302020302020303939392056323030300A20202020302E3230363320202020302E3335373220202020302E303030302043202020302020302020302020302020302020302020302020302020302020302020302020300A2020202D302E323036332020202D302E3335373220202020302E303030302043202020302020302020302020302020302020302020302020302020302020302020302020300A2020202D312E303331322020202D302E3335373220202020302E303030302043202020302020302020302020302020302020302020302020302020302020302020302020300A2020202D312E3434333820202020302E3335373220202020302E303030302043202020302020302020302020302020302020302020302020302020302020302020302020300A2020202D312E3033313320202020312E3037313720202020302E303030302043202020302020302020302020302020302020302020302020302020302020302020302020300A2020202D302E3230363320202020312E3037313720202020302E303030302043202020302020302020302020302020302020302020302020302020302020302020302020300A20202020312E3033313220202020302E3335373220202020302E303030302043202020302020302020302020302020302020302020302020302020302020302020302020300A20202020312E343433382020202D302E3335373220202020302E30303030204F202020302020302020302020302020302020302020302020302020302020302020302020300A20202020312E3434333820202020312E3037313720202020302E30303030204F202020302020302020302020302020302020302020302020302020302020302020302020300A20202020302E323036332020202D312E3037313720202020302E303030302043202020302020302020302020302020302020302020302020302020302020302020302020300A20202020312E303331332020202D312E3037313720202020302E30303030204F202020302020302020302020302020302020302020302020302020302020302020302020300A2020202D302E323036322020202D312E3738363220202020302E30303030204F202020302020302020302020302020302020302020302020302020302020302020302020300A20202020312E3033313220202020312E3738363220202020302E303030302043202020302020302020302020302020302020302020302020302020302020302020302020300A2020202D312E303331322020202D312E3738363220202020302E303030302043202020302020302020302020302020302020302020302020302020302020302020302020300A2020312020322020312020302020202020200A2020322020332020312020302020202020200A2020332020342020312020302020202020200A2020342020352020312020302020202020200A2020352020362020312020302020202020200A2020312020362020312020302020202020200A2020372020382020322020302020202020200A2020372020392020312020302020202020200A2020312020372020312020312020202020200A2031302031312020322020302020202020200A2031302031322020312020302020202020200A2020322031302020312020362020202020200A2020392031332020312020302020202020200A2031322031342020312020302020202020200A4D2020454E44
Contributor: TAJIMA S, GUNMA COLLEGE OF TECHNOLOGY
InstType: EI
InstName: HITACHI M-80A
IoniMethod: _ENERGY 70 eV
IonPolarity: pos
Date: 2010-10-09 19:48:36+02:00
Num Peaks: 57
15 358 26 27 27 155 29 108 30 28 31 70 33 27 38 16 39 193 40 31 
41 240 42 36 43 237 45 51 50 11 51 31 52 25 53 139 54 139 55 90 
58 60 59 271 65 25 66 33 67 186 68 32 69 20 71 29 74 19 77 53 
78 13 79 147 80 248 81 999 82 117 83 12 87 26 97 10 99 15 100 14 
101 20 108 198 109 248 110 23 111 30 112 10 113 21 125 20 126 26 127 16 
136 14 140 466 141 141 142 14 168 291 169 235 170 26 
