Name: MassBank: JP010143
MW: 256
Formula: C16H16O3
Synonym: MassBank: JP010143
Synonym: 1,1-DIMETHOXY-1,2-DIPHENYL-2-OXOETHANE
Structure: 312C312D44494D4554484F58592D312C322D44495048454E594C2D322D4F584F455448414E452E6D6F6C0A20204368656D447261773130323330393130323832440A2031392032302020302020302020302020302020302020302020302020303939392056323030300A2020202D302E3030303520202020302E3435323220202020302E303030302043202020302020302020302020302020302020302020302020302020302020302020302020300A20202020302E3832343520202020302E3435323820202020302E303030302043202020302020302020302020302020302020302020302020302020302020302020302020300A20202020312E3233363520202020312E3136373620202020302E30303030204F202020302020302020302020302020302020302020302020302020302020302020302020300A20202020312E323337352020202D302E3236313320202020302E303030302043202020302020302020302020302020302020302020302020302020302020302020302020300A20202020302E383235352020202D302E3937363120202020302E303030302043202020302020302020302020302020302020302020302020302020302020302020302020300A20202020312E323338352020202D312E3639303320202020302E303030302043202020302020302020302020302020302020302020302020302020302020302020302020300A20202020322E303633352020202D312E3638393720202020302E303030302043202020302020302020302020302020302020302020302020302020302020302020302020300A20202020322E343735352020202D302E3937343920202020302E303030302043202020302020302020302020302020302020302020302020302020302020302020302020300A20202020322E303632352020202D302E3236303720202020302E303030302043202020302020302020302020302020302020302020302020302020302020302020302020300A2020202D302E3030313120202020312E3237373320202020302E30303030204F202020302020302020302020302020302020302020302020302020302020302020302020300A20202020302E303030312020202D302E3337323820202020302E30303030204F202020302020302020302020302020302020302020302020302020302020302020302020300A2020202D302E373134312020202D302E3738353820202020302E303030302043202020302020302020302020302020302020302020302020302020302020302020302020300A2020202D302E3832353520202020302E3435313720202020302E303030302043202020302020302020302020302020302020302020302020302020302020302020302020300A20202020302E3731333120202020312E3639303320202020302E303030302043202020302020302020302020302020302020302020302020302020302020302020302020300A2020202D312E3233383520202020312E3136353820202020302E303030302043202020302020302020302020302020302020302020302020302020302020302020302020300A2020202D322E3036333520202020312E3136353220202020302E303030302043202020302020302020302020302020302020302020302020302020302020302020302020300A2020202D322E3437353520202020302E3435303520202020302E303030302043202020302020302020302020302020302020302020302020302020302020302020302020300A2020202D322E303632352020202D302E3236333720202020302E303030302043202020302020302020302020302020302020302020302020302020302020302020302020300A2020202D312E323337352020202D302E3236333120202020302E303030302043202020302020302020302020302020302020302020302020302020302020302020302020300A2020312020322020312020302020202020200A2020322020332020322020302020202020200A2020342020352020312020302020202020200A2020352020362020322020302020202020200A2020362020372020312020302020202020200A2020372020382020322020302020202020200A2020382020392020312020302020202020200A2020342020392020322020302020202020200A2020322020342020312020302020202020200A2020312031302020312020312020202020200A2031312031322020312020302020202020200A2020312031312020312020312020202020200A2020312031332020312020302020202020200A2031302031342020312020302020202020200A2031332031352020322020302020202020200A2031352031362020312020302020202020200A2031362031372020322020302020202020200A2031372031382020312020302020202020200A2031382031392020322020302020202020200A2031392031332020312020302020202020200A4D2020454E44
Contributor: KURARAY CO., LTD.
InstType: EI
InstName: JEOL JMS-D-300
IoniMethod: _ENERGY 70 eV
IonPolarity: pos
Date: 2010-10-09 19:48:36+02:00
Num Peaks: 14
41 20 43 20 51 50 55 2 57 20 59 50 77 210 91 9 92 20 105 320 
106 20 151 999 152 100 225 40 
