Name: MassBank: JP010248
MW: 280
Formula: C15H20O5
Synonym: MassBank: JP010248
Synonym: DIMETHYL CIS-4-(3-METHYL-1-OXO-2-BUTENYL)-4-CYCLOHEXENE-1,2-DICARBOXYLATE
Synonym: DIMETHYL (1R,2S)-4-(3-METHYL-1-OXO-2-BUTENYL)-4-CYCLOHEXENE-1,2-DICARBOXYLATE
Structure: 44494D455448594C204349532D342D28332D4D455448594C2D312D4F584F2D322D425554454E594C292D342D4359434C4F484558454E452D312C322D4449434152424F58594C4154452E6D6F6C0A20204368656D447261773039323231303031303432440A2032322032322020302020302020302020302020302020302020302020303939392056323030300A2020202D312E3033313320202020302E3731343520202020302E303030302043202020302020302020302020302020302020302020302020302020302020302020302020300A2020202D302E363138382020202D302E3030303020202020302E303030302043202020302020302020302020302020302020302020302020302020302020302020302020300A20202020302E323036322020202D302E3030303020202020302E303030302043202020302020302020302020302020302020302020302020302020302020302020302020300A20202020302E3631383820202020302E3731343520202020302E303030302043202020302020302020302020302020302020302020302020302020302020302020302020300A20202020302E3230363220202020312E3432383920202020302E303030302043202020302020302020302020302020302020302020302020302020302020302020302020300A2020202D302E3631383820202020312E3432383920202020302E303030302043202020302020302020302020302020302020302020302020302020302020302020302020300A2020202D312E3835363320202020302E3731343520202020302E303030302043202020302020302020302020302020302020302020302020302020302020302020302020300A2020202D322E323638382020202D302E3030303020202020302E30303030204F202020302020302020302020302020302020302020302020302020302020302020302020300A2020202D322E3236383820202020312E3432383920202020302E30303030204F202020302020302020302020302020302020302020302020302020302020302020302020300A2020202D312E303331332020202D302E3731343520202020302E303030302043202020302020302020302020302020302020302020302020302020302020302020302020300A2020202D312E383536332020202D302E3731343520202020302E30303030204F202020302020302020302020302020302020302020302020302020302020302020302020300A2020202D302E363138382020202D312E3432383920202020302E30303030204F202020302020302020302020302020302020302020302020302020302020302020302020300A20202020312E3434333720202020302E3731343520202020302E303030302043202020302020302020302020302020302020302020302020302020302020302020302020300A20202020312E383536332020202D302E3030303020202020302E303030302043202020302020302020302020302020302020302020302020302020302020302020302020300A20202020322E363831322020202D302E3030303020202020302E303030302043202020302020302020302020302020302020302020302020302020302020302020302020300A20202020332E303933372020202D302E3731343520202020302E303030302043202020302020302020302020302020302020302020302020302020302020302020302020300A20202020312E3835363220202020312E3432383920202020302E30303030204F202020302020302020302020302020302020302020302020302020302020302020302020300A20202020332E3039333820202020302E3731343520202020302E303030302043202020302020302020302020302020302020302020302020302020302020302020302020300A2020202D332E3039333820202020312E3432383920202020302E303030302043202020302020302020302020302020302020302020302020302020302020302020302020300A20202020302E323036322020202D312E3432383920202020302E303030302043202020302020302020302020302020302020302020302020302020302020302020302020300A2020202D312E3631343620202020312E3239373820202020302E303030302048202020302020302020302020302020302020302020302020302020302020302020302020300A2020202D312E343433382020202D302E3030303020202020302E303030302048202020302020302020302020302020302020302020302020302020302020302020302020300A2020312020322020312020302020202020200A2020322020332020312020302020202020200A2020332020342020312020302020202020200A2020342020352020322020302020202020200A2020352020362020312020302020202020200A2020312020362020312020302020202020200A2020372020382020322020302020202020200A2020372020392020312020302020202020200A2020372020312020312020362020202020200A2031302031312020322020302020202020200A2031302031322020312020302020202020200A2020322031302020312020362020202020200A2031332031342020312020302020202020200A2031342031352020322020302020202020200A2031352031362020312020302020202020200A2031332031372020322020302020202020200A2031352031382020312020302020202020200A2020342031332020312020302020202020200A2020392031392020312020302020202020200A2031322032302020312020302020202020200A2020312032312020312020312020202020200A2020322032322020312020312020202020200A4D2020454E44
Contributor: KANEMASA S, INST. OF ADVANCED MATERIAL STUDY KYUSHU UNIV.
InstType: EI
InstName: JEOL JMS-01-SG-2
IoniMethod: _ENERGY 75 eV
IonPolarity: pos
Date: 2010-10-09 19:48:36+02:00
Num Peaks: 40
38 117 40 87 42 101 43 99 53 78 55 357 58 154 77 174 78 70 79 118 
82 62 83 660 91 112 105 138 108 59 121 93 128 58 134 61 143 94 145 124 
147 57 159 108 160 254 161 999 162 191 163 37 165 48 188 40 189 36 205 100 
219 25 220 245 221 125 222 44 248 64 249 316 250 52 280 687 281 108 282 25 
