Name: MassBank: JP011376
MW: 636
Formula: C28H60Sn2
Synonym: MassBank: JP011376
Synonym: 1,4-BIS(TRIBUTYLSTANNYL)-2-BUTENYLENE
Structure: 312C342D42495328545249425554594C5354414E4E594C292D322D425554454E594C454E452E6D6F6C0A20204368656D447261773131313430393232343332440A2033302032392020302020302020302020302020302020302020302020303939392056323030300A20202020302E3534383720202020312E3233373520202020302E303030302043202020302020302020302020302020302020302020302020302020302020302020302020300A2020202D302E3136353820202020302E3832353020202020302E303030302043202020302020302020302020302020302020302020302020302020302020302020302020300A2020202D302E3136353820202020302E3030303020202020302E303030302043202020302020302020302020302020302020302020302020302020302020302020302020300A2020202D302E383830332020202D302E3431323520202020302E303030302043202020302020302020302020302020302020302020302020302020302020302020302020300A2020202D312E353934372020202D302E3030303020202020302E3030303020536E2020302020302020302020302020302020302020302020302020302020302020302020300A2020202D312E3138323220202020302E3731343520202020302E303030302043202020302020302020302020302020302020302020302020302020302020302020302020300A2020202D312E3539343720202020312E3432383920202020302E303030302043202020302020302020302020302020302020302020302020302020302020302020302020300A2020202D312E3138323220202020322E3134333420202020302E303030302043202020302020302020302020302020302020302020302020302020302020302020302020300A2020202D302E3335373220202020322E3134333420202020302E303030302043202020302020302020302020302020302020302020302020302020302020302020302020300A2020202D322E303037322020202D302E3731343520202020302E303030302043202020302020302020302020302020302020302020302020302020302020302020302020300A2020202D312E353934372020202D312E3432383920202020302E303030302043202020302020302020302020302020302020302020302020302020302020302020302020300A2020202D302E373639372020202D312E3432383920202020302E303030302043202020302020302020302020302020302020302020302020302020302020302020302020300A2020202D302E333537322020202D322E3134333420202020302E303030302043202020302020302020302020302020302020302020302020302020302020302020302020300A2020202D322E3330393220202020302E3431323520202020302E303030302043202020302020302020302020302020302020302020302020302020302020302020302020300A2020202D332E303233372020202D302E3030303020202020302E303030302043202020302020302020302020302020302020302020302020302020302020302020302020300A2020202D332E303233372020202D302E3832353020202020302E303030302043202020302020302020302020302020302020302020302020302020302020302020302020300A2020202D332E373338312020202D312E3233373520202020302E303030302043202020302020302020302020302020302020302020302020302020302020302020302020300A20202020312E3236333120202020302E3832353020202020302E3030303020536E2020302020302020302020302020302020302020302020302020302020302020302020300A20202020302E3835303620202020302E3131303520202020302E303030302043202020302020302020302020302020302020302020302020302020302020302020302020300A20202020312E323633312020202D302E3630333920202020302E303030302043202020302020302020302020302020302020302020302020302020302020302020302020300A20202020302E383530362020202D312E3331383420202020302E303030302043202020302020302020302020302020302020302020302020302020302020302020302020300A20202020302E303235362020202D312E3331383420202020302E303030302043202020302020302020302020302020302020302020302020302020302020302020302020300A20202020312E3937373620202020302E3431323520202020302E303030302043202020302020302020302020302020302020302020302020302020302020302020302020300A20202020312E393737362020202D302E3431323520202020302E303030302043202020302020302020302020302020302020302020302020302020302020302020302020300A20202020322E363932312020202D302E3832353020202020302E303030302043202020302020302020302020302020302020302020302020302020302020302020302020300A20202020332E343036362020202D302E3431323520202020302E303030302043202020302020302020302020302020302020302020302020302020302020302020302020300A20202020312E3637353620202020312E3533393520202020302E303030302043202020302020302020302020302020302020302020302020302020302020302020302020300A20202020322E3530303620202020312E3533393520202020302E303030302043202020302020302020302020302020302020302020302020302020302020302020302020300A20202020322E3931333120202020302E3832353020202020302E303030302043202020302020302020302020302020302020302020302020302020302020302020302020300A20202020332E3733383120202020302E3832353020202020302E303030302043202020302020302020302020302020302020302020302020302020302020302020302020300A2020312020322020312020302020202020200A2020322020332020322020302020202020200A2020332020342020312020302020202020200A2020362020372020312020302020202020200A2020372020382020312020302020202020200A2020382020392020312020302020202020200A2020352020362020312020302020202020200A2031302031312020312020302020202020200A2031312031322020312020302020202020200A2031322031332020312020302020202020200A2020352031302020312020302020202020200A2031342031352020312020302020202020200A2031352031362020312020302020202020200A2031362031372020312020302020202020200A2020352031342020312020302020202020200A2020342020352020312020302020202020200A2031392032302020312020302020202020200A2032302032312020312020302020202020200A2032312032322020312020302020202020200A2031382031392020312020302020202020200A2032332032342020312020302020202020200A2032342032352020312020302020202020200A2032352032362020312020302020202020200A2031382032332020312020302020202020200A2032372032382020312020302020202020200A2032382032392020312020302020202020200A2032392033302020312020302020202020200A2031382032372020312020302020202020200A2020312031382020312020302020202020200A4D2020454E44
Contributor: HISAHIRO HAGIWARA, INSTITUTE FOR CHEMICAL REACTION SCIENCE TOHOKU UNIV.
InstType: EI
InstName: JEOL JMS-DX-300
IoniMethod: _ENERGY 70 eV
IonPolarity: pos
Date: 2010-10-09 19:48:36+02:00
Num Peaks: 66
39 34 41 67 54 21 56 21 57 23 117 69 118 59 120 80 121 171 122 25 
123 89 125 33 171 28 173 80 174 50 175 327 176 178 177 184 178 167 179 502 
180 28 181 23 183 97 227 25 229 25 230 48 231 228 232 204 233 426 234 252 
235 529 236 63 237 91 238 26 239 109 283 44 285 37 286 27 287 493 288 334 
289 784 290 397 291 999 292 160 293 162 295 206 347 20 353 25 355 22 357 20 
409 33 411 36 413 29 465 33 466 28 467 37 469 30 519 22 520 25 521 44 
522 42 523 51 524 39 525 40 634 31 636 24 
