Name: METHYL 2-(N-((4S)-4-(2-METHYLPROPYL)-2-OXAZOLIDINONE-3-CARBAMOYL))AMINOACETATE
MW: 258
Formula: C11H18N2O5
Synonym: MassBank: JP011813
Synonym: METHYL 2-(N-((4S)-4-(2-METHYLPROPYL)-2-OXAZOLIDINONE-3-CARBAMOYL))AMINOACETATE
Structure: 313131345F4D455448594C20322D284E2D28283453292D342D28322D4D455448594C50524F50594C292D322D4F58415A4F4C4944494E4F4E452D332D43415242414D4F594C2929414D494E4F414345544154452E6D6F6C0A20204368656D447261773130323031303230323632440A2031382031382020302020302020302020302020302020302020302020303939392056323030300A20202020312E3633303420202020312E3737323820202020302E303030302043202020302020302020302020302020302020302020302020302020302020302020302020300A20202020312E3231373920202020312E3035383320202020302E303030302043202020302020302020302020302020302020302020302020302020302020302020302020300A20202020322E3435353420202020312E3737323820202020302E30303030204F202020302020302020302020302020302020302020302020302020302020302020302020300A20202020312E3231373920202020322E3438373220202020302E30303030204F202020302020302020302020302020302020302020302020302020302020302020302020300A20202020302E3339323920202020312E3035383320202020302E30303030204E202020302020302020302020302020302020302020302020302020302020302020302020300A2020202D302E3031393620202020302E3334333820202020302E303030302043202020302020302020302020302020302020302020302020302020302020302020302020300A20202020302E333932392020202D302E3337303620202020302E30303030204F202020302020302020302020302020302020302020302020302020302020302020302020300A2020202D322E3131333820202020302E3735363620202020302E30303030204F202020302020302020302020302020302020302020302020302020302020302020302020300A2020202D312E3332393820202020312E3031323620202020302E303030302043202020302020302020302020302020302020302020302020302020302020302020302020300A2020202D302E3834343620202020302E3334333820202020302E30303030204E202020302020302020302020302020302020302020302020302020302020302020302020300A2020202D312E333239382020202D302E3332323320202020302E303030302043202020302020302020302020302020302020302020302020302020302020302020302020300A2020202D322E313134342020202D302E3036373420202020302E303030302043202020302020302020302020302020302020302020302020302020302020302020302020300A2020202D312E3037353320202020312E3739373420202020302E30303030204F202020302020302020302020302020302020302020302020302020302020302020302020300A2020202D312E303735322020202D312E3130373020202020302E303030302043202020302020302020302020302020302020302020302020302020302020302020302020300A2020202D312E363538352020202D312E3639303420202020302E303030302043202020302020302020302020302020302020302020302020302020302020302020302020300A2020202D312E343435302020202D322E3438373220202020302E303030302043202020302020302020302020302020302020302020302020302020302020302020302020300A2020202D322E343535342020202D312E3437363820202020302E303030302043202020302020302020302020302020302020302020302020302020302020302020302020300A20202020302E3339323920202020322E3438373220202020302E303030302043202020302020302020302020302020302020302020302020302020302020302020302020300A2020312020322020312020302020202020200A2020312020332020322020302020202020200A2020312020342020312020302020202020200A2020362020372020322020302020202020200A2020382020392020312020302020202020200A2020392031302020312020302020202020200A2031302031312020312020302020202020200A2031312031322020312020302020202020200A2020382031322020312020302020202020200A2020392031332020322020302020202020200A2031342031352020312020302020202020200A2031352031362020312020302020202020200A2031352031372020312020302020202020200A2031312031342020312020312020202020200A2020352020362020312020302020202020200A2020322020352020312020302020202020200A2020342031382020312020302020202020200A2031302020362020312020302020202020200A4D2020454E44
Contributor: YOSHINORI Y, FAC. SCIENCE, TOHOKU UNIV.
InstType: EI
InstName: Unknown
IoniMethod: _ENERGY 20 eV
IonPolarity: pos
Date: 2010-10-09 19:48:36+02:00
Num Peaks: 24
100 12 101 12 114 165 115 12 118 16 120 17 132 12 143 24 144 38 158 53 
159 10 171 139 182 20 183 18 199 999 200 69 201 14 202 187 203 10 226 64 
227 76 243 46 258 264 259 26 
