Name: ACEPHATE
MW: 183
Formula: C4H10NO3PS
Synonym: MassBank: JP010748
Synonym: ACEPHATE
Synonym: O,S-DIMETHYL ACETYLPHOSPHORAMIDOTHIOATE
Structure: 41434550484154452E6D6F6C0A20204368656D447261773036323431303031353532440A2031302020392020302020302020302020302020302020302020302020303939392056323030300A2020202D302E3039353720202020302E3431323520202020302E303030302050202020302020302020302020302020302020302020302020302020302020302020302020300A2020202D302E3932303720202020302E3431323520202020302E30303030204F202020302020302020302020302020302020302020302020302020302020302020302020300A20202020302E3732393320202020302E3431323520202020302E30303030204F202020302020302020302020302020302020302020302020302020302020302020302020300A2020202D302E3039353720202020312E3233373520202020302E303030302053202020302020302020302020302020302020302020302020302020302020302020302020300A2020202D302E303935372020202D302E3431323520202020302E30303030204E202020302020302020302020302020302020302020302020302020302020302020302020300A20202020302E363138382020202D302E3832353020202020302E303030302043202020302020302020302020302020302020302020302020302020302020302020302020300A20202020302E363138382020202D312E3635303020202020302E30303030204F202020302020302020302020302020302020302020302020302020302020302020302020300A20202020312E333333322020202D302E3431323520202020302E303030302043202020302020302020302020302020302020302020302020302020302020302020302020300A20202020302E3631383820202020312E3635303020202020302E303030302043202020302020302020302020302020302020302020302020302020302020302020302020300A2020202D312E333333322020202D302E3330323020202020302E303030302043202020302020302020302020302020302020302020302020302020302020302020302020300A2020312020322020312020302020202020200A2020312020332020322020302020202020200A2020312020342020312020302020202020200A2020312020352020312020302020202020200A2020362020372020322020302020202020200A2020362020382020312020302020202020200A2020352020362020312020302020202020200A2020342020392020312020302020202020200A2020322031302020312020302020202020200A4D2020454E44
Contributor: HASHIMOTO K, KYOTO COLLEGE OF PHARMACY
InstType: EI
InstName: HITACHI M-80
IoniMethod: _ENERGY 20 eV
IonPolarity: pos
Date: 2010-10-09 19:48:36+02:00
Num Peaks: 20
15 10 30 16 42 460 43 152 47 23 48 13 62 10 64 42 65 15 79 38 
80 23 94 343 95 183 96 152 125 63 136 999 137 47 168 13 183 36 185 3 
