Name: MassBank: JP011987
MW: 172
Formula: C8H20Si2
Synonym: MassBank: JP011987
Synonym: 1,1,2,2-TETRAMETHYL-1,2-DISILACYCLOHEXANE
Structure: 312C312C322C322D54455452414D455448594C2D312C322D444953494C414359434C4F484558414E452E6D6F6C0A20204368656D447261773130323330393031323432440A2031302031302020302020302020302020302020302020302020302020303939392056323030300A2020202D302E3430363220202020302E3530393020202020302E303030302053692020302020302020302020302020302020302020302020302020302020302020302020300A20202020302E3330383220202020302E3039363520202020302E303030302053692020302020302020302020302020302020302020302020302020302020302020302020300A20202020302E333038322020202D302E3732383520202020302E303030302043202020302020302020302020302020302020302020302020302020302020302020302020300A2020202D302E343036322020202D312E3134313020202020302E303030302043202020302020302020302020302020302020302020302020302020302020302020302020300A2020202D312E313230372020202D302E3732383520202020302E303030302043202020302020302020302020302020302020302020302020302020302020302020302020300A2020202D312E3132303720202020302E3039363520202020302E303030302043202020302020302020302020302020302020302020302020302020302020302020302020300A20202020302E3539303420202020302E3837313820202020302E303030302043202020302020302020302020302020302020302020302020302020302020302020302020300A20202020312E313230372020202D302E3034363820202020302E303030302043202020302020302020302020302020302020302020302020302020302020302020302020300A2020202D302E3933363520202020312E3134313020202020302E303030302043202020302020302020302020302020302020302020302020302020302020302020302020300A20202020302E3132343120202020312E3134313020202020302E303030302043202020302020302020302020302020302020302020302020302020302020302020302020300A2020312020322020312020302020202020200A2020322020332020312020302020202020200A2020332020342020312020302020202020200A2020342020352020312020302020202020200A2020352020362020312020302020202020200A2020312020362020312020302020202020200A2020322020372020312020362020202020200A2020322020382020312020312020202020200A2020312020392020312020362020202020200A2020312031302020312020312020202020200A4D2020454E44
Contributor: YAMAMOTO M, DEP. CHEMISTRY, FAC. SCIENCE, NARA WOMEN'S UNIV.
InstType: EI
InstName: HITACHI RMU-6M
IoniMethod: _ENERGY 20 eV
IonPolarity: pos
Date: 2010-10-09 19:48:36+02:00
Num Peaks: 44
43 18 58 113 59 204 60 26 71 53 72 63 73 474 74 47 75 25 83 51 
84 16 85 250 86 94 87 21 95 11 96 13 97 658 98 171 99 261 100 35 
101 28 103 68 111 11 112 21 113 87 114 18 115 45 116 329 117 115 118 32 
119 12 129 200 130 40 131 42 144 247 145 44 146 23 155 17 157 559 158 108 
159 54 172 999 173 211 174 109 
