Name: 2-ACETOXY-7-BROMO-4-ISOPROPYLTROPONE
MW: 284
Formula: C12H13BrO3
Synonym: MassBank: JP011025
Synonym: 2-ACETOXY-7-BROMO-4-ISOPROPYLTROPONE
Structure: 322D414345544F58592D372D42524F4D4F2D342D49534F50524F50594C54524F504F4E452E6D6F6C0A20204368656D447261773132323130393231353232440A2031362031362020302020302020302020302020302020302020302020303939392056323030300A20202020302E3139363520202020312E3638303020202020302E30303030204F202020302020302020302020302020302020302020302020302020302020302020302020300A2020202D302E3331373820202020312E3033353020202020302E303030302043202020302020302020302020302020302020302020302020302020302020302020302020300A2020202D312E3132323220202020312E3231383620202020302E303030302043202020302020302020302020302020302020302020302020302020302020302020302020300A2020202D312E3736373220202020302E3730343220202020302E303030302043202020302020302020302020302020302020302020302020302020302020302020302020300A2020202D312E373637322020202D302E3132303820202020302E303030302043202020302020302020302020302020302020302020302020302020302020302020302020300A2020202D312E313232322020202D302E3633353220202020302E303030302043202020302020302020302020302020302020302020302020302020302020302020302020300A2020202D302E333137382020202D302E3435313620202020302E303030302043202020302020302020302020302020302020302020302020302020302020302020302020300A20202020302E3034303120202020302E3239313720202020302E303030302043202020302020302020302020302020302020302020302020302020302020302020302020300A2020202D312E333035372020202D312E3433393520202020302E303030302043202020302020302020302020302020302020302020302020302020302020302020302020300A2020202D302E373232342020202D322E3032323920202020302E303030302043202020302020302020302020302020302020302020302020302020302020302020302020300A2020202D322E313032362020202D312E3635333020202020302E303030302043202020302020302020302020302020302020302020302020302020302020302020302020300A2020202D312E3330353720202020322E3032323920202020302E303030302042722020302020302020302020302020302020302020302020302020302020302020302020300A20202020302E3836353120202020302E3239313720202020302E30303030204F202020302020302020302020302020302020302020302020302020302020302020302020300A20202020312E323737362020202D302E3432323820202020302E303030302043202020302020302020302020302020302020302020302020302020302020302020302020300A20202020302E383635312020202D312E3133373320202020302E30303030204F202020302020302020302020302020302020302020302020302020302020302020302020300A20202020322E313032362020202D302E3432323820202020302E303030302043202020302020302020302020302020302020302020302020302020302020302020302020300A2020312020322020322020302020202020200A2020322020332020312020302020202020200A2020332020342020322020302020202020200A2020342020352020312020302020202020200A2020352020362020322020302020202020200A2020362020372020312020302020202020200A2020372020382020322020302020202020200A2020322020382020312020302020202020200A2020392031302020312020302020202020200A2020392031312020312020302020202020200A2020362020392020312020302020202020200A2020332031322020312020302020202020200A2031342031352020322020302020202020200A2031342031362020312020302020202020200A2031332031342020312020302020202020200A2020382031332020312020302020202020200A4D2020454E44
Contributor: TAKESHITA H, INST. OF ADVANCED MATERIAL STUDY KYUSHU UNIV.
InstType: EI
InstName: JEOL JMS-01-SG-2
IoniMethod: _ENERGY 75 eV
IonPolarity: pos
Date: 2010-10-09 19:48:36+02:00
Num Peaks: 41
38 128 40 149 41 82 42 999 47 70 49 60 51 68 58 65 63 113 65 106 
77 131 78 70 84 159 86 114 89 77 91 228 105 73 119 81 120 263 121 66 
135 115 199 476 200 81 201 495 214 64 215 14 216 44 226 11 227 23 229 24 
240 47 241 14 242 643 243 73 244 627 245 71 256 10 259 10 284 46 285 11 
286 40 
