Name: MassBank: JP012030
MW: 174
Formula: C8H22Si2
Synonym: MassBank: JP012030
Synonym: 1,2-DIMETHYL-1,2-DIPROPYLDISILANE (1,2-D2)
Structure: 312C322D44494D455448594C2D312C322D444950524F50594C444953494C414E452028312C322D4432292E6D6F6C0A20204368656D447261773131303530393133303932440A2031322031312020302020302020302020302020302020302020302020303939392056323030300A2020202D302E3335373220202020302E3230363320202020302E303030302053692020302020302020302020302020302020302020302020302020302020302020302020300A20202020302E333537322020202D302E3230363320202020302E303030302053692020302020302020302020302020302020302020302020302020302020302020302020300A20202020312E3037313720202020302E3230363320202020302E303030302043202020302020302020302020302020302020302020302020302020302020302020302020300A20202020312E373836322020202D302E3230363220202020302E303030302043202020302020302020302020302020302020302020302020302020302020302020302020300A20202020322E3530303620202020302E3230363320202020302E303030302043202020302020302020302020302020302020302020302020302020302020302020302020300A2020202D312E303731372020202D302E3230363320202020302E303030302043202020302020302020302020302020302020302020302020302020302020302020302020300A2020202D312E3738363220202020302E3230363220202020302E303030302043202020302020302020302020302020302020302020302020302020302020302020302020300A2020202D322E353030362020202D302E3230363320202020302E303030302043202020302020302020302020302020302020302020302020302020302020302020302020300A20202020302E333537322020202D312E3033313220202020302E303030302048202020312020302020302020302020302020302020302020302020302020302020302020300A2020202D302E3335373220202020312E3033313220202020302E303030302048202020312020302020302020302020302020302020302020302020302020302020302020300A2020202D302E333537322020202D302E3631383720202020302E303030302043202020302020302020302020302020302020302020302020302020302020302020302020300A20202020302E3335373220202020302E3631383720202020302E303030302043202020302020302020302020302020302020302020302020302020302020302020302020300A2020312020322020312020302020202020200A2020332020342020312020302020202020200A2020342020352020312020302020202020200A2020322020332020312020302020202020200A2020362020372020312020302020202020200A2020372020382020312020302020202020200A2020312020362020312020302020202020200A2020322020392020312020302020202020200A2020312031302020312020302020202020200A2020312031312020312020302020202020200A2020322031322020312020302020202020200A4D202049534F202032202020392020203220203130202020320A4D2020454E44
Contributor: YAMAMOTO M, DEP. CHEMISTRY, FAC. SCIENCE, NARA WOMEN'S UNIV.
InstType: EI
InstName: HITACHI RMU-6M
IoniMethod: _ENERGY 70 eV
IonPolarity: pos
Date: 2010-10-09 19:48:36+02:00
Num Peaks: 75
27 67 28 35 29 35 31 40 32 32 39 37 41 40 42 27 43 464 44 171 
45 288 46 480 47 67 48 19 53 16 55 37 56 16 57 21 58 960 59 999 
60 608 61 85 62 27 67 16 69 45 70 27 71 125 72 101 73 106 74 43 
75 40 76 37 77 37 84 19 85 67 86 648 87 488 88 341 89 155 90 208 
91 261 92 51 93 27 100 11 101 136 102 21 103 48 104 72 105 53 106 43 
107 72 108 13 115 27 117 37 118 27 119 43 120 16 128 11 129 51 130 13 
131 24 132 27 133 99 134 29 135 13 148 29 149 43 150 11 151 11 159 16 
161 19 175 19 176 357 177 72 178 27 
