Name: MassBank: JP010483
MW: 104
Formula: C5H12O2
Synonym: MassBank: JP010483
Synonym: 2,2-DIMETHOXYPROPANE
Structure: 310A31380A322C322D44494D4554484F585950524F50414E452E6D6F6C0A20204368656D447261773132323030393036333532440A2020372020362020302020302020302020302020302020302020302020303939392056323030300A2020202D302E3431323520202020302E3731343520202020302E303030302043202020302020302020302020302020302020302020302020302020302020302020302020300A20202020302E3030303020202020302E3030303020202020302E303030302043202020302020302020302020302020302020302020302020302020302020302020302020300A20202020302E343132352020202D302E3731343520202020302E303030302043202020302020302020302020302020302020302020302020302020302020302020302020300A20202020302E3731343520202020302E3431323520202020302E30303030204F202020302020302020302020302020302020302020302020302020302020302020302020300A20202020312E3432383920202020302E3030303020202020302E303030302043202020302020302020302020302020302020302020302020302020302020302020302020300A2020202D302E373134352020202D302E3431323520202020302E30303030204F202020302020302020302020302020302020302020302020302020302020302020302020300A2020202D312E3432383920202020302E3030303020202020302E303030302043202020302020302020302020302020302020302020302020302020302020302020302020300A2020312020322020312020302020202020200A2020322020332020312020302020202020200A2020342020352020312020302020202020200A2020322020342020312020312020202020200A2020362020372020312020302020202020200A2020322020362020312020312020202020200A4D2020454E44
Contributor: TAJIMA S, GUNMA COLLEGE OF TECHNOLOGY
InstType: EI
InstName: HITACHI M-80A
IoniMethod: _ENERGY 70 eV
IonPolarity: pos
Date: 2010-10-09 19:48:36+02:00
Num Peaks: 27
14 44 15 158 16 11 26 30 27 144 29 236 30 28 31 83 33 15 37 15 
38 32 39 171 40 43 41 209 42 238 43 761 44 20 45 111 47 40 55 34 
57 34 58 16 72 80 73 999 74 46 89 281 90 13 
