Name: 2-NITROBENZYL BENZOATE
MW: 257
Formula: C14H11NO4
Synonym: MassBank: JP011161
Synonym: 2-NITROBENZYL BENZOATE
Structure: 322D4E4954524F42454E5A594C2042454E5A4F4154452E6D6F6C0A20204368656D447261773032323131303131353932440A2031392032302020302020302020302020302020302020302020302020303939392056323030300A20202020302E3731343520202020302E3230363220202020302E303030302043202020302020302020302020302020302020302020302020302020302020302020302020300A20202020312E343238392020202D302E3230363220202020302E303030302043202020302020302020302020302020302020302020302020302020302020302020302020300A20202020312E343238392020202D312E3033313320202020302E303030302043202020302020302020302020302020302020302020302020302020302020302020302020300A20202020322E313433342020202D312E3434333820202020302E303030302043202020302020302020302020302020302020302020302020302020302020302020302020300A20202020322E383537392020202D312E3033313320202020302E303030302043202020302020302020302020302020302020302020302020302020302020302020302020300A20202020322E383537392020202D302E3230363220202020302E303030302043202020302020302020302020302020302020302020302020302020302020302020302020300A20202020322E3134333420202020302E3230363320202020302E303030302043202020302020302020302020302020302020302020302020302020302020302020302020300A20202020302E3731343520202020312E3033313320202020302E30303030204F202020302020302020302020302020302020302020302020302020302020302020302020300A2020202D302E303030302020202D302E3230363220202020302E30303030204F202020302020302020302020302020302020302020302020302020302020302020302020300A2020202D302E3731343520202020302E3230363220202020302E303030302043202020302020302020302020302020302020302020302020302020302020302020302020300A2020202D312E343238392020202D302E3230363220202020302E303030302043202020302020302020302020302020302020302020302020302020302020302020302020300A2020202D322E3134333420202020302E3230363220202020302E303030302043202020302020302020302020302020302020302020302020302020302020302020302020300A2020202D322E383537392020202D302E3230363220202020302E303030302043202020302020302020302020302020302020302020302020302020302020302020302020300A2020202D322E383537392020202D312E3033313320202020302E303030302043202020302020302020302020302020302020302020302020302020302020302020302020300A2020202D322E313433342020202D312E3434333820202020302E303030302043202020302020302020302020302020302020302020302020302020302020302020302020300A2020202D312E343238392020202D312E3033313320202020302E303030302043202020302020302020302020302020302020302020302020302020302020302020302020300A2020202D322E3134333420202020312E3033313320202020302E30303030204E202020302020332020302020302020302020302020302020302020302020302020302020300A2020202D312E3432383920202020312E3434333820202020302E30303030204F202020302020302020302020302020302020302020302020302020302020302020302020300A2020202D322E3835373920202020312E3434333820202020302E30303030204F202020302020352020302020302020302020302020302020302020302020302020302020300A2020312020322020312020302020202020200A2020322020332020312020302020202020200A2020332020342020322020302020202020200A2020342020352020312020302020202020200A2020352020362020322020302020202020200A2020362020372020312020302020202020200A2020322020372020322020302020202020200A2020312020382020322020302020202020200A2020312020392020312020302020202020200A2031302031312020312020302020202020200A2031312031322020312020302020202020200A2031322031332020322020302020202020200A2031332031342020312020302020202020200A2031342031352020322020302020202020200A2031352031362020312020302020202020200A2031312031362020322020302020202020200A2031372031382020322020302020202020200A2031372031392020312020302020202020200A2031322031372020312020302020202020200A2020392031302020312020302020202020200A4D202043484720203220203137202020312020313920202D310A4D2020454E44
Contributor: SAWADA M, THE INST. OF SCIENTIFIC AND INDUSTRIALRESEARCH OSAKA UNIV.
InstType: EI
InstName: JEOL JMS-DX-300
IoniMethod: _ENERGY 70 eV
IonPolarity: pos
Date: 2010-10-09 19:48:36+02:00
Num Peaks: 91
37 18 38 62 39 288 40 116 41 86 42 28 43 79 44 270 45 24 49 12 
50 372 51 554 52 329 53 68 54 17 55 99 56 91 57 109 60 20 61 21 
62 71 63 275 64 228 65 221 66 47 67 17 68 16 69 58 70 69 71 56 
73 24 74 94 75 112 76 351 77 771 78 633 79 539 80 55 81 19 82 12 
83 39 84 26 85 22 86 16 87 18 89 314 90 110 91 548 92 177 93 69 
94 20 95 10 97 17 98 27 103 16 104 140 105 918 106 691 107 151 108 18 
111 12 112 13 113 11 115 10 116 11 119 46 120 17 121 67 122 229 123 33 
134 14 135 849 136 384 137 51 139 16 149 36 151 11 152 35 153 13 165 31 
166 17 167 40 181 12 211 999 212 518 213 65 227 20 249 11 256 11 257 141 
258 30 
