Name: MassBank: JP011166
MW: 257
Formula: C13H11N3O3
Synonym: MassBank: JP011166
Synonym: 2,4-DIMETHYL-1H-(1,3,5)TRIAZINO(1,2-A)QUINOLINE-1,3,6(2H,4H)-TRIONE
Structure: 322C342D44494D455448594C2D31482D28312C332C3529545249415A494E4F28312C322D41295155494E4F4C494E452D312C332C362832482C3448292D5452494F4E452E6D6F6C0A20204368656D447261773132323030393139313532440A2031392032312020302020302020302020302020302020302020302020303939392056323030300A2020202D312E3432383920202020302E3230363220202020302E30303030204E202020302020302020302020302020302020302020302020302020302020302020302020300A2020202D312E343238392020202D302E3631383820202020302E303030302043202020302020302020302020302020302020302020302020302020302020302020302020300A2020202D302E373134352020202D312E3033313320202020302E30303030204E202020302020302020302020302020302020302020302020302020302020302020302020300A20202020302E303030302020202D302E3631383820202020302E303030302043202020302020302020302020302020302020302020302020302020302020302020302020300A20202020302E3030303020202020302E3230363220202020302E30303030204E202020302020302020302020302020302020302020302020302020302020302020302020300A2020202D302E3731343520202020302E3631383820202020302E303030302043202020302020302020302020302020302020302020302020302020302020302020302020300A20202020302E373134352020202D312E3033313320202020302E303030302043202020302020302020302020302020302020302020302020302020302020302020302020300A20202020312E343238392020202D302E3631383820202020302E303030302043202020302020302020302020302020302020302020302020302020302020302020302020300A20202020312E3432383920202020302E3230363220202020302E303030302043202020302020302020302020302020302020302020302020302020302020302020302020300A20202020302E3731343520202020302E3631383820202020302E303030302043202020302020302020302020302020302020302020302020302020302020302020302020300A20202020322E3134333420202020302E3631383820202020302E303030302043202020302020302020302020302020302020302020302020302020302020302020302020300A20202020322E3134333420202020312E3434333820202020302E303030302043202020302020302020302020302020302020302020302020302020302020302020302020300A20202020312E3432383920202020312E3835363320202020302E303030302043202020302020302020302020302020302020302020302020302020302020302020302020300A20202020302E3731343520202020312E3434333820202020302E303030302043202020302020302020302020302020302020302020302020302020302020302020302020300A2020202D302E3731343520202020312E3434333820202020302E30303030204F202020302020302020302020302020302020302020302020302020302020302020302020300A2020202D322E3134333420202020302E3631383820202020302E303030302043202020302020302020302020302020302020302020302020302020302020302020302020300A2020202D322E313433342020202D312E3033313320202020302E30303030204F202020302020302020302020302020302020302020302020302020302020302020302020300A2020202D302E373134352020202D312E3835363320202020302E303030302043202020302020302020302020302020302020302020302020302020302020302020302020300A20202020322E313433342020202D312E3033313320202020302E30303030204F202020302020302020302020302020302020302020302020302020302020302020302020300A2020312020322020312020302020202020200A2020322020332020312020302020202020200A2020332020342020312020302020202020200A2020342020352020312020302020202020200A2020352020362020312020302020202020200A2020362020312020312020302020202020200A2020342020372020322020302020202020200A2020372020382020312020302020202020200A2020382020392020312020302020202020200A2020392031302020322020302020202020200A2031302020352020312020302020202020200A2020392031312020312020302020202020200A2031312031322020322020302020202020200A2031322031332020312020302020202020200A2031332031342020322020302020202020200A2031342031302020312020302020202020200A2020362031352020322020302020202020200A2020312031362020312020302020202020200A2020322031372020322020302020202020200A2020332031382020312020302020202020200A2020382031392020322020302020202020200A4D2020454E44
Contributor: SAWADA M, THE INST. OF SCIENTIFIC AND INDUSTRIALRESEARCH OSAKA UNIV.
InstType: EI
InstName: JEOL JMS-DX-300
IoniMethod: _ENERGY 70 eV
IonPolarity: pos
Date: 2010-10-09 19:48:36+02:00
Num Peaks: 78
38 12 39 39 40 69 41 36 42 25 43 58 44 272 45 14 50 38 51 27 
52 17 53 15 54 17 55 40 56 46 57 58 58 12 61 17 62 25 63 50 
64 34 65 18 67 16 68 13 69 28 70 22 71 18 74 16 75 33 76 68 
77 30 81 16 82 124 83 23 84 10 85 11 86 30 87 12 88 163 89 54 
90 100 91 19 92 12 95 12 97 12 100 12 102 34 103 38 104 17 105 19 
114 63 115 272 116 40 117 25 118 15 119 24 129 27 130 12 131 39 143 270 
144 55 145 23 146 233 147 27 149 13 157 60 158 10 159 13 171 200 172 598 
173 82 199 12 200 372 201 58 229 48 257 999 258 208 259 28 
