Name: BETA-SITOSTEROL
CAS: 83-46-5
MW: 414
Formula: C29H50O
Synonym: MassBank: JP010944
Synonym: BETA-SITOSTEROL
Synonym: STIGMAST-5-EN-3BETA-OL
Structure: 303937395F535449474D4153542D352D454E452D33424554412D4F4C2E6D6F6C0A20204368656D447261773130323031303139323032440A2033362033392020302020302020302020302020302020302020302020303939392056323030300A2020202D332E313439332020202D322E3136343420202020302E303030302043202020302020302020302020302020302020302020302020302020302020302020302020300A2020202D332E313439332020202D312E3333393420202020302E303030302043202020302020302020302020302020302020302020302020302020302020302020302020300A2020202D322E343334382020202D302E3932363920202020302E303030302043202020302020302020302020302020302020302020302020302020302020302020302020300A2020202D322E343334382020202D322E3537363920202020302E303030302043202020302020302020302020302020302020302020302020302020302020302020302020300A2020202D312E373230332020202D322E3136343420202020302E303030302043202020302020302020302020302020302020302020302020302020302020302020302020300A2020202D312E303035392020202D322E3537363920202020302E303030302043202020302020302020302020302020302020302020302020302020302020302020302020300A2020202D302E323931342020202D322E3136343420202020302E303030302043202020302020302020302020302020302020302020302020302020302020302020302020300A2020202D302E323931342020202D312E3333393420202020302E303030302043202020302020302020302020302020302020302020302020302020302020302020302020300A20202020302E343233312020202D302E3932363920202020302E303030302043202020302020302020302020302020302020302020302020302020302020302020302020300A20202020312E323037372020202D312E3138313820202020302E303030302043202020302020302020302020302020302020302020302020302020302020302020302020300A20202020312E363932362020202D302E3531343420202020302E303030302043202020302020302020302020302020302020302020302020302020302020302020302020300A20202020312E3230373720202020302E3135333020202020302E303030302043202020302020302020302020302020302020302020302020302020302020302020302020300A20202020302E3838383420202020312E3433383620202020302E303030302043202020302020302020302020302020302020302020302020302020302020302020302020300A20202020312E3036393320202020322E3233383720202020302E303030302043202020302020302020302020302020302020302020302020302020302020302020302020300A20202020312E3835363920202020322E3438343520202020302E303030302043202020302020302020302020302020302020302020302020302020302020302020302020300A20202020322E3434303220202020312E3930313120202020302E303030302043202020302020302020302020302020302020302020302020302020302020302020302020300A20202020322E3232363720202020312E3130343220202020302E303030302043202020302020302020302020302020302020302020302020302020302020302020302020300A20202020322E3831303120202020302E3532303920202020302E303030302043202020302020302020302020302020302020302020302020302020302020302020302020300A20202020332E3138373920202020312E3535323520202020302E303030302043202020302020302020302020302020302020302020302020302020302020302020302020300A20202020332E3836333720202020322E3032353720202020302E303030302043202020302020302020302020302020302020302020302020302020302020302020302020300A20202020332E3235393820202020302E3733303620202020302E303030302043202020302020302020302020302020302020302020302020302020302020302020302020300A20202020312E3731333420202020312E3433383620202020302E303030302048202020302020302020302020302020302020302020302020302020302020302020302020300A20202020302E343233312020202D302E3130313920202020302E303030302043202020302020302020302020302020302020302020302020302020302020302020302020300A20202020302E3530393420202020302E3731383620202020302E303030302043202020302020302020302020302020302020302020302020302020302020302020302020300A2020202D302E3239313420202020302E3331303620202020302E303030302043202020302020302020302020302020302020302020302020302020302020302020302020300A2020202D312E303035392020202D302E3130313920202020302E303030302043202020302020302020302020302020302020302020302020302020302020302020302020300A2020202D312E303035392020202D302E3932363920202020302E303030302043202020302020302020302020302020302020302020302020302020302020302020302020300A2020202D312E373230332020202D312E3333393420202020302E303030302043202020302020302020302020302020302020302020302020302020302020302020302020300A2020202D312E373230332020202D302E3031393420202020302E303030302043202020302020302020302020302020302020302020302020302020302020302020302020300A2020202D332E383633372020202D322E3537363920202020302E30303030204F202020302020302020302020302020302020302020302020302020302020302020302020300A2020202D322E313439302020202D302E3236363920202020302E303030302048202020302020302020302020302020302020302020302020302020302020302020302020300A20202020302E383531382020202D312E3939393420202020302E303030302048202020302020302020302020302020302020302020302020302020302020302020302020300A20202020302E353631312020202D322E3233393720202020302E303030302048202020302020302020302020302020302020302020302020302020302020302020302020300A20202020312E3935353420202020302E3530313620202020302E303030302048202020302020302020302020302020302020302020302020302020302020302020302020300A20202020302E3038373920202020312E3233343220202020302E303030302043202020302020302020302020302020302020302020302020302020302020302020302020300A20202020322E3931333420202020322E3537363920202020302E303030302048202020302020302020302020302020302020302020302020302020302020302020302020300A2020312020322020312020302020202020200A2020322020332020312020302020202020200A2020312020342020312020302020202020200A2020342020352020312020302020202020200A2020352020362020322020302020202020200A2020362020372020312020302020202020200A2020372020382020312020302020202020200A2020382020392020312020302020202020200A2020392031302020312020302020202020200A2031302031312020312020302020202020200A2031322031312020312020302020202020200A2031322031332020312020302020202020200A2031332031342020312020302020202020200A2031342031352020312020302020202020200A2031352031362020312020302020202020200A2031362031372020312020312020202020200A2031372031382020312020302020202020200A2031362031392020312020302020202020200A2031392032302020312020302020202020200A2031392032312020312020302020202020200A2031332032322020312020312020202020200A2031322032332020312020302020202020200A2020392032332020312020302020202020200A2032332032342020312020312020202020200A2032332032352020312020302020202020200A2032352032362020312020302020202020200A2032362032372020312020302020202020200A2020382032372020312020302020202020200A2032372032382020312020302020202020200A2020332032382020312020302020202020200A2020352032382020312020302020202020200A2032382032392020312020312020202020200A2020312033302020312020312020202020200A2032372033312020312020362020202020200A2020382033322020312020312020202020200A2020392033332020312020362020202020200A2031322033342020312020362020202020200A2031332033352020312020302020202020200A2031362033362020312020312020202020200A4D2020454E44
Contributor: HISAHIRO HAGIWARA, INSTITUTE FOR CHEMICAL REACTION SCIENCE TOHOKU UNIV.
InstType: EI
InstName: JEOL JMS-DX-300
IoniMethod: _ENERGY 70 eV
IonPolarity: pos
Date: 2010-10-09 19:48:36+02:00
Num Peaks: 58
41 506 42 75 43 999 53 81 55 628 57 555 67 291 69 361 71 284 77 94 
79 293 81 432 83 178 85 224 91 273 92 76 93 306 94 108 95 399 97 138 
105 317 106 99 107 399 108 114 109 207 111 103 117 100 119 132 120 188 121 210 
123 112 125 85 131 156 133 214 134 92 135 177 143 106 145 279 146 78 147 171 
149 111 157 77 158 96 159 206 160 132 161 205 163 175 173 106 178 122 199 74 
213 199 231 138 255 165 273 166 302 95 303 296 304 79 329 231 
