Name: 13-HYDROXYNEOCEMBRENE
MW: 288
Formula: C20H32O
Synonym: MassBank: JP010636
Synonym: 13-HYDROXYNEOCEMBRENE
Structure: 31332D485944524F58594E454F43454D4252454E452E6D6F6C0A20204368656D447261773132313030393231353032440A2032352032352020302020302020302020302020302020302020302020303939392056323030300A2020202D312E3539333320202020302E3130333520202020302E303030302043202020302020302020302020302020302020302020302020302020302020302020302020300A2020202D312E353933332020202D302E3732313520202020302E303030302043202020302020302020302020302020302020302020302020302020302020302020302020300A2020202D312E303039392020202D312E3330343920202020302E303030302043202020302020302020302020302020302020302020302020302020302020302020302020300A2020202D302E313834392020202D312E3330343920202020302E303030302043202020302020302020302020302020302020302020302020302020302020302020302020300A20202020302E333938342020202D302E3732313520202020302E303030302043202020302020302020302020302020302020302020302020302020302020302020302020300A20202020302E3339383420202020302E3130333520202020302E303030302043202020302020302020302020302020302020302020302020302020302020302020302020300A2020202D302E3138343920202020302E3638363820202020302E303030302043202020302020302020302020302020302020302020302020302020302020302020302020300A2020202D312E3030393920202020302E3638363820202020302E303030302043202020302020302020302020302020302020302020302020302020302020302020302020300A20202020302E393831382020202D312E3330343920202020302E303030302043202020302020302020302020302020302020302020302020302020302020302020302020300A20202020312E383036382020202D312E3330343920202020302E303030302043202020302020302020302020302020302020302020302020302020302020302020302020300A20202020322E333930322020202D302E3732313520202020302E303030302043202020302020302020302020302020302020302020302020302020302020302020302020300A20202020322E3339303220202020302E3130333520202020302E303030302043202020302020302020302020302020302020302020302020302020302020302020302020300A20202020312E3830363820202020302E3638363820202020302E303030302043202020302020302020302020302020302020302020302020302020302020302020302020300A20202020302E3938313820202020302E3638363820202020302E303030302043202020302020302020302020302020302020302020302020302020302020302020302020300A20202020302E3133303820202020312E3434393020202020302E30303030204F202020302020302020302020302020302020302020302020302020302020302020302020300A20202020302E3636363120202020312E3434393020202020302E303030302043202020302020302020302020302020302020302020302020302020302020302020302020300A2020202D302E353937342020202D302E3539303420202020302E303030302043202020302020302020302020302020302020302020302020302020302020302020302020300A2020202D322E333535352020202D312E3033373220202020302E303030302048202020302020302020302020302020302020302020302020302020302020302020302020300A20202020302E363636312020202D322E3036373120202020302E303030302048202020302020302020302020302020302020302020302020302020302020302020302020300A20202020312E353933332020202D302E3530383020202020302E303030302043202020302020302020302020302020302020302020302020302020302020302020302020300A20202020312E353933332020202D302E3131303120202020302E303030302048202020302020302020302020302020302020302020302020302020302020302020302020300A2020202D312E3030393920202020312E3531313820202020302E303030302048202020302020302020302020302020302020302020302020302020302020302020302020300A2020202D312E3539333320202020312E3237303220202020302E303030302043202020302020302020302020302020302020302020302020302020302020302020302020300A2020202D322E3339303220202020312E3035363720202020302E303030302043202020302020302020302020302020302020302020302020302020302020302020302020300A2020202D312E3337393820202020322E3036373120202020302E303030302043202020302020302020302020302020302020302020302020302020302020302020302020300A2020312020322020312020302020202020200A2020322020332020322020302020202020200A2020332020342020312020302020202020200A2020342020352020312020302020202020200A2020362020372020312020302020202020200A2020372020382020312020302020202020200A2020382020312020312020302020202020200A2020352020392020312020302020202020200A2020392031302020322020302020202020200A2031302031312020312020302020202020200A2031312031322020312020302020202020200A2031322031332020312020302020202020200A2031332031342020322020302020202020200A2031342020362020312020302020202020200A2020372031352020312020302020202020200A2031342031362020312020302020202020200A2020332031372020312020302020202020200A2020322031382020312020302020202020200A2020392031392020312020302020202020200A2031302032302020312020302020202020200A2031332032312020312020302020202020200A2020382032322020312020312020202020200A2020382032332020312020362020202020200A2032332032342020312020302020202020200A2032332032352020322020302020202020200A4D2020454E44
Contributor: EGUCHI S, FAC. OF SCIENCE, HIROSHIMA UNIV.
InstType: EI
InstName: HITACHI RMU-6L
IoniMethod: _ENERGY 70 eV
IonPolarity: pos
Date: 2010-10-09 19:48:36+02:00
Num Peaks: 136
41 999 42 105 43 276 44 4 45 13 51 39 52 26 53 34 54 79 55 461 
56 132 57 13 58 13 59 13 65 105 66 7 67 461 68 697 69 816 70 4 
71 92 75 26 77 184 78 4 79 355 80 171 81 921 82 16 83 224 84 421 
85 79 91 26 92 132 93 632 94 224 95 42 96 105 97 132 105 211 106 8 
107 487 108 211 109 474 110 9 111 53 119 158 120 105 121 51 122 171 123 513 
124 79 125 5 129 13 131 53 132 39 133 15 134 145 135 158 136 224 137 13 
138 92 139 53 143 13 144 2 145 13 146 53 147 132 148 11 149 145 150 79 
151 79 152 4 153 12 159 79 160 26 161 11 162 80 163 66 164 54 165 4 
166 10 171 26 173 40 174 2 175 119 176 92 177 90 178 4 179 13 185 13 
186 13 187 4 188 20 189 70 190 40 191 8 192 40 193 13 199 13 201 5 
202 26 203 33 204 25 205 4 206 20 207 53 209 14 213 2 214 15 215 27 
217 53 218 2 219 53 220 40 221 13 228 3 229 20 230 13 231 13 232 2 
233 13 245 53 246 14 255 4 256 15 259 15 260 33 261 1 262 13 270 40 
271 13 273 8 274 14 288 171 289 53 290 13 
