Name: TRIMETHYLCHLOROSILANE
MW: 108
Formula: C3H9ClSi
Synonym: MassBank: JP011787
Synonym: TRIMETHYLCHLOROSILANE
Structure: 310A31340A5452494D455448594C43484C4F524F53494C414E452E6D6F6C0A20204368656D447261773038313231303038343432440A2020352020342020302020302020302020302020302020302020302020303939392056323030300A20202020302E3030303020202020302E3030303020202020302E303030302053692020302020302020302020302020302020302020302020302020302020302020302020300A20202020302E303030302020202D302E3832353020202020302E3030303020436C2020302020302020302020302020302020302020302020302020302020302020302020300A2020202D302E3832353020202020302E3030303020202020302E303030302043202020302020302020302020302020302020302020302020302020302020302020302020300A20202020302E3030303020202020302E3832353020202020302E303030302043202020302020302020302020302020302020302020302020302020302020302020302020300A20202020302E3832353020202020302E3030303020202020302E303030302043202020302020302020302020302020302020302020302020302020302020302020302020300A2020312020322020312020302020202020200A2020312020332020312020302020202020200A2020312020342020312020302020202020200A2020312020352020312020302020202020200A4D2020454E44
Contributor: TAJIMA S, GUNMA COLLEGE OF TECHNOLOGY
InstType: EI
InstName: HITACHI M-80A
IoniMethod: _ENERGY 70 eV
IonPolarity: pos
Date: 2010-10-09 19:48:36+02:00
Num Peaks: 18
63 62 65 61 67 17 72 13 73 268 74 24 75 12 77 16 78 23 79 29 
92 14 93 999 94 83 95 378 96 27 97 12 108 102 110 38 
