Name: MassBank: JP011346
MW: 114
Formula: C4H6N2O2
Synonym: MassBank: JP011346
Synonym: CYCLO-GLYCYLGLYCINE (3,3,6,6-D4)
Structure: 4359434C4F2D474C5943594C474C5943494E452028332C332C362C362D4434292E6D6F6C0A20204368656D447261773039313531303035303832440A2031322031322020302020302020302020302020302020302020302020303939392056323030300A2020202D302E3731343520202020302E3431323520202020302E303030302043202020302020302020302020302020302020302020302020302020302020302020302020300A2020202D302E373134352020202D302E3431323520202020302E30303030204E202020302020302020302020302020302020302020302020302020302020302020302020300A20202020302E303030302020202D302E3832353020202020302E303030302043202020302020302020302020302020302020302020302020302020302020302020302020300A20202020302E373134352020202D302E3431323520202020302E303030302043202020302020302020302020302020302020302020302020302020302020302020302020300A20202020302E3731343520202020302E3431323520202020302E30303030204E202020302020302020302020302020302020302020302020302020302020302020302020300A20202020302E3030303020202020302E3832353020202020302E303030302043202020302020302020302020302020302020302020302020302020302020302020302020300A2020202D302E3431323520202020312E3533393520202020302E303030302048202020312020302020302020302020302020302020302020302020302020302020302020300A20202020302E3431323520202020312E3533393520202020302E303030302048202020312020302020302020302020302020302020302020302020302020302020302020300A20202020312E343238392020202D302E3832353020202020302E30303030204F202020302020302020302020302020302020302020302020302020302020302020302020300A2020202D312E3432383920202020302E3832353020202020302E30303030204F202020302020302020302020302020302020302020302020302020302020302020302020300A2020202D302E343132352020202D312E3533393520202020302E303030302048202020312020302020302020302020302020302020302020302020302020302020302020300A20202020302E343132352020202D312E3533393520202020302E303030302048202020312020302020302020302020302020302020302020302020302020302020302020300A2020312020322020312020302020202020200A2020322020332020312020302020202020200A2020332020342020312020302020202020200A2020342020352020312020302020202020200A2020352020362020312020302020202020200A2020362020312020312020302020202020200A2020362020372020312020312020202020200A2020362020382020312020362020202020200A2020342020392020322020302020202020200A2020312031302020322020302020202020200A2020332031312020312020362020202020200A2020332031322020312020312020202020200A4D202049534F20203420202037202020322020203820202032202031312020203220203132202020320A4D2020454E44
Contributor: YAMAMOTO M, DEP. CHEMISTRY, FAC. SCIENCE, NARA WOMEN'S UNIV.
InstType: EI
InstName: HITACHI RMU-6M
IoniMethod: _ENERGY 70 eV
IonPolarity: pos
Date: 2010-10-09 19:48:36+02:00
Num Peaks: 37
18 129 27 33 28 177 29 633 30 278 31 546 32 780 33 551 38 10 39 10 
40 10 41 16 42 32 43 108 44 453 45 108 46 103 47 303 56 17 57 26 
58 99 59 26 60 50 61 11 62 17 72 9 73 43 74 103 75 316 76 14 
88 10 89 15 90 41 1160 27 117 381 118 999 119 66 
