Name: MassBank: JP011574
MW: 128
Formula: C7H16Si
Synonym: MassBank: JP011574
Synonym: 1,1-DIMETHYLSILACYCLOHEXANE
Structure: 310A32310A312C312D44494D455448594C53494C414359434C4F484558414E452E6D6F6C0A20204368656D447261773130323330393131303432440A2020382020382020302020302020302020302020302020302020302020303939392056323030300A20202020302E3030303020202020302E3530393020202020302E303030302053692020302020302020302020302020302020302020302020302020302020302020302020300A20202020302E3731343520202020302E3039363520202020302E303030302043202020302020302020302020302020302020302020302020302020302020302020302020300A20202020302E373134352020202D302E3732383520202020302E303030302043202020302020302020302020302020302020302020302020302020302020302020302020300A20202020302E303030302020202D312E3134313020202020302E303030302043202020302020302020302020302020302020302020302020302020302020302020302020300A2020202D302E373134352020202D302E3732383520202020302E303030302043202020302020302020302020302020302020302020302020302020302020302020302020300A2020202D302E3731343520202020302E3039363520202020302E303030302043202020302020302020302020302020302020302020302020302020302020302020302020300A2020202D302E3533303320202020312E3134313020202020302E303030302043202020302020302020302020302020302020302020302020302020302020302020302020300A20202020302E3533303320202020312E3134313020202020302E303030302043202020302020302020302020302020302020302020302020302020302020302020302020300A2020312020322020312020302020202020200A2020322020332020312020302020202020200A2020332020342020312020302020202020200A2020342020352020312020302020202020200A2020352020362020312020302020202020200A2020312020362020312020302020202020200A2020312020372020312020362020202020200A2020312020382020312020312020202020200A4D2020454E44
Contributor: YAMAMOTO M, DEP. CHEMISTRY, FAC. SCIENCE, NARA WOMEN'S UNIV.
InstType: EI
InstName: HITACHI RMU-6M
IoniMethod: _ENERGY 20 eV
IonPolarity: pos
Date: 2010-10-09 19:48:36+02:00
Num Peaks: 20
28 15 43 17 58 25 59 227 60 18 71 25 72 108 73 19 85 643 86 78 
87 30 99 15 100 47 111 15 113 999 114 125 115 39 128 361 129 45 130 14 
