Name: SPIRO(4.5)SILADECANE
MW: 154
Formula: C9H18Si
Synonym: MassBank: JP011601
Synonym: SPIRO(4.5)SILADECANE
Structure: 303535325F535049524F28342E352953494C41444543414E452E6D6F6C0A20204368656D447261773038323031303035333632440A2031302031312020302020302020302020302020302020302020302020303939392056323030300A20202020302E3637353220202020302E3636373420202020302E303030302043202020302020302020302020302020302020302020302020302020302020302020302020300A20202020312E3435393820202020302E3431323520202020302E303030302043202020302020302020302020302020302020302020302020302020302020302020302020300A20202020312E343539382020202D302E3431323520202020302E303030302043202020302020302020302020302020302020302020302020302020302020302020302020300A20202020302E363735322020202D302E3636373420202020302E303030302043202020302020302020302020302020302020302020302020302020302020302020302020300A20202020302E3139303220202020302E3030303020202020302E303030302053692020302020302020302020302020302020302020302020302020302020302020302020300A2020202D302E323232332020202D302E3731343520202020302E303030302043202020302020302020302020302020302020302020302020302020302020302020302020300A2020202D312E303437332020202D302E3731343520202020302E303030302043202020302020302020302020302020302020302020302020302020302020302020302020300A2020202D312E3435393820202020302E3030303020202020302E303030302043202020302020302020302020302020302020302020302020302020302020302020302020300A2020202D312E3034373320202020302E3731343520202020302E303030302043202020302020302020302020302020302020302020302020302020302020302020302020300A2020202D302E3232323320202020302E3731343520202020302E303030302043202020302020302020302020302020302020302020302020302020302020302020302020300A2020312020322020312020302020202020200A2020322020332020312020302020202020200A2020332020342020312020302020202020200A2020342020352020312020302020202020200A2020352020362020312020302020202020200A2020362020372020312020302020202020200A2020372020382020312020302020202020200A2020382020392020312020302020202020200A2020392031302020312020302020202020200A2020312020352020312020302020202020200A2020352031302020312020302020202020200A4D2020454E44
Contributor: YAMAMOTO M, DEP. CHEMISTRY, FAC. SCIENCE, NARA WOMEN'S UNIV.
InstType: EI
InstName: HITACHI RMU-6M
IoniMethod: _ENERGY 70 eV
IonPolarity: pos
Date: 2010-10-09 19:48:36+02:00
Num Peaks: 49
27 32 28 23 29 37 31 26 39 34 41 36 42 66 43 224 44 41 45 71 
53 42 54 19 55 174 56 71 57 134 58 30 59 38 66 10 67 39 68 18 
69 64 70 196 71 134 72 22 73 12 76 15 81 21 82 28 83 205 84 100 
85 113 86 15 93 11 95 38 96 51 97 300 98 863 99 126 100 36 111 47 
112 38 113 14 125 31 126 999 127 150 128 46 154 460 155 80 156 29 
