Name: MassBank: JP010179
MW: 298
Formula: C18H22N2O2
Synonym: MassBank: JP010179
Synonym: 4,4-HEXAMETHYLENE-2-PARA-TOLYLPERHYDROPYRROLO(3,4-C)PYRROLE-1,3-DIONE
Structure: 303834355F342C342D484558414D455448594C454E452D322D504152412D544F4C594C504552485944524F505952524F4C4F28332C342D4329505952524F4C452D312C332D44494F4E452E6D6F6C0A20204368656D447261773130323031303138313232440A2032322032352020302020302020302020302020302020302020302020303939392056323030300A20202020302E3332393820202020302E3031383120202020302E30303030204E202020302020302020302020302020302020302020302020302020302020302020302020300A20202020302E3234383220202020302E3834303120202020302E303030302043202020302020302020302020302020302020302020302020302020302020302020302020300A2020202D302E3535393920202020312E3031373720202020302E303030302043202020302020302020302020302020302020302020302020302020302020302020302020300A2020202D302E3937323420202020302E3330333320202020302E303030302043202020302020302020302020302020302020302020302020302020302020302020302020300A2020202D302E343236342020202D302E3331323020202020302E303030302043202020302020302020302020302020302020302020302020302020302020302020302020300A2020202D312E3836313320202020312E3330313220202020302E30303030204E202020302020302020302020302020302020302020302020302020302020302020302020300A2020202D312E3130363020202020312E3633323920202020302E303030302043202020302020302020302020302020302020302020302020302020302020302020302020300A2020202D312E3738303720202020302E3438303920202020302E303030302043202020302020302020302020302020302020302020302020302020302020302020302020300A20202020302E3836333920202020312E3338393220202020302E30303030204F202020302020302020302020302020302020302020302020302020302020302020302020300A2020202D302E363032352020202D312E3131373920202020302E30303030204F202020302020302020302020302020302020302020302020302020302020302020302020300A20202020312E303434322020202D302E3339343420202020302E303030302043202020302020302020302020302020302020302020302020302020302020302020302020300A20202020312E3735383420202020302E3031373920202020302E303030302043202020302020302020302020302020302020302020302020302020302020302020302020300A20202020322E343733332020202D312E3232303020202020302E303030302043202020302020302020302020302020302020302020302020302020302020302020302020300A20202020312E303434322020202D312E3231393320202020302E303030302043202020302020302020302020302020302020302020302020302020302020302020302020300A20202020322E343733332020202D302E3339343920202020302E303030302043202020302020302020302020302020302020302020302020302020302020302020302020300A20202020312E373538312020202D312E3633323920202020302E303030302043202020302020302020302020302020302020302020302020302020302020302020302020300A20202020332E313832312020202D312E3632393120202020302E303030302043202020302020302020302020302020302020302020302020302020302020302020302020300A2020202D312E363138342020202D302E3333303420202020302E303030302043202020302020302020302020302020302020302020302020302020302020302020302020300A2020202D322E323338302020202D302E3837363720202020302E303030302043202020302020302020302020302020302020302020302020302020302020302020302020300A2020202D332E303131342020202D302E3632333720202020302E303030302043202020302020302020302020302020302020302020302020302020302020302020302020300A2020202D332E3138323120202020302E3138343320202020302E303030302043202020302020302020302020302020302020302020302020302020302020302020302020300A2020202D322E3536383520202020302E3733363920202020302E303030302043202020302020302020302020302020302020302020302020302020302020302020302020300A2020312020322020312020302020202020200A2020322020332020312020302020202020200A2020332020342020312020302020202020200A2020342020352020312020302020202020200A2020312020352020312020302020202020200A2020362020372020312020302020202020200A2020362020382020312020302020202020200A2020332020372020312020302020202020200A2020342020382020312020302020202020200A2020322020392020322020302020202020200A2020352031302020322020302020202020200A2031312031322020312020302020202020200A2031312031342020322020302020202020200A2031322031352020322020302020202020200A2031332031352020312020302020202020200A2031332031362020322020302020202020200A2031342031362020312020302020202020200A2031332031372020312020302020202020200A2020312031312020312020302020202020200A2031382031392020312020302020202020200A2032302032312020312020302020202020200A2032312032322020312020302020202020200A2020382031382020312020302020202020200A2020382032322020312020302020202020200A2032302031392020312020302020202020200A4D2020454E44
Contributor: KANEMASA S, INST. OF ADVANCED MATERIAL STUDY KYUSHU UNIV.
InstType: EI
InstName: JEOL JMS-01-SG-2
IoniMethod: _ENERGY 75 eV
IonPolarity: pos
Date: 2010-10-09 19:48:36+02:00
Num Peaks: 22
39 47 41 108 43 87 55 58 56 45 67 57 68 46 77 43 80 202 81 89 
82 69 83 51 91 51 94 248 110 49 111 47 242 198 255 999 256 213 269 59 
298 383 299 70 
