Name: MassBank: JP010485
MW: 138
Formula: C8H10O2
Synonym: MassBank: JP010485
Synonym: 1,3-DIMETHOXYBENZENE
Synonym: META-DIMETHOXYBENZENE
Structure: 312C332D44494D4554484F585942454E5A454E452E6D6F6C0A20204368656D447261773131313130393232313932440A2031302031302020302020302020302020302020302020302020302020303939392056323030300A20202020302E373134352020202D302E3431323520202020302E303030302043202020302020302020302020302020302020302020302020302020302020302020302020300A2020202D302E303030302020202D302E3832353020202020302E303030302043202020302020302020302020302020302020302020302020302020302020302020302020300A2020202D302E373134352020202D302E3431323520202020302E303030302043202020302020302020302020302020302020302020302020302020302020302020302020300A2020202D302E3731343520202020302E3431323520202020302E303030302043202020302020302020302020302020302020302020302020302020302020302020302020300A20202020302E3030303020202020302E3832353020202020302E303030302043202020302020302020302020302020302020302020302020302020302020302020302020300A20202020302E3731343520202020302E3431323520202020302E303030302043202020302020302020302020302020302020302020302020302020302020302020302020300A2020202D312E343238392020202D302E3832353020202020302E30303030204F202020302020302020302020302020302020302020302020302020302020302020302020300A2020202D322E313433342020202D302E3431323520202020302E303030302043202020302020302020302020302020302020302020302020302020302020302020302020300A20202020312E343238392020202D302E3832353020202020302E30303030204F202020302020302020302020302020302020302020302020302020302020302020302020300A20202020322E313433342020202D302E3431323520202020302E303030302043202020302020302020302020302020302020302020302020302020302020302020302020300A2020312020322020312020302020202020200A2020322020332020322020302020202020200A2020332020342020312020302020202020200A2020342020352020322020302020202020200A2020352020362020312020302020202020200A2020312020362020322020302020202020200A2020372020382020312020302020202020200A2020332020372020312020302020202020200A2020392031302020312020302020202020200A2020312020392020312020302020202020200A4D2020454E44
Contributor: TAJIMA S, GUNMA COLLEGE OF TECHNOLOGY
InstType: EI
InstName: HITACHI M-80A
IoniMethod: _ENERGY 70 eV
IonPolarity: pos
Date: 2010-10-09 19:48:36+02:00
Num Peaks: 52
15 313 26 52 27 49 29 123 30 23 31 14 37 55 38 195 39 308 40 22 
41 348 42 22 43 17 49 19 50 189 51 247 52 422 53 103 54 29 55 28 
61 49 62 131 63 400 64 273 65 431 66 61 67 82 69 72 73 12 74 55 
75 31 76 33 77 175 78 398 79 191 80 183 81 20 92 159 93 114 94 56 
95 627 96 43 105 13 107 76 108 186 109 330 110 27 122 13 123 13 137 29 
138 999 139 91 
