Name: 1-ETHOXY-3-METHYL-2-BUTENE
MW: 114
Formula: C7H14O
Synonym: MassBank: JP010003
Synonym: 1-ETHOXY-3-METHYL-2-BUTENE
Structure: 310A32300A312D4554484F58592D332D4D455448594C2D322D425554454E452E6D6F6C0A20204368656D447261773131313830393031343032440A2020382020372020302020302020302020302020302020302020302020303939392056323030300A20202020302E303030302020202D302E3230363220202020302E303030302043202020302020302020302020302020302020302020302020302020302020302020302020300A2020202D302E373134352020202D302E3631383820202020302E303030302043202020302020302020302020302020302020302020302020302020302020302020302020300A2020202D312E343238392020202D302E3230363220202020302E303030302043202020302020302020302020302020302020302020302020302020302020302020302020300A2020202D322E313433342020202D302E3631383720202020302E303030302043202020302020302020302020302020302020302020302020302020302020302020302020300A2020202D312E3432383920202020302E3631383820202020302E303030302043202020302020302020302020302020302020302020302020302020302020302020302020300A20202020302E373134352020202D302E3631383820202020302E30303030204F202020302020302020302020302020302020302020302020302020302020302020302020300A20202020312E343238392020202D302E3230363320202020302E303030302043202020302020302020302020302020302020302020302020302020302020302020302020300A20202020322E313433342020202D302E3631383820202020302E303030302043202020302020302020302020302020302020302020302020302020302020302020302020300A2020312020322020312020302020202020200A2020322020332020322020302020202020200A2020332020342020312020302020202020200A2020332020352020312020302020202020200A2020372020382020312020302020202020200A2020362020372020312020302020202020200A2020312020362020312020302020202020200A4D2020454E44
Contributor: KURARAY CO., LTD.
InstType: EI
InstName: JEOL JMS-D-300
IoniMethod: _ENERGY 70 eV
IonPolarity: pos
Date: 2010-10-09 19:48:36+02:00
Num Peaks: 26
27 179 29 320 31 68 39 16 40 44 41 675 42 64 43 18 44 37 45 30 
53 142 54 2 55 104 57 87 59 34 67 16 68 199 69 445 70 55 71 999 
72 52 85 99 99 819 100 6 114 231 115 17 
