Name: DIMETHYLPROPYLSILANE
MW: 102
Formula: C5H14Si
Synonym: MassBank: JP010612
Synonym: DIMETHYLPROPYLSILANE
Structure: 310A31360A44494D455448594C50524F50594C53494C414E452E6D6F6C0A20204368656D447261773130313831303137313832440A2020362020352020302020302020302020302020302020302020302020303939392056323030300A20202020302E373134352020202D302E3230363220202020302E303030302053692020302020302020302020302020302020302020302020302020302020302020302020300A20202020302E303030302020202D302E3631383820202020302E303030302043202020302020302020302020302020302020302020302020302020302020302020302020300A2020202D302E373134352020202D302E3230363220202020302E303030302043202020302020302020302020302020302020302020302020302020302020302020302020300A2020202D312E343238392020202D302E3631383820202020302E303030302043202020302020302020302020302020302020302020302020302020302020302020302020300A20202020302E3731343520202020302E3631383820202020302E303030302043202020302020302020302020302020302020302020302020302020302020302020302020300A20202020312E343238392020202D302E3631383720202020302E303030302043202020302020302020302020302020302020302020302020302020302020302020302020300A2020322020332020312020302020202020200A2020332020342020312020302020202020200A2020312020322020312020302020202020200A2020312020352020312020302020202020200A2020312020362020312020302020202020200A4D2020454E44
Contributor: YAMAMOTO M, DEP. CHEMISTRY, FAC. SCIENCE, NARA WOMEN'S UNIV.
InstType: EI
InstName: HITACHI RMU-6M
IoniMethod: _ENERGY 70 eV
IonPolarity: pos
Date: 2010-10-09 19:48:36+02:00
Num Peaks: 29
15 10 27 35 28 20 29 4 31 66 39 26 41 20 42 3 43 180 44 33 
45 157 46 1 53 19 55 23 57 20 58 32 59 999 60 84 61 33 71 1 
72 12 73 29 85 12 86 2 87 99 88 12 100 34 101 7 102 46 
