Name: THEOPHYLLINE
CAS: 58-55-9
MW: 180
Formula: C7H8N4O2
Synonym: MassBank: JP011292
Synonym: THEOPHYLLINE
Synonym: 3,7-DIHYDRO-1,3-DIMETHYL-1H-PURINE-2,6-DIONE
Structure: 5448454F5048594C4C494E452E6D6F6C0A20204368656D447261773032323231303033333532440A2031332031342020302020302020302020302020302020302020302020303939392056323030300A20202020312E343539342020202D302E3235363720202020302E30303030204E202020302020302020302020302020302020302020302020302020302020302020302020300A20202020312E3735353120202020302E3531333520202020302E303030302043202020302020302020302020302020302020302020302020302020302020302020302020300A20202020312E3131333920202020312E3033323720202020302E30303030204E202020302020302020302020302020302020302020302020302020302020302020302020300A20202020302E3432323020202020302E3538333420202020302E303030302043202020302020302020302020302020302020302020302020302020302020302020302020300A2020202D302E3337343820202020302E3739363920202020302E30303030204E202020302020302020302020302020302020302020302020302020302020302020302020300A2020202D302E3538383420202020312E3539333820202020302E303030302043202020302020302020302020302020302020302020302020302020302020302020302020300A2020202D302E3935383220202020302E3231333520202020302E303030302043202020302020302020302020302020302020302020302020302020302020302020302020300A2020202D312E3735353120202020302E3432373120202020302E30303030204F202020302020302020302020302020302020302020302020302020302020302020302020300A2020202D302E373434372020202D302E3538333420202020302E30303030204E202020302020302020302020302020302020302020302020302020302020302020302020300A2020202D312E333238302020202D312E3136363720202020302E303030302043202020302020302020302020302020302020302020302020302020302020302020302020300A20202020302E303532322020202D302E3739363920202020302E303030302043202020302020302020302020302020302020302020302020302020302020302020302020300A20202020302E323635372020202D312E3539333820202020302E30303030204F202020302020302020302020302020302020302020302020302020302020302020302020300A20202020302E363335362020202D302E3231333520202020302E303030302043202020302020302020302020302020302020302020302020302020302020302020302020300A2020312020322020312020302020202020200A2020322020332020322020302020202020200A2020332020342020312020302020202020200A2020342020352020312020302020202020200A2020352020362020312020302020202020200A2020352020372020312020302020202020200A2020372020382020322020302020202020200A2020372020392020312020302020202020200A2020392031302020312020302020202020200A2020392031312020312020302020202020200A2031312031322020322020302020202020200A2031312031332020312020302020202020200A2020312031332020312020302020202020200A2020342031332020322020302020202020200A4D2020454E44
Contributor: YAMAMOTO M, DEP. CHEMISTRY, FAC. SCIENCE, NARA WOMEN'S UNIV.
InstType: EI
InstName: HITACHI M-2500
IoniMethod: _ENERGY 70 eV
IonPolarity: pos
Date: 2010-10-09 19:48:36+02:00
Num Peaks: 31
15 43 18 12 27 11 28 66 38 11 39 16 40 55 41 159 42 55 53 136 
54 18 56 27 58 12 66 20 67 61 68 328 69 30 70 18 81 10 94 51 
95 479 96 83 122 51 123 80 124 33 136 13 151 72 152 24 179 10 180 999 
181 94 
