Name: MassBank: JP010959
MW: 282
Formula: C13H14O7
Synonym: MassBank: JP010959
Synonym: 4,6-BIS(FORMYLOXYMETHYL)-2,5-DIMETHOXYTROPONE
Structure: 342C362D42495328464F524D594C4F58594D455448594C292D322C352D44494D4554484F585954524F504F4E452E6D6F6C0A20204368656D447261773130313831303137323032440A2032302032302020302020302020302020302020302020302020302020303939392056323030300A20202020322E3033353820202020302E3736373320202020302E30303030204F202020302020302020302020302020302020302020302020302020302020302020302020300A20202020312E3238363820202020302E3431343920202020302E303030302043202020302020302020302020302020302020302020302020302020302020302020302020300A20202020312E323836382020202D302E3431303020202020302E303030302043202020302020302020302020302020302020302020302020302020302020302020302020300A20202020302E363334392020202D302E3931393620202020302E303030302043202020302020302020302020302020302020302020302020302020302020302020302020300A2020202D302E313638312020202D302E3733303020202020302E303030302043202020302020302020302020302020302020302020302020302020302020302020302020300A2020202D302E3532303420202020302E3031393020202020302E303030302043202020302020302020302020302020302020302020302020302020302020302020302020300A2020202D302E3135363920202020302E3735363620202020302E303030302043202020302020302020302020302020302020302020302020302020302020302020302020300A20202020302E3634383720202020302E3933343120202020302E303030302043202020302020302020302020302020302020302020302020302020302020302020302020300A2020202D302E363837322020202D312E3337313120202020302E30303030204F202020302020302020302020302020302020302020302020302020302020302020302020300A2020202D312E353032312020202D312E3234323120202020302E303030302043202020302020302020302020302020302020302020302020302020302020302020302020300A20202020302E3833383320202020312E3733373020202020302E30303030204F202020302020302020302020302020302020302020302020302020302020302020302020300A20202020312E3632383520202020312E3937343320202020302E303030302043202020302020302020302020302020302020302020302020302020302020302020302020300A20202020302E383132342020202D312E3732353220202020302E303030302043202020302020302020302020302020302020302020302020302020302020302020302020300A20202020312E353938392020202D312E3937343320202020302E30303030204F202020302020302020302020302020302020302020302020302020302020302020302020300A20202020322E323037392020202D312E3431373720202020302E303030302043202020302020302020302020302020302020302020302020302020302020302020302020300A20202020322E393934342020202D312E3636363820202020302E30303030204F202020302020302020302020302020302020302020302020302020302020302020302020300A2020202D312E3334353420202020302E3031393020202020302E303030302043202020302020302020302020302020302020302020302020302020302020302020302020300A2020202D312E3735393320202020302E3733353820202020302E30303030204F202020302020302020302020302020302020302020302020302020302020302020302020300A2020202D322E3537373520202020302E3733353820202020302E303030302043202020302020302020302020302020302020302020302020302020302020302020302020300A2020202D322E3939343420202020312E3435373920202020302E30303030204F202020302020302020302020302020302020302020302020302020302020302020302020300A2020312020322020322020302020202020200A2020322020332020312020302020202020200A2020332020342020322020302020202020200A2020342020352020312020302020202020200A2020352020362020322020302020202020200A2020362020372020312020302020202020200A2020372020382020322020302020202020200A2020322020382020312020302020202020200A2020392031302020312020302020202020200A2020352020392020312020302020202020200A2031312031322020312020302020202020200A2020382031312020312020302020202020200A2031352031362020322020302020202020200A2031342031352020312020302020202020200A2031332031342020312020302020202020200A2020342031332020312020302020202020200A2031392032302020322020302020202020200A2031382031392020312020302020202020200A2031372031382020312020302020202020200A2020362031372020312020302020202020200A4D2020454E44
Contributor: TAKESHITA H, INST. OF ADVANCED MATERIAL STUDY KYUSHU UNIV.
InstType: EI
InstName: JEOL JMS-01-SG-2
IoniMethod: _ENERGY 75 eV
IonPolarity: pos
Date: 2010-10-09 19:48:36+02:00
Num Peaks: 47
31 212 39 474 41 146 43 158 44 149 51 196 53 213 55 187 65 225 67 232 
77 469 78 175 79 198 91 332 105 140 107 143 109 238 119 144 121 313 123 201 
133 203 134 146 135 183 137 289 149 314 150 277 151 830 162 445 163 299 165 950 
166 134 175 66 177 205 178 133 179 270 180 92 181 60 191 89 193 225 207 205 
208 80 209 97 221 148 253 76 254 178 282 999 283 152 
