Name: MassBank: JP010570
MW: 231
Formula: C15H21NO
Synonym: MassBank: JP010570
Synonym: 3,5-DI-TERT-BUTYL-4-HYDROXYBENZONITRILE
Structure: 332C352D44492D544552542D425554594C2D342D485944524F585942454E5A4F4E495452494C452E6D6F6C0A20204368656D447261773032323231303030343532440A2031372031372020302020302020302020302020302020302020302020303939392056323030300A2020202D312E343238392020202D312E3239323820202020302E303030302043202020302020302020302020302020302020302020302020302020302020302020302020300A2020202D302E373134352020202D302E3838303320202020302E303030302043202020302020302020302020302020302020302020302020302020302020302020302020300A2020202D302E373134352020202D302E3035353320202020302E303030302043202020302020302020302020302020302020302020302020302020302020302020302020300A20202020302E3030303020202020302E3335373220202020302E303030302043202020302020302020302020302020302020302020302020302020302020302020302020300A20202020302E373134352020202D302E3035353320202020302E303030302043202020302020302020302020302020302020302020302020302020302020302020302020300A20202020302E373134352020202D302E3838303320202020302E303030302043202020302020302020302020302020302020302020302020302020302020302020302020300A2020202D302E303030302020202D312E3239323820202020302E303030302043202020302020302020302020302020302020302020302020302020302020302020302020300A2020202D322E313433342020202D312E3730353320202020302E30303030204E202020302020302020302020302020302020302020302020302020302020302020302020300A20202020312E3432383920202020302E3335373220202020302E30303030204F202020302020302020302020302020302020302020302020302020302020302020302020300A20202020312E343238392020202D312E3239323820202020302E303030302043202020302020302020302020302020302020302020302020302020302020302020302020300A20202020312E303136342020202D322E3030373220202020302E303030302043202020302020302020302020302020302020302020302020302020302020302020302020300A20202020312E383431342020202D302E3537383320202020302E303030302043202020302020302020302020302020302020302020302020302020302020302020302020300A20202020322E313433342020202D312E3730353320202020302E303030302043202020302020302020302020302020302020302020302020302020302020302020302020300A20202020302E3030303020202020312E3138323220202020302E303030302043202020302020302020302020302020302020302020302020302020302020302020302020300A2020202D302E3832353020202020312E3138323220202020302E303030302043202020302020302020302020302020302020302020302020302020302020302020302020300A20202020302E3030303020202020322E3030373220202020302E303030302043202020302020302020302020302020302020302020302020302020302020302020302020300A20202020302E3832353020202020312E3138323220202020302E303030302043202020302020302020302020302020302020302020302020302020302020302020302020300A2020312020322020312020302020202020200A2020322020332020312020302020202020200A2020332020342020322020302020202020200A2020342020352020312020302020202020200A2020352020362020322020302020202020200A2020362020372020312020302020202020200A2020322020372020322020302020202020200A2020312020382020332020302020202020200A2020352020392020312020302020202020200A2031302031312020312020302020202020200A2031302031332020312020302020202020200A2031302031322020312020302020202020200A2020362031302020312020302020202020200A2031342031352020312020302020202020200A2031342031372020312020302020202020200A2031342031362020312020302020202020200A2020342031342020312020302020202020200A4D2020454E44
Contributor: NARA WOMEN'S UNIVERSITY
InstType: EI
InstName: HITACHI M-80
IoniMethod: _ENERGY 70 eV
IonPolarity: pos
Date: 2010-10-09 19:48:36+02:00
Num Peaks: 54
15 22 18 22 27 37 28 29 29 73 39 58 41 135 43 17 51 20 53 17 
55 33 57 116 63 15 65 15 77 31 85.5 16 86.5 25 89 17 91 20 100.5 14 
102 11 103 17 104 11 115 36 116 44 117 14 127 18 128 22 129 14 130 25 
132 15 140 28 141 15 142 17 144 31 146 16 153 14 154 11 156 56 157 11 
158 27 160 43 172 74 173 12 174 12 186 11 188 206 189 30 200 38 216 999 
217 157 218 13 231 220 232 41 
