Name: TETRAETHOXYMETHANE
MW: 192
Formula: C9H20O4
Synonym: MassBank: JP011269
Synonym: TETRAETHOXYMETHANE
Structure: 54455452414554484F58594D455448414E452E6D6F6C0A20204368656D447261773038313231303037313932440A2031332031322020302020302020302020302020302020302020302020303939392056323030300A20202020302E333136382020202D302E3039353720202020302E303030302043202020302020302020302020302020302020302020302020302020302020302020302020300A20202020302E3331363820202020302E3732393320202020302E30303030204F202020302020302020302020302020302020302020302020302020302020302020302020300A2020202D302E3339373720202020312E3134313820202020302E303030302043202020302020302020302020302020302020302020302020302020302020302020302020300A2020202D312E3131323220202020302E3732393320202020302E303030302043202020302020302020302020302020302020302020302020302020302020302020302020300A20202020312E313431382020202D302E3039353720202020302E30303030204F202020302020302020302020302020302020302020302020302020302020302020302020300A20202020312E3535343320202020302E3631383820202020302E303030302043202020302020302020302020302020302020302020302020302020302020302020302020300A20202020312E3134313820202020312E3333333220202020302E303030302043202020302020302020302020302020302020302020302020302020302020302020302020300A20202020302E333136382020202D302E3932303720202020302E30303030204F202020302020302020302020302020302020302020302020302020302020302020302020300A20202020312E303331332020202D312E3333333220202020302E303030302043202020302020302020302020302020302020302020302020302020302020302020302020300A20202020312E373435372020202D302E3932303720202020302E303030302043202020302020302020302020302020302020302020302020302020302020302020302020300A2020202D302E353038322020202D302E3039353720202020302E30303030204F202020302020302020302020302020302020302020302020302020302020302020302020300A2020202D302E393230372020202D302E3831303220202020302E303030302043202020302020302020302020302020302020302020302020302020302020302020302020300A2020202D312E373435372020202D302E3831303220202020302E303030302043202020302020302020302020302020302020302020302020302020302020302020302020300A2020332020342020312020302020202020200A2020322020332020312020302020202020200A2020312020322020312020302020202020200A2020362020372020312020302020202020200A2020352020362020312020302020202020200A2020312020352020312020302020202020200A2020392031302020312020302020202020200A2020382020392020312020302020202020200A2020312020382020312020302020202020200A2031322031332020312020302020202020200A2031312031322020312020302020202020200A2020312031312020312020302020202020200A4D2020454E44
Contributor: TAJIMA S, GUNMA COLLEGE OF TECHNOLOGY
InstType: EI
InstName: HITACHI M-80A
IoniMethod: _ENERGY 70 eV
IonPolarity: pos
Date: 2010-10-09 19:48:36+02:00
Num Peaks: 26
15 63 19 75 26 44 27 318 28 57 29 848 30 54 31 138 41 14 42 10 
43 85 44 29 45 242 46 11 47 145 63 999 64 13 75 27 91 558 92 21 
102 17 103 14 119 260 120 16 147 921 148 76 
