Name: MassBank: JP010428
CAS: 23950-58-5
MW: 255
Formula: C12H11Cl2NO
Synonym: MassBank: JP010428
Synonym: 3,5-DICHLORO-N-(1,1-DIMETHYL-2-PROPYNYL)BENZAMIDE
Structure: 332C352D444943484C4F524F2D4E2D28312C312D44494D455448594C2D322D50524F50594E594C2942454E5A414D4944452E6D6F6C0A20204368656D447261773032323231303030353132440A2031362031362020302020302020302020302020302020302020302020303939392056323030300A20202020302E303030302020202D302E3832353020202020302E303030302043202020302020302020302020302020302020302020302020302020302020302020302020300A2020202D302E373134352020202D302E3431323520202020302E303030302043202020302020302020302020302020302020302020302020302020302020302020302020300A2020202D312E343238392020202D302E3832353020202020302E303030302043202020302020302020302020302020302020302020302020302020302020302020302020300A2020202D322E313433342020202D302E3431323520202020302E303030302043202020302020302020302020302020302020302020302020302020302020302020302020300A2020202D322E3134333420202020302E3431323520202020302E303030302043202020302020302020302020302020302020302020302020302020302020302020302020300A2020202D312E3432383920202020302E3832353020202020302E303030302043202020302020302020302020302020302020302020302020302020302020302020302020300A2020202D302E3731343520202020302E3431323520202020302E303030302043202020302020302020302020302020302020302020302020302020302020302020302020300A20202020302E303030302020202D312E3635303020202020302E30303030204F202020302020302020302020302020302020302020302020302020302020302020302020300A20202020302E373134352020202D302E3431323520202020302E30303030204E202020302020302020302020302020302020302020302020302020302020302020302020300A20202020312E343238392020202D302E3832353020202020302E303030302043202020302020302020302020302020302020302020302020302020302020302020302020300A20202020322E313433342020202D312E3233373520202020302E303030302043202020302020302020302020302020302020302020302020302020302020302020302020300A20202020322E383537392020202D312E3635303020202020302E303030302043202020302020302020302020302020302020302020302020302020302020302020302020300A20202020312E383431342020202D302E3131303520202020302E303030302043202020302020302020302020302020302020302020302020302020302020302020302020300A20202020312E303136342020202D312E3533393520202020302E303030302043202020302020302020302020302020302020302020302020302020302020302020302020300A2020202D312E3432383920202020312E3635303020202020302E3030303020436C2020302020302020302020302020302020302020302020302020302020302020302020300A2020202D322E383537392020202D302E3832353020202020302E3030303020436C2020302020302020302020302020302020302020302020302020302020302020302020300A2020312020322020312020302020202020200A2020322020332020312020302020202020200A2020332020342020322020302020202020200A2020342020352020312020302020202020200A2020352020362020322020302020202020200A2020362020372020312020302020202020200A2020322020372020322020302020202020200A2020312020382020322020302020202020200A2020312020392020312020302020202020200A2031302031312020312020302020202020200A2031312031322020332020302020202020200A2031302031332020312020302020202020200A2031302031342020312020302020202020200A2020392031302020312020302020202020200A2020362031352020312020302020202020200A2020342031362020312020302020202020200A4D2020454E44
Contributor: UOEH
InstType: EI
InstName: JEOL JMS-DX-303
IoniMethod: _ENERGY 70 eV
IonPolarity: pos
Date: 2010-10-09 19:48:36+02:00
Num Peaks: 59
39 30 41 48 42 21 44 16 50 15 51 16 52 17 57 11 65 24 66 42 
67 39 69 13 74 42 75 43 82 25 83 19 84 86 85 17 102 21 109 93 
110 44 111 38 112 17 120 11 121 13 138 13 145 254 146 28 147 170 148 15 
149 25 171 17 172 28 173 999 174 94 175 658 176 55 177 116 179 19 189 15 
190 14 191 13 192 19 202 13 212 15 214 10 226 26 228 21 240 130 241 17 
242 85 243 11 244 14 254 238 255 365 256 207 257 257 258 56 259 39 
