Name: ENDO-NORBORNEOL
MW: 112
Formula: C7H12O
Synonym: MassBank: JP010767
Synonym: ENDO-NORBORNEOL
Synonym: ENDO-BICYCLO(2.2.1)HEPTAN-2-OL
Structure: 310A32320A303134365F454E444F2D4E4F52424F524E454F4C2E6D6F6C0A20204368656D447261773039303331303138313932440A2020382020392020302020302020302020302020302020302020302020303939392056323030300A20202020302E3431323520202020302E3030303020202020302E303030302043202020302020302020302020302020302020302020302020302020302020302020302020300A20202020312E3233373520202020302E3030303020202020302E30303030204F202020302020302020302020302020302020302020302020302020302020302020302020300A2020202D302E3030303020202020302E3731343520202020302E303030302043202020302020302020302020302020302020302020302020302020302020302020302020300A2020202D302E3832353020202020302E3731343520202020302E303030302043202020302020302020302020302020302020302020302020302020302020302020302020300A2020202D312E3233373520202020302E3030303020202020302E303030302043202020302020302020302020302020302020302020302020302020302020302020302020300A2020202D302E383235302020202D302E3731343520202020302E303030302043202020302020302020302020302020302020302020302020302020302020302020302020300A2020202D302E303030302020202D302E3731343520202020302E303030302043202020302020302020302020302020302020302020302020302020302020302020302020300A2020202D302E323537312020202D302E3036393420202020302E303030302043202020302020302020302020302020302020302020302020302020302020302020302020300A2020312020322020312020362020202020200A2020312020332020312020302020202020200A2020332020342020312020302020202020200A2020342020352020312020302020202020200A2020352020362020312020302020202020200A2020362020372020312020302020202020200A2020372020312020312020302020202020200A2020332020382020312020312020202020200A2020362020382020312020312020202020200A4D2020454E44
Contributor: YAMAMOTO M, DEP. CHEMISTRY, FAC. SCIENCE, NARA WOMEN'S UNIV.
InstType: EI
InstName: HITACHI RMU-6M
IoniMethod: _ENERGY 20 eV
IonPolarity: pos
Date: 2010-10-09 19:48:36+02:00
Num Peaks: 35
28 16 29 23 40 15 42 3 43 45 44 34 45 49 53 4 54 25 55 113 
56 85 57 18 58 31 65 10 66 479 67 44 68 48 69 52 70 98 71 5 
77 24 78 10 79 597 80 5 81 52 82 15 83 113 84 5 91 10 93 45 
94 999 95 8 97 47 111 11 112 41 
