Name: HEXAACETOXYTROPONE
MW: 454
Formula: C19H18O13
Synonym: MassBank: JP011018
Synonym: HEXAACETOXYTROPONE
Structure: 48455841414345544F585954524F504F4E452E6D6F6C0A20204368656D447261773038313131303230313432440A2033322033322020302020302020302020302020302020302020302020303939392056323030300A2020202D312E3539343120202020302E3737303520202020302E30303030204F202020302020302020302020302020302020302020302020302020302020302020302020300A2020202D302E3835303820202020302E3431323520202020302E303030302043202020302020302020302020302020302020302020302020302020302020302020302020300A2020202D302E3230353820202020302E3932363920202020302E303030302043202020302020302020302020302020302020302020302020302020302020302020302020300A20202020302E3539383620202020302E3734333320202020302E303030302043202020302020302020302020302020302020302020302020302020302020302020302020300A20202020302E3935363520202020302E3030303020202020302E303030302043202020302020302020302020302020302020302020302020302020302020302020302020300A20202020302E353938362020202D302E3734333320202020302E303030302043202020302020302020302020302020302020302020302020302020302020302020302020300A2020202D302E323035382020202D302E3932363920202020302E303030302043202020302020302020302020302020302020302020302020302020302020302020302020300A2020202D302E383530382020202D302E3431323520202020302E303030302043202020302020302020302020302020302020302020302020302020302020302020302020300A2020202D302E3338393320202020312E3733313220202020302E30303030204F202020302020302020302020302020302020302020302020302020302020302020302020300A2020202D312E3137373720202020312E3937343420202020302E303030302043202020302020302020302020302020302020302020302020302020302020302020302020300A2020202D312E3736313020202020312E3339313020202020302E30303030204F202020302020302020302020302020302020302020302020302020302020302020302020300A2020202D312E3336313320202020322E3737383720202020302E303030302043202020302020302020302020302020302020302020302020302020302020302020302020300A20202020312E3131323920202020312E3338383320202020302E30303030204F202020302020302020302020302020302020302020302020302020302020302020302020300A20202020302E3831313520202020322E3135363320202020302E303030302043202020302020302020302020302020302020302020302020302020302020302020302020300A2020202D302E3030343320202020322E3237393220202020302E30303030204F202020302020302020302020302020302020302020302020302020302020302020302020300A20202020312E3332353920202020322E3830313320202020302E303030302043202020302020302020302020302020302020302020302020302020302020302020302020300A20202020312E3738313520202020302E3030303020202020302E30303030204F202020302020302020302020302020302020302020302020302020302020302020302020300A20202020322E313934302020202D302E3731343520202020302E303030302043202020302020302020302020302020302020302020302020302020302020302020302020300A20202020332E303139302020202D302E3731343520202020302E30303030204F202020302020302020302020302020302020302020302020302020302020302020302020300A20202020312E373831352020202D312E3432383920202020302E303030302043202020302020302020302020302020302020302020302020302020302020302020302020300A20202020312E313132392020202D312E3338383320202020302E30303030204F202020302020302020302020302020302020302020302020302020302020302020302020300A20202020302E383131352020202D322E3135363320202020302E303030302043202020302020302020302020302020302020302020302020302020302020302020302020300A20202020312E333235392020202D322E3830313320202020302E30303030204F202020302020302020302020302020302020302020302020302020302020302020302020300A2020202D302E303034332020202D322E3237393220202020302E303030302043202020302020302020302020302020302020302020302020302020302020302020302020300A2020202D302E333839332020202D312E3733313220202020302E30303030204F202020302020302020302020302020302020302020302020302020302020302020302020300A2020202D312E313737372020202D312E3937343420202020302E303030302043202020302020302020302020302020302020302020302020302020302020302020302020300A2020202D312E333931322020202D322E3737313320202020302E30303030204F202020302020302020302020302020302020302020302020302020302020302020302020300A2020202D312E373631302020202D312E3339313020202020302E303030302043202020302020302020302020302020302020302020302020302020302020302020302020300A2020202D312E353934312020202D302E3737303520202020302E30303030204F202020302020302020302020302020302020302020302020302020302020302020302020300A2020202D322E323735372020202D302E3330353720202020302E303030302043202020302020302020302020302020302020302020302020302020302020302020302020300A2020202D322E3231343120202020302E3531373020202020302E30303030204F202020302020302020302020302020302020302020302020302020302020302020302020300A2020202D332E303139302020202D302E3636333720202020302E303030302043202020302020302020302020302020302020302020302020302020302020302020302020300A2020312020322020322020302020202020200A2020322020332020312020302020202020200A2020332020342020322020302020202020200A2020342020352020312020302020202020200A2020352020362020322020302020202020200A2020362020372020312020302020202020200A2020372020382020322020302020202020200A2020322020382020312020302020202020200A2031302031312020322020302020202020200A2031302031322020312020302020202020200A2020392031302020312020302020202020200A2020332020392020312020302020202020200A2031342031352020322020302020202020200A2031342031362020312020302020202020200A2031332031342020312020302020202020200A2020342031332020312020302020202020200A2031382031392020322020302020202020200A2031382032302020312020302020202020200A2031372031382020312020302020202020200A2020352031372020312020302020202020200A2032322032332020322020302020202020200A2032322032342020312020302020202020200A2032312032322020312020302020202020200A2020362032312020312020302020202020200A2032362032372020322020302020202020200A2032362032382020312020302020202020200A2032352032362020312020302020202020200A2020372032352020312020302020202020200A2033302033312020322020302020202020200A2033302033322020312020302020202020200A2032392033302020312020302020202020200A2020382032392020312020302020202020200A4D2020454E44
Contributor: TAKESHITA H, INST. OF ADVANCED MATERIAL STUDY KYUSHU UNIV.
InstType: EI
InstName: JEOL JMS-01-SG-2
IoniMethod: _ENERGY 75 eV
IonPolarity: pos
Date: 2010-10-09 19:48:36+02:00
Num Peaks: 64
151 55 152 36 157 34 158 35 159 30 163 40 167 45 171 36 173 98 174 31 
177 33 184 84 185 49 186 485 187 50 201 177 202 999 203 76 204 35 208 47 
213 33 226 84 227 36 228 128 236 81 237 42 241 30 243 58 244 504 245 61 
247 12 250 18 251 13 255 22 256 17 257 17 264 17 268 69 269 13 270 63 
271 20 275 17 276 12 278 11 279 17 284 41 285 25 286 283 287 22 288 19 
310 24 312 37 327 13 328 138 329 23 353 17 354 12 368 34 369 16 370 155 
371 22 386 13 410 11 412 20 
