Name: MassBank: JP010571
CAS: 4707-47-5
MW: 196
Formula: C10H12O4
Synonym: MassBank: JP010571
Synonym: METHYL 2,4-DIHYDROXY-3,6-DIMETHYLBENZOATE
Structure: 4D455448594C20322C342D4449485944524F58592D332C362D44494D455448594C42454E5A4F4154452E6D6F6C0A20204368656D447261773038313131303233343432440A2031342031342020302020302020302020302020302020302020302020303939392056323030300A2020202D312E3434333720202020302E3030303020202020302E303030302043202020302020302020302020302020302020302020302020302020302020302020302020300A2020202D302E3631383720202020302E3030303020202020302E303030302043202020302020302020302020302020302020302020302020302020302020302020302020300A2020202D302E3230363220202020302E3731343520202020302E303030302043202020302020302020302020302020302020302020302020302020302020302020302020300A20202020302E3631383820202020302E3731343520202020302E303030302043202020302020302020302020302020302020302020302020302020302020302020302020300A20202020312E303331332020202D302E3030303020202020302E303030302043202020302020302020302020302020302020302020302020302020302020302020302020300A20202020302E363138382020202D302E3731343520202020302E303030302043202020302020302020302020302020302020302020302020302020302020302020302020300A2020202D302E323036322020202D302E3731343520202020302E303030302043202020302020302020302020302020302020302020302020302020302020302020302020300A2020202D312E3835363320202020302E3731343520202020302E30303030204F202020302020302020302020302020302020302020302020302020302020302020302020300A2020202D312E383536332020202D302E3731343520202020302E30303030204F202020302020302020302020302020302020302020302020302020302020302020302020300A2020202D302E363138372020202D312E3432383920202020302E303030302043202020302020302020302020302020302020302020302020302020302020302020302020300A20202020312E3033313320202020312E3432383920202020302E303030302043202020302020302020302020302020302020302020302020302020302020302020302020300A20202020312E383536332020202D302E3030303020202020302E30303030204F202020302020302020302020302020302020302020302020302020302020302020302020300A2020202D302E3631383720202020312E3432383920202020302E30303030204F202020302020302020302020302020302020302020302020302020302020302020302020300A2020202D312E343433372020202D312E3432383920202020302E303030302043202020302020302020302020302020302020302020302020302020302020302020302020300A2020312020322020312020302020202020200A2020322020332020312020302020202020200A2020332020342020322020302020202020200A2020342020352020312020302020202020200A2020352020362020322020302020202020200A2020362020372020312020302020202020200A2020322020372020322020302020202020200A2020312020382020322020302020202020200A2020312020392020312020302020202020200A2020372031302020312020302020202020200A2020342031312020312020302020202020200A2020352031322020312020302020202020200A2020332031332020312020302020202020200A2020392031342020312020302020202020200A4D2020454E44
Contributor: NARA WOMEN'S UNIVERSITY
InstType: EI
InstName: HITACHI M-80
IoniMethod: _ENERGY 70 eV
IonPolarity: pos
Date: 2010-10-09 19:48:36+02:00
Num Peaks: 52
15 57 18 17 27 59 28 16 29 33 31 22 38 14 39 99 40 15 41 41 
43 47 50 25 51 63 52 42 53 104 54 12 55 72 62 12 63 39 64 13 
65 56 66 28 67 69 68 11 69 26 77 138 78 43 79 144 80 54 81 28 
83 59 89 16 90 27 91 36 93 14 94 10 106 11 107 167 108 102 109 52 
121 22 135 141 136 999 137 98 162 11 163 81 164 943 165 265 166 29 167 10 
196 440 197 54 
