Name: MassBank: JP010059
MW: 361
Formula: C24H43NO
Synonym: MassBank: JP010059
Synonym: 1-OXO-1-PYRRORIDINO-ICOSA-2,4-DIENE
Structure: 312D4F584F2D312D505952524F524944494E4F2D49434F53412D322C342D4449454E452E6D6F6C0A20204368656D447261773131323230393231343532440A2032362032362020302020302020302020302020302020302020302020303939392056323030300A2020202D352E373731302020202D312E3235333520202020302E303030302043202020302020302020302020302020302020302020302020302020302020302020302020300A2020202D342E393436302020202D312E3235333520202020302E303030302043202020302020302020302020302020302020302020302020302020302020302020302020300A2020202D342E363931312020202D302E3436383920202020302E303030302043202020302020302020302020302020302020302020302020302020302020302020302020300A2020202D352E3335383520202020302E3031363020202020302E30303030204E202020302020302020302020302020302020302020302020302020302020302020302020300A2020202D362E303236302020202D302E3436383920202020302E303030302043202020302020302020302020302020302020302020302020302020302020302020302020300A2020202D352E3335383520202020302E3834313020202020302E303030302043202020302020302020302020302020302020302020302020302020302020302020302020300A2020202D362E3037333020202020312E3235333520202020302E30303030204F202020302020302020302020302020302020302020302020302020302020302020302020300A2020202D342E3634343120202020312E3235333520202020302E303030302043202020302020302020302020302020302020302020302020302020302020302020302020300A2020202D332E3932393620202020302E3834313020202020302E303030302043202020302020302020302020302020302020302020302020302020302020302020302020300A2020202D332E3231353120202020312E3235333520202020302E303030302043202020302020302020302020302020302020302020302020302020302020302020302020300A2020202D322E3530303620202020302E3834313020202020302E303030302043202020302020302020302020302020302020302020302020302020302020302020302020300A2020202D312E3738363220202020312E3235333520202020302E303030302043202020302020302020302020302020302020302020302020302020302020302020302020300A2020202D312E3037313720202020302E3834313020202020302E303030302043202020302020302020302020302020302020302020302020302020302020302020302020300A2020202D302E3335373220202020312E3235333520202020302E303030302043202020302020302020302020302020302020302020302020302020302020302020302020300A20202020302E3335373220202020302E3834313020202020302E303030302043202020302020302020302020302020302020302020302020302020302020302020302020300A20202020312E3037313720202020312E3235333520202020302E303030302043202020302020302020302020302020302020302020302020302020302020302020302020300A20202020312E3738363220202020302E3834313020202020302E303030302043202020302020302020302020302020302020302020302020302020302020302020302020300A20202020322E3530303620202020312E3235333520202020302E303030302043202020302020302020302020302020302020302020302020302020302020302020302020300A20202020332E3231353120202020302E3834313020202020302E303030302043202020302020302020302020302020302020302020302020302020302020302020302020300A20202020332E3932393620202020312E3235333520202020302E303030302043202020302020302020302020302020302020302020302020302020302020302020302020300A20202020342E3634343120202020302E3834313020202020302E303030302043202020302020302020302020302020302020302020302020302020302020302020302020300A20202020352E3335383520202020312E3235333520202020302E303030302043202020302020302020302020302020302020302020302020302020302020302020302020300A20202020362E3037333020202020302E3834313020202020302E303030302043202020302020302020302020302020302020302020302020302020302020302020302020300A20202020362E3037333020202020302E3031363020202020302E303030302043202020302020302020302020302020302020302020302020302020302020302020302020300A20202020352E333538352020202D302E3339363520202020302E303030302043202020302020302020302020302020302020302020302020302020302020302020302020300A20202020342E3634343120202020302E3031363020202020302E303030302043202020302020302020302020302020302020302020302020302020302020302020302020300A2020312020322020312020302020202020200A2020322020332020312020302020202020200A2020332020342020312020302020202020200A2020342020352020312020302020202020200A2020352020312020312020302020202020200A2020342020362020312020302020202020200A2020362020372020322020302020202020200A2020362020382020312020302020202020200A2020382020392020322020302020202020200A2020392031302020312020302020202020200A2031302031312020322020302020202020200A2031312031322020312020302020202020200A2031322031332020312020302020202020200A2031332031342020312020302020202020200A2031342031352020312020302020202020200A2031352031362020312020302020202020200A2031362031372020312020302020202020200A2031372031382020312020302020202020200A2031382031392020312020302020202020200A2031392032302020312020302020202020200A2032302032312020312020302020202020200A2032312032322020312020302020202020200A2032322032332020312020302020202020200A2032332032342020312020302020202020200A2032342032352020312020302020202020200A2032352032362020312020302020202020200A4D2020454E44
Contributor: KURARAY CO., LTD.
InstType: EI
InstName: JEOL JMS-D-300
IoniMethod: _ENERGY 70 eV
IonPolarity: pos
Date: 2010-10-09 19:48:36+02:00
Num Peaks: 75
27 24 29 65 30 12 39 2 41 158 42 19 43 227 53 7 54 16 55 313 
56 40 57 8 66 57 67 137 68 26 69 8 70 265 71 71 72 76 77 3 
79 74 80 27 81 416 82 6 83 71 91 16 93 28 94 6 95 133 96 34 
97 35 98 31 107 61 108 20 109 41 110 2 111 11 113 483 114 50 121 2 
122 21 123 26 124 51 126 4 136 53 137 43 138 27 139 3 150 999 151 152 
152 66 165 14 166 18 179 192 180 38 193 6 194 23 207 47 221 45 235 4 
249 32 263 29 277 30 291 4 292 91 293 21 295 18 305 3 319 29 333 33 
347 13 361 8 362 330 363 101 364 13 
