Name: 4-QUINOLINONE
MW: 145
Formula: C9H7NO
Synonym: MassBank: JP011164
Synonym: 4-QUINOLINONE
Structure: 342D5155494E4F4C494E4F4E452E6D6F6C0A20204368656D447261773034323231303231303932440A2031312031322020302020302020302020302020302020302020302020303939392056323030300A20202020302E3731343520202020312E3233373520202020302E30303030204E202020302020302020302020302020302020302020302020302020302020302020302020300A20202020312E3432383920202020302E3832353020202020302E303030302043202020302020302020302020302020302020302020302020302020302020302020302020300A20202020312E3432383920202020302E3030303020202020302E303030302043202020302020302020302020302020302020302020302020302020302020302020302020300A20202020302E373134352020202D302E3431323520202020302E303030302043202020302020302020302020302020302020302020302020302020302020302020302020300A2020202D302E3030303020202020302E3030303020202020302E303030302043202020302020302020302020302020302020302020302020302020302020302020302020300A2020202D302E373134352020202D302E3431323520202020302E303030302043202020302020302020302020302020302020302020302020302020302020302020302020300A2020202D312E343238392020202D302E3030303020202020302E303030302043202020302020302020302020302020302020302020302020302020302020302020302020300A2020202D312E3432383920202020302E3832353020202020302E303030302043202020302020302020302020302020302020302020302020302020302020302020302020300A2020202D302E3731343520202020312E3233373520202020302E303030302043202020302020302020302020302020302020302020302020302020302020302020302020300A20202020302E3030303020202020302E3832353020202020302E303030302043202020302020302020302020302020302020302020302020302020302020302020302020300A20202020302E373134352020202D312E3233373520202020302E30303030204F202020302020302020302020302020302020302020302020302020302020302020302020300A2020312020322020312020302020202020200A2020322020332020322020302020202020200A2020332020342020312020302020202020200A2020342020352020312020302020202020200A2020352020362020312020302020202020200A2020362020372020322020302020202020200A2020372020382020312020302020202020200A2020382020392020322020302020202020200A2020392031302020312020302020202020200A2020312031302020312020302020202020200A2020352031302020322020302020202020200A2020342031312020322020302020202020200A4D2020454E44
Contributor: SAWADA M, THE INST. OF SCIENTIFIC AND INDUSTRIALRESEARCH OSAKA UNIV.
InstType: EI
InstName: JEOL JMS-DX-300
IoniMethod: _ENERGY 70 eV
IonPolarity: pos
Date: 2010-10-09 19:48:36+02:00
Num Peaks: 74
37 44 38 78 39 150 40 98 41 68 42 22 43 44 44 584 45 30 46 16 
49 12 50 129 51 99 52 72 53 52 54 18 55 40 56 16 57 38 58 22 
59 206 60 11 61 47 62 109 63 292 64 176 65 62 66 17 67 21 68 24 
69 49 70 17 71 20 73 41 74 78 75 66 76 70 77 103 78 45 81 26 
82 14 83 20 84 12 85 19 86 18 87 30 88 44 89 510 90 601 91 102 
92 104 93 20 95 17 96 11 97 17 98 14 99 10 101 12 102 12 103 10 
104 61 105 46 111 10 114 12 115 20 116 241 117 857 118 163 119 31 121 11 
144 110 145 999 146 271 147 22 
