Name: MassBank: JP010670
MW: 338
Formula: C20H34O4
Synonym: MassBank: JP010670
Synonym: (1R(*),2R(*),3R(*),6S(*),7R(*),9R(*),10S(*),11Z,14R(*))-EUNICELLA-11-ENE-3,6,7-TRIOL
Structure: 28315228292C325228292C335228292C365328292C375228292C395228292C31305328292C31315A2C3134522829292D45554E4943454C4C412D31312D454E452D332C362C372D5452494F4C2E6D6F6C0A20204368656D447261773130313930393132303732440A2033312033332020302020302020302020302020302020302020302020303939392056323030300A2020202D312E3834363420202020302E3831303620202020302E303030302043202020302020302020302020302020302020302020302020302020302020302020302020300A2020202D312E383436342020202D302E3031343420202020302E303030302043202020302020302020302020302020302020302020302020302020302020302020302020300A2020202D312E313332302020202D302E3432363920202020302E303030302043202020302020302020302020302020302020302020302020302020302020302020302020300A2020202D302E343137352020202D302E3031343420202020302E303030302043202020302020302020302020302020302020302020302020302020302020302020302020300A2020202D302E3431373520202020302E3831303620202020302E303030302043202020302020302020302020302020302020302020302020302020302020302020302020300A2020202D312E3133323020202020312E3232333120202020302E303030302043202020302020302020302020302020302020302020302020302020302020302020302020300A20202020302E323936392020202D302E3432363920202020302E303030302043202020302020302020302020302020302020302020302020302020302020302020302020300A20202020312E303131332020202D302E3031343420202020302E303030302043202020302020302020302020302020302020302020302020302020302020302020302020300A20202020312E3031313320202020302E3831303620202020302E303030302043202020302020302020302020302020302020302020302020302020302020302020302020300A20202020302E3239363920202020312E3232333120202020302E303030302043202020302020302020302020302020302020302020302020302020302020302020302020300A20202020302E323936392020202D312E3235313920202020302E303030302043202020302020302020302020302020302020302020302020302020302020302020302020300A20202020312E303131332020202D312E3636343420202020302E303030302043202020302020302020302020302020302020302020302020302020302020302020302020300A20202020312E373235382020202D312E3235313920202020302E303030302043202020302020302020302020302020302020302020302020302020302020302020302020300A20202020312E373235382020202D302E3432363920202020302E303030302043202020302020302020302020302020302020302020302020302020302020302020302020300A2020202D322E3535343620202020312E3232333120202020302E303030302048202020302020302020302020302020302020302020302020302020302020302020302020300A2020202D302E3431323420202020312E3633353620202020302E303030302048202020302020302020302020302020302020302020302020302020302020302020302020300A2020202D312E353434352020202D312E3134363520202020302E303030302048202020302020302020302020302020302020302020302020302020302020302020302020300A2020202D302E323738342020202D312E3031323520202020302E303030302048202020302020302020302020302020302020302020302020302020302020302020302020300A20202020322E353534362020202D302E3432363920202020302E303030302048202020302020302020302020302020302020302020302020302020302020302020302020300A20202020312E3539353620202020302E3536323920202020302E30303030204F202020302020302020302020302020302020302020302020302020302020302020302020300A20202020302E3239383920202020322E3034383120202020302E303030302048202020302020302020302020302020302020302020302020302020302020302020302020300A20202020322E3331353220202020302E3135303420202020302E30303030204F202020302020302020302020302020302020302020302020302020302020302020302020300A2020202D302E313133362020202D312E3937313520202020302E30303030204F202020302020302020302020302020302020302020302020302020302020302020302020300A20202020302E3136353820202020302E3536383920202020302E303030302048202020302020302020302020302020302020302020302020302020302020302020302020300A2020202D302E393138342020202D312E3232333820202020302E303030302043202020302020302020302020302020302020302020302020302020302020302020302020300A2020202D302E313231362020202D312E3433373420202020302E303030302043202020302020302020302020302020302020302020302020302020302020302020302020300A2020202D312E353031382020202D312E3830373220202020302E303030302043202020302020302020302020302020302020302020302020302020302020302020302020300A20202020302E3531343720202020302E3432313620202020302E30303030204F202020302020302020302020302020302020302020302020302020302020302020302020300A20202020312E3830373720202020302E3230303120202020302E303030302043202020302020302020302020302020302020302020302020302020302020302020302020300A20202020302E353039372020202D322E3034383120202020302E303030302043202020302020302020302020302020302020302020302020302020302020302020302020300A2020202D312E3133323020202020322E3034383120202020302E303030302043202020302020302020302020302020302020302020302020302020302020302020302020300A2020312020322020312020302020202020200A2020322020332020312020302020202020200A2020332020342020312020302020202020200A2020342020352020312020302020202020200A2020352020362020312020302020202020200A2020362020312020322020302020202020200A2020342020372020312020302020202020200A2020382020392020312020302020202020200A2020392031302020312020302020202020200A2031302020352020312020302020202020200A2020372031312020312020302020202020200A2031312031322020312020302020202020200A2031322031332020312020302020202020200A2031332031342020312020302020202020200A2031342020382020312020302020202020200A2020312031352020312020302020202020200A2020352031362020312020362020202020200A2020332031372020312020362020202020200A2020372031382020312020362020202020200A2031342031392020312020362020202020200A2020382032302020312020362020202020200A2031302032312020312020312020202020200A2031342032322020312020312020202020200A2031312032332020312020312020202020200A2020342032342020312020312020202020200A2020332032352020312020312020202020200A2032352032362020312020302020202020200A2032352032372020312020302020202020200A2031302032382020312020362020202020200A2020372032382020312020312020202020200A2020382032392020312020302020202020200A2031312033302020312020302020202020200A2020362033312020312020302020202020200A4D202053545920203120202031205355500A4D2020534C4220203120202031202020310A4D202053414C20202031202031202032390A4D202053424C20202031202031202033310A4D2020534D5420202031204D650A4D2020534256202020312033312020202D362E3131323820202020382E303530330A4D202053545920203120202032205355500A4D2020534C4220203120202032202020320A4D202053414C20202032202031202033300A4D202053424C20202032202031202033320A4D2020534D5420202032204D650A4D2020534256202020322033322020202D362E3639363420202020372E303339360A4D202053545920203120202033205355500A4D2020534C4220203120202033202020330A4D202053414C20202033202031202033310A4D202053424C20202033202031202033330A4D2020534D5420202033204D650A4D2020534256202020332033332020202D362E3930393220202020382E363630380A4D2020454E44
Contributor: EGUCHI S, FAC. OF SCIENCE, HIROSHIMA UNIV.
InstType: EI
InstName: HITACHI RMU-6L
IoniMethod: _ENERGY 70 eV
IonPolarity: pos
Date: 2010-10-09 19:48:36+02:00
Num Peaks: 168
41 270 42 23 43 999 44 5 45 97 47 46 48 15 49 2 53 62 54 13 
55 250 56 3 57 130 58 97 59 46 60 2 61 13 65 31 66 13 67 9 
68 24 69 170 70 27 71 25 72 28 73 26 74 20 77 10 78 23 79 140 
80 49 81 19 82 40 83 150 84 170 85 37 86 30 87 36 88 8 91 18 
92 180 93 580 94 130 95 24 96 47 97 85 98 39 99 13 100 20 101 220 
102 18 103 2 104 14 105 250 106 70 107 28 108 120 109 135 110 35 111 6 
112 15 113 28 115 25 116 1 117 35 118 15 119 100 120 4 121 120 122 140 
123 90 124 3 125 67 126 46 127 277 128 29 129 54 130 15 131 64 132 2 
133 82 134 46 135 110 136 17 137 100 138 29 139 27 140 2 141 71 142 17 
143 28 144 1 145 51 146 38 147 114 148 5 149 156 150 132 151 42 152 1 
153 76 154 14 155 35 156 9 157 33 159 40 160 21 161 5 162 26 163 50 
164 25 165 3 166 44 167 53 168 1 171 36 173 26 174 11 175 3 176 29 
177 62 178 94 179 14 180 23 183 31 184 14 185 2 187 11 188 14 189 31 
190 2 191 21 192 29 193 31 194 2 195 98 196 18 201 21 203 2 204 21 
205 22 206 14 217 1 218 31 219 35 221 26 222 1 223 32 232 42 233 15 
234 3 235 73 236 21 237 74 238 2 241 10 244 8 259 18 260 1 262 26 
263 10 277 21 278 1 302 36 303 12 320 57 321 2 323 6 
