Name: MassBank: JP011104
CAS: 51-36-5
MW: 189
Formula: C7H4Cl2O2
Synonym: MassBank: JP011104
Synonym: 3,5-DICHLOROBENZOIC ACID
Structure: 332C352D444943484C4F524F42454E5A4F494320414349442E6D6F6C0A20204368656D447261773032323231303030353132440A2031312031312020302020302020302020302020302020302020302020303939392056323030300A2020202D312E303331322020202D302E3030303020202020302E303030302043202020302020302020302020302020302020302020302020302020302020302020302020300A2020202D302E323036322020202D302E3030303020202020302E303030302043202020302020302020302020302020302020302020302020302020302020302020302020300A20202020302E3230363320202020302E3731343520202020302E303030302043202020302020302020302020302020302020302020302020302020302020302020302020300A20202020312E3033313220202020302E3731343520202020302E303030302043202020302020302020302020302020302020302020302020302020302020302020302020300A20202020312E343433382020202D302E3030303020202020302E303030302043202020302020302020302020302020302020302020302020302020302020302020302020300A20202020312E303331332020202D302E3731343520202020302E303030302043202020302020302020302020302020302020302020302020302020302020302020302020300A20202020302E323036332020202D302E3731343520202020302E303030302043202020302020302020302020302020302020302020302020302020302020302020302020300A2020202D312E343433382020202D302E3731343520202020302E30303030204F202020302020302020302020302020302020302020302020302020302020302020302020300A2020202D312E3434333820202020302E3731343520202020302E30303030204F202020302020302020302020302020302020302020302020302020302020302020302020300A20202020312E343433382020202D312E3432383920202020302E3030303020436C2020302020302020302020302020302020302020302020302020302020302020302020300A20202020312E3434333720202020312E3432383920202020302E3030303020436C2020302020302020302020302020302020302020302020302020302020302020302020300A2020312020322020312020302020202020200A2020322020332020312020302020202020200A2020332020342020322020302020202020200A2020342020352020312020302020202020200A2020352020362020322020302020202020200A2020362020372020312020302020202020200A2020322020372020322020302020202020200A2020312020382020322020302020202020200A2020312020392020312020302020202020200A2020362031302020312020302020202020200A2020342031312020312020302020202020200A4D2020454E44
Contributor: YAMAMOTO M, DEP. CHEMISTRY, FAC. SCIENCE, NARA WOMEN'S UNIV.
InstType: EI
InstName: HITACHI M-80
IoniMethod: _ENERGY 70 eV
IonPolarity: pos
Date: 2010-10-09 19:48:36+02:00
Num Peaks: 62
17 12 18 25 28 84 32 19 35 11 36 13 37 41 38 30 39 15 45 111 
47 10 49 29 50 115 51 29 53 17 54 12 55 13 60 14 61 26 62 26 
63 84 64 11 72 16 73 106 74 321 75 342 76 25 77 12 84 67 85 54 
86 24 87 21 97 14 98 12 99 105 101 35 108 21 109 252 110 106 111 161 
112 35 113 28 144 20 145 373 146 49 147 242 148 26 149 40 155 23 162 16 
164 10 172 10 173 695 174 60 175 440 176 37 177 73 190 999 191 82 192 651 
193 52 194 104 
