Name: MassBank: JP012081
MW: 240
Formula: C15H28O2
Synonym: MassBank: JP012081
Synonym: 2BETA-HYDROXY-1BETA,(4A)BETA-DIMETHYL-7BETA-(1-METHYL-1-HYDROXYETHYL)-(8A)BETA-DECAHYDRONAPHTHALENE
Structure: 32424554412D485944524F58592D31424554412C28344129424554412D44494D455448594C2D37424554412D28312D4D455448594C2D312D485944524F5859455448594C292D28384129424554412D44454341485944524F4E4150485448414C454E452E6D6F6C0A20204368656D447261773032323131303137333032440A2032322032332020302020302020302020302020302020302020302020303939392056323030300A2020202D312E3031363420202020302E3431323520202020302E303030302043202020302020302020302020302020302020302020302020302020302020302020302020300A2020202D312E303136342020202D302E3431323520202020302E303030302043202020302020302020302020302020302020302020302020302020302020302020302020300A2020202D302E333032302020202D302E3832353020202020302E303030302043202020302020302020302020302020302020302020302020302020302020302020302020300A20202020302E343132352020202D302E3431323520202020302E303030302043202020302020302020302020302020302020302020302020302020302020302020302020300A20202020302E3431323520202020302E3431323520202020302E303030302043202020302020302020302020302020302020302020302020302020302020302020302020300A2020202D302E3330323020202020302E3832353020202020302E303030302043202020302020302020302020302020302020302020302020302020302020302020302020300A20202020312E313237302020202D302E3832353020202020302E303030302043202020302020302020302020302020302020302020302020302020302020302020302020300A20202020312E383431342020202D302E3431323520202020302E303030302043202020302020302020302020302020302020302020302020302020302020302020302020300A20202020312E3834313420202020302E3431323520202020302E303030302043202020302020302020302020302020302020302020302020302020302020302020302020300A20202020312E3132373020202020302E3832353020202020302E303030302043202020302020302020302020302020302020302020302020302020302020302020302020300A20202020302E3431323520202020312E3233373520202020302E303030302048202020302020302020302020302020302020302020302020302020302020302020302020300A20202020302E3731343520202020312E3533393520202020302E303030302043202020302020302020302020302020302020302020302020302020302020302020302020300A20202020322E3235333920202020312E3132373020202020302E30303030204F202020302020302020302020302020302020302020302020302020302020302020302020300A20202020312E353339352020202D312E3533393520202020302E303030302043202020302020302020302020302020302020302020302020302020302020302020302020300A2020202D312E3834313420202020302E3431323520202020302E303030302043202020302020302020302020302020302020302020302020302020302020302020302020300A2020202D312E3432383920202020312E3132373020202020302E303030302048202020302020302020302020302020302020302020302020302020302020302020302020300A20202020312E3533393520202020312E3533393520202020302E303030302048202020302020302020302020302020302020302020302020302020302020302020302020300A20202020322E3636363420202020302E3431323520202020302E303030302048202020302020302020302020302020302020302020302020302020302020302020302020300A20202020302E373134352020202D312E3533393520202020302E303030302048202020302020302020302020302020302020302020302020302020302020302020302020300A2020202D322E3636363420202020302E3431323520202020302E30303030204F202020302020302020302020302020302020302020302020302020302020302020302020300A2020202D312E383431342020202D302E3431323520202020302E303030302043202020302020302020302020302020302020302020302020302020302020302020302020300A2020202D312E3834313420202020312E3233373520202020302E303030302043202020302020302020302020302020302020302020302020302020302020302020302020300A2020312020322020312020302020202020200A2020322020332020312020302020202020200A2020332020342020312020302020202020200A2020342020352020312020302020202020200A2020352020362020312020302020202020200A2020362020312020312020302020202020200A2020342020372020312020302020202020200A2020372020382020312020302020202020200A2020382020392020312020302020202020200A2020392031302020312020302020202020200A2031302020352020312020302020202020200A2020352031312020312020312020202020200A2031302031322020312020312020202020200A2020392031332020312020312020202020200A2020372031342020312020312020202020200A2020312031352020312020312020202020200A2020312031362020312020362020202020200A2031302031372020312020362020202020200A2020392031382020312020362020202020200A2020372031392020312020362020202020200A2031352032302020312020302020202020200A2031352032312020312020302020202020200A2031352032322020312020302020202020200A4D2020454E44
Contributor: HISAHIRO HAGIWARA, INSTITUTE FOR CHEMICAL REACTION SCIENCE TOHOKU UNIV.
InstType: EI
InstName: JEOL JMS-DX-300
IoniMethod: _ENERGY 70 eV
IonPolarity: pos
Date: 2010-10-09 19:48:36+02:00
Num Peaks: 65
39 48 41 211 43 159 45 25 53 64 55 208 56 22 57 97 58 32 59 876 
60 34 65 24 67 213 68 58 69 183 70 24 71 54 77 73 79 117 80 31 
81 247 82 118 83 123 84 37 85 22 91 80 92 22 93 172 94 74 95 245 
96 101 97 47 105 52 106 21 107 185 108 195 109 905 110 129 111 27 115 63 
116 26 119 31 121 130 122 120 123 191 124 149 125 204 126 28 133 50 135 237 
136 45 147 38 149 999 150 151 161 25 163 66 164 462 165 116 180 22 181 158 
182 65 189 70 207 41 222 20 225 30 
