Name: (4-METHOXYPHENYL)ACETIC ACID
MW: 166
Formula: C9H10O3
Synonym: MassBank: JP010380
Synonym: (4-METHOXYPHENYL)ACETIC ACID
Structure: 28342D4D4554484F58595048454E594C2941434554494320414349442E6D6F6C0A20204368656D447261773130323130393132323232440A2031322031322020302020302020302020302020302020302020302020303939392056323030300A2020202D312E3030383520202020302E3037323220202020302E303030302043202020302020302020302020302020302020302020302020302020302020302020302020300A2020202D312E303038352020202D302E3735323820202020302E303030302043202020302020302020302020302020302020302020302020302020302020302020302020300A2020202D302E323934302020202D312E3136353320202020302E303030302043202020302020302020302020302020302020302020302020302020302020302020302020300A20202020302E343230342020202D302E3735323820202020302E303030302043202020302020302020302020302020302020302020302020302020302020302020302020300A20202020302E3432303420202020302E3037323220202020302E303030302043202020302020302020302020302020302020302020302020302020302020302020302020300A2020202D302E3239343020202020302E3438343720202020302E303030302043202020302020302020302020302020302020302020302020302020302020302020302020300A2020202D302E3239343020202020312E3330393720202020302E303030302043202020302020302020302020302020302020302020302020302020302020302020302020300A2020202D302E323934302020202D312E3939303320202020302E30303030204F202020302020302020302020302020302020302020302020302020302020302020302020300A20202020302E3431393620202020312E3732323220202020302E303030302043202020302020302020302020302020302020302020302020302020302020302020302020300A20202020302E3431393620202020322E3430323820202020302E30303030204F202020302020302020302020302020302020302020302020302020302020302020302020300A20202020312E3030393020202020312E3338313920202020302E30303030204F202020302020302020302020302020302020302020302020302020302020302020302020300A2020202D312E303039302020202D322E3430323820202020302E303030302043202020302020302020302020302020302020302020302020302020302020302020302020300A2020312020322020322020302020202020200A2020322020332020312020302020202020200A2020332020342020322020302020202020200A2020342020352020312020302020202020200A2020352020362020322020302020202020200A2020362020312020312020302020202020200A2020362020372020312020302020202020200A2020332020382020312020302020202020200A2020392031302020322020302020202020200A2020392031312020312020302020202020200A2020372020392020312020302020202020200A2020382031322020312020302020202020200A4D202053545920203120202031205355500A4D2020534C4220203120202031202020310A4D202053414C202020312020332020203920203130202031310A4D202053424C20202031202031202031310A4D2020534D542020203120434F4F480A4D2020534256202020312031312020202D352E3938363520202020372E383035300A4D202053545920203120202032205355500A4D2020534C4220203120202032202020320A4D202053414C20202032202031202031320A4D202053424C20202032202031202031320A4D2020534D5420202032204D650A4D2020534256202020322031322020202D372E3431353120202020362E393830300A4D2020454E44
Contributor: MASS SPECTROSCOPY SOC. OF JAPAN (MSSJ)
InstType: EI
InstName: HITACHI RMU-6M
IoniMethod: _ENERGY 20 eV
IonPolarity: pos
Date: 2010-10-09 19:48:36+02:00
Num Peaks: 16
41 10 43 31 55 13 56 1 57 13 58 13 60 11 71 1 77 38 78 17 
91 55 121 999 122 98 123 7 166 377 167 42 
