Name: PROGESTERONE
CAS: 57-83-0
MW: 314
Formula: C21H30O2
Synonym: MassBank: JP011649
Synonym: PROGESTERONE
Synonym: PREGN-4-ENE-3,20-DIONE
Structure: 505245474E2D342D454E452D332C32302D44494F4E452E6D6F6C0A20204368656D447261773038313231303035353432440A2032362032392020302020302020302020302020302020302020302020303939392056323030300A2020202D322E333532322020202D312E3633363520202020302E303030302043202020302020302020302020302020302020302020302020302020302020302020302020300A2020202D322E333532322020202D302E3831313520202020302E303030302043202020302020302020302020302020302020302020302020302020302020302020302020300A2020202D312E363337372020202D302E3339393020202020302E303030302043202020302020302020302020302020302020302020302020302020302020302020302020300A2020202D312E363337372020202D322E3034393020202020302E303030302043202020302020302020302020302020302020302020302020302020302020302020302020300A2020202D302E393233332020202D312E3633363520202020302E303030302043202020302020302020302020302020302020302020302020302020302020302020302020300A2020202D302E323038382020202D322E3034393020202020302E303030302043202020302020302020302020302020302020302020302020302020302020302020302020300A20202020302E353035372020202D312E3633363520202020302E303030302043202020302020302020302020302020302020302020302020302020302020302020302020300A20202020302E353035372020202D302E3831313520202020302E303030302043202020302020302020302020302020302020302020302020302020302020302020302020300A20202020312E323230312020202D302E3339393020202020302E303030302043202020302020302020302020302020302020302020302020302020302020302020302020300A20202020322E303034382020202D302E3635333920202020302E303030302043202020302020302020302020302020302020302020302020302020302020302020302020300A20202020322E3438393720202020302E3031333520202020302E303030302043202020302020302020302020302020302020302020302020302020302020302020302020300A20202020322E3030343820202020302E3638313020202020302E303030302043202020302020302020302020302020302020302020302020302020302020302020302020300A20202020322E3235393720202020312E3436353620202020302E303030302043202020302020302020302020302020302020302020302020302020302020302020302020300A20202020312E3637363320202020322E3034393020202020302E303030302043202020302020302020302020302020302020302020302020302020302020302020302020300A20202020312E3232303120202020302E3432363020202020302E303030302043202020302020302020302020302020302020302020302020302020302020302020302020300A20202020312E3232303120202020312E3235313020202020302E303030302043202020302020302020302020302020302020302020302020302020302020302020302020300A20202020302E3530353720202020302E3833383520202020302E303030302043202020302020302020302020302020302020302020302020302020302020302020302020300A2020202D302E3230383820202020302E3432363020202020302E303030302043202020302020302020302020302020302020302020302020302020302020302020302020300A2020202D302E323038382020202D302E3339393020202020302E303030302043202020302020302020302020302020302020302020302020302020302020302020302020300A2020202D302E393233332020202D302E3831313520202020302E303030302043202020302020302020302020302020302020302020302020302020302020302020302020300A2020202D302E3932333320202020302E3031333520202020302E303030302043202020302020302020302020302020302020302020302020302020302020302020302020300A2020202D332E303636372020202D322E3034393020202020302E30303030204F202020302020302020302020302020302020302020302020302020302020302020302020300A20202020332E3036363720202020312E3633373120202020302E30303030204F202020302020302020302020302020302020302020302020302020302020302020302020300A2020202D302E323038382020202D312E3232343020202020302E303030302048202020302020302020302020302020302020302020302020302020302020302020302020300A20202020302E3530353720202020302E3031333520202020302E303030302048202020302020302020302020302020302020302020302020302020302020302020302020300A20202020312E323230312020202D312E3232343020202020302E303030302048202020302020302020302020302020302020302020302020302020302020302020302020300A2020312020322020312020302020202020200A2020322020332020312020302020202020200A2020312020342020312020302020202020200A2020342020352020322020302020202020200A2020352020362020312020302020202020200A2020362020372020312020302020202020200A2020372020382020312020302020202020200A2020382020392020312020302020202020200A2020392031302020312020302020202020200A2031302031312020312020302020202020200A2031312031322020312020302020202020200A2031322031332020312020312020202020200A2031332031342020312020302020202020200A2031322031352020312020302020202020200A2020392031352020312020302020202020200A2031352031362020312020312020202020200A2031352031372020312020302020202020200A2031372031382020312020302020202020200A2031382031392020312020302020202020200A2020382031392020312020302020202020200A2031392032302020312020302020202020200A2020332032302020312020302020202020200A2020352032302020312020302020202020200A2032302032312020312020312020202020200A2020312032322020322020302020202020200A2031332032332020322020302020202020200A2031392032342020312020362020202020200A2020382032352020312020312020202020200A2020392032362020312020362020202020200A4D2020454E44
Contributor: YAMAMOTO M, DEP. CHEMISTRY, FAC. SCIENCE, NARA WOMEN'S UNIV.
InstType: EI
InstName: HITACHI M-2500
IoniMethod: _ENERGY 70 eV
IonPolarity: pos
Date: 2010-10-09 19:48:36+02:00
Num Peaks: 132
18 22 27 10 29 14 39 19 41 58 43 237 53 32 55 58 65 20 67 61 
69 18 71 43 77 63 78 16 79 101 80 16 81 69 83 13 84 38 85 42 
91 117 92 22 93 91 94 40 95 87 96 16 97 24 103 10 105 92 106 28 
107 97 108 30 109 73 110 20 111 26 115 17 117 35 118 13 119 66 120 46 
121 80 122 67 123 89 124 648 125 80 128 13 129 19 131 55 132 38 133 113 
134 68 135 85 136 46 137 71 138 28 143 25 144 14 145 57 146 29 147 139 
148 48 149 80 150 18 155 12 157 25 158 12 159 59 160 21 161 40 162 18 
163 28 171 28 172 26 173 86 174 40 175 35 176 20 177 29 178 14 183 11 
185 31 186 16 187 75 188 26 189 23 190 99 191 206 192 34 197 12 199 18 
200 13 201 40 202 24 203 11 211 44 212 13 213 23 214 17 215 25 216 20 
225 17 226 17 227 53 228 38 229 380 230 93 231 45 232 15 239 18 243 29 
244 160 245 30 253 35 254 34 255 10 256 28 257 49 258 14 270 15 271 56 
272 629 273 128 274 14 281 19 286 21 296 60 297 18 299 91 300 21 314 999 
315 247 316 34 
