Name: 6-HYDROXY-6-METHYL-2-HEPTANONE
MW: 144
Formula: C8H16O2
Synonym: MassBank: JP010031
Synonym: 6-HYDROXY-6-METHYL-2-HEPTANONE
Structure: 362D485944524F58592D362D4D455448594C2D322D48455054414E4F4E452E6D6F6C0A20204368656D447261773035313731303138353032440A2031302020392020302020302020302020302020302020302020302020303939392056323030300A2020202D312E383031302020202D302E3731343520202020302E303030302043202020302020302020302020302020302020302020302020302020302020302020302020300A2020202D312E333838352020202D302E3030303020202020302E303030302043202020302020302020302020302020302020302020302020302020302020302020302020300A2020202D302E353633352020202D302E3030303020202020302E303030302043202020302020302020302020302020302020302020302020302020302020302020302020300A2020202D302E313531302020202D302E3731343520202020302E303030302043202020302020302020302020302020302020302020302020302020302020302020302020300A20202020302E363734302020202D302E3731343520202020302E303030302043202020302020302020302020302020302020302020302020302020302020302020302020300A20202020312E3038363520202020302E3030303020202020302E303030302043202020302020302020302020302020302020302020302020302020302020302020302020300A20202020302E3337323020202020302E3431323520202020302E303030302043202020302020302020302020302020302020302020302020302020302020302020302020300A2020202D312E3830313020202020302E3731343520202020302E30303030204F202020302020302020302020302020302020302020302020302020302020302020302020300A20202020312E3439393020202020302E3731343520202020302E303030302043202020302020302020302020302020302020302020302020302020302020302020302020300A20202020312E383031302020202D302E3431323520202020302E30303030204F202020302020302020302020302020302020302020302020302020302020302020302020300A2020312020322020312020302020202020200A2020322020332020312020302020202020200A2020332020342020312020302020202020200A2020342020352020312020302020202020200A2020352020362020312020302020202020200A2020362020372020312020302020202020200A2020322020382020322020302020202020200A2020362020392020312020302020202020200A2020362031302020312020302020202020200A4D2020454E44
Contributor: KURARAY CO., LTD.
InstType: EI
InstName: JEOL JMS-D-300
IoniMethod: _ENERGY 70 eV
IonPolarity: pos
Date: 2010-10-09 19:48:36+02:00
Num Peaks: 33
27 58 29 32 31 123 39 6 41 179 42 41 43 748 44 2 45 32 53 21 
55 147 56 16 57 18 58 782 59 999 60 4 67 29 68 23 69 152 71 91 
72 42 83 74 85 34 86 6 93 27 108 105 109 41 111 22 112 17 116 236 
117 15 126 6 129 71 
