Name: THIOACETAMIDE
MW: 75
Formula: C2H5NS
Synonym: MassBank: JP010796
Synonym: THIOACETAMIDE
Synonym: ETHANETHIOAMIDE
Structure: 310A31320A455448414E455448494F414D4944452E6D6F6C0A20204368656D447261773038313131303137353832440A2020342020332020302020302020302020302020302020302020302020303939392056323030300A20202020302E323036322020202D302E3030303020202020302E303030302043202020302020302020302020302020302020302020302020302020302020302020302020300A20202020302E3631383820202020302E3731343520202020302E303030302043202020302020302020302020302020302020302020302020302020302020302020302020300A20202020302E363138372020202D302E3731343520202020302E30303030204E202020302020302020302020302020302020302020302020302020302020302020302020300A2020202D302E363138382020202D302E3030303020202020302E303030302053202020302020302020302020302020302020302020302020302020302020302020302020300A2020312020322020312020302020202020200A2020312020332020312020302020202020200A2020312020342020322020302020202020200A4D2020454E44
Contributor: FUJISE Y, HAMAMATSU UNIV. SCHOOL OF MEDICINE
InstType: EI
InstName: JEOL JMS-D-300
IoniMethod: _ENERGY 70 eV
IonPolarity: pos
Date: 2010-10-09 19:48:36+02:00
Num Peaks: 18
410 362 420 243 430 15 450 40 460 14 470 13 480 11 570 21 580 69 590 147 
600 344 610 14 620 15 640 137 660 12 750 999 760 35 770 45 
