Name: N-(BENZYLOXYCARBONYL)-(S)-PROLINE
MW: 249
Formula: C13H15NO4
Synonym: MassBank: JP011377
Synonym: N-(BENZYLOXYCARBONYL)-(S)-PROLINE
Structure: 4E2D2842454E5A594C4F5859434152424F4E594C292D2853292D50524F4C494E452E6D6F6C0A20204368656D447261773038313231303031323132440A2031382031392020302020302020302020302020302020302020302020303939392056323030300A20202020322E3230373620202020302E3839383320202020302E303030302043202020302020302020302020302020302020302020302020302020302020302020302020300A20202020312E323832342020202D302E3234343220202020302E30303030204E202020302020302020302020302020302020302020302020302020302020302020302020300A20202020322E3033363020202020302E3039313420202020302E303030302043202020302020302020302020302020302020302020302020302020302020302020302020300A20202020322E353838312020202D302E3532313720202020302E303030302043202020302020302020302020302020302020302020302020302020302020302020302020300A20202020322E313735362020202D312E3233363220202020302E303030302043202020302020302020302020302020302020302020302020302020302020302020302020300A20202020312E333638362020202D312E3036343720202020302E303030302043202020302020302020302020302020302020302020302020302020302020302020302020300A20202020312E3632343220202020312E3438313720202020302E30303030204F202020302020302020302020302020302020302020302020302020302020302020302020300A20202020332E3030343520202020312E3131313920202020302E30303030204F202020302020302020302020302020302020302020302020302020302020302020302020300A20202020302E3536373920202020302E3136383320202020302E303030302043202020302020302020302020302020302020302020302020302020302020302020302020300A20202020302E3536373920202020302E3939333320202020302E30303030204F202020302020302020302020302020302020302020302020302020302020302020302020300A2020202D302E313436362020202D302E3234343220202020302E30303030204F202020302020302020302020302020302020302020302020302020302020302020302020300A2020202D302E3836313020202020302E3136383320202020302E303030302043202020302020302020302020302020302020302020302020302020302020302020302020300A2020202D312E353735352020202D302E3234343220202020302E303030302043202020302020302020302020302020302020302020302020302020302020302020302020300A2020202D312E353735352020202D312E3036393220202020302E303030302043202020302020302020302020302020302020302020302020302020302020302020302020300A2020202D322E323930302020202D312E3438313720202020302E303030302043202020302020302020302020302020302020302020302020302020302020302020302020300A2020202D332E303034352020202D312E3036393220202020302E303030302043202020302020302020302020302020302020302020302020302020302020302020302020300A2020202D332E303034352020202D302E3234343220202020302E303030302043202020302020302020302020302020302020302020302020302020302020302020302020300A2020202D322E3239303020202020302E3136383320202020302E303030302043202020302020302020302020302020302020302020302020302020302020302020302020300A2020322020332020312020302020202020200A2020332020312020312020362020202020200A2020332020342020312020302020202020200A2020342020352020312020302020202020200A2020352020362020312020302020202020200A2020322020362020312020302020202020200A2020312020372020322020302020202020200A2020312020382020312020302020202020200A2020392031302020322020302020202020200A2031322031332020312020302020202020200A2031332031342020312020302020202020200A2031342031352020322020302020202020200A2031352031362020312020302020202020200A2031362031372020322020302020202020200A2031372031382020312020302020202020200A2031332031382020322020302020202020200A2031312031322020312020302020202020200A2020392031312020312020302020202020200A2020322020392020312020302020202020200A4D2020454E44
Contributor: HISAHIRO HAGIWARA, INSTITUTE FOR CHEMICAL REACTION SCIENCE TOHOKU UNIV.
InstType: EI
InstName: JEOL JMS-DX-300
IoniMethod: _ENERGY 70 eV
IonPolarity: pos
Date: 2010-10-09 19:48:36+02:00
Num Peaks: 29
39 48 41 61 42 22 43 22 44 13 45 10 51 26 63 20 65 114 68 24 
69 21 70 119 77 23 79 15 89 30 90 20 91 999 92 107 102 22 107 21 
108 70 114 388 115 31 160 243 161 34 204 126 205 19 249 52 250 11 
