Name: MassBank: JP010935
MW: 160
Formula: C8H13ClO
Synonym: MassBank: JP010935
Synonym: 1-CHLORO-5-ETHOXY-3-METHYL-1,3-PENTADIENE
Structure: 312D43484C4F524F2D352D4554484F58592D332D4D455448594C2D312C332D50454E54414449454E452E6D6F6C0A20204368656D447261773131313830393030343932440A2031302020392020302020302020302020302020302020302020302020303939392056323030300A2020202D322E313433342020202D302E3230363220202020302E303030302043202020302020302020302020302020302020302020302020302020302020302020302020300A2020202D312E343238392020202D302E3631383820202020302E303030302043202020302020302020302020302020302020302020302020302020302020302020302020300A2020202D302E373134352020202D302E3230363220202020302E303030302043202020302020302020302020302020302020302020302020302020302020302020302020300A20202020302E303030302020202D302E3631383720202020302E303030302043202020302020302020302020302020302020302020302020302020302020302020302020300A20202020302E373134352020202D302E3230363220202020302E303030302043202020302020302020302020302020302020302020302020302020302020302020302020300A2020202D302E3731343520202020302E3631383820202020302E303030302043202020302020302020302020302020302020302020302020302020302020302020302020300A20202020312E343238392020202D302E3631383720202020302E30303030204F202020302020302020302020302020302020302020302020302020302020302020302020300A20202020322E313433342020202D302E3230363220202020302E303030302043202020302020302020302020302020302020302020302020302020302020302020302020300A20202020322E383537392020202D302E3631383720202020302E303030302043202020302020302020302020302020302020302020302020302020302020302020302020300A2020202D322E383537392020202D302E3631383820202020302E3030303020436C2020302020302020302020302020302020302020302020302020302020302020302020300A2020312020322020322020302020202020200A2020322020332020312020302020202020200A2020332020342020322020302020202020200A2020342020352020312020302020202020200A2020332020362020312020302020202020200A2020382020392020312020302020202020200A2020372020382020312020302020202020200A2020352020372020312020302020202020200A2020312031302020312020302020202020200A4D2020454E44
Contributor: KURARAY CO., LTD.
InstType: EI
InstName: JEOL JMS-D-300
IoniMethod: _ENERGY 70 eV
IonPolarity: pos
Date: 2010-10-09 19:48:36+02:00
Num Peaks: 24
27 93 28 9 29 45 39 55 41 29 43 127 45 999 51 55 53 87 55 8 
65 59 73 77 75 30 77 96 79 127 80 40 81 694 82 30 89 50 91 34 
115 44 116 453 117 49 118 156 
