Name: MassBank: JP011822
MW: 307
Formula: C20H21NO2
Synonym: MassBank: JP011822
Synonym: (3S,4S)-1-BENZYL-3-((1'S)-1'-HYDROXYETHYL)-4-((E)-STYRYL)-2-AZETIDINONE
Structure: 2833532C3453292D312D42454E5A594C2D332D2828312753292D31272D485944524F5859455448594C292D342D282845292D53545952594C292D322D415A45544944494E4F4E452E6D6F6C0A20204368656D447261773130323130393130343132440A2032382033302020302020302020302020302020302020302020302020303939392056323030300A2020202D322E3636363420202020312E3335383320202020302E303030302043202020302020302020302020302020302020302020302020302020302020302020302020300A2020202D312E3935323020202020302E3934353820202020302E303030302043202020302020302020302020302020302020302020302020302020302020302020302020300A2020202D312E3233373520202020312E3335383320202020302E303030302043202020302020302020302020302020302020302020302020302020302020302020302020300A2020202D312E3233373520202020322E3138333320202020302E303030302043202020302020302020302020302020302020302020302020302020302020302020302020300A2020202D312E3935323020202020322E3539353820202020302E303030302043202020302020302020302020302020302020302020302020302020302020302020302020300A2020202D322E3636363420202020322E3138333320202020302E303030302043202020302020302020302020302020302020302020302020302020302020302020302020300A2020202D302E3532333020202020322E3539353820202020302E303030302043202020302020302020302020302020302020302020302020302020302020302020302020300A20202020302E3139313420202020322E3138333320202020302E30303030204E202020302020302020302020302020302020302020302020302020302020302020302020300A20202020302E3139313420202020312E3335383320202020302E303030302043202020302020302020302020302020302020302020302020302020302020302020302020300A20202020312E3031363420202020312E3335383320202020302E303030302043202020302020302020302020302020302020302020302020302020302020302020302020300A20202020312E3031363420202020322E3138333320202020302E303030302043202020302020302020302020302020302020302020302020302020302020302020302020300A20202020312E3539393820202020322E3736363720202020302E30303030204F202020302020302020302020302020302020302020302020302020302020302020302020300A2020202D302E3633333620202020312E3335383320202020302E303030302048202020302020302020302020302020302020302020302020302020302020302020302020300A20202020312E3031363420202020302E3533333320202020302E303030302048202020302020302020302020302020302020302020302020302020302020302020302020300A20202020302E3139313420202020302E3533333320202020302E303030302043202020302020302020302020302020302020302020302020302020302020302020302020300A20202020302E313931342020202D302E3239313720202020302E303030302043202020302020302020302020302020302020302020302020302020302020302020302020300A2020202D302E3633333620202020302E3533333320202020302E303030302048202020302020302020302020302020302020302020302020302020302020302020302020300A20202020312E303136342020202D302E3239313720202020302E303030302048202020302020302020302020302020302020302020302020302020302020302020302020300A20202020302E313931342020202D312E3131363720202020302E303030302043202020302020302020302020302020302020302020302020302020302020302020302020300A20202020312E3834313420202020312E3335383320202020302E303030302043202020302020302020302020302020302020302020302020302020302020302020302020300A20202020322E3636363420202020312E3335383320202020302E303030302043202020302020302020302020302020302020302020302020302020302020302020302020300A20202020312E3834313420202020322E3138333320202020302E303030302048202020302020302020302020302020302020302020302020302020302020302020302020300A20202020312E3834313420202020302E3533333320202020302E30303030204F202020302020302020302020302020302020302020302020302020302020302020302020300A2020202D302E353233302020202D312E3532393220202020302E303030302043202020302020302020302020302020302020302020302020302020302020302020302020300A2020202D302E353233302020202D322E3335343220202020302E303030302043202020302020302020302020302020302020302020302020302020302020302020302020300A20202020302E313931342020202D322E3736363720202020302E303030302043202020302020302020302020302020302020302020302020302020302020302020302020300A20202020302E393035392020202D322E3335343220202020302E303030302043202020302020302020302020302020302020302020302020302020302020302020302020300A20202020302E393035392020202D312E3532393220202020302E303030302043202020302020302020302020302020302020302020302020302020302020302020302020300A2020312020322020322020302020202020200A2020322020332020312020302020202020200A2020332020342020322020302020202020200A2020342020352020312020302020202020200A2020352020362020322020302020202020200A2020362020312020312020302020202020200A2020342020372020312020302020202020200A2020372020382020312020302020202020200A2020382020392020312020302020202020200A2020392031302020312020302020202020200A2020382031312020312020302020202020200A2031312031302020312020302020202020200A2031312031322020322020302020202020200A2020392031332020312020312020202020200A2031302031342020312020312020202020200A2020392031352020312020362020202020200A2031352031362020322020302020202020200A2031352031372020312020302020202020200A2031362031382020312020302020202020200A2031362031392020312020302020202020200A2031302032302020312020362020202020200A2032302032312020312020302020202020200A2032302032322020312020312020202020200A2032302032332020312020312020202020200A2031392032342020322020302020202020200A2032342032352020312020302020202020200A2032352032362020322020302020202020200A2032362032372020312020302020202020200A2032372032382020322020302020202020200A2032382031392020312020302020202020200A4D2020454E44
Contributor: YOSHINORI Y, FAC. SCIENCE, TOHOKU UNIV.
InstType: EI
InstName: Unknown
IoniMethod: _ENERGY 20 eV
IonPolarity: pos
Date: 2010-10-09 19:48:36+02:00
Num Peaks: 36
141 22 143 38 144 84 145 91 149 25 156 21 157 33 158 13 159 63 172 155 
173 24 174 189 175 18 185 13 186 46 188 52 198 43 216 26 220 593 221 431 
222 389 223 63 234 38 238 18 262 688 263 999 264 235 265 19 274 31 279 32 
288 83 289 128 290 29 307 736 308 149 309 10 
