Name: 2-THIAZOLONE
MW: 100
Formula: C3H3NOS
Synonym: MassBank: JP010563
Synonym: 2-THIAZOLONE
Structure: 310A31370A322D544849415A4F4C4F4E452E6D6F6C0A20204368656D447261773032323131303136323832440A2020362020362020302020302020302020302020302020302020302020303939392056323030300A2020202D302E363637342020202D302E3236323720202020302E303030302053202020302020302020302020302020302020302020302020302020302020302020302020300A2020202D302E3030303020202020302E3232323320202020302E303030302043202020302020302020302020302020302020302020302020302020302020302020302020300A20202020302E363637342020202D302E3236323720202020302E30303030204E202020302020302020302020302020302020302020302020302020302020302020302020300A20202020302E343132352020202D312E3034373320202020302E303030302043202020302020302020302020302020302020302020302020302020302020302020302020300A2020202D302E343132352020202D312E3034373320202020302E303030302043202020302020302020302020302020302020302020302020302020302020302020302020300A2020202D302E3030303020202020312E3034373320202020302E30303030204F202020302020302020302020302020302020302020302020302020302020302020302020300A2020312020322020312020302020202020200A2020322020332020312020302020202020200A2020332020342020312020302020202020200A2020342020352020322020302020202020200A2020312020352020312020302020202020200A2020322020362020322020302020202020200A4D2020454E44
Contributor: NARA WOMEN'S UNIVERSITY
InstType: EI
InstName: HITACHI M-80
IoniMethod: _ENERGY 70 eV
IonPolarity: pos
Date: 2010-10-09 19:48:36+02:00
Num Peaks: 34
12 21 13 19 14 46 18 35 25 22 26 66 27 75 28 889 29 40 32 125 
33 18 38 50 39 57 40 153 41 41 43 47 44 112 45 520 46 805 47 37 
48 33 56 30 57 130 58 177 59 20 60 32 70 32 71 12 73 444 74 15 
75 16 101 999 102 52 103 45 
