Name: CARBAZOLE
CAS: 86-74-8
MW: 167
Formula: C12H9N
Synonym: MassBank: JP011071
Synonym: CARBAZOLE
Structure: 43415242415A4F4C452E6D6F6C0A20204368656D447261773039303631303130303932440A2031332031352020302020302020302020302020302020302020302020303939392056323030300A20202020302E313932362020202D312E3032313020202020302E30303030204E202020302020302020302020302020302020302020302020302020302020302020302020300A2020202D302E353631302020202D302E3638353520202020302E303030302043202020302020302020302020302020302020302020302020302020302020302020302020300A2020202D312E333134372020202D312E3032313020202020302E303030302043202020302020302020302020302020302020302020302020302020302020302020302020300A2020202D312E393832322020202D302E3533363120202020302E303030302043202020302020302020302020302020302020302020302020302020302020302020302020300A2020202D312E3839353920202020302E3238343420202020302E303030302043202020302020302020302020302020302020302020302020302020302020302020302020300A2020202D312E3134323320202020302E3631393920202020302E303030302043202020302020302020302020302020302020302020302020302020302020302020302020300A2020202D302E3437343820202020302E3133353020202020302E303030302043202020302020302020302020302020302020302020302020302020302020302020302020300A20202020302E3333323220202020302E3330363520202020302E303030302043202020302020302020302020302020302020302020302020302020302020302020302020300A20202020302E3734343720202020312E3032313020202020302E303030302043202020302020302020302020302020302020302020302020302020302020302020302020300A20202020312E3536393720202020312E3032313020202020302E303030302043202020302020302020302020302020302020302020302020302020302020302020302020300A20202020312E3938323220202020302E3330363520202020302E303030302043202020302020302020302020302020302020302020302020302020302020302020302020300A20202020312E353639372020202D302E3430373920202020302E303030302043202020302020302020302020302020302020302020302020302020302020302020302020300A20202020302E373434372020202D302E3430373920202020302E303030302043202020302020302020302020302020302020302020302020302020302020302020302020300A2020312020322020312020302020202020200A2020322020332020312020302020202020200A2020332020342020322020302020202020200A2020342020352020312020302020202020200A2020352020362020322020302020202020200A2020362020372020312020302020202020200A2020322020372020322020302020202020200A2020372020382020312020302020202020200A2020382020392020312020302020202020200A2020392031302020322020302020202020200A2031302031312020312020302020202020200A2031312031322020322020302020202020200A2031322031332020312020302020202020200A2020382031332020322020302020202020200A2020312031332020312020302020202020200A4D2020454E44
Contributor: YAMAMOTO M, DEP. CHEMISTRY, FAC. SCIENCE, NARA WOMEN'S UNIV.
InstType: EI
InstName: HITACHI M-80
IoniMethod: _ENERGY 70 eV
IonPolarity: pos
Date: 2010-10-09 19:48:36+02:00
Num Peaks: 31
17 11 18 36 39 20 50 15 51 16 62 18 63 32 69 18 70 14 74 19 
75 17 76 11 77 11 83 13 84 74 86 12 87 16 88 15 89 18 113 24 
114 15 115 18 138 14 139 112 140 79 141 12 164 19 165 15 166 153 167 999 
168 135 
