Name: CAPTAN
MW: 298
Formula: C9H8Cl3NO2S
Synonym: MassBank: JP010740
Synonym: CAPTAN
Synonym: N-(TRICHLOROMETHYLTHIO)CYCLOHEX-4-ENE-1,2-DICARBOXIMIDE
Structure: 43415054414E2E6D6F6C0A20204368656D447261773039303631303130303432440A2031362031372020302020302020302020302020302020302020302020303939392056323030300A2020202D312E3130353820202020302E3030343420202020302E303030302043202020302020302020302020302020302020302020302020302020302020302020302020300A2020202D302E363933332020202D302E3731303020202020302E303030302043202020302020302020302020302020302020302020302020302020302020302020302020300A2020202D312E313035382020202D312E3432343520202020302E303030302043202020302020302020302020302020302020302020302020302020302020302020302020300A2020202D312E393330382020202D312E3432343520202020302E303030302043202020302020302020302020302020302020302020302020302020302020302020302020300A2020202D322E333433332020202D302E3731303020202020302E303030302043202020302020302020302020302020302020302020302020302020302020302020302020300A2020202D312E3933303820202020302E3030343420202020302E303030302043202020302020302020302020302020302020302020302020302020302020302020302020300A2020202D302E3535333820202020302E3631373520202020302E303030302043202020302020302020302020302020302020302020302020302020302020302020302020300A2020202D302E3732353320202020312E3432343520202020302E30303030204F202020302020302020302020302020302020302020302020302020302020302020302020300A20202020302E3139393920202020302E3238323020202020302E30303030204E202020302020302020302020302020302020302020302020302020302020302020302020300A20202020302E313133372020202D302E3533383520202020302E303030302043202020302020302020302020302020302020302020302020302020302020302020302020300A20202020302E373236382020202D312E3039303520202020302E30303030204F202020302020302020302020302020302020302020302020302020302020302020302020300A20202020302E3931343420202020302E3639343520202020302E303030302053202020302020302020302020302020302020302020302020302020302020302020302020300A20202020312E3632383820202020302E3238323020202020302E303030302043202020302020302020302020302020302020302020302020302020302020302020302020300A20202020322E3034313320202020302E3939363420202020302E3030303020436C2020302020302020302020302020302020302020302020302020302020302020302020300A20202020322E333433332020202D302E3133303520202020302E3030303020436C2020302020302020302020302020302020302020302020302020302020302020302020300A20202020312E323136332020202D302E3433323520202020302E3030303020436C2020302020302020302020302020302020302020302020302020302020302020302020300A2020312020322020312020302020202020200A2020322020332020312020302020202020200A2020332020342020312020302020202020200A2020342020352020322020302020202020200A2020352020362020312020302020202020200A2020312020362020312020302020202020200A2020372020382020322020302020202020200A2020372020392020312020302020202020200A2020392031302020312020302020202020200A2031302031312020322020302020202020200A2020312020372020312020302020202020200A2020322031302020312020302020202020200A2031322031332020312020302020202020200A2031332031342020312020312020202020200A2031332031352020312020302020202020200A2031332031362020312020312020202020200A2020392031322020312020302020202020200A4D2020454E44
Contributor: HASHIMOTO K, KYOTO COLLEGE OF PHARMACY
InstType: EI
InstName: HITACHI M-80
IoniMethod: _ENERGY 20 eV
IonPolarity: pos
Date: 2010-10-09 19:48:36+02:00
Num Peaks: 46
67 17 70 15 72 15 76 14 77 64 78 178 79 999 80 300 81 34 95 14 
105 70 106 102 107 267 108 28 111 27 114 48 116 31 117 243 119 217 121 75 
122 19 123 14 130 16 132 12 134 60 136 13 148 51 149 497 150 55 151 61 
154 15 156 41 158 26 180 12 182 60 236 33 238 22 263 54 264 122 265 49 
266 85 267 18 268 16 299 18 301 19 303 6 
