Name: MassBank: JP010671
MW: 380
Formula: C22H36O5
Synonym: MassBank: JP010671
Synonym: (1R(*),2R(*),3R(*),6S(*),7R(*),9R(*),10S(*),11Z,14R(*))-6-ACETOXYEUNICELLA-11-ENE-3,7-DIOL
Structure: 28315228292C325228292C335228292C365328292C375228292C395228292C31305328292C31315A2C3134522829292D362D414345544F585945554E4943454C4C412D31312D454E452D332C372D44494F4C2E6D6F6C0A20204368656D447261773130313930393132303532440A2033342033362020302020302020302020302020302020302020302020303939392056323030300A2020202D322E3334353520202020302E3831303620202020302E303030302043202020302020302020302020302020302020302020302020302020302020302020302020300A2020202D322E333435352020202D302E3031343420202020302E303030302043202020302020302020302020302020302020302020302020302020302020302020302020300A2020202D312E363331312020202D302E3432363920202020302E303030302043202020302020302020302020302020302020302020302020302020302020302020302020300A2020202D302E393136362020202D302E3031343420202020302E303030302043202020302020302020302020302020302020302020302020302020302020302020302020300A2020202D302E3931363620202020302E3831303620202020302E303030302043202020302020302020302020302020302020302020302020302020302020302020302020300A2020202D312E3633313120202020312E3232333120202020302E303030302043202020302020302020302020302020302020302020302020302020302020302020302020300A2020202D302E323032312020202D302E3432363920202020302E303030302043202020302020302020302020302020302020302020302020302020302020302020302020300A20202020302E353132332020202D302E3031343420202020302E303030302043202020302020302020302020302020302020302020302020302020302020302020302020300A20202020302E3531323320202020302E3831303620202020302E303030302043202020302020302020302020302020302020302020302020302020302020302020302020300A2020202D302E3230323120202020312E3232333120202020302E303030302043202020302020302020302020302020302020302020302020302020302020302020302020300A2020202D302E323032312020202D312E3235313920202020302E303030302043202020302020302020302020302020302020302020302020302020302020302020302020300A20202020302E353132332020202D312E3636343420202020302E303030302043202020302020302020302020302020302020302020302020302020302020302020302020300A20202020312E323236382020202D312E3235313920202020302E303030302043202020302020302020302020302020302020302020302020302020302020302020302020300A20202020312E323236382020202D302E3432363920202020302E303030302043202020302020302020302020302020302020302020302020302020302020302020302020300A2020202D332E3035333720202020312E3232333120202020302E303030302048202020302020302020302020302020302020302020302020302020302020302020302020300A2020202D302E3931313520202020312E3633353620202020302E303030302048202020302020302020302020302020302020302020302020302020302020302020302020300A2020202D322E303433362020202D312E3134363520202020302E303030302048202020302020302020302020302020302020302020302020302020302020302020302020300A2020202D302E373737352020202D312E3031323520202020302E303030302048202020302020302020302020302020302020302020302020302020302020302020302020300A20202020322E303535362020202D302E3432363920202020302E303030302048202020302020302020302020302020302020302020302020302020302020302020302020300A20202020312E3039363620202020302E3536323920202020302E30303030204F202020302020302020302020302020302020302020302020302020302020302020302020300A2020202D302E3230303220202020322E3034383120202020302E303030302048202020302020302020302020302020302020302020302020302020302020302020302020300A20202020312E3831363220202020302E3135303420202020302E30303030204F202020302020302020302020302020302020302020302020302020302020302020302020300A2020202D302E363132372020202D312E3937313520202020302E30303030204F202020302020302020302020302020302020302020302020302020302020302020302020300A2020202D302E3333333220202020302E3536383920202020302E303030302048202020302020302020302020302020302020302020302020302020302020302020302020300A2020202D312E343137352020202D312E3232333820202020302E303030302043202020302020302020302020302020302020302020302020302020302020302020302020300A20202020322E3633353220202020302E3135363420202020302E303030302043202020302020302020302020302020302020302020302020302020302020302020302020300A20202020332E3035333720202020302E3836393920202020302E30303030204F202020302020302020302020302020302020302020302020302020302020302020302020300A2020202D302E363230372020202D312E3433373420202020302E303030302043202020302020302020302020302020302020302020302020302020302020302020302020300A2020202D322E303030392020202D312E3830373220202020302E303030302043202020302020302020302020302020302020302020302020302020302020302020302020300A20202020302E3031353720202020302E3432313620202020302E30303030204F202020302020302020302020302020302020302020302020302020302020302020302020300A2020202D312E3633313120202020322E3034383120202020302E303030302043202020302020302020302020302020302020302020302020302020302020302020302020300A20202020332E303436372020202D302E3535373620202020302E303030302043202020302020302020302020302020302020302020302020302020302020302020302020300A20202020302E303130372020202D322E3034383120202020302E303030302043202020302020302020302020302020302020302020302020302020302020302020302020300A20202020312E3330383720202020302E3230303120202020302E303030302043202020302020302020302020302020302020302020302020302020302020302020302020300A2020312020322020312020302020202020200A2020322020332020312020302020202020200A2020332020342020312020302020202020200A2020342020352020312020302020202020200A2020352020362020312020302020202020200A2020362020312020322020302020202020200A2020342020372020312020302020202020200A2020382020392020312020302020202020200A2020392031302020312020302020202020200A2031302020352020312020302020202020200A2020372031312020312020302020202020200A2031312031322020312020302020202020200A2031322031332020312020302020202020200A2031332031342020312020302020202020200A2031342020382020312020302020202020200A2020312031352020312020302020202020200A2020352031362020312020362020202020200A2020332031372020312020362020202020200A2020372031382020312020362020202020200A2031342031392020312020362020202020200A2020382032302020312020362020202020200A2031302032312020312020312020202020200A2031342032322020312020312020202020200A2031312032332020312020312020202020200A2020342032342020312020312020202020200A2020332032352020312020312020202020200A2032322032362020312020302020202020200A2032362032372020322020302020202020200A2032352032382020312020302020202020200A2032352032392020312020302020202020200A2031302033302020312020362020202020200A2020372033302020312020312020202020200A2020362033312020312020302020202020200A2032362033322020312020302020202020200A2031312033332020312020362020202020200A2020382033342020312020312020202020200A4D202053545920203120202031205355500A4D2020534C4220203120202031202020310A4D202053414C20202031202031202033310A4D202053424C20202031202031202033330A4D2020534D5420202031204D650A4D2020534256202020312033332020202D362E3738373320202020362E303238370A4D202053545920203120202032205355500A4D2020534C4220203120202032202020320A4D202053414C20202032202031202033320A4D202053424C20202032202031202033340A4D2020534D5420202032204D650A4D2020534256202020322033342020202D362E3337353820202020342E343839370A4D202053545920203120202033205355500A4D2020534C4220203120202033202020330A4D202053414C20202033202031202033330A4D202053424C20202033202031202033350A4D2020534D5420202033204D650A4D2020534256202020332033352020202D362E3537343520202020342E343037360A4D202053545920203120202034205355500A4D2020534C4220203120202034202020340A4D202053414C20202034202031202033340A4D202053424C20202034202031202033360A4D2020534D5420202034204D650A4D2020534256202020342033362020202D352E3939313020202020352E343138320A4D2020454E44
Contributor: EGUCHI S, FAC. OF SCIENCE, HIROSHIMA UNIV.
InstType: EI
InstName: HITACHI RMU-6L
IoniMethod: _ENERGY 70 eV
IonPolarity: pos
Date: 2010-10-09 19:48:36+02:00
Num Peaks: 174
41 350 42 41 43 999 44 8 45 123 53 82 54 16 55 34 56 41 57 156 
58 139 59 4 60 33 61 24 65 41 66 2 67 115 68 33 69 221 70 3 
71 401 72 33 73 16 74 2 77 123 78 33 79 205 80 7 81 245 82 49 
83 197 84 5 85 205 86 33 87 33 91 22 92 279 93 803 94 221 95 37 
96 57 97 115 98 41 99 16 100 33 101 90 105 369 106 15 107 385 108 148 
109 189 110 7 111 90 112 25 113 57 114 2 115 33 116 16 117 41 118 2 
119 164 120 49 121 197 122 11 123 131 124 49 125 82 126 5 127 377 128 303 
129 57 130 3 131 115 132 33 133 139 134 8 135 164 136 246 137 131 138 4 
139 49 140 33 141 49 142 2 143 41 144 33 145 98 146 25 147 213 148 115 
149 180 150 30 151 57 152 16 153 41 154 2 155 57 156 15 157 82 158 3 
159 55 160 33 161 82 162 5 163 82 164 41 165 57 166 5 167 75 168 15 
169 15 171 4 172 16 173 33 174 16 175 5 176 65 177 270 178 148 179 10 
180 16 183 49 184 16 185 2 186 24 187 90 188 25 189 6 190 33 191 33 
192 33 193 3 194 57 195 115 196 16 197 2 198 16 201 41 202 16 203 3 
204 260 205 57 206 16 213 3 214 16 215 25 218 66 219 3 220 16 221 33 
222 24 223 2 225 41 226 10 241 33 242 2 259 49 260 16 264 172 265 5 
266 16 282 123 283 33 284 2 302 98 303 41 304 33 305 2 320 19 321 12 
362 19 363 1 380 12 381 4 
