Name: MassBank: JP011645
MW: 268
Formula: C10H8BrNO3
Synonym: MassBank: JP011645
Synonym: 3-BROMOMETHYL-7-METHOXY-1,4-BENZOXAZIN-2-ONE
Structure: 332D42524F4D4F4D455448594C2D372D4D4554484F58592D312C342D42454E5A4F58415A494E2D322D4F4E452E6D6F6C0A20204368656D447261773032323231303134323332440A2031352031362020302020302020302020302020302020302020302020303939392056323030300A20202020302E3731343520202020302E3832353020202020302E30303030204F202020302020302020302020302020302020302020302020302020302020302020302020300A20202020312E3432383920202020302E3431323520202020302E303030302043202020302020302020302020302020302020302020302020302020302020302020302020300A20202020312E343238392020202D302E3431323520202020302E303030302043202020302020302020302020302020302020302020302020302020302020302020302020300A20202020302E373134352020202D302E3832353020202020302E30303030204E202020302020302020302020302020302020302020302020302020302020302020302020300A2020202D302E303030302020202D302E3431323520202020302E303030302043202020302020302020302020302020302020302020302020302020302020302020302020300A2020202D302E3030303020202020302E3431323520202020302E303030302043202020302020302020302020302020302020302020302020302020302020302020302020300A2020202D302E373134352020202D302E3832353020202020302E303030302043202020302020302020302020302020302020302020302020302020302020302020302020300A2020202D312E343238392020202D302E3431323520202020302E303030302043202020302020302020302020302020302020302020302020302020302020302020302020300A2020202D312E3432383920202020302E3431323520202020302E303030302043202020302020302020302020302020302020302020302020302020302020302020302020300A2020202D302E3731343520202020302E3832353020202020302E303030302043202020302020302020302020302020302020302020302020302020302020302020302020300A20202020322E3134333420202020302E3832353020202020302E30303030204F202020302020302020302020302020302020302020302020302020302020302020302020300A2020202D322E3134333420202020302E3832353020202020302E30303030204F202020302020302020302020302020302020302020302020302020302020302020302020300A2020202D322E3835373920202020302E3431323520202020302E303030302043202020302020302020302020302020302020302020302020302020302020302020302020300A20202020322E313433342020202D302E3832353020202020302E303030302043202020302020302020302020302020302020302020302020302020302020302020302020300A20202020322E383537392020202D302E3431323520202020302E303030302042722020302020302020302020302020302020302020302020302020302020302020302020300A2020312020322020312020302020202020200A2020322020332020312020302020202020200A2020332020342020322020302020202020200A2020342020352020312020302020202020200A2020352020362020312020302020202020200A2020312020362020312020302020202020200A2020372020382020312020302020202020200A2020382020392020322020302020202020200A2020392031302020312020302020202020200A2020362031302020322020302020202020200A2020352020372020322020302020202020200A2020322031312020322020302020202020200A2031322031332020312020302020202020200A2020392031322020312020302020202020200A2031342031352020312020302020202020200A2020332031342020312020302020202020200A4D2020454E44
Contributor: YAMAMOTO M, DEP. CHEMISTRY, FAC. SCIENCE, NARA WOMEN'S UNIV.
InstType: EI
InstName: HITACHI M-2500
IoniMethod: _ENERGY 70 eV
IonPolarity: pos
Date: 2010-10-09 19:48:36+02:00
Num Peaks: 41
17 15 18 84 28 33 38 11 39 17 43 24 44 11 50 15 51 54 52 16 
62 11 63 28 64 17 65 15 69 13 76 15 77 18 79 60 91 44 103 11 
106 24 107 17 119 55 120 21 132 13 134 83 147 55 148 125 149 15 162 720 
163 144 164 13 167 14 176 18 190 999 191 263 192 29 269 119 270 14 271 119 
272 13 
