Name: MassBank: JP010633
MW: 274
Formula: C20H34
Synonym: MassBank: JP010633
Synonym: (1S,3E,7E,11E)-CEMBRA-3,7,11-TRIENE
Structure: 2831532C33452C37452C313145292D43454D4252412D332C372C31312D545249454E452E6D6F6C0A20204368656D447261773130313930393136343832440A2032342032342020302020302020302020302020302020302020302020303939392056323030300A2020202D312E3937343520202020302E3130333120202020302E303030302043202020302020302020302020302020302020302020302020302020302020302020302020300A2020202D312E393734352020202D302E3732313920202020302E303030302043202020302020302020302020302020302020302020302020302020302020302020302020300A2020202D312E333931322020202D312E3330353320202020302E303030302043202020302020302020302020302020302020302020302020302020302020302020302020300A2020202D302E353636322020202D312E3330353320202020302E303030302043202020302020302020302020302020302020302020302020302020302020302020302020300A20202020302E303137322020202D302E3732313920202020302E303030302043202020302020302020302020302020302020302020302020302020302020302020302020300A20202020302E3031373220202020302E3130333120202020302E303030302043202020302020302020302020302020302020302020302020302020302020302020302020300A2020202D302E3536363220202020302E3638363420202020302E303030302043202020302020302020302020302020302020302020302020302020302020302020302020300A2020202D312E3339313220202020302E3638363420202020302E303030302043202020302020302020302020302020302020302020302020302020302020302020302020300A20202020302E363030352020202D312E3330353320202020302E303030302043202020302020302020302020302020302020302020302020302020302020302020302020300A20202020312E343235352020202D312E3330353320202020302E303030302043202020302020302020302020302020302020302020302020302020302020302020302020300A20202020322E303038392020202D302E3732313920202020302E303030302043202020302020302020302020302020302020302020302020302020302020302020302020300A20202020322E3030383920202020302E3130333120202020302E303030302043202020302020302020302020302020302020302020302020302020302020302020302020300A20202020312E3432353520202020302E3638363420202020302E303030302043202020302020302020302020302020302020302020302020302020302020302020302020300A20202020302E3630303520202020302E3638363420202020302E303030302043202020302020302020302020302020302020302020302020302020302020302020302020300A2020202D312E3339313220202020312E3530393420202020302E303030302048202020302020302020302020302020302020302020302020302020302020302020302020300A2020202D312E3937343520202020312E3236393820202020302E303030302043202020302020302020302020302020302020302020302020302020302020302020302020300A2020202D322E3737313420202020312E3035363320202020302E303030302043202020302020302020302020302020302020302020302020302020302020302020302020300A2020202D312E3736313020202020322E3036363720202020302E303030302043202020302020302020302020302020302020302020302020302020302020302020302020300A20202020302E3031373920202020302E3932383120202020302E303030302048202020302020302020302020302020302020302020302020302020302020302020302020300A20202020322E373731342020202D312E3033393320202020302E303030302048202020302020302020302020302020302020302020302020302020302020302020302020300A2020202D302E373737382020202D302E3531303420202020302E303030302048202020302020302020302020302020302020302020302020302020302020302020302020300A20202020302E383132392020202D302E3131303120202020302E303030302043202020302020302020302020302020302020302020302020302020302020302020302020300A20202020312E303132332020202D302E3538393920202020302E303030302043202020302020302020302020302020302020302020302020302020302020302020302020300A2020202D312E373037342020202D322E3036363720202020302E303030302043202020302020302020302020302020302020302020302020302020302020302020302020300A2020312020322020312020302020202020200A2020322020332020312020302020202020200A2020332020342020322020302020202020200A2020342020352020312020302020202020200A2020362020372020312020302020202020200A2020372020382020312020302020202020200A2020382020312020312020302020202020200A2020352020392020312020302020202020200A2020392031302020312020302020202020200A2031302031312020322020302020202020200A2031312031322020312020302020202020200A2031322031332020312020302020202020200A2031332031342020312020302020202020200A2031342020362020322020302020202020200A2020382031352020312020312020202020200A2020382031362020312020362020202020200A2031362031372020312020302020202020200A2031362031382020312020302020202020200A2020362031392020312020302020202020200A2031312032302020312020302020202020200A2020342032312020312020302020202020200A2031342032322020312020302020202020200A2031302032332020312020302020202020200A2020332032342020312020302020202020200A4D202053545920203120202031205355500A4D2020534C4220203120202031202020310A4D202053414C20202031202031202032320A4D202053424C20202031202031202032320A4D2020534D5420202031204D650A4D2020534256202020312032322020202D372E3539333220202020362E343031360A4D202053545920203120202032205355500A4D2020534C4220203120202032202020320A4D202053414C20202032202031202032330A4D202053424C20202032202031202032330A4D2020534D5420202032204D650A4D2020534256202020322032332020202D382E3231383820202020372E393133340A4D202053545920203120202033205355500A4D2020534C4220203120202033202020330A4D202053414C20202033202031202032340A4D202053424C20202033202031202032340A4D2020534D5420202033204D650A4D2020534256202020332032342020202D382E3132313820202020362E343336370A4D2020454E44
Contributor: EGUCHI S, FAC. OF SCIENCE, HIROSHIMA UNIV.
InstType: EI
InstName: HITACHI RMU-6L
IoniMethod: _ENERGY 70 eV
IonPolarity: pos
Date: 2010-10-09 19:48:36+02:00
Num Peaks: 98
41 910 42 109 43 418 44 2 51 27 52 18 53 327 54 6 55 782 56 73 
57 236 58 2 65 73 66 55 67 690 68 67 69 945 70 91 71 127 77 16 
78 36 79 345 80 127 81 999 82 282 83 273 84 36 85 6 91 164 92 73 
93 527 94 24 95 764 96 200 97 109 98 2 105 145 106 55 107 600 108 46 
109 473 110 91 111 55 119 11 120 55 121 436 122 291 123 75 124 109 125 36 
133 73 134 6 135 291 136 309 137 200 138 6 147 91 148 36 149 200 150 18 
151 73 152 18 161 91 162 4 163 255 164 91 165 55 166 2 175 82 176 36 
177 109 178 7 179 36 180 18 189 73 190 4 191 109 192 36 193 9 203 6 
204 36 205 27 206 18 217 3 218 18 219 18 231 163 232 6 233 9 245 18 
246 9 247 1 259 127 260 36 261 9 274 24 275 63 276 9 
