Name: MassBank: JP010998
MW: 274
Formula: C15H14O5
Synonym: MassBank: JP010998
Synonym: 3-(2,5-DIHYDROXYBENZYL)-5-METHOXYTROPOLONE
Structure: 332D28322C352D4449485944524F585942454E5A594C292D352D4D4554484F585954524F504F4C4F4E452E6D6F6C0A20204368656D447261773032323231303039303432440A2032302032312020302020302020302020302020302020302020302020303939392056323030300A2020202D322E353532392020202D312E3839343020202020302E30303030204F202020302020302020302020302020302020302020302020302020302020302020302020300A2020202D322E313934392020202D312E3135303720202020302E303030302043202020302020302020302020302020302020302020302020302020302020302020302020300A2020202D322E373039332020202D302E3530353720202020302E303030302043202020302020302020302020302020302020302020302020302020302020302020302020300A2020202D322E3532353720202020302E3239383620202020302E303030302043202020302020302020302020302020302020302020302020302020302020302020302020300A2020202D312E3738323420202020302E3635363520202020302E303030302043202020302020302020302020302020302020302020302020302020302020302020302020300A2020202D312E3033393120202020302E3239383620202020302E303030302043202020302020302020302020302020302020302020302020302020302020302020302020300A2020202D302E383535352020202D302E3530353720202020302E303030302043202020302020302020302020302020302020302020302020302020302020302020302020300A2020202D312E333639392020202D312E3135303720202020302E303030302043202020302020302020302020302020302020302020302020302020302020302020302020300A2020202D312E303132302020202D312E3839343020202020302E30303030204F202020302020302020302020302020302020302020302020302020302020302020302020300A2020202D312E3738323420202020312E3438313520202020302E30303030204F202020302020302020302020302020302020302020302020302020302020302020302020300A2020202D322E3439363920202020312E3839343020202020302E303030302043202020302020302020302020302020302020302020302020302020302020302020302020300A2020202D302E303531322020202D302E3638393320202020302E303030302043202020302020302020302020302020302020302020302020302020302020302020302020300A20202020302E353332312020202D302E3130353920202020302E303030302043202020302020302020302020302020302020302020302020302020302020302020302020300A20202020302E3331383620202020302E3639303920202020302E303030302043202020302020302020302020302020302020302020302020302020302020302020302020300A20202020302E3930323020202020312E3237343320202020302E303030302043202020302020302020302020302020302020302020302020302020302020302020302020300A20202020312E3639383920202020312E3036303820202020302E303030302043202020302020302020302020302020302020302020302020302020302020302020302020300A20202020312E3931323420202020302E3236333920202020302E303030302043202020302020302020302020302020302020302020302020302020302020302020302020300A20202020312E333239302020202D302E3331393520202020302E303030302043202020302020302020302020302020302020302020302020302020302020302020302020300A20202020322E3730393320202020302E3035303420202020302E30303030204F202020302020302020302020302020302020302020302020302020302020302020302020300A2020202D302E3437383320202020302E3930343520202020302E30303030204F202020302020302020302020302020302020302020302020302020302020302020302020300A2020312020322020322020302020202020200A2020322020332020312020302020202020200A2020332020342020322020302020202020200A2020342020352020312020302020202020200A2020352020362020322020302020202020200A2020362020372020312020302020202020200A2020372020382020322020302020202020200A2020322020382020312020302020202020200A2020382020392020312020302020202020200A2031302031312020312020302020202020200A2020352031302020312020302020202020200A2031322031332020312020302020202020200A2031332031342020312020302020202020200A2031342031352020322020302020202020200A2031352031362020312020302020202020200A2031362031372020322020302020202020200A2031372031382020312020302020202020200A2031332031382020322020302020202020200A2031372031392020312020302020202020200A2031342032302020312020302020202020200A2020372031322020312020302020202020200A4D2020454E44
Contributor: TAKESHITA H, INST. OF ADVANCED MATERIAL STUDY KYUSHU UNIV.
InstType: EI
InstName: JEOL JMS-01-SG-2
IoniMethod: _ENERGY 75 eV
IonPolarity: pos
Date: 2010-10-09 19:48:36+02:00
Num Peaks: 58
39 237 41 148 44 117 51 210 53 150 55 381 63 419 64 131 65 283 66 119 
69 168 77 226 78 119 91 154 109 145 110 501 115 117 123 320 124 295 128 157 
137 214 148 252 152 167 153 128 157 149 163 139 169 177 171 56 173 53 177 87 
184 105 185 171 186 75 187 51 190 49 197 230 199 52 201 53 211 60 213 399 
214 130 215 84 227 210 228 223 229 80 241 239 242 100 243 187 244 47 255 55 
256 232 257 510 258 109 260 211 262 62 274 999 275 209 278 49 
