Name: MassBank: JP011168
MW: 315
Formula: C17H21N3O3
Synonym: MassBank: JP011168
Synonym: 2,4-DIISOPROPYL-4,4A-DIHYDRO-1H-(1,3,5)TRIAZINO(1,2-A)QUINOLINE-1,3,6(2H,5H)-TRIONE
Structure: 322C342D444949534F50524F50594C2D342C34412D4449485944524F2D31482D28312C332C3529545249415A494E4F28312C322D41295155494E4F4C494E452D312C332C362832482C3548292D5452494F4E452E6D6F6C0A20204368656D447261773132323030393139303032440A2032332032352020302020302020302020302020302020302020302020303939392056323030300A2020202D312E3037313720202020302E3431323520202020302E30303030204E202020302020302020302020302020302020302020302020302020302020302020302020300A2020202D312E303731372020202D302E3431323520202020302E303030302043202020302020302020302020302020302020302020302020302020302020302020302020300A2020202D302E333537322020202D302E3832353020202020302E30303030204E202020302020302020302020302020302020302020302020302020302020302020302020300A20202020302E333537322020202D302E3431323520202020302E303030302043202020302020302020302020302020302020302020302020302020302020302020302020300A20202020302E3335373220202020302E3431323520202020302E30303030204E202020302020302020302020302020302020302020302020302020302020302020302020300A2020202D302E3335373220202020302E3832353020202020302E303030302043202020302020302020302020302020302020302020302020302020302020302020302020300A20202020312E303731372020202D302E3832353020202020302E303030302043202020302020302020302020302020302020302020302020302020302020302020302020300A20202020312E373836322020202D302E3431323520202020302E303030302043202020302020302020302020302020302020302020302020302020302020302020302020300A20202020312E3738363220202020302E3431323520202020302E303030302043202020302020302020302020302020302020302020302020302020302020302020302020300A20202020312E3037313720202020302E3832353020202020302E303030302043202020302020302020302020302020302020302020302020302020302020302020302020300A20202020322E3530303620202020302E3832353020202020302E303030302043202020302020302020302020302020302020302020302020302020302020302020302020300A20202020322E3530303620202020312E3635303020202020302E303030302043202020302020302020302020302020302020302020302020302020302020302020302020300A20202020312E3738363220202020322E3036323520202020302E303030302043202020302020302020302020302020302020302020302020302020302020302020302020300A20202020312E3037313720202020312E3635303020202020302E303030302043202020302020302020302020302020302020302020302020302020302020302020302020300A2020202D302E3335373220202020312E3635303020202020302E30303030204F202020302020302020302020302020302020302020302020302020302020302020302020300A2020202D312E3738363220202020302E3832353020202020302E303030302043202020302020302020302020302020302020302020302020302020302020302020302020300A2020202D312E3738363220202020312E3635303020202020302E303030302043202020302020302020302020302020302020302020302020302020302020302020302020300A2020202D322E3530303620202020302E3431323520202020302E303030302043202020302020302020302020302020302020302020302020302020302020302020302020300A2020202D312E373836322020202D302E3832353020202020302E30303030204F202020302020302020302020302020302020302020302020302020302020302020302020300A2020202D302E333537322020202D312E3635303020202020302E303030302043202020302020302020302020302020302020302020302020302020302020302020302020300A2020202D312E303731372020202D322E3036323520202020302E303030302043202020302020302020302020302020302020302020302020302020302020302020302020300A20202020302E333537322020202D322E3036323520202020302E303030302043202020302020302020302020302020302020302020302020302020302020302020302020300A20202020322E353030362020202D302E3832353020202020302E30303030204F202020302020302020302020302020302020302020302020302020302020302020302020300A2020312020322020312020302020202020200A2020322020332020312020302020202020200A2020332020342020312020302020202020200A2020342020352020312020302020202020200A2020352020362020312020302020202020200A2020362020312020312020302020202020200A2020342020372020312020302020202020200A2020372020382020312020302020202020200A2020382020392020312020302020202020200A2020392031302020322020302020202020200A2031302020352020312020302020202020200A2020392031312020312020302020202020200A2031312031322020322020302020202020200A2031322031332020312020302020202020200A2031332031342020322020302020202020200A2031342031302020312020302020202020200A2020362031352020322020302020202020200A2020312031362020312020302020202020200A2031362031372020312020302020202020200A2031362031382020312020302020202020200A2020322031392020322020302020202020200A2020332032302020312020302020202020200A2032302032312020312020302020202020200A2032302032322020312020302020202020200A2020382032332020322020302020202020200A4D2020454E44
Contributor: SAWADA M, THE INST. OF SCIENTIFIC AND INDUSTRIALRESEARCH OSAKA UNIV.
InstType: EI
InstName: JEOL JMS-DX-300
IoniMethod: _ENERGY 70 eV
IonPolarity: pos
Date: 2010-10-09 19:48:36+02:00
Num Peaks: 99
34 15 36 18 38 13 39 80 40 213 41 256 42 138 43 311 44 664 45 64 
50 18 51 22 53 13 54 22 55 62 56 84 57 73 58 67 60 22 63 36 
64 40 65 29 67 13 68 20 69 47 70 284 71 42 72 15 73 13 75 13 
76 53 77 82 78 18 81 16 82 16 83 36 84 118 85 40 86 18 87 16 
89 67 90 287 91 71 92 29 93 13 95 11 96 10 97 16 99 11 102 10 
103 19 104 58 105 36 111 13 113 13 116 76 117 147 118 107 119 47 120 16 
128 24 129 29 130 13 131 16 132 38 133 53 134 24 141 11 144 84 145 818 
146 620 147 98 149 44 155 44 159 15 160 71 161 38 162 42 167 16 187 64 
188 31 189 22 201 17 202 27 203 22 215 156 216 42 217 22 230 173 231 180 
232 84 258 22 259 40 272 127 273 153 274 78 279 13 315 999 316 273 
