Name: MassBank: JP011952
MW: 218
Formula: C12H18Si2
Synonym: MassBank: JP011952
Synonym: 1,6-BIS(TRIMETHYLSILYL)-1,3,5-HEXATRIYNE
Structure: 312C362D424953285452494D455448594C53494C594C292D312C332C352D48455841545249594E452E6D6F6C0A20204368656D447261773131313630393133303732440A2031342031332020302020302020302020302020302020302020302020303939392056323030300A20202020322E3036323520202020302E3030303020202020302E303030302043202020302020302020302020302020302020302020302020302020302020302020302020300A20202020312E3233373520202020302E3030303020202020302E303030302043202020302020302020302020302020302020302020302020302020302020302020302020300A20202020302E3431323520202020302E3030303020202020302E303030302043202020302020302020302020302020302020302020302020302020302020302020302020300A2020202D302E3431323520202020302E3030303020202020302E303030302043202020302020302020302020302020302020302020302020302020302020302020302020300A2020202D312E3233373520202020302E3030303020202020302E303030302043202020302020302020302020302020302020302020302020302020302020302020302020300A2020202D322E3036323520202020302E3030303020202020302E303030302043202020302020302020302020302020302020302020302020302020302020302020302020300A2020202D322E3838373520202020302E3030303020202020302E303030302053692020302020302020302020302020302020302020302020302020302020302020302020300A2020202D322E3838373520202020302E3832353020202020302E303030302043202020302020302020302020302020302020302020302020302020302020302020302020300A2020202D322E383837352020202D302E3832353020202020302E303030302043202020302020302020302020302020302020302020302020302020302020302020302020300A2020202D332E3731323520202020302E3030303020202020302E303030302043202020302020302020302020302020302020302020302020302020302020302020302020300A20202020322E3838373520202020302E3030303020202020302E303030302053692020302020302020302020302020302020302020302020302020302020302020302020300A20202020322E3838373520202020302E3832353020202020302E303030302043202020302020302020302020302020302020302020302020302020302020302020302020300A20202020332E3731323520202020302E3030303020202020302E303030302043202020302020302020302020302020302020302020302020302020302020302020302020300A20202020322E383837352020202D302E3832353020202020302E303030302043202020302020302020302020302020302020302020302020302020302020302020302020300A2020312020322020332020302020202020200A2020322020332020312020302020202020200A2020332020342020332020302020202020200A2020342020352020312020302020202020200A2020352020362020332020302020202020200A2020372020382020312020312020202020200A2020372020392020312020312020202020200A2020372031302020312020302020202020200A2020362020372020312020302020202020200A2031312031322020312020312020202020200A2031312031332020312020302020202020200A2031312031342020312020312020202020200A2020312031312020312020302020202020200A4D2020454E44
Contributor: ISHIKAWA M, HIROSHIMA UNIV. FAC. TEQUNOLOGY
InstType: EI
InstName: SHIMADZU QP-1000
IoniMethod: _ENERGY 70 eV
IonPolarity: pos
Date: 2010-10-09 19:48:36+02:00
Num Peaks: 14
53 27 67 37 73 106 79 11 80 32 94 74 97 27 121 32 145 21 203 999 
204 202 205 64 218 197 219 32 
