Name: MassBank: JP010763
MW: 182
Formula: C10H14O3
Synonym: MassBank: JP010763
Synonym: 5-HYDROXY-1-METHYLBICYCLO(4.3.0)NONANE-2,7-DIONE
Structure: 352D485944524F58592D312D4D455448594C42494359434C4F28342E332E30294E4F4E414E452D322C372D44494F4E452E6D6F6C0A20204368656D447261773034323331303036303032440A2031332031342020302020302020302020302020302020302020302020303939392056323030300A2020202D302E343132352020202D302E3037393720202020302E303030302043202020302020302020302020302020302020302020302020302020302020302020302020300A2020202D302E3832353020202020302E3633343820202020302E303030302043202020302020302020302020302020302020302020302020302020302020302020302020300A2020202D302E3431323520202020312E3334393220202020302E303030302043202020302020302020302020302020302020302020302020302020302020302020302020300A20202020302E3431323520202020312E3334393220202020302E303030302043202020302020302020302020302020302020302020302020302020302020302020302020300A20202020302E3832353020202020302E3633343820202020302E303030302043202020302020302020302020302020302020302020302020302020302020302020302020300A20202020302E343132352020202D302E3037393720202020302E303030302043202020302020302020302020302020302020302020302020302020302020302020302020300A20202020302E363637342020202D302E3836343320202020302E303030302043202020302020302020302020302020302020302020302020302020302020302020302020300A20202020302E303030302020202D312E3334393220202020302E303030302043202020302020302020302020302020302020302020302020302020302020302020302020300A2020202D302E363637342020202D302E3836343320202020302E303030302043202020302020302020302020302020302020302020302020302020302020302020302020300A2020202D312E3635303020202020302E3633343820202020302E30303030204F202020302020302020302020302020302020302020302020302020302020302020302020300A20202020312E343532312020202D312E3131393320202020302E30303030204F202020302020302020302020302020302020302020302020302020302020302020302020300A2020202D312E323333302020202D302E3136353920202020302E303030302043202020302020302020302020302020302020302020302020302020302020302020302020300A20202020312E3635303020202020302E3633343820202020302E30303030204F202020302020302020302020302020302020302020302020302020302020302020302020300A2020312020322020312020302020202020200A2020322020332020312020302020202020200A2020332020342020312020302020202020200A2020342020352020312020302020202020200A2020352020362020312020302020202020200A2020362020372020312020302020202020200A2020372020382020312020302020202020200A2020382020392020312020302020202020200A2020312020392020312020302020202020200A2020312020362020312020302020202020200A2020322031302020322020302020202020200A2020372031312020322020302020202020200A2020312031322020312020302020202020200A2020352031332020312020302020202020200A4D2020454E44
Contributor: YAMAMOTO M, DEP. CHEMISTRY, FAC. SCIENCE, NARA WOMEN'S UNIV.
InstType: EI
InstName: HITACHI RMU-6M
IoniMethod: _ENERGY 70 eV
IonPolarity: pos
Date: 2010-10-09 19:48:36+02:00
Num Peaks: 74
26 40 27 349 28 251 29 17 31 43 38 17 39 253 40 6 41 473 42 98 
43 522 44 2 45 21 50 18 51 56 52 3 53 145 54 51 55 284 56 17 
57 78 58 26 59 10 63 2 65 39 66 24 67 89 68 3 69 443 70 110 
71 171 72 1 77 62 78 15 79 201 80 5 81 123 82 43 83 146 84 29 
85 51 91 29 93 63 94 10 95 378 96 79 97 506 98 11 99 35 104 12 
107 48 108 3 109 396 110 82 111 109 112 12 113 219 114 15 121 54 122 22 
123 193 124 67 125 999 126 16 136 46 137 23 139 37 140 5 154 17 164 39 
165 18 167 4 182 842 183 108 
