Name: MassBank: JP011954
MW: 477
Formula: C8H2Br4S2
Synonym: MassBank: JP011954
Synonym: 3,3'5,5'-TETRABROMO-2,2'-BITHIOPHENE
Structure: 332C3327352C35272D544554524142524F4D4F2D322C32272D42495448494F5048454E452E6D6F6C0A20204368656D447261773032323131303139343632440A2031342031352020302020302020302020302020302020302020302020303939392056323030300A2020202D302E343132352020202D302E3030303020202020302E303030302043202020302020302020302020302020302020302020302020302020302020302020302020300A2020202D302E383937342020202D302E3636373420202020302E303030302043202020302020302020302020302020302020302020302020302020302020302020302020300A2020202D312E363832302020202D302E3431323520202020302E303030302043202020302020302020302020302020302020302020302020302020302020302020302020300A2020202D312E3638323020202020302E3431323520202020302E303030302043202020302020302020302020302020302020302020302020302020302020302020302020300A2020202D302E3839373420202020302E3636373420202020302E303030302053202020302020302020302020302020302020302020302020302020302020302020302020300A20202020302E343132352020202D302E3030303020202020302E303030302043202020302020302020302020302020302020302020302020302020302020302020302020300A20202020302E3839373420202020302E3636373420202020302E303030302043202020302020302020302020302020302020302020302020302020302020302020302020300A20202020312E3638323020202020302E3431323520202020302E303030302043202020302020302020302020302020302020302020302020302020302020302020302020300A20202020312E363832302020202D302E3431323520202020302E303030302043202020302020302020302020302020302020302020302020302020302020302020302020300A20202020302E383937342020202D302E3636373420202020302E303030302053202020302020302020302020302020302020302020302020302020302020302020302020300A20202020322E333439352020202D302E3839373420202020302E303030302042722020302020302020302020302020302020302020302020302020302020302020302020300A2020202D322E3334393520202020302E3839373420202020302E303030302042722020302020302020302020302020302020302020302020302020302020302020302020300A20202020302E3634323520202020312E3435323120202020302E303030302042722020302020302020302020302020302020302020302020302020302020302020302020300A2020202D302E363432352020202D312E3435323120202020302E303030302042722020302020302020302020302020302020302020302020302020302020302020302020300A2020312020322020322020302020202020200A2020322020332020312020302020202020200A2020332020342020322020302020202020200A2020342020352020312020302020202020200A2020312020352020312020302020202020200A2020362020372020322020302020202020200A2020372020382020312020302020202020200A2020382020392020322020302020202020200A2020392031302020312020302020202020200A2020362031302020312020302020202020200A2020312020362020312020302020202020200A2020392031312020312020302020202020200A2020342031322020312020302020202020200A2020372031332020312020302020202020200A2020322031342020312020302020202020200A4D2020454E44
Contributor: ISHIKAWA M, HIROSHIMA UNIV. FAC. TEQUNOLOGY
InstType: EI
InstName: SHIMADZU QP-1000
IoniMethod: _ENERGY 70 eV
IonPolarity: pos
Date: 2010-10-09 19:48:36+02:00
Num Peaks: 12
56 64 58 118 73 74 81 128 321 266 478 521 479 670 480 787 481 999 482 745 
483 670 484 479 
