Name: MassBank: JP010151
MW: 260
Formula: C10H9Cl2NO3
Synonym: MassBank: JP010151
Synonym: 1-ACETOXY-3-ACETYLAMINO-4,6-DICHLOROBENZENE
Structure: 312D414345544F58592D332D41434554594C414D494E4F2D342C362D444943484C4F524F42454E5A454E452E6D6F6C0A20204368656D447261773131313730393230353632440A2031362031362020302020302020302020302020302020302020302020303939392056323030300A20202020302E323036322020202D312E3037313720202020302E303030302043202020302020302020302020302020302020302020302020302020302020302020302020300A2020202D302E323036322020202D302E3335373220202020302E303030302043202020302020302020302020302020302020302020302020302020302020302020302020300A20202020302E3230363220202020302E3335373220202020302E303030302043202020302020302020302020302020302020302020302020302020302020302020302020300A20202020312E3033313320202020302E3335373220202020302E303030302043202020302020302020302020302020302020302020302020302020302020302020302020300A20202020312E343433382020202D302E3335373220202020302E303030302043202020302020302020302020302020302020302020302020302020302020302020302020300A20202020312E303331332020202D312E3037313720202020302E303030302043202020302020302020302020302020302020302020302020302020302020302020302020300A20202020312E343433382020202D312E3738363220202020302E3030303020436C2020302020302020302020302020302020302020302020302020302020302020302020300A20202020312E3434333820202020312E3037313720202020302E3030303020436C2020302020302020302020302020302020302020302020302020302020302020302020300A2020202D302E3230363220202020312E3037313720202020302E30303030204E202020302020302020302020302020302020302020302020302020302020302020302020300A20202020302E3230363220202020312E3738363220202020302E303030302043202020302020302020302020302020302020302020302020302020302020302020302020300A20202020312E3033313220202020312E3738363220202020302E30303030204F202020302020302020302020302020302020302020302020302020302020302020302020300A2020202D302E3230363320202020322E3530303620202020302E303030302043202020302020302020302020302020302020302020302020302020302020302020302020300A2020202D302E323036322020202D312E3738363220202020302E30303030204F202020302020302020302020302020302020302020302020302020302020302020302020300A2020202D312E303331332020202D312E3738363220202020302E303030302043202020302020302020302020302020302020302020302020302020302020302020302020300A2020202D312E343433382020202D322E3530303620202020302E30303030204F202020302020302020302020302020302020302020302020302020302020302020302020300A2020202D312E343433382020202D312E3037313720202020302E303030302043202020302020302020302020302020302020302020302020302020302020302020302020300A2020312020322020312020302020202020200A2020322020332020322020302020202020200A2020332020342020312020302020202020200A2020342020352020322020302020202020200A2020352020362020312020302020202020200A2020312020362020322020302020202020200A2020362020372020312020302020202020200A2020342020382020312020302020202020200A2031302031312020322020302020202020200A2031302031322020312020302020202020200A2020392031302020312020302020202020200A2020332020392020312020302020202020200A2031342031352020322020302020202020200A2031342031362020312020302020202020200A2031332031342020312020302020202020200A2020312031332020312020302020202020200A4D2020454E44
Contributor: KURARAY CO., LTD.
InstType: EI
InstName: JEOL JMS-D-300
IoniMethod: _ENERGY 70 eV
IonPolarity: pos
Date: 2010-10-09 19:48:36+02:00
Num Peaks: 78
36 20 38 30 39 30 41 3 42 20 43 830 44 20 50 2 51 30 52 30 
53 30 61 3 62 10 63 20 68 10 73 2 75 30 76 30 78 50 79 1 
80 60 81 30 85 30 86 2 87 20 97 30 99 30 108 2 112 20 113 20 
114 60 115 3 116 20 117 30 142 20 143 72 144 50 145 220 146 10 148 3 
149 20 150 380 151 40 156 3 176 20 177 999 178 70 179 66 180 40 181 100 
182 30 183 2 184 620 185 330 186 230 187 10 188 30 190 10 192 10 211 5 
212 20 213 50 214 20 215 1 218 30 219 350 220 40 221 22 222 20 223 30 
227 50 228 2 229 10 261 90 262 30 263 6 264 20 265 20 
