Name: 4-NITROBENZYLALCOHOL
MW: 153
Formula: C7H7NO3
Synonym: MassBank: JP011475
Synonym: 4-NITROBENZYLALCOHOL
Structure: 342D4E4954524F42454E5A594C414C434F484F4C2E6D6F6C0A20204368656D447261773034323231303137313132440A2031312031312020302020302020302020302020302020302020302020303939392056323030300A20202020312E363530302020202D302E3030303020202020302E303030302043202020302020302020302020302020302020302020302020302020302020302020302020300A20202020302E383235302020202D302E3030303020202020302E303030302043202020302020302020302020302020302020302020302020302020302020302020302020300A20202020302E343132352020202D302E3731343520202020302E303030302043202020302020302020302020302020302020302020302020302020302020302020302020300A2020202D302E343132352020202D302E3731343520202020302E303030302043202020302020302020302020302020302020302020302020302020302020302020302020300A2020202D302E3832353020202020302E3030303020202020302E303030302043202020302020302020302020302020302020302020302020302020302020302020302020300A2020202D302E3431323520202020302E3731343520202020302E303030302043202020302020302020302020302020302020302020302020302020302020302020302020300A20202020302E3431323520202020302E3731343520202020302E303030302043202020302020302020302020302020302020302020302020302020302020302020302020300A20202020322E3036323520202020302E3731343520202020302E30303030204F202020302020302020302020302020302020302020302020302020302020302020302020300A2020202D312E3635303020202020302E3030303020202020302E30303030204E202020302020332020302020302020302020302020302020302020302020302020302020300A2020202D322E303632352020202D302E3731343520202020302E30303030204F202020302020302020302020302020302020302020302020302020302020302020302020300A2020202D322E3036323520202020302E3731343520202020302E30303030204F202020302020352020302020302020302020302020302020302020302020302020302020300A2020312020322020312020302020202020200A2020322020332020312020302020202020200A2020332020342020322020302020202020200A2020342020352020312020302020202020200A2020352020362020322020302020202020200A2020362020372020312020302020202020200A2020322020372020322020302020202020200A2020312020382020312020302020202020200A2020392031302020322020302020202020200A2020392031312020312020302020202020200A2020352020392020312020302020202020200A4D202043484720203220202039202020312020313120202D310A4D2020454E44
Contributor: FUJISE Y, HAMAMATSU UNIV. SCHOOL OF MEDICINE
InstType: EI
InstName: JEOL JMS-DX-300
IoniMethod: _ENERGY 70 eV
IonPolarity: pos
Date: 2010-10-09 19:48:36+02:00
Num Peaks: 55
37 15 38 59 39 285 40 36 41 97 42 9 43 9 46 134 50 292 51 576 
52 166 53 160 55 49 61 17 62 77 63 238 64 63 65 74 66 73 67 77 
68 12 73 10 74 102 75 94 76 129 77 999 78 519 79 428 80 31 86 12 
87 13 89 485 90 68 91 24 92 29 94 82 95 30 104 21 105 151 106 215 
107 826 108 200 109 13 122 13 123 10 124 65 125 13 136 135 137 41 150 23 
151 23 152 48 153 484 154 44 155 12 
