Name: MassBank: JP010521
MW: 211
Formula: C10H17N3O2
Synonym: MassBank: JP010521
Synonym: 3-(5-TERT-BUTYL-3-ISOXAZOLYL)-1,1-DIMETHYLUREA
Structure: 332D28352D544552542D425554594C2D332D49534F58415A4F4C594C292D312C312D44494D455448594C555245412E6D6F6C0A20204368656D447261773032323231303130323632440A2031352031352020302020302020302020302020302020302020302020303939392056323030300A2020202D312E383336362020202D302E3336393520202020302E30303030204E202020302020302020302020302020302020302020302020302020302020302020302020300A2020202D312E3735303420202020302E3435313020202020302E303030302043202020302020302020302020302020302020302020302020302020302020302020302020300A2020202D322E3431373820202020302E3933353920202020302E30303030204F202020302020302020302020302020302020302020302020302020302020302020302020300A2020202D302E3939363720202020302E3738363520202020302E30303030204E202020302020302020302020302020302020302020302020302020302020302020302020300A2020202D322E353930332020202D302E3730353120202020302E303030302043202020302020302020302020302020302020302020302020302020302020302020302020300A2020202D312E313639322020202D302E3835343420202020302E303030302043202020302020302020302020302020302020302020302020302020302020302020302020300A20202020302E343535342020202D302E3737383320202020302E30303030204F202020302020302020302020302020302020302020302020302020302020302020302020300A2020202D302E333239332020202D302E3532333420202020302E30303030204E202020302020302020302020302020302020302020302020302020302020302020302020300A2020202D302E3332393320202020302E3330313620202020302E303030302043202020302020302020302020302020302020302020302020302020302020302020302020300A20202020302E3435353420202020302E3535363520202020302E303030302043202020302020302020302020302020302020302020302020302020302020302020302020300A20202020302E393430332020202D302E3131303920202020302E303030302043202020302020302020302020302020302020302020302020302020302020302020302020300A20202020312E373635332020202D302E3131303920202020302E303030302043202020302020302020302020302020302020302020302020302020302020302020302020300A20202020312E3736353320202020302E3731343120202020302E303030302043202020302020302020302020302020302020302020302020302020302020302020302020300A20202020322E353930332020202D302E3131303920202020302E303030302043202020302020302020302020302020302020302020302020302020302020302020302020300A20202020312E373635332020202D302E3933353920202020302E303030302043202020302020302020302020302020302020302020302020302020302020302020302020300A2020312020322020312020302020202020200A2020322020332020322020302020202020200A2020322020342020312020302020202020200A2020312020352020312020302020202020200A2020312020362020312020302020202020200A2020372020382020312020302020202020200A2020382020392020322020302020202020200A2020392031302020312020302020202020200A2031302031312020322020302020202020200A2020372031312020312020302020202020200A2031322031332020312020302020202020200A2031322031352020312020302020202020200A2031322031342020312020302020202020200A2031312031322020312020302020202020200A2020342020392020312020302020202020200A4D2020454E44
Contributor: NARA WOMEN'S UNIVERSITY
InstType: EI
InstName: HITACHI M-80
IoniMethod: _ENERGY 70 eV
IonPolarity: pos
Date: 2010-10-09 19:48:36+02:00
Num Peaks: 41
15 47 18 24 27 30 28 35 29 45 30 42 39 55 40 14 41 94 42 88 
43 44 44 219 45 125 53 15 55 14 56 24 57 57 67 42 68 39 69 12 
71 10 72 999 73 41 87 54 94 26 97 29 111 58 123 14 125 17 126 19 
127 13 139 17 140 107 141 12 151 29 154 163 155 12 167 125 168 14 211 214 
212 59 
