Name: MassBank: JP011040
MW: 286
Formula: C13H15ClO5
Synonym: MassBank: JP011040
Synonym: 4-ACETOXYMETHYL-6-CHLOROMETHYL-2,5-DIMETHOXYTROPONE
Structure: 342D414345544F58594D455448594C2D362D43484C4F524F4D455448594C2D322C352D44494D4554484F585954524F504F4E452E6D6F6C0A20204368656D447261773033323531303034313332440A2031392031392020302020302020302020302020302020302020302020303939392056323030300A2020202D312E383534362020202D312E3333383120202020302E30303030204F202020302020302020302020302020302020302020302020302020302020302020302020300A2020202D312E333832312020202D302E3635383420202020302E303030302043202020302020302020302020302020302020302020302020302020302020302020302020300A2020202D312E3739343620202020302E3035363120202020302E303030302043202020302020302020302020302020302020302020302020302020302020302020302020300A2020202D312E3438343820202020302E3832333320202020302E303030302043202020302020302020302020302020302020302020302020302020302020302020302020300A2020202D302E3639343620202020312E3036303620202020302E303030302043202020302020302020302020302020302020302020302020302020302020302020302020300A2020202D302E3031343920202020302E3538383120202020302E303030302043202020302020302020302020302020302020302020302020302020302020302020302020300A20202020302E303339302020202D302E3233323420202020302E303030302043202020302020302020302020302020302020302020302020302020302020302020302020300A2020202D302E353639392020202D302E3738393020202020302E303030302043202020302020302020302020302020302020302020302020302020302020302020302020300A2020202D302E3536353620202020312E3837353420202020302E30303030204F202020302020302020302020302020302020302020302020302020302020302020302020300A20202020302E3230343720202020322E3137313120202020302E303030302043202020302020302020302020302020302020302020302020302020302020302020302020300A2020202D302E333233382020202D312E3538373720202020302E30303030204F202020302020302020302020302020302020302020302020302020302020302020302020300A2020202D302E393037312020202D322E3137313120202020302E303030302043202020302020302020302020302020302020302020302020302020302020302020302020300A2020202D322E3034313420202020312E3433323320202020302E303030302043202020302020302020302020302020302020302020302020302020302020302020302020300A2020202D322E3834373020202020312E3235343720202020302E3030303020436C2020302020302020302020302020302020302020302020302020302020302020302020300A20202020302E3639393520202020312E3030303620202020302E303030302043202020302020302020302020302020302020302020302020302020302020302020302020300A20202020312E3431363320202020302E3538363720202020302E30303030204F202020302020302020302020302020302020302020302020302020302020302020302020300A20202020322E3132353020202020302E3939353920202020302E303030302043202020302020302020302020302020302020302020302020302020302020302020302020300A20202020322E3132353020202020312E3831323220202020302E30303030204F202020302020302020302020302020302020302020302020302020302020302020302020300A20202020322E3834373020202020302E3537393120202020302E303030302043202020302020302020302020302020302020302020302020302020302020302020302020300A2020312020322020322020302020202020200A2020322020332020312020302020202020200A2020332020342020322020302020202020200A2020342020352020312020302020202020200A2020352020362020322020302020202020200A2020362020372020312020302020202020200A2020372020382020322020302020202020200A2020322020382020312020302020202020200A2020392031302020312020302020202020200A2020352020392020312020302020202020200A2031312031322020312020302020202020200A2020382031312020312020302020202020200A2031332031342020312020302020202020200A2020342031332020312020302020202020200A2031372031382020322020302020202020200A2031372031392020312020302020202020200A2031362031372020312020302020202020200A2031352031362020312020302020202020200A2020362031352020312020302020202020200A4D2020454E44
Contributor: TAKESHITA H, INST. OF ADVANCED MATERIAL STUDY KYUSHU UNIV.
InstType: EI
InstName: JEOL JMS-01-SG-2
IoniMethod: _ENERGY 75 eV
IonPolarity: pos
Date: 2010-10-09 19:48:36+02:00
Num Peaks: 49
39 287 43 999 51 117 63 96 65 101 67 115 77 339 78 149 79 89 89 106 
91 250 105 116 121 263 133 120 135 234 137 170 149 163 151 319 161 191 162 688 
163 214 165 331 179 217 183 99 185 91 190 45 191 70 193 88 196 36 197 55 
198 54 199 89 201 76 208 32 209 35 211 95 213 60 215 193 216 119 217 77 
218 34 219 36 226 51 227 41 229 45 258 40 286 155 287 35 288 59 
