Name: N-PHTHALOYLGLYCINE
CAS: 4702-13-0
MW: 205
Formula: C10H7NO4
Synonym: MassBank: JP011884
Synonym: N-PHTHALOYLGLYCINE
Synonym: 1,3-DIOXO-2-ISOINDOLINEACETIC ACID
Structure: 4E2D50485448414C4F594C474C5943494E452E6D6F6C0A20204368656D447261773131313230393132303232440A2031352031362020302020302020302020302020302020302020302020303939392056323030300A20202020302E353533382020202D302E3631373520202020302E303030302043202020302020302020302020302020302020302020302020302020302020302020302020300A2020202D302E313939392020202D302E3238323020202020302E30303030204E202020302020302020302020302020302020302020302020302020302020302020302020300A2020202D302E3131333720202020302E3533383520202020302E303030302043202020302020302020302020302020302020302020302020302020302020302020302020300A20202020302E3639333320202020302E3731303020202020302E303030302043202020302020302020302020302020302020302020302020302020302020302020302020300A20202020312E3130353820202020312E3432343520202020302E303030302043202020302020302020302020302020302020302020302020302020302020302020302020300A20202020312E3933303820202020312E3432343520202020302E303030302043202020302020302020302020302020302020302020302020302020302020302020302020300A20202020322E3334333320202020302E3731303020202020302E303030302043202020302020302020302020302020302020302020302020302020302020302020302020300A20202020312E393330382020202D302E3030343420202020302E303030302043202020302020302020302020302020302020302020302020302020302020302020302020300A20202020312E313035382020202D302E3030343420202020302E303030302043202020302020302020302020302020302020302020302020302020302020302020302020300A2020202D312E363238382020202D302E3238323020202020302E303030302043202020302020302020302020302020302020302020302020302020302020302020302020300A2020202D302E393134342020202D302E3639343520202020302E303030302043202020302020302020302020302020302020302020302020302020302020302020302020300A2020202D312E3632383820202020302E3534333020202020302E30303030204F202020302020302020302020302020302020302020302020302020302020302020302020300A2020202D322E333433332020202D302E3639343520202020302E30303030204F202020302020302020302020302020302020302020302020302020302020302020302020300A2020202D302E3732363820202020312E3039303520202020302E30303030204F202020302020302020302020302020302020302020302020302020302020302020302020300A20202020302E373235332020202D312E3432343520202020302E30303030204F202020302020302020302020302020302020302020302020302020302020302020302020300A2020312020322020312020302020202020200A2020322020332020312020302020202020200A2020332020342020312020302020202020200A2020342020352020312020302020202020200A2020352020362020322020302020202020200A2020362020372020312020302020202020200A2020372020382020322020302020202020200A2020382020392020312020302020202020200A2020312020392020312020302020202020200A2020342020392020322020302020202020200A2031302031312020312020302020202020200A2031302031322020322020302020202020200A2031302031332020312020302020202020200A2020322031312020312020302020202020200A2020332031342020322020302020202020200A2020312031352020322020302020202020200A4D2020454E44
Contributor: YAMAMOTO M, DEP. CHEMISTRY, FAC. SCIENCE, NARA WOMEN'S UNIV.
InstType: EI
InstName: HITACHI M-2500
IoniMethod: _ENERGY 70 eV
IonPolarity: pos
Date: 2010-10-09 19:48:36+02:00
Num Peaks: 23
28 11 38 12 45 23 50 90 51 37 52 15 66 18 74 50 75 56 76 161 
77 138 78 15 102 12 104 147 105 65 117 17 130 16 132 34 133 107 160 999 
161 668 162 67 205 14 
