Name: TETRAETHOXYSILANE
MW: 208
Formula: C8H20O4Si
Synonym: MassBank: JP010345
Synonym: TETRAETHOXYSILANE
Structure: 54455452414554484F585953494C414E452E6D6F6C0A20204368656D447261773038313231303037313932440A2031332031322020302020302020302020302020302020302020302020303939392056323030300A20202020302E333136382020202D302E3039353720202020302E303030302053692020302020302020302020302020302020302020302020302020302020302020302020300A20202020302E3331363820202020302E3732393320202020302E30303030204F202020302020302020302020302020302020302020302020302020302020302020302020300A2020202D302E3339373720202020312E3134313820202020302E303030302043202020302020302020302020302020302020302020302020302020302020302020302020300A2020202D312E3131323220202020302E3732393320202020302E303030302043202020302020302020302020302020302020302020302020302020302020302020302020300A20202020312E313431382020202D302E3039353720202020302E30303030204F202020302020302020302020302020302020302020302020302020302020302020302020300A20202020312E3535343320202020302E3631383820202020302E303030302043202020302020302020302020302020302020302020302020302020302020302020302020300A20202020312E3134313820202020312E3333333220202020302E303030302043202020302020302020302020302020302020302020302020302020302020302020302020300A20202020302E333136382020202D302E3932303720202020302E30303030204F202020302020302020302020302020302020302020302020302020302020302020302020300A20202020312E303331332020202D312E3333333220202020302E303030302043202020302020302020302020302020302020302020302020302020302020302020302020300A20202020312E373435372020202D302E3932303720202020302E303030302043202020302020302020302020302020302020302020302020302020302020302020302020300A2020202D302E353038322020202D302E3039353720202020302E30303030204F202020302020302020302020302020302020302020302020302020302020302020302020300A2020202D302E393230372020202D302E3831303220202020302E303030302043202020302020302020302020302020302020302020302020302020302020302020302020300A2020202D312E373435372020202D302E3831303220202020302E303030302043202020302020302020302020302020302020302020302020302020302020302020302020300A2020332020342020312020302020202020200A2020322020332020312020302020202020200A2020312020322020312020302020202020200A2020362020372020312020302020202020200A2020352020362020312020302020202020200A2020312020352020312020302020202020200A2020392031302020312020302020202020200A2020382020392020312020302020202020200A2020312020382020312020302020202020200A2031322031332020312020302020202020200A2031312031322020312020302020202020200A2020312031312020312020302020202020200A4D2020454E44
Contributor: TAJIMA S, GUNMA COLLEGE OF TECHNOLOGY
InstType: EI
InstName: HITACHI M-80A
IoniMethod: _ENERGY 70 eV
IonPolarity: pos
Date: 2010-10-09 19:48:36+02:00
Num Peaks: 58
14 30 15 105 26 33 27 144 28 29 29 256 31 19 42 18 43 240 45 122 
47 10 58 62 61 22 62 84 63 188 64 13 73 23 75 22 77 35 79 360 
80 19 81 17 82 21 89 41 90 24 91 97 93 35 103 24 105 69 107 106 
117 12 118 15 119 250 120 25 121 50 123 36 133 26 135 174 136 18 137 27 
147 17 149 712 150 77 151 72 163 449 164 54 165 75 177 12 179 296 180 46 
181 21 193 999 194 132 195 50 207 84 208 255 209 55 210 15 
