Name: MassBank: JP010654
MW: 330
Formula: C20H26O4
Synonym: MassBank: JP010654
Synonym: (10E,14E)-6,7-EPOXY-6,10,14-TRIMETHYL-3-METHYLENE-3A,6,7,8,9,12,13,15A-OCTAHYDROCYCLOTETRADECA(B)FURAN-2(3H),5(4H)-DIONE
Structure: 283130452C313445292D362C372D45504F58592D362C31302C31342D5452494D455448594C2D332D4D455448594C454E452D33412C362C372C382C392C31322C31332C3135412D4F435441485944524F4359434C4F544554524144454341284229465552414E2D32283348292C35283448292D44494F4E452E6D6F6C0A20204368656D447261773130303630393135333132440A2032362032382020302020302020302020302020302020302020302020303939392056323030300A2020202D312E303333332020202D302E3239313720202020302E303030302043202020302020302020302020302020302020302020302020302020302020302020302020300A2020202D312E303333332020202D312E3131363720202020302E303030302043202020302020302020302020302020302020302020302020302020302020302020302020300A2020202D302E343439392020202D312E3730303020202020302E303030302043202020302020302020302020302020302020302020302020302020302020302020302020300A20202020302E393538342020202D312E3131363720202020302E303030302043202020302020302020302020302020302020302020302020302020302020302020302020300A20202020302E393538342020202D302E3239313720202020302E303030302043202020302020302020302020302020302020302020302020302020302020302020302020300A20202020302E3337353120202020302E3239313720202020302E303030302043202020302020302020302020302020302020302020302020302020302020302020302020300A2020202D302E3434393920202020302E3239313720202020302E303030302043202020302020302020302020302020302020302020302020302020302020302020302020300A20202020312E373833342020202D302E3239313720202020302E303030302043202020302020302020302020302020302020302020302020302020302020302020302020300A20202020322E3336363820202020302E3239313720202020302E303030302043202020302020302020302020302020302020302020302020302020302020302020302020300A20202020322E3336363820202020312E3131363720202020302E303030302043202020302020302020302020302020302020302020302020302020302020302020302020300A20202020312E3738333420202020312E3730303020202020302E303030302043202020302020302020302020302020302020302020302020302020302020302020302020300A20202020302E3935383420202020312E3730303020202020302E303030302043202020302020302020302020302020302020302020302020302020302020302020302020300A20202020302E3337353120202020312E3131363720202020302E303030302043202020302020302020302020302020302020302020302020302020302020302020302020300A2020202D312E383137362020202D302E3033383420202020302E30303030204F202020302020302020302020302020302020302020302020302020302020302020302020300A2020202D322E333032382020202D302E3730333720202020302E303030302043202020302020302020302020302020302020302020302020302020302020302020302020300A2020202D312E383137392020202D312E3337313620202020302E303030302043202020302020302020302020302020302020302020302020302020302020302020302020300A20202020312E363735332020202D302E3730343220202020302E30303030204F202020302020302020302020302020302020302020302020302020302020302020302020300A20202020322E3039393220202020322E3436323220202020302E303030302048202020302020302020302020302020302020302020302020302020302020302020302020300A2020202D302E3736353620202020312E3035333920202020302E303030302048202020302020302020302020302020302020302020302020302020302020302020302020300A20202020302E363930382020202D322E3436323220202020302E30303030204F202020302020302020302020302020302020302020302020302020302020302020302020300A20202020302E333735312020202D312E3730303020202020302E303030302043202020302020302020302020302020302020302020302020302020302020302020302020300A2020202D322E303732392020202D322E3135363220202020302E303030302043202020302020302020302020302020302020302020302020302020302020302020302020300A2020202D332E313237382020202D302E3730333720202020302E30303030204F202020302020302020302020302020302020302020302020302020302020302020302020300A20202020312E323635362020202D312E3737313620202020302E303030302043202020302020302020302020302020302020302020302020302020302020302020302020300A2020202D302E3230393320202020302E3837353720202020302E303030302043202020302020302020302020302020302020302020302020302020302020302020302020300A20202020332E3132373820202020312E3433323620202020302E303030302043202020302020302020302020302020302020302020302020302020302020302020302020300A2020312020322020312020302020202020200A2020322020332020312020302020202020200A2020332032312020312020302020202020200A2032312020342020312020302020202020200A2020342020352020312020302020202020200A2020362020372020322020302020202020200A2020372020312020312020302020202020200A2020352020382020312020302020202020200A2020382020392020312020302020202020200A2020392031302020312020302020202020200A2031302031312020322020302020202020200A2031312031322020312020302020202020200A2031322031332020312020302020202020200A2031332020362020312020302020202020200A2020312031342020312020302020202020200A2031342031352020312020302020202020200A2031352031362020312020302020202020200A2031362020322020312020302020202020200A2020342031372020312020302020202020200A2031372020352020312020302020202020200A2031312031382020312020302020202020200A2020372031392020312020302020202020200A2032302032312020322020302020202020200A2031362032322020322020302020202020200A2031352032332020322020302020202020200A2020342032342020312020302020202020200A2020362032352020312020302020202020200A2031302032362020312020302020202020200A4D202053545920203120202031205355500A4D2020534C4220203120202031202020310A4D202053414C20202031202031202032340A4D202053424C20202031202031202032360A4D2020534D5420202031204D650A4D2020534256202020312032362020202D362E3531353920202020352E303535330A4D202053545920203120202032205355500A4D2020534C4220203120202032202020320A4D202053414C20202032202031202032350A4D202053424C20202032202031202032370A4D2020534D5420202032204D650A4D2020534256202020322032372020202D372E3430373420202020362E323934320A4D202053545920203120202033205355500A4D2020534C4220203120202033202020330A4D202053414C20202033202031202032360A4D202053424C20202033202031202032380A4D2020534D5420202033204D650A4D2020534256202020332032382020202D362E3036323020202020362E303236310A4D2020454E44
Contributor: EGUCHI S, FAC. OF SCIENCE, HIROSHIMA UNIV.
InstType: EI
InstName: HITACHI
IoniMethod: _ENERGY 70 eV
IonPolarity: pos
Date: 2010-10-09 19:48:36+02:00
Num Peaks: 155
40 60 41 510 42 50 43 999 44 40 51 55 52 65 53 76 54 90 55 535 
56 40 57 6 65 60 66 50 67 390 68 41 69 195 70 30 71 125 72 3 
77 200 78 60 79 315 80 13 81 560 82 180 83 210 84 13 85 170 91 230 
92 83 93 39 94 140 95 420 96 115 97 10 98 40 99 50 103 40 105 27 
106 70 107 220 108 180 109 26 110 120 111 140 112 40 113 6 117 50 118 40 
119 170 120 9 121 190 122 90 123 150 124 5 125 40 131 60 132 40 133 16 
134 120 135 150 136 235 137 31 138 210 139 40 145 70 146 5 147 140 148 90 
149 140 150 15 151 130 152 50 153 45 159 7 160 50 161 80 162 120 163 10 
164 130 165 380 166 60 173 4 175 90 176 70 177 80 178 15 179 55 187 30 
189 40 190 3 191 70 192 40 193 40 200 1 201 35 202 30 203 50 204 3 
205 41 206 20 207 19 208 1 209 13 211 10 213 26 214 2 215 31 216 33 
217 39 218 3 219 51 220 30 221 23 222 1 223 13 227 17 228 21 229 3 
230 20 231 30 232 23 233 2 234 12 236 14 241 23 242 1 243 13 244 16 
245 23 246 1 247 20 248 11 249 17 251 1 255 10 256 12 257 10 258 1 
259 72 260 28 262 21 269 3 270 13 284 16 285 11 287 2 294 8 297 11 
312 29 313 2 315 10 330 40 331 16 
