Name: 2-BROMO-4-PENTAMETHYLDISILANYLTHIOPHENE
MW: 291
Formula: C9H17BrSSi2
Synonym: MassBank: JP011739
Synonym: 2-BROMO-4-PENTAMETHYLDISILANYLTHIOPHENE
Structure: 322D42524F4D4F2D342D50454E54414D455448594C444953494C414E594C5448494F5048454E452E6D6F6C0A20204368656D447261773132323130393232353332440A2031332031332020302020302020302020302020302020302020302020303939392056323030300A2020202D312E363632332020202D302E3337363320202020302E303030302043202020302020302020302020302020302020302020302020302020302020302020302020300A2020202D302E383737372020202D302E3633313220202020302E303030302043202020302020302020302020302020302020302020302020302020302020302020302020300A2020202D302E3339323820202020302E3033363220202020302E303030302043202020302020302020302020302020302020302020302020302020302020302020302020300A2020202D302E3837373720202020302E3730333720202020302E303030302043202020302020302020302020302020302020302020302020302020302020302020302020300A2020202D312E3636323320202020302E3434383720202020302E303030302053202020302020302020302020302020302020302020302020302020302020302020302020300A20202020302E3637393720202020302E3033363220202020302E303030302053692020302020302020302020302020302020302020302020302020302020302020302020300A20202020312E3530343720202020302E3033363220202020302E303030302053692020302020302020302020302020302020302020302020302020302020302020302020300A20202020302E3637393720202020302E3836313220202020302E303030302043202020302020302020302020302020302020302020302020302020302020302020302020300A20202020302E363739372020202D302E3738383820202020302E303030302043202020302020302020302020302020302020302020302020302020302020302020302020300A20202020312E353034372020202D302E3738383820202020302E303030302043202020302020302020302020302020302020302020302020302020302020302020302020300A20202020312E3530343720202020302E3836313220202020302E303030302043202020302020302020302020302020302020302020302020302020302020302020302020300A20202020322E3332393720202020302E3033363220202020302E303030302043202020302020302020302020302020302020302020302020302020302020302020302020300A2020202D322E333239372020202D302E3836313220202020302E303030302042722020302020302020302020302020302020302020302020302020302020302020302020300A2020312020322020322020302020202020200A2020322020332020312020302020202020200A2020332020342020322020302020202020200A2020342020352020312020302020202020200A2020312020352020312020302020202020200A2020362020372020312020302020202020200A2020362020382020312020302020202020200A2020362020392020312020302020202020200A2020372031302020312020302020202020200A2020372031312020312020302020202020200A2020372031322020312020302020202020200A2020332020362020312020302020202020200A2020312031332020312020302020202020200A4D2020454E44
Contributor: FAC. TECHNOLOGY, HIROSHIMA UNIV.
InstType: EI
InstName: SHIMADZU QP-1000
IoniMethod: _ENERGY 20 eV
IonPolarity: pos
Date: 2010-10-09 19:48:36+02:00
Num Peaks: 67
39 52 43 464 45 651 50 12 51 12 53 87 55 88 57 43 58 65 59 63 
60 12 61 12 63 19 65 19 66 16 67 38 69 48 70 17 71 24 73 999 
74 91 75 96 77 24 79 17 81 27 82 19 83 167 85 36 90 13 91 12 
93 18 95 25 96 18 97 33 99 13 107 39 109 59 111 26 114 20 115 117 
117 12 123 27 125 89 131 147 132 26 133 14 137 140 138 12 139 152 140 34 
141 20 155 14 163 15 197 10 213 127 214 27 215 18 219 58 221 61 229 10 
277 104 278 20 279 111 280 21 281 15 292 11 294 12 
