Name: MassBank: JP010247
MW: 266
Formula: C14H18O5
Synonym: MassBank: JP010247
Synonym: DIMETHYL (3R*,3AS*,5S*,6S*)-3-METHYL-2,3,3A,4,5,6-HEXAHYDROINDEN-1(H)-ONE-5,6-DICARBOXYLATE
Structure: 303834395F44494D455448594C202833527E2C3341537E2C35537E2C36537E292D332D4D455448594C2D322C332C33412C342C352C362D48455841485944524F494E44454E2D312848292D4F4E452D352C362D4449434152424F58594C4154452E6D6F6C0A20204368656D447261773130323031303138313632440A2032302032312020302020302020302020302020302020302020302020303939392056323030300A2020202D302E3636373420202020312E3537383820202020302E303030302043202020302020302020302020302020302020302020302020302020302020302020302020300A2020202D302E3030303020202020322E3036333720202020302E303030302043202020302020302020302020302020302020302020302020302020302020302020302020300A20202020302E3636373420202020312E3537383820202020302E303030302043202020302020302020302020302020302020302020302020302020302020302020302020300A20202020302E3431323520202020302E3739343220202020302E303030302043202020302020302020302020302020302020302020302020302020302020302020302020300A20202020302E3832353020202020302E3037393720202020302E303030302043202020302020302020302020302020302020302020302020302020302020302020302020300A20202020302E343132352020202D302E3633343820202020302E303030302043202020302020302020302020302020302020302020302020302020302020302020302020300A2020202D302E343132352020202D302E3633343820202020302E303030302043202020302020302020302020302020302020302020302020302020302020302020302020300A2020202D302E3832353020202020302E3037393720202020302E303030302043202020302020302020302020302020302020302020302020302020302020302020302020300A2020202D302E3431323520202020302E3739343220202020302E303030302043202020302020302020302020302020302020302020302020302020302020302020302020300A2020202D312E3435323120202020312E3833333720202020302E30303030204F202020302020302020302020302020302020302020302020302020302020302020302020300A20202020302E383235302020202D312E3334393220202020302E303030302043202020302020302020302020302020302020302020302020302020302020302020302020300A20202020302E343132352020202D322E3036333720202020302E30303030204F202020302020302020302020302020302020302020302020302020302020302020302020300A20202020312E363530302020202D312E3334393220202020302E30303030204F202020302020302020302020302020302020302020302020302020302020302020302020300A2020202D302E383235302020202D312E3334393220202020302E303030302043202020302020302020302020302020302020302020302020302020302020302020302020300A2020202D302E343132352020202D322E3036333720202020302E30303030204F202020302020302020302020302020302020302020302020302020302020302020302020300A2020202D312E363530302020202D312E3334393220202020302E30303030204F202020302020302020302020302020302020302020302020302020302020302020302020300A20202020312E3435323120202020312E3833333720202020302E303030302043202020302020302020302020302020302020302020302020302020302020302020302020300A20202020322E303632352020202D302E3633343820202020302E303030302043202020302020302020302020302020302020302020302020302020302020302020302020300A2020202D322E303632352020202D302E3633343820202020302E303030302043202020302020302020302020302020302020302020302020302020302020302020302020300A20202020312E3233333020202020302E3838303420202020302E303030302048202020302020302020302020302020302020302020302020302020302020302020302020300A2020312020322020312020302020202020200A2020322020332020312020302020202020200A2020332020342020312020302020202020200A2020342020352020312020302020202020200A2020352020362020312020302020202020200A2020362020372020312020302020202020200A2020372020382020312020302020202020200A2020382020392020322020302020202020200A2020312020392020312020302020202020200A2020342020392020312020302020202020200A2020312031302020322020302020202020200A2031312031322020322020302020202020200A2031312031332020312020302020202020200A2020362031312020312020362020202020200A2031342031352020322020302020202020200A2031342031362020312020302020202020200A2020372031342020312020312020202020200A2020332031372020312020312020202020200A2031332031382020312020302020202020200A2031362031392020312020302020202020200A2020342032302020312020312020202020200A4D2020454E44
Contributor: KANEMASA S, INST. OF ADVANCED MATERIAL STUDY KYUSHU UNIV.
InstType: EI
InstName: JEOL JMS-01-SG-2
IoniMethod: _ENERGY 75 eV
IonPolarity: pos
Date: 2010-10-09 19:48:36+02:00
Num Peaks: 49
38 171 40 234 41 114 42 72 51 122 52 92 53 67 55 66 59 999 63 48 
65 106 66 63 69 54 76 43 77 469 78 380 79 193 91 353 92 63 93 113 
94 41 103 111 104 59 105 586 106 132 115 45 119 117 131 68 133 70 136 78 
137 66 145 15 147 25 148 271 149 52 150 46 163 45 164 79 165 54 166 15 
175 15 177 14 191 24 206 134 207 61 234 46 235 29 266 30 267 14 
