Name: MassBank: JP011967
MW: 332
Formula: C20H36Si2
Synonym: MassBank: JP011967
Synonym: 5-BUTYL-1,1,4,4-TETRAETHYL-2,3-BENZO-1,4-DISILACYCLOHEX-2-ENE
Structure: 352D425554594C2D312C312C342C342D5445545241455448594C2D322C332D42454E5A4F2D312C342D444953494C414359434C4F4845582D322D454E452E6D6F6C0A20204368656D447261773034323331303034333032440A2032322032332020302020302020302020302020302020302020302020303939392056323030300A20202020302E373134352020202D302E3832353020202020302E303030302053692020302020302020302020302020302020302020302020302020302020302020302020300A20202020312E343238392020202D302E3431323520202020302E303030302043202020302020302020302020302020302020302020302020302020302020302020302020300A20202020312E3432383920202020302E3431323520202020302E303030302043202020302020302020302020302020302020302020302020302020302020302020302020300A20202020302E3731343520202020302E3832353020202020302E303030302053692020302020302020302020302020302020302020302020302020302020302020302020300A2020202D302E3030303020202020302E3431323520202020302E303030302043202020302020302020302020302020302020302020302020302020302020302020302020300A2020202D302E303030302020202D302E3431323520202020302E303030302043202020302020302020302020302020302020302020302020302020302020302020302020300A20202020322E3134333420202020302E3832353020202020302E303030302043202020302020302020302020302020302020302020302020302020302020302020302020300A20202020322E3835373920202020302E3431323520202020302E303030302043202020302020302020302020302020302020302020302020302020302020302020302020300A20202020322E383537392020202D302E3431323520202020302E303030302043202020302020302020302020302020302020302020302020302020302020302020302020300A20202020322E313433342020202D302E3832353020202020302E303030302043202020302020302020302020302020302020302020302020302020302020302020302020300A20202020302E3138343220202020312E3435373020202020302E303030302043202020302020302020302020302020302020302020302020302020302020302020302020300A20202020312E3234343820202020312E3435373020202020302E303030302043202020302020302020302020302020302020302020302020302020302020302020302020300A20202020302E3936323620202020322E3233323220202020302E303030302043202020302020302020302020302020302020302020302020302020302020302020302020300A20202020312E323434382020202D312E3435373020202020302E303030302043202020302020302020302020302020302020302020302020302020302020302020302020300A20202020302E393632362020202D322E3233323220202020302E303030302043202020302020302020302020302020302020302020302020302020302020302020302020300A20202020302E313834322020202D312E3435373020202020302E303030302043202020302020302020302020302020302020302020302020302020302020302020302020300A20202020302E343636332020202D322E3233323220202020302E303030302043202020302020302020302020302020302020302020302020302020302020302020302020300A2020202D302E3731343520202020302E3832353020202020302E303030302043202020302020302020302020302020302020302020302020302020302020302020302020300A2020202D312E3432383920202020302E3431323520202020302E303030302043202020302020302020302020302020302020302020302020302020302020302020302020300A2020202D322E3134333420202020302E3832353020202020302E303030302043202020302020302020302020302020302020302020302020302020302020302020302020300A2020202D322E3835373920202020302E3431323520202020302E303030302043202020302020302020302020302020302020302020302020302020302020302020302020300A20202020302E3436363320202020322E3233323220202020302E303030302043202020302020302020302020302020302020302020302020302020302020302020302020300A2020312020322020312020302020202020200A2020322020332020312020302020202020200A2020332020342020312020302020202020200A2020342020352020312020302020202020200A2020352020362020312020302020202020200A2020312020362020312020302020202020200A2020372020382020312020302020202020200A2020382020392020322020302020202020200A2020392031302020312020302020202020200A2020322031302020322020302020202020200A2020332020372020322020302020202020200A2020342031312020312020312020202020200A2031322031332020312020302020202020200A2020342031322020312020362020202020200A2031342031352020312020302020202020200A2020312031342020312020312020202020200A2031362031372020312020302020202020200A2020312031362020312020362020202020200A2020352031382020312020302020202020200A2031382031392020312020302020202020200A2031392032302020312020302020202020200A2032302032312020312020302020202020200A2031312032322020312020302020202020200A4D2020454E44
Contributor: ISHIKAWA M, HIROSHIMA UNIV. FAC. TEQUNOLOGY
InstType: EI
InstName: SHIMADZU QP-1000
IoniMethod: _ENERGY 70 eV
IonPolarity: pos
Date: 2010-10-09 19:48:36+02:00
Num Peaks: 69
54 32 56 63 57 11 58 95 59 32 60 379 61 21 67 11 68 32 69 32 
71 21 73 42 74 84 81 95 82 53 83 11 85 11 87 84 88 189 89 11 
95 53 96 95 102 95 103 11 105 74 107 53 109 32 110 63 124 11 131 84 
132 11 133 74 134 11 135 84 137 32 145 53 147 63 148 11 149 274 150 32 
151 11 159 53 161 63 162 21 163 84 164 11 175 21 177 147 178 21 189 11 
191 32 205 442 206 84 207 32 219 63 220 11 233 999 234 253 235 95 247 63 
248 11 249 11 275 21 303 737 304 232 305 74 332 200 333 53 334 21 
