Name: MassBank: JP010581
MW: 161
Formula: C10H11NO
Synonym: MassBank: JP010581
Synonym: 2,5,6-TRIMETHYLBENZOXAZOLE
Structure: 322C352C362D5452494D455448594C42454E5A4F58415A4F4C452E6D6F6C0A20204368656D447261773132323130393030323032440A2031322031332020302020302020302020302020302020302020302020303939392056323030300A2020202D302E383039312020202D302E3636373420202020302E30303030204F202020302020302020302020302020302020302020302020302020302020302020302020300A2020202D312E3239343020202020302E3030303020202020302E303030302043202020302020302020302020302020302020302020302020302020302020302020302020300A2020202D302E3830393120202020302E3636373420202020302E30303030204E202020302020302020302020302020302020302020302020302020302020302020302020300A2020202D302E3032343420202020302E3431323520202020302E303030302043202020302020302020302020302020302020302020302020302020302020302020302020300A2020202D302E303234342020202D302E3431323520202020302E303030302043202020302020302020302020302020302020302020302020302020302020302020302020300A20202020302E3639303020202020302E3832353020202020302E303030302043202020302020302020302020302020302020302020302020302020302020302020302020300A20202020312E3430343520202020302E3431323520202020302E303030302043202020302020302020302020302020302020302020302020302020302020302020302020300A20202020312E343034352020202D302E3431323520202020302E303030302043202020302020302020302020302020302020302020302020302020302020302020302020300A20202020302E363930302020202D302E3832353020202020302E303030302043202020302020302020302020302020302020302020302020302020302020302020302020300A20202020322E313139302020202D302E3832353020202020302E303030302043202020302020302020302020302020302020302020302020302020302020302020302020300A20202020322E3131393020202020302E3832353020202020302E303030302043202020302020302020302020302020302020302020302020302020302020302020302020300A2020202D322E3131393020202020302E3030303020202020302E303030302043202020302020302020302020302020302020302020302020302020302020302020302020300A2020312020322020312020302020202020200A2020322020332020322020302020202020200A2020332020342020312020302020202020200A2020342020352020312020302020202020200A2020312020352020312020302020202020200A2020362020372020312020302020202020200A2020372020382020322020302020202020200A2020382020392020312020302020202020200A2020352020392020322020302020202020200A2020342020362020322020302020202020200A2020382031302020312020302020202020200A2020372031312020312020302020202020200A2020322031322020312020302020202020200A4D2020454E44
Contributor: NARA WOMEN'S UNIVERSITY
InstType: EI
InstName: HITACHI M-80
IoniMethod: _ENERGY 70 eV
IonPolarity: pos
Date: 2010-10-09 19:48:36+02:00
Num Peaks: 39
15 17 27 39 38 25 39 121 40 27 41 40 42 41 43 25 50 45 51 104 
52 46 53 32 62 20 63 67 64 34 65 150 66 33 74 10 75 14 76 15 
77 52 78 13 81 19 89 47 90 27 91 368 92 250 93 21 105 16 118 41 
119 46 120 63 132 40 146 468 147 48 159 17 160 443 161 999 162 124 
