Name: PARA-AMINOPHENOL
MW: 109
Formula: C6H7NO
Synonym: MassBank: JP011263
Synonym: PARA-AMINOPHENOL
Synonym: 4-AMINOPHENOL
Structure: 310A32310A504152412D414D494E4F5048454E4F4C2E6D6F6C0A20204368656D447261773033323531303035313632440A2020382020382020302020302020302020302020302020302020302020303939392056323030300A2020202D302E383235302020202D302E3030303020202020302E303030302043202020302020302020302020302020302020302020302020302020302020302020302020300A2020202D302E3431323520202020302E3731343520202020302E303030302043202020302020302020302020302020302020302020302020302020302020302020302020300A20202020302E3431323520202020302E3731343520202020302E303030302043202020302020302020302020302020302020302020302020302020302020302020302020300A20202020302E383235302020202D302E3030303020202020302E303030302043202020302020302020302020302020302020302020302020302020302020302020302020300A20202020302E343132352020202D302E3731343520202020302E303030302043202020302020302020302020302020302020302020302020302020302020302020302020300A2020202D302E343132352020202D302E3731343520202020302E303030302043202020302020302020302020302020302020302020302020302020302020302020302020300A20202020312E363530302020202D302E3030303020202020302E30303030204E202020302020302020302020302020302020302020302020302020302020302020302020300A2020202D312E363530302020202D302E3030303020202020302E30303030204F202020302020302020302020302020302020302020302020302020302020302020302020300A2020312020322020312020302020202020200A2020322020332020322020302020202020200A2020332020342020312020302020202020200A2020342020352020322020302020202020200A2020352020362020312020302020202020200A2020312020362020322020302020202020200A2020342020372020312020302020202020200A2020312020382020312020302020202020200A4D2020454E44
Contributor: TAJIMA S, GUNMA COLLEGE OF TECHNOLOGY
InstType: EI
InstName: HITACHI M-80A
IoniMethod: _ENERGY 70 eV
IonPolarity: pos
Date: 2010-10-09 19:48:36+02:00
Num Peaks: 37
25 13 26 84 27 183 28 179 29 186 30 27 37 30 38 60 39 145 40 44 
41 94 42 42 49 12 50 42 51 72 52 224 53 289 54 169 55 82 56 13 
61 18 62 26 63 55 64 38 65 42 66 19 67 10 68 25 78 14 79 14 
80 584 81 140 82 43 91 10 108 108 109 999 110 106 
