Name: MassBank: JP010964
MW: 242
Formula: C9H7Cl2N3O
Synonym: MassBank: JP010964
Synonym: 2-AMINO-4,6-DICHLORO-7-METHOXY-1,3-DIAZAAZULENE
Structure: 322D414D494E4F2D342C362D444943484C4F524F2D372D4D4554484F58592D312C332D4449415A41415A554C454E452E6D6F6C0A20204368656D447261773132323130393232313832440A2031352031362020302020302020302020302020302020302020302020303939392056323030300A2020202D302E393538372020202D312E3330363320202020302E30303030204E202020302020302020302020302020302020302020302020302020302020302020302020300A2020202D312E373132342020202D302E3937303820202020302E303030302043202020302020302020302020302020302020302020302020302020302020302020302020300A2020202D312E363236322020202D302E3135303320202020302E30303030204E202020302020302020302020302020302020302020302020302020302020302020302020300A2020202D302E3831393220202020302E3032313220202020302E303030302043202020302020302020302020302020302020302020302020302020302020302020302020300A2020202D302E3530363720202020302E3739393920202020302E303030302043202020302020302020302020302020302020302020302020302020302020302020302020300A20202020302E3237303620202020312E3033323420202020302E303030302043202020302020302020302020302020302020302020302020302020302020302020302020300A20202020302E3935323220202020302E3536373620202020302E303030302043202020302020302020302020302020302020302020302020302020302020302020302020300A20202020312E303033322020202D302E3234333920202020302E303030302043202020302020302020302020302020302020302020302020302020302020302020302020300A20202020302E343139382020202D302E3832373320202020302E303030302043202020302020302020302020302020302020302020302020302020302020302020302020300A2020202D302E343036372020202D302E3639333220202020302E303030302043202020302020302020302020302020302020302020302020302020302020302020302020300A20202020312E373831382020202D302E3535363520202020302E30303030204F202020302020302020302020302020302020302020302020302020302020302020302020300A20202020322E343236392020202D302E3034323120202020302E303030302043202020302020302020302020302020302020302020302020302020302020302020302020300A20202020312E3636363720202020302E3938303120202020302E3030303020436C2020302020302020302020302020302020302020302020302020302020302020302020300A2020202D312E3039303020202020312E3338333320202020302E3030303020436C2020302020302020302020302020302020302020302020302020302020302020302020300A2020202D322E343236392020202D312E3338333320202020302E30303030204E202020302020302020302020302020302020302020302020302020302020302020302020300A2020312020322020312020302020202020200A2020322020332020322020302020202020200A2020332020342020312020302020202020200A2020342020352020322020302020202020200A2020352020362020312020302020202020200A2020362020372020322020302020202020200A2020372020382020312020302020202020200A2020382020392020322020302020202020200A2020392031302020312020302020202020200A2020312031302020322020302020202020200A2020342031302020312020302020202020200A2031312031322020312020302020202020200A2020382031312020312020302020202020200A2020372031332020312020302020202020200A2020352031342020312020302020202020200A2020322031352020312020302020202020200A4D2020454E44
Contributor: TAKESHITA H, INST. OF ADVANCED MATERIAL STUDY KYUSHU UNIV.
InstType: EI
InstName: JEOL JMS-01-SG-2
IoniMethod: _ENERGY 75 eV
IonPolarity: pos
Date: 2010-10-09 19:48:36+02:00
Num Peaks: 29
15 146 28 135 47 101 76 75 83 217 85 139 87 78 88 227 98 111 100 78 
103 96 138 81 158 223 160 167 164 81 165 98 166 108 173 267 175 189 200 580 
201 89 202 377 216 207 218 120 243 999 244 121 245 648 246 75 247 114 
