Name: MassBank: JP010015
MW: 127
Formula: C7H13NO
Synonym: MassBank: JP010015
Synonym: 1,4-DIMETHYL-2-PIPERIDONE
Structure: 310A32330A312C342D44494D455448594C2D322D504950455249444F4E452E6D6F6C0A20204368656D447261773131313430393233303732440A2020392020392020302020302020302020302020302020302020302020303939392056323030300A20202020302E3335373220202020302E3832353020202020302E30303030204E202020302020302020302020302020302020302020302020302020302020302020302020300A2020202D302E3335373220202020302E3431323520202020302E303030302043202020302020302020302020302020302020302020302020302020302020302020302020300A2020202D302E333537322020202D302E3431323520202020302E303030302043202020302020302020302020302020302020302020302020302020302020302020302020300A20202020302E333537322020202D302E3832353020202020302E303030302043202020302020302020302020302020302020302020302020302020302020302020302020300A20202020312E303731372020202D302E3431323520202020302E303030302043202020302020302020302020302020302020302020302020302020302020302020302020300A20202020312E3037313720202020302E3431323520202020302E303030302043202020302020302020302020302020302020302020302020302020302020302020302020300A2020202D312E3037313720202020302E3832353020202020302E30303030204F202020302020302020302020302020302020302020302020302020302020302020302020300A20202020302E333537322020202D312E3635303020202020302E303030302043202020302020302020302020302020302020302020302020302020302020302020302020300A20202020302E3335373220202020312E3635303020202020302E303030302043202020302020302020302020302020302020302020302020302020302020302020302020300A2020312020322020312020302020202020200A2020322020332020312020302020202020200A2020332020342020312020302020202020200A2020342020352020312020302020202020200A2020352020362020312020302020202020200A2020312020362020312020302020202020200A2020322020372020322020302020202020200A2020342020382020312020302020202020200A2020312020392020312020302020202020200A4D2020454E44
Contributor: KURARAY CO., LTD.
InstType: EI
InstName: JEOL JMS-D-300
IoniMethod: _ENERGY 70 eV
IonPolarity: pos
Date: 2010-10-09 19:48:36+02:00
Num Peaks: 27
27 76 28 54 29 62 30 3 32 14 39 86 41 186 42 37 43 205 44 999 
45 40 55 11 56 220 57 234 58 55 69 22 70 23 71 104 72 44 84 11 
85 64 98 19 99 29 112 3 126 206 127 660 128 52 
