Name: MassBank: JP010709
MW: 290
Formula: C16H18O5
Synonym: MassBank: JP010709
Synonym: (2Z)-2-(2,4-HEXADIYNYLIDENE)-3-ACETOXY-4-HYDROXY-1,6-DIOXASPIRO(4,5)DECANE
Structure: 28325A292D322D28322C342D484558414449594E594C4944454E45292D332D414345544F58592D342D485944524F58592D312C362D44494F5841535049524F28342C3529444543414E452E6D6F6C0A20204368656D447261773130323030393232353332440A2032322032332020302020302020302020302020302020302020302020303939392056323030300A2020202D322E3338323820202020312E3637353820202020302E303030302043202020302020302020302020302020302020302020302020302020302020302020302020300A2020202D312E3937303320202020322E3339303320202020302E303030302043202020302020302020302020302020302020302020302020302020302020302020302020300A2020202D312E3134363220202020322E3339303320202020302E303030302043202020302020302020302020302020302020302020302020302020302020302020302020300A2020202D302E3733333420202020312E3637353420202020302E303030302043202020302020302020302020302020302020302020302020302020302020302020302020300A2020202D312E3134353920202020302E3936313020202020302E30303030204F202020302020302020302020302020302020302020302020302020302020302020302020300A2020202D312E3937303320202020302E3936313020202020302E303030302043202020302020302020302020302020302020302020302020302020302020302020302020300A2020202D302E3234373420202020322E3334323720202020302E303030302043202020302020302020302020302020302020302020302020302020302020302020302020300A20202020302E3533343520202020322E3039323720202020302E303030302043202020302020302020302020302020302020302020302020302020302020302020302020300A20202020302E3533343520202020312E3236333420202020302E303030302043202020302020302020302020302020302020302020302020302020302020302020302020300A2020202D302E3234353820202020312E3030393020202020302E30303030204F202020302020302020302020302020302020302020302020302020302020302020302020300A20202020312E3131363820202020322E3637343920202020302E30303030204F202020302020302020302020302020302020302020302020302020302020302020302020300A2020202D302E3530343320202020332E3132363620202020302E30303030204F202020302020302020302020302020302020302020302020302020302020302020302020300A20202020312E3230363120202020302E3738313120202020302E303030302043202020302020302020302020302020302020302020302020302020302020302020302020300A20202020312E3935383420202020312E3131393720202020302E303030302048202020302020302020302020302020302020302020302020302020302020302020302020300A20202020312E313233312020202D302E3033393720202020302E303030302043202020302020302020302020302020302020302020302020302020302020302020302020300A20202020312E303430322020202D302E3836303520202020302E303030302043202020302020302020302020302020302020302020302020302020302020302020302020300A20202020302E393537322020202D312E3638313320202020302E303030302043202020302020302020302020302020302020302020302020302020302020302020302020300A20202020302E383734322020202D322E3530323020202020302E303030302043202020302020302020302020302020302020302020302020302020302020302020302020300A20202020302E373931322020202D332E3332323920202020302E303030302043202020302020302020302020302020302020302020302020302020302020302020302020300A20202020312E3932353320202020322E3633363320202020302E303030302043202020302020302020302020302020302020302020302020302020302020302020302020300A20202020322E3338323820202020332E3332323920202020302E30303030204F202020302020302020302020302020302020302020302020302020302020302020302020300A20202020322E3239313120202020312E3839373020202020302E303030302043202020302020302020302020302020302020302020302020302020302020302020302020300A2020312020322020312020302020202020200A2020322020332020312020302020202020200A2020332020342020312020302020202020200A2020342020352020312020302020202020200A2020352020362020312020302020202020200A2020362020312020312020302020202020200A2020342020372020312020302020202020200A2020372020382020312020302020202020200A2020382020392020312020302020202020200A2020392031302020312020302020202020200A2031302020342020312020302020202020200A2020382031312020312020302020202020200A2020372031322020312020302020202020200A2020392031332020322020302020202020200A2031332031342020312020302020202020200A2031332031352020312020302020202020200A2031352031362020332020302020202020200A2031362031372020312020302020202020200A2031372031382020332020302020202020200A2031382031392020312020302020202020200A2031312032302020312020302020202020200A2032302032312020322020302020202020200A2032302032322020312020302020202020200A4D2020454E44
Contributor: EGUCHI S, FAC. OF SCIENCE, HIROSHIMA UNIV.
InstType: EI
InstName: HITACHI RMU-6L
IoniMethod: _ENERGY 70 eV
IonPolarity: pos
Date: 2010-10-09 19:48:36+02:00
Num Peaks: 151
41 330 42 80 43 999 44 7 45 110 46 50 47 180 48 16 49 210 50 130 
51 120 52 5 53 70 54 50 55 280 56 9 57 210 58 90 59 60 60 13 
61 50 62 60 63 110 64 6 65 70 66 70 67 170 68 6 69 110 70 50 
71 260 72 5 73 160 74 60 75 100 76 24 77 180 78 90 79 90 80 5 
81 90 82 70 83 550 84 16 85 310 86 120 87 70 88 4 89 70 90 90 
91 90 92 6 93 50 94 40 95 100 96 4 97 90 98 60 99 40 100 4 
101 170 102 60 103 60 104 10 105 70 106 50 107 60 108 5 109 50 110 30 
111 60 112 3 113 640 114 140 115 70 116 4 117 130 118 80 119 110 121 5 
125 90 126 310 127 160 128 7 129 60 130 40 131 70 132 5 133 50 134 30 
135 30 136 60 137 70 141 50 143 90 144 6 145 90 146 70 147 50 148 5 
149 100 153 50 155 40 156 4 157 50 158 40 159 70 160 7 161 70 162 30 
163 30 164 3 165 30 166 30 167 30 168 7 169 50 171 50 172 70 173 9 
174 70 175 40 177 33 178 42 179 70 183 40 184 50 185 9 186 50 187 90 
188 40 201 9 202 90 203 40 211 30 212 6 213 50 214 30 215 30 220 4 
229 50 230 280 231 90 232 3 247 30 248 50 272 30 273 2 290 570 291 140 
292 30 
