Name: PHENYL(1-PHENYLETHYL)BIS(TRIMETHYLSILYL)SILANE
MW: 356
Formula: C20H32Si3
Synonym: MassBank: JP011682
Synonym: PHENYL(1-PHENYLETHYL)BIS(TRIMETHYLSILYL)SILANE
Structure: 5048454E594C28312D5048454E594C455448594C29424953285452494D455448594C53494C594C2953494C414E452E6D6F6C0A20204368656D447261773038313231303035323432440A2032332032342020302020302020302020302020302020302020302020303939392056323030300A20202020302E353537372020202D302E3130333820202020302E303030302053692020302020302020302020302020302020302020302020302020302020302020302020300A20202020312E3231373720202020312E3033393320202020302E303030302053692020302020302020302020302020302020302020302020302020302020302020302020300A20202020302E3530333220202020312E3435313820202020302E303030302043202020302020302020302020302020302020302020302020302020302020302020302020300A20202020312E3633303220202020312E3735333820202020302E303030302043202020302020302020302020302020302020302020302020302020302020302020302020300A20202020312E3933323120202020302E3632363820202020302E303030302043202020302020302020302020302020302020302020302020302020302020302020302020300A2020202D302E3337313120202020302E3433323420202020302E303030302053692020302020302020302020302020302020302020302020302020302020302020302020300A2020202D302E373431342020202D302E3330343820202020302E303030302043202020302020302020302020302020302020302020302020302020302020302020302020300A2020202D312E3132383720202020302E3735393220202020302E303030302043202020302020302020302020302020302020302020302020302020302020302020302020300A2020202D302E3038393020202020312E3230373720202020302E303030302043202020302020302020302020302020302020302020302020302020302020302020302020300A20202020302E303231342020202D312E3033323620202020302E303030302043202020302020302020302020302020302020302020302020302020302020302020302020300A20202020302E343333392020202D312E3734373120202020302E303030302043202020302020302020302020302020302020302020302020302020302020302020302020300A2020202D312E303531312020202D312E3033323620202020302E303030302043202020302020302020302020302020302020302020302020302020302020302020302020300A2020202D312E343633362020202D302E3331383220202020302E303030302043202020302020302020302020302020302020302020302020302020302020302020302020300A2020202D322E323838362020202D302E3331383220202020302E303030302043202020302020302020302020302020302020302020302020302020302020302020302020300A2020202D322E373031312020202D312E3033323620202020302E303030302043202020302020302020302020302020302020302020302020302020302020302020302020300A2020202D322E323838362020202D312E3734373120202020302E303030302043202020302020302020302020302020302020302020302020302020302020302020302020300A2020202D312E343633362020202D312E3734373120202020302E303030302043202020302020302020302020302020302020302020302020302020302020302020302020300A20202020312E323732312020202D302E3531363320202020302E303030302043202020302020302020302020302020302020302020302020302020302020302020302020300A20202020312E393836362020202D302E3130333820202020302E303030302043202020302020302020302020302020302020302020302020302020302020302020302020300A20202020322E373031312020202D302E3531363320202020302E303030302043202020302020302020302020302020302020302020302020302020302020302020302020300A20202020322E373031312020202D312E3334313320202020302E303030302043202020302020302020302020302020302020302020302020302020302020302020302020300A20202020312E393836362020202D312E3735333820202020302E303030302043202020302020302020302020302020302020302020302020302020302020302020302020300A20202020312E323732312020202D312E3334313320202020302E303030302043202020302020302020302020302020302020302020302020302020302020302020302020300A2020322020332020312020302020202020200A2020322020342020312020302020202020200A2020322020352020312020302020202020200A2020312020322020312020302020202020200A2020362020372020312020302020202020200A2020362020382020312020302020202020200A2020362020392020312020302020202020200A2020312020362020312020302020202020200A2031302031312020312020302020202020200A2031322031332020312020302020202020200A2031332031342020322020302020202020200A2031342031352020312020302020202020200A2031352031362020322020302020202020200A2031362031372020312020302020202020200A2031322031372020322020302020202020200A2031302031322020312020302020202020200A2020312031302020312020302020202020200A2031382031392020312020302020202020200A2031392032302020322020302020202020200A2032302032312020312020302020202020200A2032312032322020322020302020202020200A2032322032332020312020302020202020200A2031382032332020322020302020202020200A2020312031382020312020302020202020200A4D2020454E44
Contributor: FAC. TECHNOLOGY, HIROSHIMA UNIV.
InstType: EI
InstName: SHIMADZU QP-1000
IoniMethod: _ENERGY 70 eV
IonPolarity: pos
Date: 2010-10-09 19:48:36+02:00
Num Peaks: 50
51 14 53 35 55 21 57 35 58 14 59 197 69 21 73 999 74 70 75 28 
77 35 79 35 83 14 85 14 91 21 93 14 95 14 99 14 101 14 102 14 
103 21 105 218 106 21 107 63 109 14 115 14 119 21 121 113 122 14 131 63 
132 14 133 21 135 725 136 85 137 21 145 42 146 35 147 28 161 21 163 35 
175 14 177 85 179 28 191 56 193 21 206 86 207 20 251 68 252 21 356 25 
