Name: ORTHO-FLUOROANISOLE
MW: 126
Formula: C7H7FO
Synonym: MassBank: JP010457
Synonym: ORTHO-FLUOROANISOLE
Structure: 310A32330A4F5254484F2D464C554F524F414E49534F4C452E6D6F6C0A20204368656D447261773038313231303033333632440A2020392020392020302020302020302020302020302020302020302020303939392056323030300A2020202D312E343433382020202D312E3037313720202020302E303030302043202020302020302020302020302020302020302020302020302020302020302020302020300A2020202D312E303331322020202D302E3335373220202020302E30303030204F202020302020302020302020302020302020302020302020302020302020302020302020300A2020202D302E323036332020202D302E3335373220202020302E303030302043202020302020302020302020302020302020302020302020302020302020302020302020300A20202020302E3230363320202020302E3335373220202020302E303030302043202020302020302020302020302020302020302020302020302020302020302020302020300A20202020312E3033313220202020302E3335373220202020302E303030302043202020302020302020302020302020302020302020302020302020302020302020302020300A20202020312E343433382020202D302E3335373220202020302E303030302043202020302020302020302020302020302020302020302020302020302020302020302020300A20202020312E303331332020202D312E3037313720202020302E303030302043202020302020302020302020302020302020302020302020302020302020302020302020300A20202020302E323036322020202D312E3037313720202020302E303030302043202020302020302020302020302020302020302020302020302020302020302020302020300A2020202D302E3230363320202020312E3037313720202020302E303030302046202020302020302020302020302020302020302020302020302020302020302020302020300A2020312020322020312020302020202020200A2020322020332020312020302020202020200A2020332020342020312020302020202020200A2020342020352020322020302020202020200A2020352020362020312020302020202020200A2020362020372020322020302020202020200A2020372020382020312020302020202020200A2020332020382020322020302020202020200A2020342020392020312020302020202020200A4D2020454E44
Contributor: TAJIMA S, GUNMA COLLEGE OF TECHNOLOGY
InstType: EI
InstName: HITACHI M-80A
IoniMethod: _ENERGY 70 eV
IonPolarity: pos
Date: 2010-10-09 19:48:36+02:00
Num Peaks: 42
15 53 26 10 27 10 29 32 31 36 37 23 38 34 39 53 43 27 49 11 
50 59 51 42 53 12 56 29 57 219 58 15 61 21 62 28 63 63 64 21 
68 23 69 32 70 14 74 32 75 98 76 12 77 24 78 11 81 50 82 34 
83 725 84 42 92 14 94 13 95 71 96 83 97 64 111 458 112 33 125 13 
126 999 127 79 
