Name: MassBank: JP011738
MW: 340
Formula: C18H36SSi2
Synonym: MassBank: JP011738
Synonym: 2,5-BIS(N-HEXYLMETHYLSILYL)THIOPHENE
Structure: 322C352D424953284E2D484558594C4D455448594C53494C594C295448494F5048454E452E6D6F6C0A20204368656D447261773132323130393030323332440A2032312032312020302020302020302020302020302020302020302020303939392056323030300A20202020312E323738302020202D312E3035393120202020302E303030302043202020302020302020302020302020302020302020302020302020302020302020302020300A20202020312E323738302020202D312E3838343120202020302E303030302043202020302020302020302020302020302020302020302020302020302020302020302020300A20202020302E343933342020202D322E3133393020202020302E303030302043202020302020302020302020302020302020302020302020302020302020302020302020300A20202020302E303038352020202D312E3437313620202020302E303030302043202020302020302020302020302020302020302020302020302020302020302020302020300A20202020302E343933342020202D302E3830343120202020302E303030302053202020302020302020302020302020302020302020302020302020302020302020302020300A2020202D302E383136352020202D312E3437313620202020302E303030302053692020302020302020302020302020302020302020302020302020302020302020302020300A2020202D312E323239302020202D302E3735373120202020302E303030302043202020302020302020302020302020302020302020302020302020302020302020302020300A2020202D312E323239302020202D322E3138363020202020302E303030302043202020302020302020302020302020302020302020302020302020302020302020302020300A2020202D322E303534302020202D322E3138363020202020302E303030302043202020302020302020302020302020302020302020302020302020302020302020302020300A2020202D322E343636352020202D312E3437313620202020302E303030302043202020302020302020302020302020302020302020302020302020302020302020302020300A2020202D332E323931352020202D312E3437313620202020302E303030302043202020302020302020302020302020302020302020302020302020302020302020302020300A2020202D332E373034302020202D302E3735373120202020302E303030302043202020302020302020302020302020302020302020302020302020302020302020302020300A2020202D342E353239302020202D302E3735373120202020302E303030302043202020302020302020302020302020302020302020302020302020302020302020302020300A20202020312E393435352020202D302E3537343120202020302E303030302053692020302020302020302020302020302020302020302020302020302020302020302020300A20202020312E3835393220202020302E3234363320202020302E303030302043202020302020302020302020302020302020302020302020302020302020302020302020300A20202020322E363939322020202D302E3930393720202020302E303030302043202020302020302020302020302020302020302020302020302020302020302020302020300A20202020332E333636362020202D302E3432343820202020302E303030302043202020302020302020302020302020302020302020302020302020302020302020302020300A20202020332E3238303420202020302E3339353720202020302E303030302043202020302020302020302020302020302020302020302020302020302020302020302020300A20202020332E3934373820202020302E3838303620202020302E303030302043202020302020302020302020302020302020302020302020302020302020302020302020300A20202020332E3836313620202020312E3730313120202020302E303030302043202020302020302020302020302020302020302020302020302020302020302020302020300A20202020342E3532393020202020322E3138363020202020302E303030302043202020302020302020302020302020302020302020302020302020302020302020302020300A2020312020322020322020302020202020200A2020322020332020312020302020202020200A2020332020342020322020302020202020200A2020342020352020312020302020202020200A2020312020352020312020302020202020200A2020362020372020312020302020202020200A2020382020392020312020302020202020200A2020392031302020312020302020202020200A2031302031312020312020302020202020200A2031312031322020312020302020202020200A2031322031332020312020302020202020200A2020362020382020312020302020202020200A2020342020362020312020302020202020200A2031342031352020312020302020202020200A2031362031372020312020302020202020200A2031372031382020312020302020202020200A2031382031392020312020302020202020200A2031392032302020312020302020202020200A2032302032312020312020302020202020200A2031342031362020312020302020202020200A2020312031342020312020302020202020200A4D2020454E44
Contributor: FAC. TECHNOLOGY, HIROSHIMA UNIV.
InstType: EI
InstName: SHIMADZU QP-1000
IoniMethod: _ENERGY 70 eV
IonPolarity: pos
Date: 2010-10-09 19:48:36+02:00
Num Peaks: 85
53 84 55 205 56 38 57 91 58 85 59 662 60 56 61 38 67 76 68 37 
69 372 70 47 71 156 72 230 73 247 74 27 75 76 77 56 78 21 79 38 
81 82 82 39 83 288 84 62 85 370 86 90 87 50 91 26 92 63 93 110 
94 32 95 439 96 109 97 154 98 54 99 242 100 476 101 122 102 27 105 24 
107 36 108 27 109 147 110 44 111 240 112 37 114 33 115 21 118 21 119 28 
121 127 122 24 123 34 125 23 126 37 127 509 128 805 129 187 130 56 131 57 
133 42 141 25 144 232 145 120 146 45 147 42 155 37 156 23 157 136 158 39 
159 42 169 24 170 61 171 999 172 281 173 222 174 45 178 24 185 51 199 20 
211 59 212 74 213 28 255 54 340 22 
