Name: MassBank: JP010132
MW: 248
Formula: C16H24O2
Synonym: MassBank: JP010132
Synonym: 2,5-DIMETHYL-2-PHENYL-1,1-DIMETHOXY-4-HEXENE
Structure: 322C352D44494D455448594C2D322D5048454E594C2D312C312D44494D4554484F58592D342D484558454E452E6D6F6C0A20204368656D447261773132323130393031333232440A2031382031382020302020302020302020302020302020302020302020303939392056323030300A2020202D302E353439302020202D312E3233323420202020302E303030302043202020302020302020302020302020302020302020302020302020302020302020302020300A20202020302E313430342020202D302E3431303820202020302E303030302043202020302020302020302020302020302020302020302020302020302020302020302020300A20202020302E3734303520202020302E3135353320202020302E303030302043202020302020302020302020302020302020302020302020302020302020302020302020300A20202020302E3535303220202020302E3935383120202020302E303030302043202020302020302020302020302020302020302020302020302020302020302020302020300A20202020312E3135303320202020312E3532343320202020302E303030302043202020302020302020302020302020302020302020302020302020302020302020302020300A20202020302E3936303020202020322E3332373020202020302E303030302043202020302020302020302020302020302020302020302020302020302020302020302020300A2020202D312E333435392020202D312E3031383920202020302E30303030204F202020302020302020302020302020302020302020302020302020302020302020302020300A2020202D312E393239322020202D312E3630323220202020302E303030302043202020302020302020302020302020302020302020302020302020302020302020302020300A2020202D302E343035372020202D322E3034343920202020302E30303030204F202020302020302020302020302020302020302020302020302020302020302020302020300A20202020302E333639352020202D322E3332373020202020302E303030302043202020302020302020302020302020302020302020302020302020302020302020302020300A2020202D302E3532313420202020302E3038313920202020302E303030302043202020302020302020302020302020302020302020302020302020302020302020302020300A2020202D312E323738392020202D302E3234343920202020302E303030302043202020302020302020302020302020302020302020302020302020302020302020302020300A2020202D312E3934303620202020302E3234373720202020302E303030302043202020302020302020302020302020302020302020302020302020302020302020302020300A2020202D312E3834343920202020312E3036373220202020302E303030302043202020302020302020302020302020302020302020302020302020302020302020302020300A2020202D312E3038373320202020312E3339333920202020302E303030302043202020302020302020302020302020302020302020302020302020302020302020302020300A2020202D302E3432353620202020302E3930313320202020302E303030302043202020302020302020302020302020302020302020302020302020302020302020302020300A20202020312E3934303620202020312E3238373620202020302E303030302043202020302020302020302020302020302020302020302020302020302020302020302020300A20202020302E373430352020202D302E3937373020202020302E303030302043202020302020302020302020302020302020302020302020302020302020302020302020300A2020312020322020312020302020202020200A2020322020332020312020302020202020200A2020332020342020312020302020202020200A2020342020352020322020302020202020200A2020352020362020312020302020202020200A2020372020382020312020302020202020200A2020312020372020312020302020202020200A2020392031302020312020302020202020200A2020312020392020312020302020202020200A2031312031322020312020302020202020200A2031322031332020322020302020202020200A2031332031342020312020302020202020200A2031342031352020322020302020202020200A2031352031362020312020302020202020200A2031312031362020322020302020202020200A2020322031312020312020302020202020200A2020352031372020312020302020202020200A2020322031382020312020302020202020200A4D2020454E44
Contributor: KURARAY CO., LTD.
InstType: EI
InstName: JEOL JMS-D-300
IoniMethod: _ENERGY 70 eV
IonPolarity: pos
Date: 2010-10-09 19:48:36+02:00
Num Peaks: 27
41 40 47 20 69 90 75 999 76 30 77 20 91 20 105 6 107 20 117 20 
119 40 121 3 147 40 148 20 179 100 180 1 184 11 185 7 197 8 198 1 
201 16 202 6 209 2 216 2 217 9 218 4 259 4 
