Name: MassBank: JP011963
MW: 326
Formula: C20H30Si2
Synonym: MassBank: JP011963
Synonym: 1,2-DIETHYL-1,2-DIMETHYL-1,2-DI(PARA-TOLYL)DISILANE
Structure: 312C322D4449455448594C2D312C322D44494D455448594C2D312C322D444928504152412D544F4C594C29444953494C414E452E6D6F6C0A20204368656D447261773131303330393233313632440A2032322032332020302020302020302020302020302020302020302020303939392056323030300A2020202D312E323337352020202D302E3230363220202020302E303030302043202020302020302020302020302020302020302020302020302020302020302020302020300A2020202D302E343132352020202D302E3230363220202020302E303030302053692020302020302020302020302020302020302020302020302020302020302020302020300A20202020302E343132352020202D302E3230363220202020302E303030302053692020302020302020302020302020302020302020302020302020302020302020302020300A20202020312E323337352020202D302E3230363220202020302E303030302043202020302020302020302020302020302020302020302020302020302020302020302020300A2020202D302E3431323520202020302E3631383820202020302E303030302043202020302020302020302020302020302020302020302020302020302020302020302020300A2020202D302E343132352020202D312E3033313320202020302E303030302043202020302020302020302020302020302020302020302020302020302020302020302020300A20202020302E3431323520202020302E3631383820202020302E303030302043202020302020302020302020302020302020302020302020302020302020302020302020300A20202020302E343132352020202D312E3033313320202020302E303030302043202020302020302020302020302020302020302020302020302020302020302020302020300A2020202D312E3132373020202020312E3033313320202020302E303030302043202020302020302020302020302020302020302020302020302020302020302020302020300A20202020312E3132373020202020312E3033313320202020302E303030302043202020302020302020302020302020302020302020302020302020302020302020302020300A2020202D312E3635303020202020302E3530383220202020302E303030302043202020302020302020302020302020302020302020302020302020302020302020302020300A2020202D322E3437353020202020302E3530383220202020302E303030302043202020302020302020302020302020302020302020302020302020302020302020302020300A2020202D322E383837352020202D302E3230363220202020302E303030302043202020302020302020302020302020302020302020302020302020302020302020302020300A2020202D322E343735302020202D302E3932303720202020302E303030302043202020302020302020302020302020302020302020302020302020302020302020302020300A2020202D312E363530302020202D302E3932303720202020302E303030302043202020302020302020302020302020302020302020302020302020302020302020302020300A20202020312E363530302020202D302E3932303720202020302E303030302043202020302020302020302020302020302020302020302020302020302020302020302020300A20202020322E343735302020202D302E3932303720202020302E303030302043202020302020302020302020302020302020302020302020302020302020302020302020300A20202020322E383837352020202D302E3230363220202020302E303030302043202020302020302020302020302020302020302020302020302020302020302020302020300A20202020322E3437353020202020302E3530383220202020302E303030302043202020302020302020302020302020302020302020302020302020302020302020302020300A20202020312E3635303020202020302E3530383220202020302E303030302043202020302020302020302020302020302020302020302020302020302020302020302020300A2020202D332E373132352020202D302E3230363220202020302E303030302043202020302020302020302020302020302020302020302020302020302020302020302020300A20202020332E373132352020202D302E3230363220202020302E303030302043202020302020302020302020302020302020302020302020302020302020302020302020300A2020312020322020312020302020202020200A2020322020332020312020302020202020200A2020332020342020312020302020202020200A2020322020352020312020302020202020200A2020322020362020312020302020202020200A2020332020372020312020302020202020200A2020332020382020312020302020202020200A2020352020392020312020302020202020200A2020372031302020312020302020202020200A2020312031312020322020302020202020200A2031312031322020312020302020202020200A2031322031332020322020302020202020200A2031332031342020312020302020202020200A2031342031352020322020302020202020200A2031352020312020312020302020202020200A2020342031362020322020302020202020200A2031362031372020312020302020202020200A2031372031382020322020302020202020200A2031382031392020312020302020202020200A2031392032302020322020302020202020200A2032302020342020312020302020202020200A2031332032312020312020302020202020200A2031382032322020312020302020202020200A4D2020454E44
Contributor: ISHIKAWA M, HIROSHIMA UNIV. FAC. TEQUNOLOGY
InstType: EI
InstName: SHIMADZU QP-1000
IoniMethod: _ENERGY 70 eV
IonPolarity: pos
Date: 2010-10-09 19:48:36+02:00
Num Peaks: 42
52 11 53 42 55 11 59 21 67 11 69 11 91 42 93 53 105 42 107 63 
119 168 120 21 121 21 131 21 133 21 134 74 135 999 136 126 137 32 149 32 
162 32 163 389 164 63 165 11 177 11 209 11 211 32 223 11 225 105 226 11 
239 137 240 32 255 11 269 274 270 74 271 21 297 147 298 32 311 21 326 379 
327 126 328 32 
