Name: 2-(4-CYANOBENZYLOXY)TROPONE
MW: 237
Formula: C15H11NO2
Synonym: MassBank: JP010990
Synonym: 2-(4-CYANOBENZYLOXY)TROPONE
Structure: 322D28342D4359414E4F42454E5A594C4F58592954524F504F4E452E6D6F6C0A20204368656D447261773132323130393230313832440A2031382031392020302020302020302020302020302020302020302020303939392056323030300A2020202D312E363231322020202D312E3430383620202020302E30303030204F202020302020302020302020302020302020302020302020302020302020302020302020300A2020202D322E313335362020202D302E3736333620202020302E303030302043202020302020302020302020302020302020302020302020302020302020302020302020300A2020202D322E393339392020202D302E3934373220202020302E303030302043202020302020302020302020302020302020302020302020302020302020302020302020300A2020202D332E353834392020202D302E3433323820202020302E303030302043202020302020302020302020302020302020302020302020302020302020302020302020300A2020202D332E3538343920202020302E3339323220202020302E303030302043202020302020302020302020302020302020302020302020302020302020302020302020300A2020202D322E3933393920202020302E3930363620202020302E303030302043202020302020302020302020302020302020302020302020302020302020302020302020300A2020202D322E3133353620202020302E3732333020202020302E303030302043202020302020302020302020302020302020302020302020302020302020302020302020300A2020202D312E373737362020202D302E3032303320202020302E303030302043202020302020302020302020302020302020302020302020302020302020302020302020300A2020202D302E393532362020202D302E3032303320202020302E30303030204F202020302020302020302020302020302020302020302020302020302020302020302020300A2020202D302E3534303120202020302E3639343220202020302E303030302043202020302020302020302020302020302020302020302020302020302020302020302020300A20202020302E3238343920202020302E3639343220202020302E303030302043202020302020302020302020302020302020302020302020302020302020302020302020300A20202020302E3639373420202020312E3430383620202020302E303030302043202020302020302020302020302020302020302020302020302020302020302020302020300A20202020312E3532323420202020312E3430383620202020302E303030302043202020302020302020302020302020302020302020302020302020302020302020302020300A20202020312E3933343920202020302E3639343220202020302E303030302043202020302020302020302020302020302020302020302020302020302020302020302020300A20202020312E353232342020202D302E3032303320202020302E303030302043202020302020302020302020302020302020302020302020302020302020302020302020300A20202020302E363937342020202D302E3032303320202020302E303030302043202020302020302020302020302020302020302020302020302020302020302020302020300A20202020322E3735393920202020302E3639343220202020302E303030302043202020302020302020302020302020302020302020302020302020302020302020302020300A20202020332E3538343920202020302E3639343220202020302E30303030204E202020302020302020302020302020302020302020302020302020302020302020302020300A2020312020322020322020302020202020200A2020322020332020312020302020202020200A2020332020342020322020302020202020200A2020342020352020312020302020202020200A2020352020362020322020302020202020200A2020362020372020312020302020202020200A2020372020382020322020302020202020200A2020322020382020312020302020202020200A2031302031312020312020302020202020200A2031312031322020312020302020202020200A2031322031332020322020302020202020200A2031332031342020312020302020202020200A2031342031352020322020302020202020200A2031352031362020312020302020202020200A2031312031362020322020302020202020200A2020392031302020312020302020202020200A2031372031382020332020302020202020200A2031342031372020312020302020202020200A2020382020392020312020302020202020200A4D2020454E44
Contributor: TAKESHITA H, INST. OF ADVANCED MATERIAL STUDY KYUSHU UNIV.
InstType: EI
InstName: JEOL JMS-01-SG-2
IoniMethod: _ENERGY 75 eV
IonPolarity: pos
Date: 2010-10-09 19:48:36+02:00
Num Peaks: 30
38 44 39 365 41 32 43 33 50 39 51 91 55 50 62 27 63 111 64 53 
65 310 66 35 69 34 77 83 78 79 81 89 89 200 90 60 93 28 94 35 
95 54 105 241 106 456 107 55 116 999 117 108 123 34 137 42 237 253 238 41 
