Name: METHYL TRIACETYL-6-DEOXY-ALPHA-L-IDOPYRANOSIDE
MW: 304
Formula: C13H20O8
Synonym: MassBank: JP010700
Synonym: METHYL TRIACETYL-6-DEOXY-ALPHA-L-IDOPYRANOSIDE
Structure: 303933395F4D455448594C2054524941434554594C2D362D44454F58592D414C5048412D4C2D49444F505952414E4F534944452E6D6F6C0A20204368656D447261773130323031303139303932440A2032362032362020302020302020302020302020302020302020302020303939392056323030300A2020202D302E3234313020202020312E3338363020202020302E303030302043202020302020302020302020302020302020302020302020302020302020302020302020300A2020202D312E3433303920202020302E3437393920202020302E303030302043202020302020302020302020302020302020302020302020302020302020302020302020300A2020202D302E323431302020202D302E3431343220202020302E303030302043202020302020302020302020302020302020302020302020302020302020302020302020300A20202020312E363231322020202D302E3431343220202020302E303030302043202020302020302020302020302020302020302020302020302020302020302020302020300A20202020322E3835383720202020302E3437393920202020302E303030302043202020302020302020302020302020302020302020302020302020302020302020302020300A20202020312E3632323320202020312E3338343720202020302E30303030204F202020302020302020302020302020302020302020302020302020302020302020302020300A2020202D312E3433303620202020312E3233393520202020302E30303030204F202020302020302020302020302020302020302020302020302020302020302020302020300A2020202D312E343330362020202D302E3431343520202020302E303030302048202020302020302020302020302020302020302020302020302020302020302020302020300A20202020322E3835393820202020312E3333353420202020302E303030302043202020302020302020302020302020302020302020302020302020302020302020302020300A20202020322E383538372020202D302E3333333220202020302E303030302048202020302020302020302020302020302020302020302020302020302020302020302020300A20202020312E3632313220202020302E3338343520202020302E30303030204F202020302020302020302020302020302020302020302020302020302020302020302020300A20202020312E363232332020202D312E3233393520202020302E303030302048202020302020302020302020302020302020302020302020302020302020302020302020300A2020202D302E323430342020202D312E3233393520202020302E30303030204F202020302020302020302020302020302020302020302020302020302020302020302020300A2020202D302E3234303420202020302E3333353520202020302E303030302048202020302020302020302020302020302020302020302020302020302020302020302020300A2020202D302E3234303420202020322E3134353520202020302E303030302048202020302020302020302020302020302020302020302020302020302020302020302020300A2020202D302E3235313820202020302E3738393220202020302E30303030204F202020302020302020302020302020302020302020302020302020302020302020302020300A2020202D302E3938323820202020302E3430363720202020302E303030302043202020302020302020302020302020302020302020302020302020302020302020302020300A2020202D322E3134353320202020312E3635333020202020302E303030302043202020302020302020302020302020302020302020302020302020302020302020302020300A2020202D322E3134343620202020322E3437373020202020302E30303030204F202020302020302020302020302020302020302020302020302020302020302020302020300A2020202D322E3835393820202020312E3234303520202020302E303030302043202020302020302020302020302020302020302020302020302020302020302020302020300A20202020302E343733342020202D312E3635313720202020302E303030302043202020302020302020302020302020302020302020302020302020302020302020302020300A20202020302E343733362020202D322E3437373020202020302E30303030204F202020302020302020302020302020302020302020302020302020302020302020302020300A20202020312E313837392020202D312E3233393220202020302E303030302043202020302020302020302020302020302020302020302020302020302020302020302020300A20202020302E3930363720202020302E3739373020202020302E303030302043202020302020302020302020302020302020302020302020302020302020302020302020300A20202020302E3139323220202020302E3338343520202020302E303030302043202020302020302020302020302020302020302020302020302020302020302020302020300A20202020302E3930363720202020312E3632323020202020302E30303030204F202020302020302020302020302020302020302020302020302020302020302020302020300A2020312020322020312020302020202020200A2020322020332020312020312020202020200A2020332020342020312020312020202020200A2020352020342020312020312020202020200A2020352020362020312020302020202020200A2020312020362020312020302020202020200A2020322020372020312020302020202020200A2020322020382020312020302020202020200A2020352020392020312020302020202020200A2020352031302020312020302020202020200A2020342031312020312020302020202020200A2020342031322020312020302020202020200A2020332031332020312020302020202020200A2020332031342020312020302020202020200A2020312031352020312020302020202020200A2020312031362020312020302020202020200A2031362031372020312020302020202020200A2020372031382020312020302020202020200A2031382031392020322020302020202020200A2031382032302020312020302020202020200A2031332032312020312020302020202020200A2032312032322020322020302020202020200A2032312032332020312020302020202020200A2031312032342020312020302020202020200A2032342032352020312020302020202020200A2032342032362020322020302020202020200A4D2020454E44
Contributor: EGUCHI S, FAC. OF SCIENCE, HIROSHIMA UNIV.
InstType: EI
InstName: HITACHI RMU-6L
IoniMethod: _ENERGY 70 eV
IonPolarity: pos
Date: 2010-10-09 19:48:36+02:00
Num Peaks: 108
40 23 41 46 42 35 43 999 44 81 45 93 46 12 47 2 53 17 54 23 
55 41 56 2 57 64 58 47 59 29 60 4 61 58 67 6 68 23 69 5 
70 29 71 209 72 41 73 6 74 186 75 23 76 12 81 2 82 99 83 198 
84 81 85 9 86 23 87 209 88 29 89 2 90 12 96 76 97 23 98 5 
99 122 100 215 101 81 102 15 103 180 104 23 105 12 110 2 111 128 112 23 
113 238 114 5 115 669 116 93 117 35 118 2 125 35 126 110 127 41 128 3 
129 76 130 23 131 23 132 1 133 12 140 87 141 35 142 20 143 64 144 128 
145 70 146 2 149 17 153 76 154 17 155 1 156 23 157 500 158 93 159 4 
160 17 169 12 170 17 171 4 172 17 173 12 174 12 175 2 184 203 185 70 
186 23 187 2 188 17 200 35 201 23 202 1 212 17 213 41 214 17 215 2 
217 227 218 35 219 23 244 2 245 6 273 34 274 6 303 6 
