Name: METHYL 2-CYANOETHANESULFONATE
MW: 149
Formula: C4H7NO3S
Synonym: MassBank: JP010919
Synonym: METHYL 2-CYANOETHANESULFONATE
Structure: 310A32320A4D455448594C20322D4359414E4F455448414E4553554C464F4E4154452E6D6F6C0A20204368656D447261773038313131303233333132440A2020392020382020302020302020302020302020302020302020302020303939392056323030300A2020202D302E303030302020202D302E3731343520202020302E303030302043202020302020302020302020302020302020302020302020302020302020302020302020300A20202020302E383235302020202D302E3731343520202020302E303030302043202020302020302020302020302020302020302020302020302020302020302020302020300A2020202D302E3431323520202020302E3030303020202020302E303030302053202020302020302020302020302020302020302020302020302020302020302020302020300A20202020302E3330323020202020302E3431323520202020302E30303030204F202020302020302020302020302020302020302020302020302020302020302020302020300A2020202D312E313237302020202D302E3431323520202020302E30303030204F202020302020302020302020302020302020302020302020302020302020302020302020300A2020202D302E3832353020202020302E3731343520202020302E30303030204F202020302020302020302020302020302020302020302020302020302020302020302020300A20202020312E3233373520202020302E3030303020202020302E303030302043202020302020302020302020302020302020302020302020302020302020302020302020300A20202020312E3635303020202020302E3731343520202020302E30303030204E202020302020302020302020302020302020302020302020302020302020302020302020300A2020202D312E3635303020202020302E3731343520202020302E303030302043202020302020302020302020302020302020302020302020302020302020302020302020300A2020312020322020312020302020202020200A2020332020342020322020302020202020200A2020332020352020322020302020202020200A2020332020362020312020302020202020200A2020312020332020312020302020202020200A2020372020382020332020302020202020200A2020322020372020312020302020202020200A2020362020392020312020302020202020200A4D2020454E44
Contributor: KURARAY CO., LTD.
InstType: EI
InstName: JEOL JMS-D-300
IoniMethod: _ENERGY 70 eV
IonPolarity: pos
Date: 2010-10-09 19:48:36+02:00
Num Peaks: 35
26 27 27 43 28 96 29 28 31 10 32 9 39 4 41 5 42 63 43 199 
44 9 45 2 48 14 51 11 52 35 53 75 54 272 55 11 63 9 64 11 
65 38 68 4 70 84 78 3 79 999 80 45 81 56 94 17 96 10 97 25 
106 34 123 4 134 147 135 4 136 4 
