Name: MassBank: JP011691
MW: 242
Formula: C8H20Cl2Si2
Synonym: MassBank: JP011691
Synonym: 1,2-DICHLOROTETRAETHYLDISILANE
Structure: 312C322D444943484C4F524F5445545241455448594C444953494C414E452E6D6F6C0A20204368656D447261773131303330393233313232440A2031322031312020302020302020302020302020302020302020302020303939392056323030300A2020202D302E3431323520202020302E3030303020202020302E303030302053692020302020302020302020302020302020302020302020302020302020302020302020300A20202020302E3431323520202020302E3030303020202020302E303030302053692020302020302020302020302020302020302020302020302020302020302020302020300A20202020302E343132352020202D302E3832353020202020302E3030303020436C2020302020302020302020302020302020302020302020302020302020302020302020300A2020202D302E3431323520202020302E3832353020202020302E3030303020436C2020302020302020302020302020302020302020302020302020302020302020302020300A2020202D302E343132352020202D302E3832353020202020302E303030302043202020302020302020302020302020302020302020302020302020302020302020302020300A2020202D312E313237302020202D312E3233373520202020302E303030302043202020302020302020302020302020302020302020302020302020302020302020302020300A2020202D312E3233373520202020302E3030303020202020302E303030302043202020302020302020302020302020302020302020302020302020302020302020302020300A2020202D312E3635303020202020302E3731343520202020302E303030302043202020302020302020302020302020302020302020302020302020302020302020302020300A20202020302E3431323520202020302E3832353020202020302E303030302043202020302020302020302020302020302020302020302020302020302020302020302020300A20202020312E3132373020202020312E3233373520202020302E303030302043202020302020302020302020302020302020302020302020302020302020302020302020300A20202020312E3233373520202020302E3030303020202020302E303030302043202020302020302020302020302020302020302020302020302020302020302020302020300A20202020312E3635303020202020302E3731343520202020302E303030302043202020302020302020302020302020302020302020302020302020302020302020302020300A2020312020322020312020302020202020200A2020322020332020312020302020202020200A2020312020342020312020302020202020200A2020352020362020312020302020202020200A2020312020352020312020302020202020200A2020372020382020312020302020202020200A2020312020372020312020302020202020200A2020392031302020312020302020202020200A2020322020392020312020302020202020200A2031312031322020312020302020202020200A2020322031312020312020302020202020200A4D2020454E44
Contributor: FAC. TECHNOLOGY, HIROSHIMA UNIV.
InstType: EI
InstName: SHIMADZU QP-1000
IoniMethod: _ENERGY 70 eV
IonPolarity: pos
Date: 2010-10-09 19:48:36+02:00
Num Peaks: 36
54 21 56 95 57 53 58 263 59 999 60 274 61 42 63 242 64 32 65 358 
66 21 67 95 75 11 79 21 86 937 87 347 88 53 91 42 92 74 93 495 
94 53 95 168 115 95 120 147 121 326 122 84 123 116 157 32 159 21 185 32 
187 21 207 17 213 29 215 21 242 16 244 11 
