Name: DIMETHOXYMETHANE
MW: 76
Formula: C3H8O2
Synonym: MassBank: JP010482
Synonym: DIMETHOXYMETHANE
Structure: 310A31340A464F524D414C4445485944452044494D455448594C2041434554414C2E6D6F6C0A20204368656D447261773038313131303139333032440A2020352020342020302020302020302020302020302020302020302020303939392056323030300A2020202D302E3030303020202020302E3335373220202020302E303030302043202020302020302020302020302020302020302020302020302020302020302020302020300A20202020302E343132352020202D302E3335373220202020302E30303030204F202020302020302020302020302020302020302020302020302020302020302020302020300A2020202D302E3832353020202020302E3335373220202020302E30303030204F202020302020302020302020302020302020302020302020302020302020302020302020300A20202020312E323337352020202D302E3335373220202020302E303030302043202020302020302020302020302020302020302020302020302020302020302020302020300A2020202D312E323337352020202D302E3335373220202020302E303030302043202020302020302020302020302020302020302020302020302020302020302020302020300A2020322020342020312020302020202020200A2020332020352020312020302020202020200A2020312020322020312020302020202020200A2020312020332020312020302020202020200A4D2020454E44
Contributor: TAJIMA S, GUNMA COLLEGE OF TECHNOLOGY
InstType: EI
InstName: HITACHI M-80A
IoniMethod: _ENERGY 70 eV
IonPolarity: pos
Date: 2010-10-09 19:48:36+02:00
Num Peaks: 12
14 47 15 254 29 487 30 42 31 142 43 30 44 26 45 999 46 23 47 44 
75 375 76 13 
