Name: MassBank: JP010567
MW: 335
Formula: C13H16F3N3O4
Synonym: MassBank: JP010567
Synonym: N-BUTYL-N-ETHYL-2,6-DINITRO-4-TRIFLUOROMETHYLANILINE
Structure: 4E2D425554594C2D4E2D455448594C2D322C362D44494E4954524F2D342D545249464C554F524F4D455448594C414E494C494E452E6D6F6C0A20204368656D447261773038313231303031353432440A2032332032332020302020302020302020302020302020302020302020303939392056323030300A20202020302E333537322020202D302E3631383720202020302E30303030204E202020302020302020302020302020302020302020302020302020302020302020302020300A2020202D302E333537322020202D302E3230363220202020302E303030302043202020302020302020302020302020302020302020302020302020302020302020302020300A2020202D312E303731372020202D302E3631383720202020302E303030302043202020302020302020302020302020302020302020302020302020302020302020302020300A2020202D312E373836322020202D302E3230363220202020302E303030302043202020302020302020302020302020302020302020302020302020302020302020302020300A2020202D312E3738363220202020302E3631383820202020302E303030302043202020302020302020302020302020302020302020302020302020302020302020302020300A2020202D312E3037313720202020312E3033313320202020302E303030302043202020302020302020302020302020302020302020302020302020302020302020302020300A2020202D302E3335373220202020302E3631383820202020302E303030302043202020302020302020302020302020302020302020302020302020302020302020302020300A2020202D322E3530303620202020312E3033313320202020302E303030302043202020302020302020302020302020302020302020302020302020302020302020302020300A2020202D322E3038383120202020312E3734353720202020302E303030302046202020302020302020302020302020302020302020302020302020302020302020302020300A2020202D322E3931333120202020302E3331363820202020302E303030302046202020302020302020302020302020302020302020302020302020302020302020302020300A2020202D332E3231353120202020312E3434333820202020302E303030302046202020302020302020302020302020302020302020302020302020302020302020302020300A20202020302E3335373220202020312E3033313320202020302E30303030204E202020302020332020302020302020302020302020302020302020302020302020302020300A20202020302E3335373220202020312E3835363320202020302E30303030204F202020302020302020302020302020302020302020302020302020302020302020302020300A20202020312E3037313720202020302E3631383820202020302E30303030204F202020302020352020302020302020302020302020302020302020302020302020302020300A2020202D312E303731372020202D312E3434333720202020302E30303030204E202020302020332020302020302020302020302020302020302020302020302020302020300A2020202D312E373836322020202D312E3835363220202020302E30303030204F202020302020302020302020302020302020302020302020302020302020302020302020300A2020202D302E333537322020202D312E3835363320202020302E30303030204F202020302020352020302020302020302020302020302020302020302020302020302020300A20202020302E333537322020202D312E3434333720202020302E303030302043202020302020302020302020302020302020302020302020302020302020302020302020300A20202020312E303731372020202D312E3835363220202020302E303030302043202020302020302020302020302020302020302020302020302020302020302020302020300A20202020312E303731372020202D302E3230363220202020302E303030302043202020302020302020302020302020302020302020302020302020302020302020302020300A20202020312E373836322020202D302E3631383720202020302E303030302043202020302020302020302020302020302020302020302020302020302020302020302020300A20202020322E353030362020202D302E3230363220202020302E303030302043202020302020302020302020302020302020302020302020302020302020302020302020300A20202020332E323135312020202D302E3631383720202020302E303030302043202020302020302020302020302020302020302020302020302020302020302020302020300A2020312020322020312020302020202020200A2020322020332020312020302020202020200A2020332020342020322020302020202020200A2020342020352020312020302020202020200A2020352020362020322020302020202020200A2020362020372020312020302020202020200A2020322020372020322020302020202020200A2020382020392020312020302020202020200A2020382031302020312020302020202020200A2020382031312020312020302020202020200A2020352020382020312020302020202020200A2031322031332020322020302020202020200A2031322031342020312020302020202020200A2020372031322020312020302020202020200A2031352031362020322020302020202020200A2031352031372020312020302020202020200A2020332031352020312020302020202020200A2031382031392020312020302020202020200A2020312031382020312020302020202020200A2032302032312020312020302020202020200A2032312032322020312020302020202020200A2032322032332020312020302020202020200A2020312032302020312020302020202020200A4D202043484720203420203132202020312020313420202D3120203135202020312020313720202D310A4D2020454E44
Contributor: NARA WOMEN'S UNIVERSITY
InstType: EI
InstName: HITACHI M-80
IoniMethod: _ENERGY 70 eV
IonPolarity: pos
Date: 2010-10-09 19:48:36+02:00
Num Peaks: 60
18 63 27 138 28 132 29 370 30 52 32 25 39 40 41 148 42 32 43 95 
55 30 56 22 57 70 75 18 105 68 125 11 126 20 127 15 131 12 133 13 
140 17 143 16 144 13 145 59 146 15 147 15 153 28 158 17 159 42 160 58 
161 11 166 11 171 11 172 33 173 19 174 24 185 11 186 19 187 28 188 21 
189 11 198 11 199 12 200 15 201 21 202 24 206 27 218 14 248 19 264 161 
265 14 276 98 277 11 292 999 293 100 294 11 316 27 318 58 320 11 335 64 
