Name: MassBank: JP010832
MW: 321
Formula: C10H12Br2O2
Synonym: MassBank: JP010832
Synonym: 1,3-DI(BROMOMETYL)-2,5-DIMETHOXYBENZENE
Structure: 312C332D44492842524F4D4F4D4554594C292D322C352D44494D4554484F585942454E5A454E452E6D6F6C0A20204368656D447261773131313130393230353632440A2031342031342020302020302020302020302020302020302020302020303939392056323030300A2020202D302E3731343520202020302E3431323520202020302E303030302043202020302020302020302020302020302020302020302020302020302020302020302020300A2020202D302E373134352020202D302E3431323520202020302E303030302043202020302020302020302020302020302020302020302020302020302020302020302020300A20202020302E303030302020202D302E3832353020202020302E303030302043202020302020302020302020302020302020302020302020302020302020302020302020300A20202020302E373134352020202D302E3431323520202020302E303030302043202020302020302020302020302020302020302020302020302020302020302020302020300A20202020302E3731343520202020302E3431323520202020302E303030302043202020302020302020302020302020302020302020302020302020302020302020302020300A20202020302E3030303020202020302E3832353020202020302E303030302043202020302020302020302020302020302020302020302020302020302020302020302020300A20202020302E3030303020202020312E3635303020202020302E30303030204F202020302020302020302020302020302020302020302020302020302020302020302020300A2020202D302E3731343520202020322E3036323520202020302E303030302043202020302020302020302020302020302020302020302020302020302020302020302020300A20202020312E3432383920202020302E3832353020202020302E303030302043202020302020302020302020302020302020302020302020302020302020302020302020300A20202020322E3134333420202020302E3431323520202020302E303030302042722020302020302020302020302020302020302020302020302020302020302020302020300A20202020302E303030302020202D312E3635303020202020302E30303030204F202020302020302020302020302020302020302020302020302020302020302020302020300A20202020302E373134352020202D322E3036323520202020302E303030302043202020302020302020302020302020302020302020302020302020302020302020302020300A2020202D312E3432383920202020302E3832353020202020302E303030302043202020302020302020302020302020302020302020302020302020302020302020302020300A2020202D322E3134333420202020302E3431323520202020302E303030302042722020302020302020302020302020302020302020302020302020302020302020302020300A2020312020322020322020302020202020200A2020322020332020312020302020202020200A2020332020342020322020302020202020200A2020342020352020312020302020202020200A2020352020362020322020302020202020200A2020362020312020312020302020202020200A2020362020372020312020302020202020200A2020372020382020312020302020202020200A2020352020392020312020302020202020200A2020392031302020312020302020202020200A2020332031312020312020302020202020200A2031312031322020312020302020202020200A2020312031332020312020302020202020200A2031332031342020312020302020202020200A4D2020454E44
Contributor: HAMAMATSU UNIV. SCHOOL OF MEDICINE
InstType: EI
InstName: SHIMADZU LKB-9000B
IoniMethod: _ENERGY 70 eV
IonPolarity: pos
Date: 2010-10-09 19:48:36+02:00
Num Peaks: 83
38 23 39 75 50 41 51 83 52 46 53 47 55 12 61 15 62 48 63 112 
64 36 65 110 66 39 67 73 74 32 75 33 76 38 77 233 78 192 79 77 
80 10 81 26 82 15 86 18 87 16 88 13 89 108 90 75 91 27 92 44 
93 48 94 14 95 20 96 10 98 12 102 19 103 73 104 82 105 93 106 33 
107 20 117 10 118 19 119 53 120 41 121 332 122 79 133 37 134 212 135 999 
136 278 137 28 148 14 149 349 150 213 151 21 163 14 164 24 165 137 166 16 
183 32 184 14 185 32 199 15 201 13 213 119 214 19 215 124 216 14 227 16 
228 13 229 18 230 13 243 727 244 118 245 703 246 104 247 10 309 12 322 122 
324 220 326 118 327 13 
