Name: MassBank: JP010009
MW: 118
Formula: C6H14O2
Synonym: MassBank: JP010009
Synonym: 2-ISOPROPYL-1,3-PROPANEDIOL
Structure: 310A32300A322D49534F50524F50594C2D312C332D50524F50414E4544494F4C2E6D6F6C0A20204368656D447261773031323231303030313332440A2020382020372020302020302020302020302020302020302020302020303939392056323030300A2020202D302E383235302020202D302E3335373220202020302E303030302043202020302020302020302020302020302020302020302020302020302020302020302020300A20202020302E303030302020202D302E3335373220202020302E303030302043202020302020302020302020302020302020302020302020302020302020302020302020300A20202020302E343132352020202D312E3037313720202020302E303030302043202020302020302020302020302020302020302020302020302020302020302020302020300A2020202D312E323337352020202D312E3037313720202020302E30303030204F202020302020302020302020302020302020302020302020302020302020302020302020300A20202020312E323337352020202D312E3037313720202020302E30303030204F202020302020302020302020302020302020302020302020302020302020302020302020300A20202020302E3431323520202020302E3335373220202020302E303030302043202020302020302020302020302020302020302020302020302020302020302020302020300A20202020302E3030303020202020312E3037313720202020302E303030302043202020302020302020302020302020302020302020302020302020302020302020302020300A20202020312E3233373520202020302E3335373220202020302E303030302043202020302020302020302020302020302020302020302020302020302020302020302020300A2020312020322020312020302020202020200A2020322020332020312020302020202020200A2020312020342020312020302020202020200A2020332020352020312020302020202020200A2020362020372020312020302020202020200A2020362020382020312020302020202020200A2020322020362020312020302020202020200A4D2020454E44
Contributor: KURARAY CO., LTD.
InstType: EI
InstName: JEOL JMS-D-300
IoniMethod: _ENERGY 70 eV
IonPolarity: pos
Date: 2010-10-09 19:48:36+02:00
Num Peaks: 34
27 110 28 896 29 172 30 3 31 21 32 273 40 34 41 46 42 256 43 502 
44 90 45 20 54 34 55 661 56 156 57 50 58 168 59 62 61 35 67 10 
68 29 69 383 70 999 71 16 72 31 73 29 81 27 82 9 83 63 85 105 
87 25 98 3 99 120 100 18 
