Name: PARA-FLUOROANISOLE
MW: 126
Formula: C7H7FO
Synonym: MassBank: JP010459
Synonym: PARA-FLUOROANISOLE
Structure: 310A32330A504152412D464C554F524F414E49534F4C452E6D6F6C0A20204368656D447261773038313231303034323232440A2020392020392020302020302020302020302020302020302020302020303939392056323030300A2020202D312E3835363320202020302E3731343520202020302E303030302043202020302020302020302020302020302020302020302020302020302020302020302020300A2020202D312E343433372020202D302E3030303020202020302E30303030204F202020302020302020302020302020302020302020302020302020302020302020302020300A2020202D302E363138382020202D302E3030303020202020302E303030302043202020302020302020302020302020302020302020302020302020302020302020302020300A2020202D302E3230363220202020302E3731343520202020302E303030302043202020302020302020302020302020302020302020302020302020302020302020302020300A20202020302E3631383820202020302E3731343520202020302E303030302043202020302020302020302020302020302020302020302020302020302020302020302020300A20202020312E303331332020202D302E3030303020202020302E303030302043202020302020302020302020302020302020302020302020302020302020302020302020300A20202020302E363138382020202D302E3731343520202020302E303030302043202020302020302020302020302020302020302020302020302020302020302020302020300A2020202D302E323036322020202D302E3731343520202020302E303030302043202020302020302020302020302020302020302020302020302020302020302020302020300A20202020312E383536332020202D302E3030303020202020302E303030302046202020302020302020302020302020302020302020302020302020302020302020302020300A2020312020322020312020302020202020200A2020322020332020312020302020202020200A2020332020342020312020302020202020200A2020342020352020322020302020202020200A2020352020362020312020302020202020200A2020362020372020322020302020202020200A2020372020382020312020302020202020200A2020332020382020322020302020202020200A2020362020392020312020302020202020200A4D2020454E44
Contributor: TAJIMA S, GUNMA COLLEGE OF TECHNOLOGY
InstType: EI
InstName: HITACHI M-80A
IoniMethod: _ENERGY 70 eV
IonPolarity: pos
Date: 2010-10-09 19:48:36+02:00
Num Peaks: 40
15 50 26 11 29 32 31 45 37 21 38 30 39 39 43 20 49 11 50 64 
51 36 53 11 56 34 57 218 58 13 61 26 62 36 63 69 64 14 68 21 
69 33 70 15 73 12 74 37 75 108 76 11 77 14 81 51 82 41 83 759 
84 44 94 14 95 96 96 101 97 40 110 14 111 543 112 40 126 999 127 78 
