Name: MassBank: JP011542
MW: 377
Formula: C21H19N3O2S
Synonym: MassBank: JP011542
Synonym: 4,7-DI(PARA-ETHOXYPHENYL)-1,2,5-THIADIAZOLO(3,4-C)PYRIDINE
Structure: 342C372D444928504152412D4554484F58595048454E594C292D312C322C352D544849414449415A4F4C4F28332C342D43295059524944494E452E6D6F6C0A20204368656D447261773130313831303137323832440A2032372033302020302020302020302020302020302020302020302020303939392056323030300A2020202D302E383235302020202D302E3633343820202020302E303030302043202020302020302020302020302020302020302020302020302020302020302020302020300A2020202D302E3431323520202020302E3037393720202020302E303030302043202020302020302020302020302020302020302020302020302020302020302020302020300A20202020302E3431323520202020302E3037393720202020302E303030302043202020302020302020302020302020302020302020302020302020302020302020302020300A20202020302E383235302020202D302E3633343820202020302E303030302043202020302020302020302020302020302020302020302020302020302020302020302020300A20202020302E343132352020202D312E3334393220202020302E303030302043202020302020302020302020302020302020302020302020302020302020302020302020300A2020202D302E343132352020202D312E3334393220202020302E30303030204E202020302020302020302020302020302020302020302020302020302020302020302020300A2020202D302E3030303020202020312E3334393220202020302E303030302053202020302020302020302020302020302020302020302020302020302020302020302020300A2020202D302E3636373420202020302E3836343320202020302E30303030204E202020302020302020302020302020302020302020302020302020302020302020302020300A20202020302E3636373420202020302E3836343320202020302E30303030204E202020302020302020302020302020302020302020302020302020302020302020302020300A20202020312E363530302020202D302E3633343820202020302E303030302043202020302020302020302020302020302020302020302020302020302020302020302020300A20202020322E3036323520202020302E3037393720202020302E303030302043202020302020302020302020302020302020302020302020302020302020302020302020300A20202020322E3838373520202020302E3037393720202020302E303030302043202020302020302020302020302020302020302020302020302020302020302020302020300A20202020332E333030302020202D302E3633343820202020302E303030302043202020302020302020302020302020302020302020302020302020302020302020302020300A20202020322E383837352020202D312E3334393220202020302E303030302043202020302020302020302020302020302020302020302020302020302020302020302020300A20202020322E303632352020202D312E3334393220202020302E303030302043202020302020302020302020302020302020302020302020302020302020302020302020300A20202020342E313235302020202D302E3633343820202020302E30303030204F202020302020302020302020302020302020302020302020302020302020302020302020300A20202020342E353337352020202D312E3334393220202020302E303030302043202020302020302020302020302020302020302020302020302020302020302020302020300A20202020352E333632352020202D312E3334393220202020302E303030302043202020302020302020302020302020302020302020302020302020302020302020302020300A2020202D312E363530302020202D302E3633343820202020302E303030302043202020302020302020302020302020302020302020302020302020302020302020302020300A2020202D322E303632352020202D312E3334393220202020302E303030302043202020302020302020302020302020302020302020302020302020302020302020302020300A2020202D322E383837352020202D312E3334393220202020302E303030302043202020302020302020302020302020302020302020302020302020302020302020302020300A2020202D332E333030302020202D302E3633343820202020302E303030302043202020302020302020302020302020302020302020302020302020302020302020302020300A2020202D322E3838373520202020302E3037393720202020302E303030302043202020302020302020302020302020302020302020302020302020302020302020302020300A2020202D322E3036323520202020302E3037393720202020302E303030302043202020302020302020302020302020302020302020302020302020302020302020302020300A2020202D342E313235302020202D302E3633343820202020302E30303030204F202020302020302020302020302020302020302020302020302020302020302020302020300A2020202D342E353337352020202D312E3334393220202020302E303030302043202020302020302020302020302020302020302020302020302020302020302020302020300A2020202D352E333632352020202D312E3334393220202020302E303030302043202020302020302020302020302020302020302020302020302020302020302020302020300A2020312020322020312020302020202020200A2020322020332020312020302020202020200A2020332020342020312020302020202020200A2020342020352020322020302020202020200A2020352020362020312020302020202020200A2020312020362020322020302020202020200A2020372020382020312020302020202020200A2020372020392020312020302020202020200A2020322020382020322020302020202020200A2020332020392020322020302020202020200A2031302031312020312020302020202020200A2031312031322020322020302020202020200A2031322031332020312020302020202020200A2031332031342020322020302020202020200A2031342031352020312020302020202020200A2031302031352020322020302020202020200A2031372031382020312020302020202020200A2031362031372020312020302020202020200A2031332031362020312020302020202020200A2020342031302020312020302020202020200A2031392032302020312020302020202020200A2032302032312020322020302020202020200A2032312032322020312020302020202020200A2032322032332020322020302020202020200A2032332032342020312020302020202020200A2031392032342020322020302020202020200A2032362032372020312020302020202020200A2032352032362020312020302020202020200A2032322032352020312020302020202020200A2020312031392020312020302020202020200A4D2020454E44
Contributor: INST. OF ADVANCED MATERIAL STUDY KYUSHU UNIV.
InstType: EI
InstName: JEOL JMS-01-SG-2
IoniMethod: _ENERGY 75 eV
IonPolarity: pos
Date: 2010-10-09 19:48:36+02:00
Num Peaks: 13
32 373 41 226 43 899 44 999 45 301 55 168 57 261 58 355 69 380 71 200 
119 272 169 450 335 165 
