Name: CYCLOPROPYLMETHANOL
MW: 72
Formula: C4H8O
Synonym: MassBank: JP010321
Synonym: CYCLOPROPYLMETHANOL
Synonym: HYDROXYMETHYLCYCROPROPANE
Structure: 310A31350A4359434C4F50524F50594C4D455448414E4F4C2E6D6F6C0A20204368656D447261773039323031303039313632440A2020352020352020302020302020302020302020302020302020302020303939392056323030300A2020202D302E343132352020202D302E3536333520202020302E303030302043202020302020302020302020302020302020302020302020302020302020302020302020300A2020202D312E313237302020202D302E3135313020202020302E30303030204F202020302020302020302020302020302020302020302020302020302020302020302020300A20202020302E333032302020202D302E3135313020202020302E303030302043202020302020302020302020302020302020302020302020302020302020302020302020300A20202020302E3731343520202020302E3536333520202020302E303030302043202020302020302020302020302020302020302020302020302020302020302020302020300A20202020312E313237302020202D302E3135313020202020302E303030302043202020302020302020302020302020302020302020302020302020302020302020302020300A2020312020322020312020302020202020200A2020332020342020312020302020202020200A2020342020352020312020302020202020200A2020332020352020312020302020202020200A2020312020332020312020302020202020200A4D2020454E44
Contributor: TAJIMA S, GUNMA COLLEGE OF TECHNOLOGY
InstType: EI
InstName: HITACHI M-80A
IoniMethod: _ENERGY 70 eV
IonPolarity: pos
Date: 2010-10-09 19:48:36+02:00
Num Peaks: 24
14 16 15 40 26 58 27 212 29 128 31 244 37 26 38 51 39 270 40 38 
41 141 42 122 43 294 44 999 45 33 50 19 51 20 53 42 54 31 55 173 
56 15 57 49 67 17 71 19 
