Name: MassBank: JP010698
MW: 168
Formula: C10H16O2
Synonym: MassBank: JP010698
Synonym: (-)-2,6,6-TRIMETHYL-2(R)-VINYLTETRAHYDROPYRAN-5-ONE
Structure: 282D292D322C362C362D5452494D455448594C2D322852292D56494E594C5445545241485944524F505952414E2D352D4F4E452E6D6F6C0A20204368656D447261773130303630393134333132440A2031322031322020302020302020302020302020302020302020302020303939392056323030300A20202020312E383335332020202D312E3030363620202020302E30303030204F202020302020302020302020302020302020302020302020302020302020302020302020300A2020202D302E3330383120202020302E3233303920202020302E303030302043202020302020302020302020302020302020302020302020302020302020302020302020300A2020202D302E333038312020202D302E3539343120202020302E303030302043202020302020302020302020302020302020302020302020302020302020302020302020300A20202020302E343036342020202D312E3030363620202020302E303030302043202020302020302020302020302020302020302020302020302020302020302020302020300A20202020312E313230382020202D302E3539343120202020302E303030302043202020302020302020302020302020302020302020302020302020302020302020302020300A20202020312E3132303820202020302E3233303920202020302E303030302043202020302020302020302020302020302020302020302020302020302020302020302020300A20202020302E3430373820202020302E3634313520202020302E30303030204F202020302020302020302020302020302020302020302020302020302020302020302020300A2020202D312E3132303720202020302E3038383420202020302E303030302043202020302020302020302020302020302020302020302020302020302020302020302020300A2020202D312E393333332020202D302E3035343120202020302E303030302043202020302020302020302020302020302020302020302020302020302020302020302020300A20202020312E3430323420202020312E3030363320202020302E303030302043202020302020302020302020302020302020302020302020302020302020302020302020300A20202020312E3933333320202020302E3038373920202020302E303030302043202020302020302020302020302020302020302020302020302020302020302020302020300A2020202D302E3538383820202020312E3030363620202020302E303030302043202020302020302020302020302020302020302020302020302020302020302020302020300A2020322020332020312020302020202020200A2020332020342020312020302020202020200A2020342020352020312020302020202020200A2020352020362020312020302020202020200A2020362020372020312020302020202020200A2020372020322020312020302020202020200A2020322020382020312020362020202020200A2020382020392020322020302020202020200A2020352020312020322020302020202020200A2020362031302020312020302020202020200A2020362031312020312020302020202020200A2020322031322020312020302020202020200A4D202053545920203120202031205355500A4D2020534C4220203120202031202020310A4D202053414C20202031202031202031300A4D202053424C20202031202031202031300A4D2020534D5420202031204D650A4D2020534256202020312031302020202D372E3036343120202020362E323937320A4D202053545920203120202032205355500A4D2020534C4220203120202032202020320A4D202053414C20202032202031202031310A4D202053424C20202032202031202031310A4D2020534D5420202032204D650A4D2020534256202020322031312020202D362E3533333220202020352E333738380A4D202053545920203120202033205355500A4D2020534C4220203120202033202020330A4D202053414C20202033202031202031320A4D202053424C20202033202031202031320A4D2020534D5420202033204D650A4D2020534256202020332031322020202D372E3632363520202020362E323937350A4D2020454E44
Contributor: EGUCHI S, FAC. OF SCIENCE, HIROSHIMA UNIV.
InstType: EI
InstName: HITACHI RMU-6L
IoniMethod: _ENERGY 70 eV
IonPolarity: pos
Date: 2010-10-09 19:48:36+02:00
Num Peaks: 50
41 265 42 95 43 340 44 2 51 30 52 40 53 140 54 8 55 130 56 30 
57 20 58 2 59 140 65 430 66 45 67 89 68 999 69 110 70 105 71 3 
77 20 79 40 80 20 81 10 82 280 83 40 84 15 92 3 93 25 94 15 
95 90 96 2 97 35 107 20 108 15 109 2 110 760 111 90 112 10 123 2 
124 10 125 20 126 10 135 2 141 40 142 10 153 40 154 2 168 40 169 10 
