Name: 2-(HYDROXY(4-NITROPHENYL)METHYL)TROPONE
MW: 257
Formula: C14H11NO4
Synonym: MassBank: JP010982
Synonym: 2-(HYDROXY(4-NITROPHENYL)METHYL)TROPONE
Structure: 322D28485944524F585928342D4E4954524F5048454E594C294D455448594C2954524F504F4E452E6D6F6C0A20204368656D447261773132323130393230353332440A2031392032302020302020302020302020302020302020302020302020303939392056323030300A2020202D312E383239312020202D312E3636313220202020302E30303030204F202020302020302020302020302020302020302020302020302020302020302020302020300A2020202D312E393438302020202D302E3834343820202020302E303030302043202020302020302020302020302020302020302020302020302020302020302020302020300A2020202D322E373335312020202D302E3539373720202020302E303030302043202020302020302020302020302020302020302020302020302020302020302020302020300A2020202D332E3033303920202020302E3137303720202020302E303030302043202020302020302020302020302020302020302020302020302020302020302020302020300A2020202D322E3631383420202020302E3838353220202020302E303030302043202020302020302020302020302020302020302020302020302020302020302020302020300A2020202D312E3739313020202020312E3031323720202020302E303030302043202020302020302020302020302020302020302020302020302020302020302020302020300A2020202D312E3230373620202020302E3432393320202020302E303030302043202020302020302020302020302020302020302020302020302020302020302020302020300A2020202D312E323635312020202D302E3338353220202020302E303030302043202020302020302020302020302020302020302020302020302020302020302020302020300A2020202D302E353530362020202D302E3739373720202020302E303030302043202020302020302020302020302020302020302020302020302020302020302020302020300A20202020302E313632332020202D302E3338363120202020302E303030302043202020302020302020302020302020302020302020302020302020302020302020302020300A20202020302E3136323320202020302E3433343420202020302E303030302043202020302020302020302020302020302020302020302020302020302020302020302020300A20202020302E3838313820202020302E3834393820202020302E303030302043202020302020302020302020302020302020302020302020302020302020302020302020300A20202020312E3630313920202020302E3433343120202020302E303030302043202020302020302020302020302020302020302020302020302020302020302020302020300A20202020312E363031392020202D302E3339373720202020302E303030302043202020302020302020302020302020302020302020302020302020302020302020302020300A20202020302E383831332020202D302E3831333720202020302E303030302043202020302020302020302020302020302020302020302020302020302020302020302020300A20202020322E3331303420202020302E3834333220202020302E30303030204E202020302020332020302020302020302020302020302020302020302020302020302020300A20202020322E3331303420202020312E3636313220202020302E30303030204F202020302020302020302020302020302020302020302020302020302020302020302020300A20202020332E3033303920202020302E3432373220202020302E30303030204F202020302020352020302020302020302020302020302020302020302020302020302020300A2020202D302E353530362020202D312E3632343520202020302E30303030204F202020302020302020302020302020302020302020302020302020302020302020302020300A2020312020322020322020302020202020200A2020322020332020312020302020202020200A2020332020342020322020302020202020200A2020342020352020312020302020202020200A2020352020362020322020302020202020200A2020362020372020312020302020202020200A2020372020382020322020302020202020200A2020322020382020312020302020202020200A2031302031312020312020302020202020200A2031312031322020322020302020202020200A2031322031332020312020302020202020200A2031332031342020322020302020202020200A2031342031352020312020302020202020200A2031302031352020322020302020202020200A2031362031372020322020302020202020200A2031362031382020312020302020202020200A2031332031362020312020302020202020200A2020392031302020312020302020202020200A2020392031392020312020302020202020200A2020382020392020312020302020202020200A4D202043484720203220203136202020312020313820202D310A4D2020454E44
Contributor: TAKESHITA H, INST. OF ADVANCED MATERIAL STUDY KYUSHU UNIV.
InstType: EI
InstName: JEOL JMS-01-SG-2
IoniMethod: _ENERGY 75 eV
IonPolarity: pos
Date: 2010-10-09 19:48:36+02:00
Num Peaks: 45
40 268 50 355 51 690 52 194 53 77 62 80 63 224 64 66 65 97 74 105 
75 166 76 307 77 999 78 371 79 313 89 164 90 75 92 83 104 151 105 496 
106 135 107 453 115 125 135 92 139 106 150 273 151 101 152 178 153 131 154 48 
155 38 163 105 164 231 165 673 166 107 181 103 182 66 192 92 193 111 194 37 
210 86 211 54 228 34 257 489 258 86 
