Name: MassBank: JP010400
MW: 210
Formula: C11H14O4
Synonym: MassBank: JP010400
Synonym: (3,4-DIMETHOXYPHENYL)PROPIONIC ACID
Structure: 28332C342D44494D4554484F58595048454E594C2950524F50494F4E494320414349442E6D6F6C0A20204368656D447261773130323030393233303132440A2031352031352020302020302020302020302020302020302020302020303939392056323030300A2020202D312E343433302020202D302E3731353520202020302E303030302043202020302020302020302020302020302020302020302020302020302020302020302020300A20202020302E3230383020202020302E3731333320202020302E303030302043202020302020302020302020302020302020302020302020302020302020302020302020300A2020202D302E323034352020202D302E3030313220202020302E303030302043202020302020302020302020302020302020302020302020302020302020302020302020300A20202020302E323038302020202D302E3731353720202020302E303030302043202020302020302020302020302020302020302020302020302020302020302020302020300A20202020312E303333302020202D302E3731353720202020302E303030302043202020302020302020302020302020302020302020302020302020302020302020302020300A20202020312E343435352020202D302E3030313220202020302E303030302043202020302020302020302020302020302020302020302020302020302020302020302020300A20202020312E3033333020202020302E3731333320202020302E303030302043202020302020302020302020302020302020302020302020302020302020302020302020300A20202020312E3434353520202020312E3432373720202020302E30303030204F202020302020302020302020302020302020302020302020302020302020302020302020300A20202020322E323730352020202D302E3030313220202020302E30303030204F202020302020302020302020302020302020302020302020302020302020302020302020300A2020202D312E303239352020202D302E3030313220202020302E303030302043202020302020302020302020302020302020302020302020302020302020302020302020300A2020202D322E323639332020202D302E3731333320202020302E303030302043202020302020302020302020302020302020302020302020302020302020302020302020300A2020202D322E363831382020202D312E3432373720202020302E30303030204F202020302020302020302020302020302020302020302020302020302020302020302020300A2020202D322E3638313820202020302E3030313220202020302E30303030204F202020302020302020302020302020302020302020302020302020302020302020302020300A20202020322E363831382020202D302E3731343320202020302E303030302043202020302020302020302020302020302020302020302020302020302020302020302020300A20202020322E3237303020202020312E3432373720202020302E303030302043202020302020302020302020302020302020302020302020302020302020302020302020300A2020322020332020322020302020202020200A2020332020342020312020302020202020200A2020342020352020322020302020202020200A2020352020362020312020302020202020200A2020362020372020322020302020202020200A2020372020322020312020302020202020200A2020372020382020312020302020202020200A2020362020392020312020302020202020200A2020332031302020312020302020202020200A2031302020312020312020302020202020200A2020312031312020312020302020202020200A2031312031322020322020302020202020200A2031312031332020312020302020202020200A2020392031342020312020302020202020200A2020382031352020312020302020202020200A4D202053545920203120202031205355500A4D2020534C4220203120202031202020310A4D202053414C202020312020332020313120203132202031330A4D202053424C20202031202031202031310A4D2020534D542020203120434F4F480A4D2020534256202020312031312020202D362E3837393720202020382E303533320A4D202053545920203120202032205355500A4D2020534C4220203120202032202020320A4D202053414C20202032202031202031340A4D202053424C20202032202031202031340A4D2020534D5420202032204D650A4D2020534256202020322031342020202D352E3634323020202020372E333337390A4D202053545920203120202033205355500A4D2020534C4220203120202033202020330A4D202053414C20202033202031202031350A4D202053424C20202033202031202031350A4D2020534D5420202033204D650A4D2020534256202020332031352020202D352E3232383820202020382E303531300A4D2020454E44
Contributor: MASS SPECTROSCOPY SOC. OF JAPAN (MSSJ)
InstType: EI
InstName: HITACHI RMU-6M
IoniMethod: _ENERGY 20 eV
IonPolarity: pos
Date: 2010-10-09 19:48:36+02:00
Num Peaks: 94
39 27 40 35 41 264 42 26 43 999 44 183 45 229 46 3 53 21 54 36 
55 421 56 46 57 545 58 487 59 130 60 45 61 40 65 16 66 13 67 12 
68 92 69 322 70 286 71 40 72 111 73 207 74 71 77 3 78 18 79 27 
80 26 81 13 82 108 83 179 84 175 85 24 86 45 87 54 88 18 91 7 
92 27 93 25 94 26 95 13 96 80 97 116 98 98 99 13 100 36 101 31 
103 21 104 1 105 40 106 27 107 42 108 3 109 58 110 54 111 60 112 5 
113 45 114 29 119 36 120 2 121 644 122 63 123 44 124 2 125 32 126 21 
127 18 128 2 129 14 131 27 133 18 134 17 135 86 137 23 138 21 139 2 
140 14 141 46 142 16 149 13 150 27 151 537 152 63 180 12 181 22 194 116 
195 20 210 28 211 45 212 11 
