Name: (1R)-1-(N-2-BUTENYL-N-PROPIONYL)AMINO-2-(2-TETRAHYDROPYRANYLOXY)ETHYLBENZENE
MW: 331
Formula: C20H29NO3
Synonym: MassBank: JP010506
Synonym: (1R)-1-(N-2-BUTENYL-N-PROPIONYL)AMINO-2-(2-TETRAHYDROPYRANYLOXY)ETHYLBENZENE
Structure: 283152292D312D284E2D322D425554454E594C2D4E2D50524F50494F4E594C29414D494E4F2D322D28322D5445545241485944524F505952414E594C4F585929455448594C42454E5A454E452E6D6F6C0A20204368656D447261773130313930393132333032440A2032352032362020302020302020302020302020302020302020302020303939392056323030300A20202020302E303035392020202D312E3434333820202020302E303030302043202020302020302020302020302020302020302020302020302020302020302020302020300A20202020302E303035392020202D322E3236383720202020302E303030302043202020302020302020302020302020302020302020302020302020302020302020302020300A20202020302E373230342020202D322E3638313220202020302E303030302043202020302020302020302020302020302020302020302020302020302020302020302020300A20202020312E343334382020202D322E3236383720202020302E303030302043202020302020302020302020302020302020302020302020302020302020302020302020300A20202020312E343334382020202D312E3434333820202020302E303030302043202020302020302020302020302020302020302020302020302020302020302020302020300A20202020302E373230342020202D312E3033313320202020302E303030302043202020302020302020302020302020302020302020302020302020302020302020302020300A20202020302E373230342020202D302E3230363220202020302E303030302043202020302020302020302020302020302020302020302020302020302020302020302020300A20202020302E3030353920202020302E3230363220202020302E303030302043202020302020302020302020302020302020302020302020302020302020302020302020300A2020202D302E323736332020202D302E3536383920202020302E303030302048202020302020302020302020302020302020302020302020302020302020302020302020300A20202020302E3030353920202020312E3033313320202020302E30303030204F202020302020302020302020302020302020302020302020302020302020302020302020300A2020202D302E3830363620202020302E3334393520202020302E30303030204E202020302020302020302020302020302020302020302020302020302020302020302020300A2020202D312E3038383720202020312E3132343820202020302E303030302043202020302020302020302020302020302020302020302020302020302020302020302020300A2020202D312E333336392020202D302E3238323420202020302E303030302043202020302020302020302020302020302020302020302020302020302020302020302020300A2020202D322E313439332020202D302E3133393120202020302E303030302043202020302020302020302020302020302020302020302020302020302020302020302020300A2020202D312E3930313220202020312E3236383120202020302E30303030204F202020302020302020302020302020302020302020302020302020302020302020302020300A20202020302E3732303420202020312E3434333820202020302E303030302043202020302020302020302020302020302020302020302020302020302020302020302020300A20202020312E3433343820202020312E3033313320202020302E303030302043202020302020302020302020302020302020302020302020302020302020302020302020300A20202020322E3134393320202020312E3434333820202020302E303030302043202020302020302020302020302020302020302020302020302020302020302020302020300A20202020322E3134393320202020322E3236383720202020302E303030302043202020302020302020302020302020302020302020302020302020302020302020302020300A20202020312E3433343820202020322E3638313220202020302E303030302043202020302020302020302020302020302020302020302020302020302020302020302020300A20202020302E3732303420202020322E3236383720202020302E30303030204F202020302020302020302020302020302020302020302020302020302020302020302020300A2020202D302E3632363320202020312E3739333420202020302E303030302043202020302020302020302020302020302020302020302020302020302020302020302020300A2020202D302E3033363920202020312E3435333120202020302E303030302043202020302020302020302020302020302020302020302020302020302020302020302020300A2020202D322E3134323920202020302E3833383520202020302E303030302043202020302020302020302020302020302020302020302020302020302020302020302020300A2020202D312E3535333520202020302E3439383220202020302E303030302043202020302020302020302020302020302020302020302020302020302020302020302020300A2020312020322020322020302020202020200A2020322020332020312020302020202020200A2020332020342020322020302020202020200A2020342020352020312020302020202020200A2020352020362020322020302020202020200A2020362020312020312020302020202020200A2020362020372020312020302020202020200A2020372020382020312020302020202020200A2020382020392020312020312020202020200A2020382031302020312020312020202020200A2020382031312020312020302020202020200A2031312031322020312020302020202020200A2031312031332020312020302020202020200A2031332031342020312020302020202020200A2031322031352020322020302020202020200A2031302031362020312020302020202020200A2031362031372020312020302020202020200A2031372031382020312020302020202020200A2031382031392020312020302020202020200A2031392032302020312020302020202020200A2032302032312020312020302020202020200A2032312031362020312020302020202020200A2032322032332020312020302020202020200A2031322032322020312020302020202020200A2032342032352020312020302020202020200A2031342032342020312020302020202020200A4D202053545920203120202031205355500A4D2020534C4220203120202031202020310A4D202053414C2020203120203220203232202032330A4D202053424C20202031202031202032340A4D2020534D5420202031204348324348330A4D2020534256202020312032342020202D362E3331343420202020382E353036310A4D202053545920203120202032205355500A4D2020534C4220203120202032202020320A4D202053414C2020203220203220203234202032350A4D202053424C20202032202031202032360A4D2020534D54202020322043484348330A4D2020534256202020322032362020202D362E3737303420202020382E383135310A4D2020454E44
Contributor: TSUNODA T, FACULTY OF PHARMACEUTICAL SCIENCES, TOKUSHIMA BUNRI UNIV.
InstType: EI
InstName: SHIMADZU LKB-9000B
IoniMethod: _ENERGY 70 eV
IonPolarity: pos
Date: 2010-10-09 19:48:36+02:00
Num Peaks: 43
27 215 29 837 30 68 31 68 39 181 41 380 42 82 43 44 45 50 51 53 
53 73 54 52 55 551 56 130 57 454 67 92 70 147 77 97 78 53 85 529 
91 195 103 116 104 239 105 56 106 556 107 53 119 50 120 165 126 97 128 71 
144 60 158 68 160 999 161 145 162 374 173 68 174 89 216 555 217 162 229 74 
230 117 331 11 332 5 
