Name: (E)-1-(METHYLDIPHENYLSILYL)BUT-1-EN-3-YNE
MW: 248
Formula: C17H16Si
Synonym: MassBank: JP011756
Synonym: (E)-1-(METHYLDIPHENYLSILYL)BUT-1-EN-3-YNE
Structure: 2845292D312D284D455448594C44495048454E594C53494C594C294255542D312D454E2D332D594E452E6D6F6C0A20204368656D447261773130323230393131353732440A2032302032312020302020302020302020302020302020302020302020303939392056323030300A2020202D302E383136362020202D312E3134343820202020302E303030302043202020302020302020302020302020302020302020302020302020302020302020302020300A20202020302E303038342020202D312E3134343820202020302E303030302053692020302020302020302020302020302020302020302020302020302020302020302020300A20202020302E383237382020202D312E3234303620202020302E303030302043202020302020302020302020302020302020302020302020302020302020302020302020300A2020202D302E303339362020202D312E3936383420202020302E303030302043202020302020302020302020302020302020302020302020302020302020302020302020300A20202020302E313934362020202D302E3038383620202020302E303030302043202020302020302020302020302020302020302020302020302020302020302020302020300A2020202D302E3333353720202020302E3534333420202020302E303030302043202020302020302020302020302020302020302020302020302020302020302020302020300A20202020302E3939313520202020302E3132343920202020302E303030302048202020302020302020302020302020302020302020302020302020302020302020302020300A2020202D312E3134383220202020302E3430303120202020302E303030302048202020302020302020302020302020302020302020302020302020302020302020302020300A2020202D302E3035333520202020312E3331383620202020302E303030302043202020302020302020302020302020302020302020302020302020302020302020302020300A20202020302E3232383620202020322E3039333920202020302E303030302043202020302020302020302020302020302020302020302020302020302020302020302020300A2020202D312E323239312020202D302E3433303420202020302E303030302043202020302020302020302020302020302020302020302020302020302020302020302020300A2020202D322E303534312020202D302E3433303420202020302E303030302043202020302020302020302020302020302020302020302020302020302020302020302020300A2020202D322E343636362020202D312E3134343820202020302E303030302043202020302020302020302020302020302020302020302020302020302020302020302020300A2020202D322E303534312020202D312E3835393320202020302E303030302043202020302020302020302020302020302020302020302020302020302020302020302020300A2020202D312E323239312020202D312E3835393320202020302E303030302043202020302020302020302020302020302020302020302020302020302020302020302020300A20202020312E313534362020202D312E3939383120202020302E303030302043202020302020302020302020302020302020302020302020302020302020302020302020300A20202020312E393734302020202D322E3039333920202020302E303030302043202020302020302020302020302020302020302020302020302020302020302020302020300A20202020322E343636362020202D312E3433323220202020302E303030302043202020302020302020302020302020302020302020302020302020302020302020302020300A20202020322E313339392020202D302E3637343620202020302E303030302043202020302020302020302020302020302020302020302020302020302020302020302020300A20202020312E333230342020202D302E3537383920202020302E303030302043202020302020302020302020302020302020302020302020302020302020302020302020300A2020312020322020312020302020202020200A2020322020332020312020302020202020200A2020322020342020312020302020202020200A2020322020352020312020302020202020200A2020352020362020322020302020202020200A2020352020372020312020302020202020200A2020362020382020312020302020202020200A2020362020392020312020302020202020200A2020392031302020332020302020202020200A2020312031312020322020302020202020200A2031312031322020312020302020202020200A2031322031332020322020302020202020200A2031332031342020312020302020202020200A2031342031352020322020302020202020200A2031352020312020312020302020202020200A2020332031362020322020302020202020200A2031362031372020312020302020202020200A2031372031382020322020302020202020200A2031382031392020312020302020202020200A2031392032302020322020302020202020200A2032302020332020312020302020202020200A4D2020454E44
Contributor: FAC. TECHNOLOGY, HIROSHIMA UNIV.
InstType: EI
InstName: SHIMADZU QP-1000
IoniMethod: _ENERGY 20 eV
IonPolarity: pos
Date: 2010-10-09 19:48:36+02:00
Num Peaks: 42
45 11 78 13 105 499 106 58 107 24 120 999 121 313 122 94 128 33 131 24 
132 18 133 86 134 12 145 28 146 29 155 164 156 25 157 12 168 18 169 79 
170 853 171 165 172 43 178 12 183 74 184 14 197 16 203 86 204 60 205 15 
207 53 208 22 231 60 232 18 233 561 234 128 235 30 245 43 246 38 247 105 
248 71 249 16 
