Name: ACETAMIDOTHIAZOLE
MW: 142
Formula: C5H6N2OS
Synonym: MassBank: JP011888
Synonym: ACETAMIDOTHIAZOLE
Structure: 310A32330A41434554414D49444F544849415A4F4C452E6D6F6C0A20204368656D447261773036323431303035343832440A2020392020392020302020302020302020302020302020302020302020303939392056323030300A20202020312E313732352020202D302E3632353320202020302E303030302053202020302020302020302020302020302020302020302020302020302020302020302020300A20202020302E343138392020202D302E3238393820202020302E303030302043202020302020302020302020302020302020302020302020302020302020302020302020300A20202020302E3530353120202020302E3533303720202020302E30303030204E202020302020302020302020302020302020302020302020302020302020302020302020300A20202020312E3331323120202020302E3730323320202020302E303030302043202020302020302020302020302020302020302020302020302020302020302020302020300A20202020312E373234362020202D302E3031323220202020302E303030302043202020302020302020302020302020302020302020302020302020302020302020302020300A2020202D312E303130312020202D302E3238393820202020302E303030302043202020302020302020302020302020302020302020302020302020302020302020302020300A2020202D312E373234362020202D302E3730323320202020302E303030302043202020302020302020302020302020302020302020302020302020302020302020302020300A2020202D312E3031303120202020302E3533353220202020302E30303030204F202020302020302020302020302020302020302020302020302020302020302020302020300A2020202D302E323935362020202D302E3730323320202020302E30303030204E202020302020302020302020302020302020302020302020302020302020302020302020300A2020312020322020312020302020202020200A2020322020332020322020302020202020200A2020332020342020312020302020202020200A2020342020352020322020302020202020200A2020312020352020312020302020202020200A2020362020372020312020302020202020200A2020362020382020322020302020202020200A2020362020392020312020302020202020200A2020322020392020312020302020202020200A4D2020454E44
Contributor: YAMAMOTO M, DEP. CHEMISTRY, FAC. SCIENCE, NARA WOMEN'S UNIV.
InstType: EI
InstName: HITACHI M-2500
IoniMethod: _ENERGY 70 eV
IonPolarity: pos
Date: 2010-10-09 19:48:36+02:00
Num Peaks: 21
15 37 28 35 40 10 42 25 43 387 45 87 46 22 55 74 57 27 58 164 
59 15 60 10 71 11 73 112 99 11 100 999 101 55 102 48 142 293 143 55 
144 16 
