Name: 4-TERT-BUTYLPYROCATECHOL
MW: 166
Formula: C10H14O2
Synonym: MassBank: JP010823
Synonym: 4-TERT-BUTYLPYROCATECHOL
Structure: 342D544552542D425554594C5059524F4341544543484F4C2E6D6F6C0A20204368656D447261773034323231303231323532440A2031322031322020302020302020302020302020302020302020302020303939392056323030300A2020202D322E303632352020202D302E3330323020202020302E30303030204F202020302020302020302020302020302020302020302020302020302020302020302020300A2020202D312E323337352020202D302E3330323020202020302E303030302043202020302020302020302020302020302020302020302020302020302020302020302020300A2020202D302E3832353020202020302E3431323520202020302E303030302043202020302020302020302020302020302020302020302020302020302020302020302020300A2020202D312E3233373520202020312E3132373020202020302E30303030204F202020302020302020302020302020302020302020302020302020302020302020302020300A20202020302E3030303020202020302E3431323520202020302E303030302043202020302020302020302020302020302020302020302020302020302020302020302020300A20202020302E343132352020202D302E3330323020202020302E303030302043202020302020302020302020302020302020302020302020302020302020302020302020300A20202020302E303030302020202D312E3031363420202020302E303030302043202020302020302020302020302020302020302020302020302020302020302020302020300A2020202D302E383235302020202D312E3031363420202020302E303030302043202020302020302020302020302020302020302020302020302020302020302020302020300A20202020312E323337352020202D302E3330323020202020302E303030302043202020302020302020302020302020302020302020302020302020302020302020302020300A20202020312E3233373520202020302E3532333020202020302E303030302043202020302020302020302020302020302020302020302020302020302020302020302020300A20202020322E303632352020202D302E3330323020202020302E303030302043202020302020302020302020302020302020302020302020302020302020302020302020300A20202020312E323337352020202D312E3132373020202020302E303030302043202020302020302020302020302020302020302020302020302020302020302020302020300A2020312020322020312020302020202020200A2020322020332020312020302020202020200A2020332020342020312020302020202020200A2020332020352020322020302020202020200A2020352020362020312020302020202020200A2020362020372020322020302020202020200A2020372020382020312020302020202020200A2020322020382020322020302020202020200A2020392031302020312020302020202020200A2020392031322020312020302020202020200A2020392031312020312020302020202020200A2020362020392020312020302020202020200A4D2020454E44
Contributor: FUJISE Y, HAMAMATSU UNIV. SCHOOL OF MEDICINE
InstType: EI
InstName: JEOL JMS-D-3000
IoniMethod: _ENERGY 70 eV
IonPolarity: pos
Date: 2010-10-09 19:48:36+02:00
Num Peaks: 35
42 80 43 15 44 93 50 10 51 39 52 16 53 20 55 24 63 19 64 11 
65 29 67 10 75 17 76 22 77 54 78 13 79 27 89 18 91 18 93 45 
103 14 105 61 107 19 110 23 111 60 123 134 124 13 133 25 135 18 136 15 
150 23 151 999 152 103 166 333 167 37 
