Name: ETHYL 2-BROMOPROPIONATE
CAS: 535-11-5
MW: 179
Formula: C5H9BrO2
Synonym: MassBank: JP011311
Synonym: ETHYL 2-BROMOPROPIONATE
Structure: 310A32300A414C5048412D42524F4D4F50524F50494F4E4943204143494420455448594C2045535445522E6D6F6C0A20204368656D447261773038313131303135353432440A2020382020372020302020302020302020302020302020302020302020303939392056323030300A20202020302E3335373220202020302E3230363220202020302E303030302043202020302020302020302020302020302020302020302020302020302020302020302020300A20202020312E303731372020202D302E3230363320202020302E303030302043202020302020302020302020302020302020302020302020302020302020302020302020300A20202020312E303731372020202D312E3033313320202020302E303030302043202020302020302020302020302020302020302020302020302020302020302020302020300A20202020302E3335373220202020312E3033313320202020302E30303030204F202020302020302020302020302020302020302020302020302020302020302020302020300A2020202D302E333537322020202D302E3230363320202020302E30303030204F202020302020302020302020302020302020302020302020302020302020302020302020300A20202020312E3738363220202020302E3230363220202020302E303030302042722020302020302020302020302020302020302020302020302020302020302020302020300A2020202D312E3037313720202020302E3230363220202020302E303030302043202020302020302020302020302020302020302020302020302020302020302020302020300A2020202D312E373836322020202D302E3230363320202020302E303030302043202020302020302020302020302020302020302020302020302020302020302020302020300A2020312020322020312020302020202020200A2020322020332020312020302020202020200A2020312020342020322020302020202020200A2020312020352020312020302020202020200A2020322020362020312020302020202020200A2020372020382020312020302020202020200A2020352020372020312020302020202020200A4D2020454E44
Contributor: YAMAMOTO M, DEP. CHEMISTRY, FAC. SCIENCE, NARA WOMEN'S UNIV.
InstType: EI
InstName: HITACHI M-2500
IoniMethod: _ENERGY 70 eV
IonPolarity: pos
Date: 2010-10-09 19:48:36+02:00
Num Peaks: 39
14 13 15 51 25 13 26 184 27 734 28 343 29 999 30 27 31 42 41 115 
42 24 43 144 44 11 45 165 53 15 55 136 56 150 57 413 58 24 73 54 
74 22 79 21 80 10 81 22 101 55 106 92 107 607 108 247 109 591 110 153 
135 127 136 10 137 123 152 48 154 48 180 153 181 11 182 151 183 10 
