Name: MassBank: JP010487
MW: 129
Formula: C8H19N
Synonym: MassBank: JP010487
Synonym: 1,1,3,3-TETRAMETHYLBUTYLAMINE
Structure: 310A32320A312C312C332C332D54455452414D455448594C425554594C414D494E452E6D6F6C0A20204368656D447261773130323330393032303132440A2020392020382020302020302020302020302020302020302020302020303939392056323030300A2020202D302E333032302020202D302E3731343520202020302E303030302043202020302020302020302020302020302020302020302020302020302020302020302020300A2020202D302E373134352020202D302E3030303020202020302E303030302043202020302020302020302020302020302020302020302020302020302020302020302020300A20202020302E3030303020202020302E3431323520202020302E303030302043202020302020302020302020302020302020302020302020302020302020302020302020300A20202020302E3731343520202020302E3030303020202020302E303030302043202020302020302020302020302020302020302020302020302020302020302020302020300A20202020312E3132373020202020302E3731343520202020302E303030302043202020302020302020302020302020302020302020302020302020302020302020302020300A20202020312E343238392020202D302E3431323520202020302E303030302043202020302020302020302020302020302020302020302020302020302020302020302020300A20202020302E333032302020202D302E3731343520202020302E303030302043202020302020302020302020302020302020302020302020302020302020302020302020300A2020202D312E343238392020202D302E3431323520202020302E30303030204E202020302020302020302020302020302020302020302020302020302020302020302020300A2020202D312E3132373020202020302E3731343520202020302E303030302043202020302020302020302020302020302020302020302020302020302020302020302020300A2020322020332020312020302020202020200A2020332020342020312020302020202020200A2020342020352020312020312020202020200A2020312020322020312020302020202020200A2020342020362020312020302020202020200A2020342020372020312020312020202020200A2020322020382020312020302020202020200A2020322020392020312020302020202020200A4D2020454E44
Contributor: TAJIMA S, GUNMA COLLEGE OF TECHNOLOGY
InstType: EI
InstName: HITACHI M-80A
IoniMethod: _ENERGY 70 eV
IonPolarity: pos
Date: 2010-10-09 19:48:36+02:00
Num Peaks: 17
15 18 18 35 27 34 28 10 29 47 30 29 39 43 41 101 42 86 43 43 
55 28 56 30 57 91 58 999 59 38 72 19 114 32 
