Name: MassBank: JP010027
MW: 142
Formula: C8H14O2
Synonym: MassBank: JP010027
Synonym: 2,2-DIMETHYL-4-ISOPROPENYL-1,3-DIOXOLANE
Structure: 322C322D44494D455448594C2D342D49534F50524F50454E594C2D312C332D44494F584F4C414E452E6D6F6C0A20204368656D447261773132323030393036343832440A2031302031302020302020302020302020302020302020302020302020303939392056323030300A2020202D302E373334352020202D302E3931383220202020302E30303030204F202020302020302020302020302020302020302020302020302020302020302020302020300A2020202D302E393839352020202D302E3133333620202020302E303030302043202020302020302020302020302020302020302020302020302020302020302020302020300A2020202D302E3332323020202020302E3335313320202020302E30303030204F202020302020302020302020302020302020302020302020302020302020302020302020300A20202020302E333435342020202D302E3133333620202020302E303030302043202020302020302020302020302020302020302020302020302020302020302020302020300A20202020302E303930352020202D302E3931383220202020302E303030302043202020302020302020302020302020302020302020302020302020302020302020302020300A20202020312E3133303020202020302E3132313320202020302E303030302043202020302020302020302020302020302020302020302020302020302020302020302020300A20202020312E3334333620202020302E3931383220202020302E303030302043202020302020302020302020302020302020302020302020302020302020302020302020300A20202020312E373433312020202D302E3433303720202020302E303030302043202020302020302020302020302020302020302020302020302020302020302020302020300A2020202D312E373433312020202D302E3436393220202020302E303030302043202020302020302020302020302020302020302020302020302020302020302020302020300A2020202D312E3430323020202020302E3538303920202020302E303030302043202020302020302020302020302020302020302020302020302020302020302020302020300A2020312020322020312020302020202020200A2020322020332020312020302020202020200A2020332020342020312020302020202020200A2020342020352020312020302020202020200A2020312020352020312020302020202020200A2020362020372020322020302020202020200A2020362020382020312020302020202020200A2020342020362020312020302020202020200A2020322020392020312020362020202020200A2020322031302020312020312020202020200A4D2020454E44
Contributor: KURARAY CO., LTD.
InstType: EI
InstName: JEOL JMS-D-300
IoniMethod: _ENERGY 70 eV
IonPolarity: pos
Date: 2010-10-09 19:48:36+02:00
Num Peaks: 31
27 71 29 75 31 27 39 15 40 36 41 195 42 277 43 999 44 48 53 41 
54 19 55 9 56 43 57 39 58 39 59 13 61 19 67 55 69 74 70 4 
71 19 72 632 73 40 83 9 84 88 85 200 97 100 101 3 112 174 127 627 
128 52 
