Name: TRIMETHYLETHOXYSILANE
MW: 118
Formula: C5H14OSi
Synonym: MassBank: JP011793
Synonym: TRIMETHYLETHOXYSILANE
Structure: 310A31380A5452494D455448594C4554484F585953494C414E452E6D6F6C0A20204368656D447261773038313231303038343532440A2020372020362020302020302020302020302020302020302020302020303939392056323030300A20202020302E373134352020202D302E3030303020202020302E303030302053692020302020302020302020302020302020302020302020302020302020302020302020300A20202020302E303030302020202D302E3431323520202020302E30303030204F202020302020302020302020302020302020302020302020302020302020302020302020300A2020202D302E373134352020202D302E3030303020202020302E303030302043202020302020302020302020302020302020302020302020302020302020302020302020300A2020202D312E343238392020202D302E3431323520202020302E303030302043202020302020302020302020302020302020302020302020302020302020302020302020300A20202020302E3330323020202020302E3731343520202020302E303030302043202020302020302020302020302020302020302020302020302020302020302020302020300A20202020312E3432383920202020302E3431323520202020302E303030302043202020302020302020302020302020302020302020302020302020302020302020302020300A20202020312E313237302020202D302E3731343520202020302E303030302043202020302020302020302020302020302020302020302020302020302020302020302020300A2020332020342020312020302020202020200A2020322020332020312020302020202020200A2020312020322020312020302020202020200A2020312020352020312020302020202020200A2020312020362020312020302020202020200A2020312020372020312020302020202020200A4D2020454E44
Contributor: TAJIMA S, GUNMA COLLEGE OF TECHNOLOGY
InstType: EI
InstName: HITACHI M-80A
IoniMethod: _ENERGY 70 eV
IonPolarity: pos
Date: 2010-10-09 19:48:36+02:00
Num Peaks: 30
14 38 15 132 26 20 27 79 29 81 31 16 42 27 43 159 44 42 45 205 
46 16 47 57 51 29 55 15 57 12 58 45 59 231 60 25 61 64 72 12 
73 257 74 31 75 591 76 45 77 36 87 12 103 999 104 97 105 54 118 24 
