Name: MassBank: JP012082
MW: 204
Formula: C15H24
Synonym: MassBank: JP012082
Synonym: 7BETA-ISOPROPENYL-1,(4A)BETA-DIMETHYL-3,4,(4A),5,6,7,8,8ABETA-OCTAHYDRONAPHTHALENE
Structure: 37424554412D49534F50524F50454E594C2D312C28344129424554412D44494D455448594C2D332C342C283441292C352C362C372C382C3841424554412D4F435441485944524F4E4150485448414C454E452E6D6F6C0A20204368656D447261773035323431303138323832440A2031382031392020302020302020302020302020302020302020302020303939392056323030300A2020202D312E3136373420202020302E3230363220202020302E303030302043202020302020302020302020302020302020302020302020302020302020302020302020300A2020202D312E313637342020202D302E3631383820202020302E303030302043202020302020302020302020302020302020302020302020302020302020302020302020300A2020202D302E343533302020202D312E3033313320202020302E303030302043202020302020302020302020302020302020302020302020302020302020302020302020300A20202020302E323631352020202D302E3631383820202020302E303030302043202020302020302020302020302020302020302020302020302020302020302020302020300A20202020302E3236313520202020302E3230363220202020302E303030302043202020302020302020302020302020302020302020302020302020302020302020302020300A2020202D302E3435333020202020302E3631383820202020302E303030302043202020302020302020302020302020302020302020302020302020302020302020302020300A20202020302E393736302020202D312E3033313320202020302E303030302043202020302020302020302020302020302020302020302020302020302020302020302020300A20202020312E363930352020202D302E3631383820202020302E303030302043202020302020302020302020302020302020302020302020302020302020302020302020300A20202020312E3639303520202020302E3230363220202020302E303030302043202020302020302020302020302020302020302020302020302020302020302020302020300A20202020302E3937363020202020302E3631383820202020302E303030302043202020302020302020302020302020302020302020302020302020302020302020302020300A20202020302E3236313520202020312E3033313320202020302E303030302048202020302020302020302020302020302020302020302020302020302020302020302020300A20202020302E323631352020202D312E3434333820202020302E303030302043202020302020302020302020302020302020302020302020302020302020302020302020300A20202020322E3430343920202020302E3631383820202020302E303030302048202020302020302020302020302020302020302020302020302020302020302020302020300A20202020302E3937363020202020312E3434333820202020302E303030302043202020302020302020302020302020302020302020302020302020302020302020302020300A2020202D312E3939323420202020302E3230363220202020302E303030302043202020302020302020302020302020302020302020302020302020302020302020302020300A2020202D312E3338313020202020312E3030333120202020302E303030302048202020302020302020302020302020302020302020302020302020302020302020302020300A2020202D322E343034392020202D302E3530383220202020302E303030302043202020302020302020302020302020302020302020302020302020302020302020302020300A2020202D322E3430343920202020302E3932303720202020302E303030302043202020302020302020302020302020302020302020302020302020302020302020302020300A2020312020322020312020302020202020200A2020322020332020312020302020202020200A2020332020342020312020302020202020200A2020342020352020312020302020202020200A2020352020362020312020302020202020200A2020362020312020312020302020202020200A2020342020372020312020302020202020200A2020372020382020312020302020202020200A2020382020392020312020302020202020200A2020392031302020322020302020202020200A2031302020352020312020302020202020200A2020352031312020312020312020202020200A2020342031322020312020312020202020200A2020392031332020312020302020202020200A2031302031342020312020302020202020200A2020312031352020312020312020202020200A2020312031362020312020362020202020200A2031352031372020322020302020202020200A2031352031382020312020302020202020200A4D2020454E44
Contributor: HISAHIRO HAGIWARA, INSTITUTE FOR CHEMICAL REACTION SCIENCE TOHOKU UNIV.
InstType: EI
InstName: JEOL JMS-DX-300
IoniMethod: _ENERGY 70 eV
IonPolarity: pos
Date: 2010-10-09 19:48:36+02:00
Num Peaks: 52
36 150 39 262 40 180 41 644 42 144 43 788 44 200 53 240 55 421 58 255 
59 230 65 238 67 391 68 309 69 204 73 380 77 253 79 481 80 163 81 562 
82 159 88 139 91 502 92 197 93 745 94 296 95 358 97 292 105 472 106 230 
107 781 108 517 109 863 110 213 119 277 120 213 121 388 122 734 123 249 133 328 
134 197 135 204 147 270 148 167 149 150 161 999 162 294 163 172 175 228 189 303 
204 476 205 155 
