Name: 1-PARA-TOLYLETHANOL
MW: 136
Formula: C9H12O
Synonym: MassBank: JP010854
Synonym: 1-PARA-TOLYLETHANOL
Structure: 312D504152412D544F4C594C455448414E4F4C2E6D6F6C0A20204368656D447261773131323230393231353632440A2031302031302020302020302020302020302020302020302020302020303939392056323030300A2020202D312E3434333720202020302E3030303020202020302E303030302043202020302020302020302020302020302020302020302020302020302020302020302020300A2020202D312E383536332020202D302E3731343520202020302E303030302043202020302020302020302020302020302020302020302020302020302020302020302020300A2020202D302E3631383820202020302E3030303020202020302E303030302043202020302020302020302020302020302020302020302020302020302020302020302020300A2020202D302E3230363220202020302E3731343520202020302E303030302043202020302020302020302020302020302020302020302020302020302020302020302020300A20202020312E303331332020202D302E3030303020202020302E303030302043202020302020302020302020302020302020302020302020302020302020302020302020300A2020202D302E323036322020202D302E3731343520202020302E303030302043202020302020302020302020302020302020302020302020302020302020302020302020300A20202020302E3631383820202020302E3731343520202020302E303030302043202020302020302020302020302020302020302020302020302020302020302020302020300A20202020302E363138382020202D302E3731343520202020302E303030302043202020302020302020302020302020302020302020302020302020302020302020302020300A20202020312E383536332020202D302E3030303020202020302E303030302043202020302020302020302020302020302020302020302020302020302020302020302020300A2020202D312E3835363320202020302E3731343520202020302E30303030204F202020302020302020302020302020302020302020302020302020302020302020302020300A2020312020322020312020302020202020200A2020332020342020312020302020202020200A2020332020362020322020302020202020200A2020342020372020322020302020202020200A2020352020372020312020302020202020200A2020352020382020322020302020202020200A2020362020382020312020302020202020200A2020352020392020312020302020202020200A2020312020332020312020302020202020200A2020312031302020312020302020202020200A4D2020454E44
Contributor: SODA AROMATIC CO., LTD.
InstType: EI
InstName: HITACHI M-80B
IoniMethod: _ENERGY 70 eV
IonPolarity: pos
Date: 2010-10-09 19:48:36+02:00
Num Peaks: 52
15 17 18 71 26 13 27 85 38 26 39 232 41 37 43 266 45 18 50 76 
51 169 52 39 53 27 57 13 58 35 59 19 60 21 61 14 62 41 63 172 
64 27 65 246 66 19 67 12 74 23 75 24 76 21 77 283 79 16 86 12 
87 16 89 102 90 31 91 746 92 157 93 475 94 29 102 33 103 118 104 12 
115 294 116 78 117 923 118 999 119 270 120 24 121 581 122 38 134 39 135 14 
136 212 137 15 
