Name: 1-BROMO-5-TETRAHYDROPYRANYLOXY-1-PENTYNE
MW: 246
Formula: C10H15BrO2
Synonym: MassBank: JP012109
Synonym: 1-BROMO-5-TETRAHYDROPYRANYLOXY-1-PENTYNE
Structure: 312D42524F4D4F2D352D5445545241485944524F505952414E594C4F58592D312D50454E54594E452E6D6F6C0A20204368656D447261773131313730393233333632440A2031332031332020302020302020302020302020302020302020302020303939392056323030300A2020202D322E3530303620202020302E3832353020202020302E303030302043202020302020302020302020302020302020302020302020302020302020302020302020300A2020202D312E3738363220202020302E3431323520202020302E303030302043202020302020302020302020302020302020302020302020302020302020302020302020300A2020202D312E3037313720202020302E3030303020202020302E303030302043202020302020302020302020302020302020302020302020302020302020302020302020300A2020202D302E3335373220202020302E3431323520202020302E303030302043202020302020302020302020302020302020302020302020302020302020302020302020300A20202020302E3335373220202020302E3030303020202020302E303030302043202020302020302020302020302020302020302020302020302020302020302020302020300A20202020312E3037313720202020302E3431323520202020302E30303030204F202020302020302020302020302020302020302020302020302020302020302020302020300A20202020312E3738363220202020302E3030303020202020302E303030302043202020302020302020302020302020302020302020302020302020302020302020302020300A20202020312E373836322020202D302E3832353020202020302E303030302043202020302020302020302020302020302020302020302020302020302020302020302020300A20202020322E353030362020202D312E3233373520202020302E303030302043202020302020302020302020302020302020302020302020302020302020302020302020300A20202020332E323135312020202D302E3832353020202020302E303030302043202020302020302020302020302020302020302020302020302020302020302020302020300A20202020332E3231353120202020302E3030303020202020302E303030302043202020302020302020302020302020302020302020302020302020302020302020302020300A20202020322E3530303620202020302E3431323520202020302E30303030204F202020302020302020302020302020302020302020302020302020302020302020302020300A2020202D332E3231353120202020312E3233373520202020302E303030302042722020302020302020302020302020302020302020302020302020302020302020302020300A2020312020322020332020302020202020200A2020322020332020312020302020202020200A2020332020342020312020302020202020200A2020342020352020312020302020202020200A2020372020382020312020302020202020200A2020382020392020312020302020202020200A2020392031302020312020302020202020200A2031302031312020312020302020202020200A2031312031322020312020302020202020200A2020372031322020312020302020202020200A2020362020372020312020302020202020200A2020352020362020312020302020202020200A2020312031332020312020302020202020200A4D2020454E44
Contributor: HISAHIRO HAGIWARA, INSTITUTE FOR CHEMICAL REACTION SCIENCE TOHOKU UNIV.
InstType: EI
InstName: JEOL JMS-DX-300
IoniMethod: _ENERGY 70 eV
IonPolarity: pos
Date: 2010-10-09 19:48:36+02:00
Num Peaks: 62
38 58 39 243 40 24 41 331 42 38 43 141 44 27 50 35 51 87 52 38 
53 100 54 37 55 391 56 247 57 158 63 21 65 511 66 241 67 195 69 22 
77 26 79 47 80 37 81 75 82 36 83 115 84 66 85 999 86 80 87 21 
91 30 93 22 101 29 109 45 111 46 117 74 119 83 120 25 122 21 144 95 
145 97 146 104 147 102 162 193 163 108 164 188 165 103 167 87 188 31 190 47 
191 25 192 20 199 21 224 45 225 24 226 83 227 38 228 43 229 20 242 23 
245 23 247 30 
