Name: MassBank: JP012118
MW: 301
Formula: C16H9F2NO3
Synonym: MassBank: JP012118
Synonym: 4-(2,6-DIFLUOROBENZOYL)-3-PHENYL-5-ISOXAZOLONE
Structure: 342D28322C362D4449464C554F524F42454E5A4F594C292D332D5048454E594C2D352D49534F58415A4F4C4F4E452E6D6F6C0A20204368656D447261773033323331303137343632440A2032322032342020302020302020302020302020302020302020302020303939392056323030300A2020202D302E3533363520202020312E3830383920202020302E30303030204F202020302020302020302020302020302020302020302020302020302020302020302020300A2020202D312E3232383420202020312E3335393620202020302E30303030204E202020302020302020302020302020302020302020302020302020302020302020302020300A2020202D312E3031343920202020302E3536323720202020302E303030302043202020302020302020302020302020302020302020302020302020302020302020302020300A2020202D302E3139313020202020302E3531393520202020302E303030302043202020302020302020302020302020302020302020302020302020302020302020302020300A20202020302E3130343620202020312E3238393720202020302E303030302043202020302020302020302020302020302020302020302020302020302020302020302020300A20202020302E3930313520202020312E3530333220202020302E30303030204F202020302020302020302020302020302020302020302020302020302020302020302020300A2020202D312E353334312020202D302E3037383520202020302E303030302043202020302020302020302020302020302020302020302020302020302020302020302020300A2020202D322E3334383920202020302E3035303620202020302E303030302043202020302020302020302020302020302020302020302020302020302020302020302020300A2020202D322E383638312020202D302E3539303520202020302E303030302043202020302020302020302020302020302020302020302020302020302020302020302020300A2020202D322E353732352020202D312E3336303720202020302E303030302043202020302020302020302020302020302020302020302020302020302020302020302020300A2020202D312E373537362020202D312E3438393820202020302E303030302043202020302020302020302020302020302020302020302020302020302020302020302020300A2020202D312E323338342020202D302E3834383720202020302E303030302043202020302020302020302020302020302020302020302020302020302020302020302020300A20202020302E333933312020202D302E3338303020202020302E303030302043202020302020302020302020302020302020302020302020302020302020302020302020300A20202020312E323138312020202D302E3338303020202020302E303030302043202020302020302020302020302020302020302020302020302020302020302020302020300A20202020312E3633303620202020302E3333343520202020302E303030302043202020302020302020302020302020302020302020302020302020302020302020302020300A20202020322E3435353620202020302E3333343520202020302E303030302043202020302020302020302020302020302020302020302020302020302020302020302020300A20202020322E383638312020202D302E3338303020202020302E303030302043202020302020302020302020302020302020302020302020302020302020302020302020300A20202020322E343535362020202D312E3039343420202020302E303030302043202020302020302020302020302020302020302020302020302020302020302020302020300A20202020312E363330362020202D312E3039343420202020302E303030302043202020302020302020302020302020302020302020302020302020302020302020302020300A2020202D302E303139342020202D312E3039343420202020302E30303030204F202020302020302020302020302020302020302020302020302020302020302020302020300A20202020312E323138312020202D312E3830383920202020302E303030302046202020302020302020302020302020302020302020302020302020302020302020302020300A20202020312E3231383120202020312E3034393020202020302E303030302046202020302020302020302020302020302020302020302020302020302020302020302020300A2020312020322020312020302020202020200A2020322020332020322020302020202020200A2020332020342020312020302020202020200A2020342020352020312020302020202020200A2020312020352020312020302020202020200A2020352020362020322020302020202020200A2020372020382020312020302020202020200A2020382020392020322020302020202020200A2020392031302020312020302020202020200A2031302031312020322020302020202020200A2031312031322020312020302020202020200A2020372031322020322020302020202020200A2020332020372020312020302020202020200A2031332031342020312020302020202020200A2031342031352020312020302020202020200A2031352031362020322020302020202020200A2031362031372020312020302020202020200A2031372031382020322020302020202020200A2031382031392020312020302020202020200A2031342031392020322020302020202020200A2031332032302020322020302020202020200A2031392032312020312020302020202020200A2031352032322020312020302020202020200A2020342031332020312020302020202020200A4D2020454E44
Contributor: HISAHIRO HAGIWARA, INSTITUTE FOR CHEMICAL REACTION SCIENCE TOHOKU UNIV.
InstType: EI
InstName: JEOL JMS-DX-300
IoniMethod: _ENERGY 70 eV
IonPolarity: pos
Date: 2010-10-09 19:48:36+02:00
Num Peaks: 18
39 10 50 11 51 22 62 9 63 55 75 7 76 19 77 23 89 22 102 60 
103 23 112 7 113 100 116 26 141 999 142 226 158 8 301 9 
