Name: MassBank: JP011955
MW: 549
Formula: C26H24Br2Si2
Synonym: MassBank: JP011955
Synonym: 1,2-DI(PARA-BROMOPHENYL)-1,2-DIMETHYL-1,2-DIPHENYLDISILANE
Structure: 312C322D444928504152412D42524F4D4F5048454E594C292D312C322D44494D455448594C2D312C322D44495048454E594C444953494C414E452E6D6F6C0A20204368656D447261773131303330393232353032440A2033302033332020302020302020302020302020302020302020302020303939392056323030300A20202020302E3533363220202020302E3132333720202020302E303030302053692020302020302020302020302020302020302020302020302020302020302020302020300A2020202D302E3533363320202020302E3132333720202020302E303030302053692020302020302020302020302020302020302020302020302020302020302020302020300A2020202D312E3336313320202020302E3132333720202020302E303030302043202020302020302020302020302020302020302020302020302020302020302020302020300A2020202D312E373733382020202D302E3539303720202020302E303030302043202020302020302020302020302020302020302020302020302020302020302020302020300A2020202D322E353938372020202D302E3539303720202020302E303030302043202020302020302020302020302020302020302020302020302020302020302020302020300A2020202D332E3031313320202020302E3132333820202020302E303030302043202020302020302020302020302020302020302020302020302020302020302020302020300A2020202D322E3539383820202020302E3833383220202020302E303030302043202020302020302020302020302020302020302020302020302020302020302020302020300A2020202D312E3737333820202020302E3833383220202020302E303030302043202020302020302020302020302020302020302020302020302020302020302020302020300A20202020312E3336313220202020302E3132333720202020302E303030302043202020302020302020302020302020302020302020302020302020302020302020302020300A20202020312E3737333820202020302E3833383220202020302E303030302043202020302020302020302020302020302020302020302020302020302020302020302020300A20202020322E3539383720202020302E3833383220202020302E303030302043202020302020302020302020302020302020302020302020302020302020302020302020300A20202020332E3031313320202020302E3132333720202020302E303030302043202020302020302020302020302020302020302020302020302020302020302020302020300A20202020322E353938382020202D302E3539303720202020302E303030302043202020302020302020302020302020302020302020302020302020302020302020302020300A20202020312E373733372020202D302E3539303720202020302E303030302043202020302020302020302020302020302020302020302020302020302020302020302020300A2020202D302E3533363320202020302E3934383720202020302E303030302043202020302020302020302020302020302020302020302020302020302020302020302020300A20202020302E353336322020202D302E3730313220202020302E303030302043202020302020302020302020302020302020302020302020302020302020302020302020300A2020202D302E353336332020202D302E3934383820202020302E303030302043202020302020302020302020302020302020302020302020302020302020302020302020300A20202020302E313738322020202D312E3336313320202020302E303030302043202020302020302020302020302020302020302020302020302020302020302020302020300A20202020302E313738322020202D322E3138363220202020302E303030302043202020302020302020302020302020302020302020302020302020302020302020302020300A2020202D302E353336332020202D322E3539383820202020302E303030302043202020302020302020302020302020302020302020302020302020302020302020302020300A2020202D312E323530372020202D322E3138363320202020302E303030302043202020302020302020302020302020302020302020302020302020302020302020302020300A2020202D312E323530372020202D312E3336313320202020302E303030302043202020302020302020302020302020302020302020302020302020302020302020302020300A2020202D302E353336332020202D332E3432333820202020302E303030302042722020302020302020302020302020302020302020302020302020302020302020302020300A20202020302E3533363220202020302E3934383820202020302E303030302043202020302020302020302020302020302020302020302020302020302020302020302020300A2020202D302E3137383220202020312E3336313320202020302E303030302043202020302020302020302020302020302020302020302020302020302020302020302020300A2020202D302E3137383220202020322E3138363220202020302E303030302043202020302020302020302020302020302020302020302020302020302020302020302020300A20202020302E3533363320202020322E3539383820202020302E303030302043202020302020302020302020302020302020302020302020302020302020302020302020300A20202020312E3235303720202020322E3138363320202020302E303030302043202020302020302020302020302020302020302020302020302020302020302020302020300A20202020312E3235303720202020312E3336313320202020302E303030302043202020302020302020302020302020302020302020302020302020302020302020302020300A20202020302E3533363320202020332E3432333820202020302E303030302042722020302020302020302020302020302020302020302020302020302020302020302020300A2020312020322020312020302020202020200A2020332020342020312020302020202020200A2020342020352020322020302020202020200A2020352020362020312020302020202020200A2020362020372020322020302020202020200A2020372020382020312020302020202020200A2020332020382020322020302020202020200A2020322020332020312020302020202020200A2020392031302020312020302020202020200A2031302031312020322020302020202020200A2031312031322020312020302020202020200A2031322031332020322020302020202020200A2031332031342020312020302020202020200A2020392031342020322020302020202020200A2020312020392020312020302020202020200A2020322031352020312020302020202020200A2020312031362020312020302020202020200A2031372031382020312020302020202020200A2031382031392020322020302020202020200A2031392032302020312020302020202020200A2032302032312020322020302020202020200A2032312032322020312020302020202020200A2031372032322020322020302020202020200A2032302032332020312020302020202020200A2020322031372020312020302020202020200A2032342032352020312020302020202020200A2032352032362020322020302020202020200A2032362032372020312020302020202020200A2032372032382020322020302020202020200A2032382032392020312020302020202020200A2032342032392020322020302020202020200A2032372033302020312020302020202020200A2020312032342020312020302020202020200A4D2020454E44
Contributor: ISHIKAWA M, HIROSHIMA UNIV. FAC. TEQUNOLOGY
InstType: EI
InstName: SHIMADZU QP-1000
IoniMethod: _ENERGY 70 eV
IonPolarity: pos
Date: 2010-10-09 19:48:36+02:00
Num Peaks: 30
51 21 53 128 55 11 79 11 91 11 105 43 195 11 196 43 197 27 275 74 
276 11 277 64 471 447 472 191 473 500 474 287 475 64 476 11 535 385 536 160 
537 999 539 489 541 53 550 53 551 32 552 117 553 64 554 74 555 32 556 11 
