Name: 3-NITROANILINE
MW: 138
Formula: C6H6N2O2
Synonym: MassBank: JP010811
Synonym: 3-NITROANILINE
Structure: 332D4E4954524F414E494C494E452E6D6F6C0A20204368656D447261773033323031303137333432440A2031302031302020302020302020302020302020302020302020302020303939392056323030300A20202020312E303731372020202D312E3434333720202020302E30303030204E202020302020302020302020302020302020302020302020302020302020302020302020300A20202020302E333537322020202D312E3033313220202020302E303030302043202020302020302020302020302020302020302020302020302020302020302020302020300A20202020302E333537322020202D302E3230363220202020302E303030302043202020302020302020302020302020302020302020302020302020302020302020302020300A2020202D302E3335373220202020302E3230363320202020302E303030302043202020302020302020302020302020302020302020302020302020302020302020302020300A2020202D312E303731372020202D302E3230363220202020302E303030302043202020302020302020302020302020302020302020302020302020302020302020302020300A2020202D312E303731372020202D312E3033313220202020302E303030302043202020302020302020302020302020302020302020302020302020302020302020302020300A2020202D302E333537322020202D312E3434333820202020302E303030302043202020302020302020302020302020302020302020302020302020302020302020302020300A2020202D302E3335373220202020312E3033313320202020302E30303030204E202020302020332020302020302020302020302020302020302020302020302020302020300A20202020302E3335373220202020312E3434333820202020302E30303030204F202020302020302020302020302020302020302020302020302020302020302020302020300A2020202D312E3037313720202020312E3434333820202020302E30303030204F202020302020352020302020302020302020302020302020302020302020302020302020300A2020312020322020312020302020202020200A2020322020332020312020302020202020200A2020332020342020322020302020202020200A2020342020352020312020302020202020200A2020352020362020322020302020202020200A2020362020372020312020302020202020200A2020322020372020322020302020202020200A2020382020392020322020302020202020200A2020382031302020312020302020202020200A2020342020382020312020302020202020200A4D202043484720203220202038202020312020313020202D310A4D2020454E44
Contributor: FUJISE Y, HAMAMATSU UNIV. SCHOOL OF MEDICINE
InstType: EI
InstName: JEOL JMS-D-3000
IoniMethod: _ENERGY 70 eV
IonPolarity: pos
Date: 2010-10-09 19:48:36+02:00
Num Peaks: 28
42 68 43 22 44 16 50 26 51 30 52 87 53 42 54 22 61 19 62 39 
63 99 64 85 65 912 66 114 74 12 75 10 78 14 79 14 80 103 81 10 
90 15 91 49 92 999 93 79 108 79 122 20 138 885 139 70 
