Name: 3-METHOXYCYCLOHEPTA(B)FURAN-2-ONE
MW: 176
Formula: C10H8O3
Synonym: MassBank: JP011030
Synonym: 3-METHOXYCYCLOHEPTA(B)FURAN-2-ONE
Structure: 332D4D4554484F58594359434C4F4845505441284229465552414E2D322D4F4E452E6D6F6C0A20204368656D447261773032323231303233313332440A2031332031342020302020302020302020302020302020302020302020303939392056323030300A20202020302E303534342020202D312E3133313020202020302E30303030204F202020302020302020302020302020302020302020302020302020302020302020302020300A20202020302E363034302020202D302E3531373120202020302E303030302043202020302020302020302020302020302020302020302020302020302020302020302020300A20202020302E3139313520202020302E3139373420202020302E303030302043202020302020302020302020302020302020302020302020302020302020302020302020300A2020202D302E3631353920202020302E3032333320202020302E303030302043202020302020302020302020302020302020302020302020302020302020302020302020300A2020202D302E363939362020202D302E3739383220202020302E303030302043202020302020302020302020302020302020302020302020302020302020302020302020300A20202020302E3439303120202020302E3936353620202020302E303030302043202020302020302020302020302020302020302020302020302020302020302020302020300A20202020312E3237373920202020312E3231303720202020302E303030302043202020302020302020302020302020302020302020302020302020302020302020302020300A20202020312E3936303720202020302E3734373720202020302E303030302043202020302020302020302020302020302020302020302020302020302020302020302020300A20202020322E303134342020202D302E3036343520202020302E303030302043202020302020302020302020302020302020302020302020302020302020302020302020300A20202020312E343331302020202D302E3634373820202020302E303030302043202020302020302020302020302020302020302020302020302020302020302020302020300A2020202D312E343134312020202D312E3231303720202020302E30303030204F202020302020302020302020302020302020302020302020302020302020302020302020300A2020202D312E3233303420202020302E3537333820202020302E30303030204F202020302020302020302020302020302020302020302020302020302020302020302020300A2020202D322E3031343420202020302E3331373020202020302E303030302043202020302020302020302020302020302020302020302020302020302020302020302020300A2020312020322020312020302020202020200A2020322020332020312020302020202020200A2020332020342020322020302020202020200A2020342020352020312020302020202020200A2020312020352020312020302020202020200A2020362020372020322020302020202020200A2020372020382020312020302020202020200A2020382020392020322020302020202020200A2020392031302020312020302020202020200A2020322031302020322020302020202020200A2020332020362020312020302020202020200A2020352031312020322020302020202020200A2031322031332020312020302020202020200A2020342031322020312020302020202020200A4D2020454E44
Contributor: TAKESHITA H, INST. OF ADVANCED MATERIAL STUDY KYUSHU UNIV.
InstType: EI
InstName: JEOL JMS-01-SG-2
IoniMethod: _ENERGY 75 eV
IonPolarity: pos
Date: 2010-10-09 19:48:36+02:00
Num Peaks: 25
38 45 39 91 50 165 51 387 52 49 53 48 62 71 63 100 74 47 75 38 
76 87 77 659 78 59 82 38 89 78 90 65 105 570 106 45 110 41 127 39 
133 999 134 89 161 51 176 587 177 66 
