Name: SILACYCLOBUTANE
MW: 72
Formula: C3H8Si
Synonym: MassBank: JP011588
Synonym: SILACYCLOBUTANE
Structure: 310A31330A53494C414359434C4F425554414E452E6D6F6C0A20204368656D447261773038313231303036343532440A2020342020342020302020302020302020302020302020302020302020303939392056323030300A20202020302E343132352020202D302E3431323520202020302E303030302053692020302020302020302020302020302020302020302020302020302020302020302020300A2020202D302E343132352020202D302E3431323520202020302E303030302043202020302020302020302020302020302020302020302020302020302020302020302020300A2020202D302E3431323520202020302E3431323520202020302E303030302043202020302020302020302020302020302020302020302020302020302020302020302020300A20202020302E3431323520202020302E3431323520202020302E303030302043202020302020302020302020302020302020302020302020302020302020302020302020300A2020312020322020312020302020202020200A2020322020332020312020302020202020200A2020332020342020312020302020202020200A2020312020342020312020302020202020200A4D2020454E44
Contributor: YAMAMOTO M, DEP. CHEMISTRY, FAC. SCIENCE, NARA WOMEN'S UNIV.
InstType: EI
InstName: HITACHI RMU-6M
IoniMethod: _ENERGY 70 eV
IonPolarity: pos
Date: 2010-10-09 19:48:36+02:00
Num Peaks: 32
26 17 27 43 28 260 29 101 30 19 31 35 32 13 38 11 39 61 40 11 
41 34 42 151 43 385 44 999 45 146 46 45 53 52 54 14 55 73 56 31 
57 77 58 12 65 31 66 50 67 40 68 11 69 21 70 211 71 189 72 559 
73 59 74 24 
