Name: MassBank: JP010803
MW: 203
Formula: C11H13N3O
Synonym: MassBank: JP010803
Synonym: 4-AMINO-1,5-DIMETHYL-2-PHENYL-4-PYRAZOLIN--3-ONE
Structure: 342D414D494E4F2D312C352D44494D455448594C2D322D5048454E594C2D342D505952415A4F4C494E2D2D332D4F4E452E6D6F6C0A20204368656D447261773033323531303034333032440A2031352031362020302020302020302020302020302020302020302020303939392056323030300A20202020302E333732312020202D302E3731373020202020302E30303030204E202020302020302020302020302020302020302020302020302020302020302020302020300A20202020302E3131373220202020302E3036373620202020302E30303030204E202020302020302020302020302020302020302020302020302020302020302020302020300A20202020302E3738343620202020302E3535323520202020302E303030302043202020302020302020302020302020302020302020302020302020302020302020302020300A20202020312E3435323120202020302E3036373620202020302E303030302043202020302020302020302020302020302020302020302020302020302020302020302020300A20202020312E313937312020202D302E3731373020202020302E303030302043202020302020302020302020302020302020302020302020302020302020302020302020300A20202020302E3738343620202020312E3337373520202020302E30303030204F202020302020302020302020302020302020302020302020302020302020302020302020300A2020202D302E3636373420202020302E3332323520202020302E303030302043202020302020302020302020302020302020302020302020302020302020302020302020300A2020202D312E323830352020202D302E3232393520202020302E303030302043202020302020302020302020302020302020302020302020302020302020302020302020300A2020202D322E3036353220202020302E3032353520202020302E303030302043202020302020302020302020302020302020302020302020302020302020302020302020300A2020202D322E3233363720202020302E3833323420202020302E303030302043202020302020302020302020302020302020302020302020302020302020302020302020300A2020202D312E3632333620202020312E3338343520202020302E303030302043202020302020302020302020302020302020302020302020302020302020302020302020300A2020202D302E3833393020202020312E3132393520202020302E303030302043202020302020302020302020302020302020302020302020302020302020302020302020300A20202020312E363832302020202D312E3338343520202020302E303030302043202020302020302020302020302020302020302020302020302020302020302020302020300A2020202D302E313132382020202D312E3338343520202020302E303030302043202020302020302020302020302020302020302020302020302020302020302020302020300A20202020322E3233363720202020302E3332323520202020302E30303030204E202020302020302020302020302020302020302020302020302020302020302020302020300A2020312020322020312020302020202020200A2020322020332020312020302020202020200A2020332020342020312020302020202020200A2020342020352020322020302020202020200A2020312020352020312020302020202020200A2020332020362020322020302020202020200A2020372020382020312020302020202020200A2020382020392020322020302020202020200A2020392031302020312020302020202020200A2031302031312020322020302020202020200A2031312031322020312020302020202020200A2020372031322020322020302020202020200A2020322020372020312020302020202020200A2020352031332020312020302020202020200A2020312031342020312020302020202020200A2020342031352020312020302020202020200A4D2020454E44
Contributor: FUJISE Y, HAMAMATSU UNIV. SCHOOL OF MEDICINE
InstType: EI
InstName: JEOL JMS-D-3000
IoniMethod: _ENERGY 70 eV
IonPolarity: pos
Date: 2010-10-09 19:48:36+02:00
Num Peaks: 33
41 20 42 277 43 14 50 14 51 57 52 17 53 11 54 45 55 35 56 999 
57 661 58 25 63 17 64 28 65 24 66 10 67 16 77 118 78 13 82 11 
83 225 84 563 85 30 91 34 92 14 93 51 109 14 119 53 120 16 201 14 
202 57 203 556 204 76 
