Name: 2-AZACYCLONONANONE
MW: 141
Formula: C8H15NO
Synonym: MassBank: JP010412
Synonym: 2-AZACYCLONONANONE
Synonym: CYCLOOCTANONE ISOOXIME
Structure: 322D415A414359434C4F4E4F4E414E4F4E452E6D6F6C0A20204368656D447261773132323130393232333632440A2031302031302020302020302020302020302020302020302020302020303939392056323030300A2020202D302E373537322020202D302E3030303020202020302E303030302043202020302020302020302020302020302020302020302020302020302020302020302020300A2020202D302E3437353020202020302E3737353220202020302E30303030204E202020302020302020302020302020302020302020302020302020302020302020302020300A20202020302E3233393420202020312E3138373720202020302E303030302043202020302020302020302020302020302020302020302020302020302020302020302020300A20202020312E3035313920202020312E3034343520202020302E303030302043202020302020302020302020302020302020302020302020302020302020302020302020300A20202020312E3538323220202020302E3431323520202020302E303030302043202020302020302020302020302020302020302020302020302020302020302020302020300A20202020312E353832322020202D302E3431323520202020302E303030302043202020302020302020302020302020302020302020302020302020302020302020302020300A20202020312E303531392020202D312E3034343520202020302E303030302043202020302020302020302020302020302020302020302020302020302020302020302020300A20202020302E323339342020202D312E3138373720202020302E303030302043202020302020302020302020302020302020302020302020302020302020302020302020300A2020202D302E343735302020202D302E3737353220202020302E303030302043202020302020302020302020302020302020302020302020302020302020302020302020300A2020202D312E353832322020202D302E3030303020202020302E30303030204F202020302020302020302020302020302020302020302020302020302020302020302020300A2020312020322020312020302020202020200A2020322020332020312020302020202020200A2020332020342020312020302020202020200A2020342020352020312020302020202020200A2020352020362020312020302020202020200A2020362020372020312020302020202020200A2020372020382020312020302020202020200A2020382020392020312020302020202020200A2020312020392020312020302020202020200A2020312031302020322020302020202020200A4D2020454E44
Contributor: MASS SPECTROSCOPY SOC. OF JAPAN (MSSJ)
InstType: EI
InstName: HITACHI RMU-6M
IoniMethod: _ENERGY 20 eV
IonPolarity: pos
Date: 2010-10-09 19:48:36+02:00
Num Peaks: 64
39 30 40 20 41 300 42 30 43 680 44 350 45 620 46 4 53 20 54 70 
55 740 56 95 57 430 58 280 59 180 60 21 67 130 68 710 69 460 70 34 
71 200 72 160 73 120 74 4 79 40 80 30 81 140 82 14 83 290 84 500 
85 280 86 7 87 40 91 40 94 70 95 16 96 200 97 130 98 770 99 24 
100 80 101 20 103 50 109 8 110 30 111 60 112 240 113 18 114 20 119 20 
123 80 124 999 125 120 126 40 127 20 131 15 132 30 133 20 134 20 135 3 
140 30 141 400 142 50 143 10 
