Name: 4-(TRIFLUOROMETHYL)BENZYL ALCOHOL
MW: 176
Formula: C8H7F3O
Synonym: MassBank: JP011780
Synonym: 4-(TRIFLUOROMETHYL)BENZYL ALCOHOL
Structure: 342D28545249464C554F524F4D455448594C2942454E5A594C20414C434F484F4C2E6D6F6C0A20204368656D447261773033323531303034303032440A2031322031322020302020302020302020302020302020302020302020303939392056323030300A2020202D312E3835363220202020302E3030303020202020302E303030302043202020302020302020302020302020302020302020302020302020302020302020302020300A2020202D312E3033313220202020302E3030303020202020302E303030302043202020302020302020302020302020302020302020302020302020302020302020302020300A2020202D302E3631383720202020302E3731343520202020302E303030302043202020302020302020302020302020302020302020302020302020302020302020302020300A20202020302E3230363320202020302E3731343520202020302E303030302043202020302020302020302020302020302020302020302020302020302020302020302020300A20202020302E3631383820202020302E3030303020202020302E303030302043202020302020302020302020302020302020302020302020302020302020302020302020300A20202020302E323036332020202D302E3731343520202020302E303030302043202020302020302020302020302020302020302020302020302020302020302020302020300A2020202D302E363138372020202D302E3731343520202020302E303030302043202020302020302020302020302020302020302020302020302020302020302020302020300A20202020312E3434333820202020302E3030303020202020302E303030302043202020302020302020302020302020302020302020302020302020302020302020302020300A20202020312E3434333820202020302E3832353020202020302E303030302046202020302020302020302020302020302020302020302020302020302020302020302020300A20202020322E3236383820202020302E3030303020202020302E303030302046202020302020302020302020302020302020302020302020302020302020302020302020300A20202020312E343433382020202D302E3832353020202020302E303030302046202020302020302020302020302020302020302020302020302020302020302020302020300A2020202D322E323638382020202D302E3731343520202020302E30303030204F202020302020302020302020302020302020302020302020302020302020302020302020300A2020312020322020312020302020202020200A2020322020332020312020302020202020200A2020332020342020322020302020202020200A2020342020352020312020302020202020200A2020352020362020322020302020202020200A2020362020372020312020302020202020200A2020322020372020322020302020202020200A2020382020392020312020312020202020200A2020382031302020312020302020202020200A2020382031312020312020312020202020200A2020352020382020312020302020202020200A2020312031322020312020302020202020200A4D2020454E44
Contributor: TAJIMA S, GUNMA COLLEGE OF TECHNOLOGY
InstType: EI
InstName: HITACHI M-80A
IoniMethod: _ENERGY 70 eV
IonPolarity: pos
Date: 2010-10-09 19:48:36+02:00
Num Peaks: 69
27 28 29 114 30 14 31 95 38 37 39 67 40 17 49 10 50 139 51 163 
52 32 53 27 57 39 61 19 62 50 63 90 64 19 69 155 70 12 73 11 
74 63 75 151 76 44 77 280 78 98 79 575 80 44 81 30 83 27 87 25 
88 22 89 47 90 17 94 12 95 63 96 49 97 12 99 36 100 15 101 27 
105 24 106 13 107 959 108 78 109 96 110 29 114 16 119 36 125 62 126 46 
127 999 128 78 129 13 132 11 138 19 139 11 145 199 146 31 147 98 155 30 
156 19 157 250 158 52 159 93 173 55 174 11 175 147 176 819 177 58 
