Name: DIMETHOXYDIMETHYLSILANE
MW: 120
Formula: C4H12O2Si
Synonym: MassBank: JP011276
Synonym: DIMETHOXYDIMETHYLSILANE
Structure: 310A31380A44494D4554484F585944494D455448594C53494C414E452E6D6F6C0A20204368656D447261773039323231303030353632440A2020372020362020302020302020302020302020302020302020302020303939392056323030300A20202020302E3039353720202020302E3030303020202020302E303030302053692020302020302020302020302020302020302020302020302020302020302020302020300A2020202D302E3331363820202020302E3731343520202020302E303030302043202020302020302020302020302020302020302020302020302020302020302020302020300A20202020302E3831303220202020302E3431323520202020302E303030302043202020302020302020302020302020302020302020302020302020302020302020302020300A20202020302E353038322020202D302E3731343520202020302E30303030204F202020302020302020302020302020302020302020302020302020302020302020302020300A20202020312E333333322020202D302E3731343520202020302E303030302043202020302020302020302020302020302020302020302020302020302020302020302020300A2020202D302E363138372020202D302E3431323520202020302E30303030204F202020302020302020302020302020302020302020302020302020302020302020302020300A2020202D312E3333333220202020302E3030303020202020302E303030302043202020302020302020302020302020302020302020302020302020302020302020302020300A2020312020322020312020302020202020200A2020312020332020312020302020202020200A2020342020352020312020302020202020200A2020312020342020312020312020202020200A2020362020372020312020302020202020200A2020312020362020312020312020202020200A4D2020454E44
Contributor: TAJIMA S, GUNMA COLLEGE OF TECHNOLOGY
InstType: EI
InstName: HITACHI M-80A
IoniMethod: _ENERGY 70 eV
IonPolarity: pos
Date: 2010-10-09 19:48:36+02:00
Num Peaks: 14
15 35 43 56 45 26 58 24 59 72 61 18 74 10 75 411 76 31 77 16 
89 71 105 999 106 85 107 40 
