Name: N-(3-TRIFLUOROMETHYLBENZYLIDENE)METHYLAMINE
MW: 187
Formula: C9H8F3N
Synonym: MassBank: JP011192
Synonym: N-(3-TRIFLUOROMETHYLBENZYLIDENE)METHYLAMINE
Structure: 4E2D28332D545249464C554F524F4D455448594C42454E5A594C4944454E45294D455448594C414D494E452E6D6F6C0A20204368656D447261773038313231303031313532440A2031332031332020302020302020302020302020302020302020302020303939392056323030300A20202020312E373836322020202D302E3035353320202020302E30303030204E202020302020302020302020302020302020302020302020302020302020302020302020300A20202020322E353030362020202D302E3436373820202020302E303030302043202020302020302020302020302020302020302020302020302020302020302020302020300A20202020312E303731372020202D302E3436373820202020302E303030302043202020302020302020302020302020302020302020302020302020302020302020302020300A20202020302E333537322020202D302E3035353320202020302E303030302043202020302020302020302020302020302020302020302020302020302020302020302020300A2020202D302E333537322020202D302E3436373820202020302E303030302043202020302020302020302020302020302020302020302020302020302020302020302020300A2020202D312E303731372020202D302E3035353320202020302E303030302043202020302020302020302020302020302020302020302020302020302020302020302020300A2020202D312E3037313720202020302E3736393720202020302E303030302043202020302020302020302020302020302020302020302020302020302020302020302020300A2020202D302E3335373220202020312E3138323220202020302E303030302043202020302020302020302020302020302020302020302020302020302020302020302020300A20202020302E3335373220202020302E3736393720202020302E303030302043202020302020302020302020302020302020302020302020302020302020302020302020300A2020202D312E373836322020202D302E3436373820202020302E303030302043202020302020302020302020302020302020302020302020302020302020302020302020300A2020202D312E333733372020202D312E3138323220202020302E303030302046202020302020302020302020302020302020302020302020302020302020302020302020300A2020202D322E353030362020202D302E3838303320202020302E303030302046202020302020302020302020302020302020302020302020302020302020302020302020300A2020202D322E3139383720202020302E3234363720202020302E303030302046202020302020302020302020302020302020302020302020302020302020302020302020300A2020312020322020312020302020202020200A2020332020342020312020302020202020200A2020342020352020312020302020202020200A2020352020362020322020302020202020200A2020362020372020312020302020202020200A2020372020382020322020302020202020200A2020382020392020312020302020202020200A2020342020392020322020302020202020200A2031302031312020312020302020202020200A2031302031322020312020302020202020200A2031302031332020312020302020202020200A2020362031302020312020302020202020200A2020312020332020322020302020202020200A4D2020454E44
Contributor: SAWADA M, THE INST. OF SCIENTIFIC AND INDUSTRIALRESEARCH OSAKA UNIV.
InstType: EI
InstName: JEOL JMS-DX-300
IoniMethod: _ENERGY 70 eV
IonPolarity: pos
Date: 2010-10-09 19:48:36+02:00
Num Peaks: 86
33 16 37 20 38 81 39 162 40 67 41 295 42 703 43 57 49 11 50 220 
51 185 52 30 57 57 61 27 62 98 63 180 64 32 65 23 66 14 68 11 
69 569 70 18 74 86 75 239 76 103 77 65 80 10 81 33 83 19 86 29 
87 52 88 42 89 139 90 58 91 70 93 11 94 19 95 122 96 51 99 58 
100 27 101 21 102 36 107 73 108 30 109 122 110 12 112 10 114 13 116 30 
117 82 118 228 119 87 120 12 121 50 125 123 126 74 127 48 132 13 137 14 
138 38 139 18 143 10 144 13 145 378 146 79 152 89 153 12 155 10 157 13 
158 30 159 210 160 20 166 35 167 15 168 220 169 26 170 30 171 50 172 19 
173 36 174 28 185 36 186 999 187 955 188 197 
