Name: BICYCLO(4.3.0)NONAN-7-ONE
MW: 138
Formula: C9H14O
Synonym: MassBank: JP011974
Synonym: BICYCLO(4.3.0)NONAN-7-ONE
Structure: 42494359434C4F28342E332E30294E4F4E414E2D372D4F4E452E6D6F6C0A20204368656D447261773039303531303139303532440A2031302031312020302020302020302020302020302020302020302020303939392056323030300A20202020302E323937352020202D302E3430373920202020302E303030302043202020302020302020302020302020302020302020302020302020302020302020302020300A20202020312E313232352020202D302E3430373920202020302E303030302043202020302020302020302020302020302020302020302020302020302020302020302020300A20202020312E3533353020202020302E3330363520202020302E303030302043202020302020302020302020302020302020302020302020302020302020302020302020300A20202020312E3132323520202020312E3032313020202020302E303030302043202020302020302020302020302020302020302020302020302020302020302020302020300A20202020302E3239373520202020312E3032313020202020302E303030302043202020302020302020302020302020302020302020302020302020302020302020302020300A2020202D302E3131353020202020302E3330363520202020302E303030302043202020302020302020302020302020302020302020302020302020302020302020302020300A2020202D302E3932313920202020302E3133353020202020302E303030302043202020302020302020302020302020302020302020302020302020302020302020302020300A2020202D312E303038322020202D302E3638353520202020302E303030302043202020302020302020302020302020302020302020302020302020302020302020302020300A2020202D302E323534352020202D312E3032313020202020302E303030302043202020302020302020302020302020302020302020302020302020302020302020302020300A2020202D312E3533353020202020302E3638373120202020302E30303030204F202020302020302020302020302020302020302020302020302020302020302020302020300A2020312020322020312020302020202020200A2020322020332020312020302020202020200A2020332020342020312020302020202020200A2020342020352020312020302020202020200A2020352020362020312020302020202020200A2020362020372020312020302020202020200A2020372020382020312020302020202020200A2020382020392020312020302020202020200A2020312020392020312020302020202020200A2020312020362020312020302020202020200A2020372031302020322020302020202020200A4D2020454E44
Contributor: YAMAMOTO M, DEP. CHEMISTRY, FAC. SCIENCE, NARA WOMEN'S UNIV.
InstType: EI
InstName: HITACHI RMU-6M
IoniMethod: _ENERGY 20 eV
IonPolarity: pos
Date: 2010-10-09 19:48:36+02:00
Num Peaks: 50
28 64 39 19 41 129 42 26 43 29 44 14 53 33 54 333 55 158 56 85 
57 43 58 20 59 12 60 10 66 105 67 888 68 301 69 170 70 39 71 41 
72 11 78 15 79 192 80 219 81 787 82 365 83 638 84 63 91 53 92 70 
93 40 94 933 95 228 96 999 97 128 98 28 105 31 107 30 109 480 110 176 
111 33 119 19 120 97 121 29 122 44 123 36 137 67 138 933 139 125 140 26 
