Name: 6-(ISOBUTYLDIMETHYLSILYL)-2-(PENTAMETHYLDISILANYL)-5-(TRIMETHYLSILYL)NAPHTHALENE
MW: 444
Formula: C24H44Si4
Synonym: MassBank: JP011687
Synonym: 6-(ISOBUTYLDIMETHYLSILYL)-2-(PENTAMETHYLDISILANYL)-5-(TRIMETHYLSILYL)NAPHTHALENE
Structure: 362D2849534F425554594C44494D455448594C53494C594C292D322D2850454E54414D455448594C444953494C414E594C292D352D285452494D455448594C53494C594C294E4150485448414C454E452E6D6F6C0A20204368656D447261773035313731303130353832440A2032382032392020302020302020302020302020302020302020302020303939392056323030300A2020202D302E373731382020202D302E3231323320202020302E303030302043202020302020302020302020302020302020302020302020302020302020302020302020300A2020202D312E3138343320202020302E3530323220202020302E303030302043202020302020302020302020302020302020302020302020302020302020302020302020300A2020202D302E3737313820202020312E3231363720202020302E303030302043202020302020302020302020302020302020302020302020302020302020302020302020300A20202020302E3035333220202020312E3231363720202020302E303030302043202020302020302020302020302020302020302020302020302020302020302020302020300A20202020302E3436353720202020302E3530323220202020302E303030302043202020302020302020302020302020302020302020302020302020302020302020302020300A20202020312E3239303720202020302E3530323220202020302E303030302043202020302020302020302020302020302020302020302020302020302020302020302020300A20202020312E373033322020202D302E3231323320202020302E303030302043202020302020302020302020302020302020302020302020302020302020302020302020300A20202020312E323930372020202D302E3932363720202020302E303030302043202020302020302020302020302020302020302020302020302020302020302020302020300A20202020302E343635372020202D302E3932363720202020302E303030302043202020302020302020302020302020302020302020302020302020302020302020302020300A20202020302E303533322020202D302E3231323220202020302E303030302043202020302020302020302020302020302020302020302020302020302020302020302020300A20202020312E3635373520202020312E3531303020202020302E303030302053692020302020302020302020302020302020302020302020302020302020302020302020300A20202020302E3836373220202020312E3734363720202020302E303030302043202020302020302020302020302020302020302020302020302020302020302020302020300A20202020312E3834373820202020322E3331323820202020302E303030302043202020302020302020302020302020302020302020302020302020302020302020302020300A20202020322E3437303020202020312E3336363820202020302E303030302043202020302020302020302020302020302020302020302020302020302020302020302020300A2020202D322E3235363820202020302E3530323220202020302E303030302053692020302020302020302020302020302020302020302020302020302020302020302020300A2020202D332E3038313820202020302E3530323220202020302E303030302053692020302020302020302020302020302020302020302020302020302020302020302020300A2020202D322E323536382020202D302E3332323820202020302E303030302043202020302020302020302020302020302020302020302020302020302020302020302020300A2020202D322E3235363820202020312E3332373220202020302E303030302043202020302020302020302020302020302020302020302020302020302020302020302020300A2020202D332E3930363820202020302E3530323220202020302E303030302043202020302020302020302020302020302020302020302020302020302020302020302020300A2020202D332E303831382020202D302E3332323820202020302E303030302043202020302020302020302020302020302020302020302020302020302020302020302020300A2020202D332E3038313820202020312E3332373220202020302E303030302043202020302020302020302020302020302020302020302020302020302020302020302020300A20202020322E353238322020202D302E3231323320202020302E303030302053692020302020302020302020302020302020302020302020302020302020302020302020300A20202020332E333437362020202D302E3330383020202020302E303030302043202020302020302020302020302020302020302020302020302020302020302020302020300A20202020322E3637313520202020302E3630303220202020302E303030302043202020302020302020302020302020302020302020302020302020302020302020302020300A20202020322E343830332020202D312E3033353920202020302E303030302043202020302020302020302020302020302020302020302020302020302020302020302020300A20202020332E313639352020202D312E3438393220202020302E303030302043202020302020302020302020302020302020302020302020302020302020302020302020300A20202020332E313231362020202D322E3331323820202020302E303030302043202020302020302020302020302020302020302020302020302020302020302020302020300A20202020332E393036382020202D312E3131383920202020302E303030302043202020302020302020302020302020302020302020302020302020302020302020302020300A2020312020322020312020302020202020200A2020322020332020322020302020202020200A2020332020342020312020302020202020200A2020342020352020322020302020202020200A2020352020362020312020302020202020200A2020362020372020322020302020202020200A2020372020382020312020302020202020200A2020382020392020322020302020202020200A2020392031302020312020302020202020200A2020312031302020322020302020202020200A2020352031302020312020302020202020200A2031312031322020312020302020202020200A2031312031332020312020302020202020200A2031312031342020312020302020202020200A2020362031312020312020302020202020200A2031352031362020312020302020202020200A2031352031372020312020302020202020200A2031352031382020312020302020202020200A2031362031392020312020302020202020200A2031362032302020312020302020202020200A2031362032312020312020302020202020200A2020322031352020312020302020202020200A2032322032332020312020302020202020200A2032322032342020312020302020202020200A2032352032362020312020302020202020200A2032362032372020312020302020202020200A2032362032382020312020302020202020200A2032322032352020312020302020202020200A2020372032322020312020302020202020200A4D2020454E44
Contributor: FAC. TECHNOLOGY, HIROSHIMA UNIV.
InstType: EI
InstName: SHIMADZU QP-1000
IoniMethod: _ENERGY 20 eV
IonPolarity: pos
Date: 2010-10-09 19:48:36+02:00
Num Peaks: 52
41 11 43 11 59 32 72 116 73 474 74 32 86 242 87 11 99 63 114 568 
116 999 117 484 118 242 119 11 129 32 131 158 132 21 222 653 223 147 224 53 
231 179 232 84 233 32 252 537 253 147 254 42 283 21 285 32 299 147 300 84 
301 32 313 105 314 63 315 726 316 253 317 105 318 21 329 63 330 11 320 11 
371 242 372 95 373 263 374 95 375 42 388 84 389 358 390 158 391 42 429 21 
430 11 444 13 
