Name: MassBank: JP011345
MW: 140
Formula: C9H16O
Synonym: MassBank: JP011345
Synonym: 2,2,5,5-TETRAMETHYLCYCLOPENTANONE
Structure: 322C322C352C352D54455452414D455448594C4359434C4F50454E54414E4F4E452E6D6F6C0A20204368656D447261773132313930393134353232440A2031302031302020302020302020302020302020302020302020302020303939392056323030300A2020202D302E3030303020202020302E3232323320202020302E303030302043202020302020302020302020302020302020302020302020302020302020302020302020300A20202020302E363637342020202D302E3236323720202020302E303030302043202020302020302020302020302020302020302020302020302020302020302020302020300A20202020302E343132352020202D312E3034373320202020302E303030302043202020302020302020302020302020302020302020302020302020302020302020302020300A2020202D302E343132352020202D312E3034373320202020302E303030302043202020302020302020302020302020302020302020302020302020302020302020302020300A2020202D302E363637342020202D302E3236323720202020302E303030302043202020302020302020302020302020302020302020302020302020302020302020302020300A2020202D312E343231312020202D302E3539383220202020302E303030302043202020302020302020302020302020302020302020302020302020302020302020302020300A2020202D312E3037393920202020302E3435313820202020302E303030302043202020302020302020302020302020302020302020302020302020302020302020302020300A20202020312E3037393920202020302E3435313820202020302E303030302043202020302020302020302020302020302020302020302020302020302020302020302020300A20202020312E343231312020202D302E3539383220202020302E303030302043202020302020302020302020302020302020302020302020302020302020302020302020300A2020202D302E3030303020202020312E3034373320202020302E30303030204F202020302020302020302020302020302020302020302020302020302020302020302020300A2020312020322020312020302020202020200A2020322020332020312020302020202020200A2020332020342020312020302020202020200A2020342020352020312020302020202020200A2020312020352020312020302020202020200A2020352020362020312020362020202020200A2020352020372020312020312020202020200A2020322020382020312020362020202020200A2020322020392020312020312020202020200A2020312031302020322020302020202020200A4D2020454E44
Contributor: YAMAMOTO M, DEP. CHEMISTRY, FAC. SCIENCE, NARA WOMEN'S UNIV.
InstType: EI
InstName: HITACHI RMU-6M
IoniMethod: _ENERGY 70 eV
IonPolarity: pos
Date: 2010-10-09 19:48:36+02:00
Num Peaks: 20
27 105 28 41 29 96 39 126 40 36 41 369 42 48 43 33 53 40 55 106 
56 999 57 431 69 168 70 38 72 145 97 31 112 41 125 20 140 155 141 19 
