Name: MassBank: JP011369
MW: 254
Formula: C14H22O4
Synonym: MassBank: JP011369
Synonym: 3-CARBOMETHOXY-6-ISOPROPYL-1-OXA-3,3A,4,5,6,7,8,8A-OCTAHYDROAZULEN-2(1H)-ONE
Structure: 332D434152424F4D4554484F58592D362D49534F50524F50594C2D312D4F58412D332C33412C342C352C362C372C382C38412D4F435441485944524F415A554C454E2D32283148292D4F4E452E6D6F6C0A20204368656D447261773032323231303134343532440A2031382031392020302020302020302020302020302020302020302020303939392056323030300A2020202D302E3437353120202020312E3337333920202020302E303030302043202020302020302020302020302020302020302020302020302020302020302020302020300A2020202D302E3437353120202020302E3534383920202020302E303030302043202020302020302020302020302020302020302020302020302020302020302020302020300A20202020302E3136393920202020302E3033343620202020302E303030302043202020302020302020302020302020302020302020302020302020302020302020302020300A20202020302E3937343220202020302E3231383120202020302E303030302043202020302020302020302020302020302020302020302020302020302020302020302020300A20202020312E3333323220202020302E3936313420202020302E303030302043202020302020302020302020302020302020302020302020302020302020302020302020300A20202020302E3937343220202020312E3730343720202020302E303030302043202020302020302020302020302020302020302020302020302020302020302020302020300A20202020302E3136393920202020312E3838383320202020302E303030302043202020302020302020302020302020302020302020302020302020302020302020302020300A2020202D312E3235393720202020312E3632383920202020302E30303030204F202020302020302020302020302020302020302020302020302020302020302020302020300A2020202D312E3734343720202020302E3936313420202020302E303030302043202020302020302020302020302020302020302020302020302020302020302020302020300A2020202D312E3235393720202020302E3239343020202020302E303030302043202020302020302020302020302020302020302020302020302020302020302020302020300A2020202D322E3536393720202020302E3936313420202020302E30303030204F202020302020302020302020302020302020302020302020302020302020302020302020300A2020202D312E353134372020202D302E3439303620202020302E303030302043202020302020302020302020302020302020302020302020302020302020302020302020300A2020202D302E393632362020202D312E3130333720202020302E30303030204F202020302020302020302020302020302020302020302020302020302020302020302020300A2020202D322E333231372020202D302E3636323120202020302E30303030204F202020302020302020302020302020302020302020302020302020302020302020302020300A2020202D312E323137362020202D312E3838383320202020302E303030302043202020302020302020302020302020302020302020302020302020302020302020302020300A20202020322E3135373220202020302E3936313420202020302E303030302043202020302020302020302020302020302020302020302020302020302020302020302020300A20202020322E3536393720202020312E3637353920202020302E303030302043202020302020302020302020302020302020302020302020302020302020302020302020300A20202020322E3536393720202020302E3234373020202020302E303030302043202020302020302020302020302020302020302020302020302020302020302020302020300A2020312020322020312020302020202020200A2020322020332020312020302020202020200A2020332020342020312020302020202020200A2020342020352020312020302020202020200A2020352020362020312020302020202020200A2020362020372020312020302020202020200A2020372020312020312020302020202020200A2020312020382020312020302020202020200A2020382020392020312020302020202020200A2020392031302020312020302020202020200A2031302020322020312020302020202020200A2020392031312020322020302020202020200A2031302031322020312020302020202020200A2031322031332020312020302020202020200A2031322031342020322020302020202020200A2031332031352020312020302020202020200A2020352031362020312020302020202020200A2031362031372020312020302020202020200A2031362031382020312020302020202020200A4D2020454E44
Contributor: HISAHIRO HAGIWARA, INSTITUTE FOR CHEMICAL REACTION SCIENCE TOHOKU UNIV.
InstType: EI
InstName: JEOL JMS-DX-300
IoniMethod: _ENERGY 70 eV
IonPolarity: pos
Date: 2010-10-09 19:48:36+02:00
Num Peaks: 68
52 242 53 122 55 555 57 138 58 252 59 193 67 349 68 237 69 362 77 119 
79 397 80 216 81 500 82 228 83 201 84 103 87 175 91 174 92 243 93 930 
94 352 95 422 96 348 97 178 100 165 101 125 105 140 107 305 108 332 109 210 
111 169 113 299 114 101 119 331 121 295 122 132 123 172 124 129 126 181 133 149 
134 140 135 273 136 955 137 262 139 117 151 197 154 999 155 178 161 140 165 126 
167 157 179 182 180 769 181 116 194 212 204 46 208 277 209 80 210 58 211 55 
212 236 213 37 222 120 223 88 226 79 236 42 254 45 255 33 
