Name: MassBank: JP010610
MW: 116
Formula: C6H16Si
Synonym: MassBank: JP010610
Synonym: METHYLPENTYLSILANE (1,1-1-D3)
Structure: 303932345F4D455448594C50454E54594C53494C414E452028312C312D312D4433292E6D6F6C0A20204368656D447261773130323031303138343432440A2031322031312020302020302020302020302020302020302020302020303939392056323030300A2020202D312E3738353120202020302E3230353520202020302E303030302053692020302020302020302020302020302020302020302020302020302020302020302020300A2020202D322E313937382020202D302E3530383720202020302E303030302048202020302020302020302020302020302020302020302020302020302020302020302020300A2020202D322E3530303620202020302E3631383920202020302E303030302043202020302020302020302020302020302020302020302020302020302020302020302020300A2020202D312E3337323920202020302E3932303620202020302E303030302048202020302020302020302020302020302020302020302020302020302020302020302020300A2020202D312E303731372020202D302E3230363120202020302E303030302043202020302020302020302020302020302020302020302020302020302020302020302020300A2020202D302E3335373220202020302E3230363420202020302E303030302043202020302020302020302020302020302020302020302020302020302020302020302020300A20202020302E333537322020202D302E3230363120202020302E303030302043202020302020302020302020302020302020302020302020302020302020302020302020300A20202020312E3037313620202020302E3230363420202020302E303030302043202020302020302020302020302020302020302020302020302020302020302020302020300A20202020312E373836312020202D302E3230363120202020302E303030302043202020302020302020302020302020302020302020302020302020302020302020302020300A20202020322E3139383620202020302E3530383420202020302E303030302048202020312020302020302020302020302020302020302020302020302020302020302020300A20202020322E353030362020202D302E3631383620202020302E303030302048202020312020302020302020302020302020302020302020302020302020302020302020300A20202020312E333733362020202D302E3932303620202020302E303030302048202020312020302020302020302020302020302020302020302020302020302020302020300A2020312020322020312020302020202020200A2020312020332020312020302020202020200A2020312020342020312020302020202020200A2020352020362020312020302020202020200A2020362020372020312020302020202020200A2020372020382020312020302020202020200A2020382020392020312020302020202020200A2020312020352020312020302020202020200A2020392031302020312020302020202020200A2020392031312020312020302020202020200A2020392031322020312020302020202020200A4D202049534F2020332020313020202032202031312020203220203132202020320A4D2020454E44
Contributor: YAMAMOTO M, DEP. CHEMISTRY, FAC. SCIENCE, NARA WOMEN'S UNIV.
InstType: EI
InstName: HITACHI RMU-6M
IoniMethod: _ENERGY 70 eV
IonPolarity: pos
Date: 2010-10-09 19:48:36+02:00
Num Peaks: 45
27 73 28 12 29 51 31 2 32 12 39 47 41 93 42 7 43 75 44 38 
45 85 46 12 47 91 48 770 49 52 50 3 55 53 57 18 58 12 59 6 
60 16 61 84 62 207 63 2 69 26 70 110 71 21 72 4 73 31 74 27 
75 85 76 999 77 90 78 40 88 37 89 28 90 79 91 62 92 10 101 2 
102 12 117 128 118 64 119 5 120 10 
