Name: BETA-HYDROXYETHYLTHEOPHYLLINE
CAS: 519-37-9
MW: 224
Formula: C9H12N4O3
Synonym: MassBank: JP011931
Synonym: BETA-HYDROXYETHYLTHEOPHYLLINE
Synonym: 1,3-DIMETHYL-7-(2-HYDROXYETHYL)XANTHINE
Structure: 424554412D485944524F5859455448594C5448454F5048594C4C494E452E6D6F6C0A20204368656D447261773131313230393131353432440A2031372031382020302020302020302020302020302020302020302020303939392056323030300A20202020302E373436302020202D302E3235343920202020302E30303030204E202020302020302020302020302020302020302020302020302020302020302020302020300A20202020312E3034313720202020302E3531353320202020302E303030302043202020302020302020302020302020302020302020302020302020302020302020302020300A20202020302E3430303520202020312E3033343520202020302E30303030204E202020302020302020302020302020302020302020302020302020302020302020302020300A2020202D302E3239313420202020302E3538353120202020302E303030302043202020302020302020302020302020302020302020302020302020302020302020302020300A2020202D312E3038383320202020302E3739383720202020302E30303030204E202020302020302020302020302020302020302020302020302020302020302020302020300A2020202D312E3330313820202020312E3539353620202020302E303030302043202020302020302020302020302020302020302020302020302020302020302020302020300A2020202D312E3637313620202020302E3231353320202020302E303030302043202020302020302020302020302020302020302020302020302020302020302020302020300A2020202D322E3436383520202020302E3432383820202020302E30303030204F202020302020302020302020302020302020302020302020302020302020302020302020300A2020202D312E343538312020202D302E3538313620202020302E30303030204E202020302020302020302020302020302020302020302020302020302020302020302020300A2020202D322E303431352020202D312E3136343920202020302E303030302043202020302020302020302020302020302020302020302020302020302020302020302020300A2020202D302E363631322020202D302E3739353120202020302E303030302043202020302020302020302020302020302020302020302020302020302020302020302020300A2020202D302E343437372020202D312E3539323020202020302E30303030204F202020302020302020302020302020302020302020302020302020302020302020302020300A2020202D302E303737392020202D302E3231313720202020302E303030302043202020302020302020302020302020302020302020302020302020302020302020302020300A20202020312E3833383520202020302E3732383820202020302E303030302048202020302020302020302020302020302020302020302020302020302020302020302020300A20202020312E313935332020202D302E3934363820202020302E303030302043202020302020302020302020302020302020302020302020302020302020302020302020300A20202020322E303139322020202D302E3930333720202020302E303030302043202020302020302020302020302020302020302020302020302020302020302020302020300A20202020322E343638352020202D312E3539353620202020302E30303030204F202020302020302020302020302020302020302020302020302020302020302020302020300A2020312020322020312020302020202020200A2020322020332020322020302020202020200A2020332020342020312020302020202020200A2020342020352020312020302020202020200A2020352020362020312020302020202020200A2020352020372020312020302020202020200A2020372020382020322020302020202020200A2020372020392020312020302020202020200A2020392031302020312020302020202020200A2020392031312020312020302020202020200A2031312031322020322020302020202020200A2031312031332020312020302020202020200A2020312031332020312020302020202020200A2020342031332020322020302020202020200A2020322031342020312020302020202020200A2020312031352020312020302020202020200A2031352031362020312020302020202020200A2031362031372020312020302020202020200A4D2020454E44
Contributor: YAMAMOTO M, DEP. CHEMISTRY, FAC. SCIENCE, NARA WOMEN'S UNIV.
InstType: EI
InstName: HITACHI M-2500
IoniMethod: _ENERGY 70 eV
IonPolarity: pos
Date: 2010-10-09 19:48:36+02:00
Num Peaks: 59
14 31 15 307 19 12 26 39 27 212 28 440 29 620 30 88 31 999 32 32 
38 12 39 27 40 121 41 118 42 140 43 334 44 187 45 179 51 25 52 69 
53 97 54 98 55 43 56 422 57 108 58 204 65 21 66 143 67 211 68 81 
69 24 70 47 77 19 78 13 79 38 80 70 81 214 82 37 83 23 93 17 
94 67 95 67 96 21 97 12 108 20 109 85 110 14 122 56 123 21 136 18 
137 14 151 13 152 11 180 45 193 61 194 20 206 10 224 32 225 20 
