Name: DIISOPROPYL METHOXYCARBONYLMETHYL PHOSHONATE
MW: 238
Formula: C9H19O5P
Synonym: MassBank: JP010118
Synonym: DIISOPROPYL METHOXYCARBONYLMETHYL PHOSHONATE
Structure: 444949534F50524F50594C204D4554484F5859434152424F4E594C4D455448594C2050484F53484F4E4154452E6D6F6C0A20204368656D447261773039323231303030343932440A2031352031342020302020302020302020302020302020302020302020303939392056323030300A20202020302E333136382020202D302E3832353020202020302E303030302043202020302020302020302020302020302020302020302020302020302020302020302020300A20202020312E303331322020202D312E3233373520202020302E303030302043202020302020302020302020302020302020302020302020302020302020302020302020300A20202020312E303331322020202D322E3036323520202020302E30303030204F202020302020302020302020302020302020302020302020302020302020302020302020300A20202020312E373435372020202D302E3832353020202020302E30303030204F202020302020302020302020302020302020302020302020302020302020302020302020300A20202020312E3734353720202020302E3030303020202020302E303030302043202020302020302020302020302020302020302020302020302020302020302020302020300A20202020302E3331363820202020302E3030303020202020302E303030302050202020302020302020302020302020302020302020302020302020302020302020302020300A20202020312E3134313820202020302E3030303020202020302E30303030204F202020302020302020302020302020302020302020302020302020302020302020302020300A2020202D302E3530383220202020302E3030303020202020302E30303030204F202020302020302020302020302020302020302020302020302020302020302020302020300A20202020302E3331363820202020302E3832353020202020302E30303030204F202020302020302020302020302020302020302020302020302020302020302020302020300A2020202D302E393230372020202D302E3731343520202020302E303030302043202020302020302020302020302020302020302020302020302020302020302020302020300A2020202D302E353038322020202D312E3432383920202020302E303030302043202020302020302020302020302020302020302020302020302020302020302020302020300A2020202D312E373435372020202D302E3731343520202020302E303030302043202020302020302020302020302020302020302020302020302020302020302020302020300A20202020312E3033313320202020312E3233373520202020302E303030302043202020302020302020302020302020302020302020302020302020302020302020302020300A20202020312E3033313320202020322E3036323520202020302E303030302043202020302020302020302020302020302020302020302020302020302020302020302020300A20202020312E3734353720202020302E3832353020202020302E303030302043202020302020302020302020302020302020302020302020302020302020302020302020300A2020322020332020322020302020202020200A2020342020352020312020302020202020200A2020322020342020312020302020202020200A2020312020322020312020302020202020200A2020362020372020322020302020202020200A2020362020382020312020302020202020200A2020362020392020312020302020202020200A2020312020362020312020302020202020200A2031302031312020312020302020202020200A2031302031322020312020302020202020200A2020382031302020312020302020202020200A2031332031342020312020302020202020200A2031332031352020312020302020202020200A2020392031332020312020302020202020200A4D2020454E44
Contributor: KURARAY CO., LTD.
InstType: EI
InstName: JEOL JMS-D-300
IoniMethod: _ENERGY 70 eV
IonPolarity: pos
Date: 2010-10-09 19:48:36+02:00
Num Peaks: 24
27 30 39 20 41 80 42 7 43 250 45 40 59 60 65 2 74 90 95 80 
96 30 105 5 119 30 123 730 137 999 138 8 154 60 155 800 165 90 179 15 
181 60 197 40 223 20 239 10 
