Name: 4-NITROBENZYL ALCOHOL
CAS: 619-73-8
MW: 153
Formula: C7H7NO3
Synonym: MassBank: JP011112
Synonym: 4-NITROBENZYL ALCOHOL
Structure: 342D4E4954524F42454E5A594C20414C434F484F4C2E6D6F6C0A20204368656D447261773034323231303137313032440A2031312031312020302020302020302020302020302020302020302020303939392056323030300A20202020312E363530302020202D302E3030303020202020302E303030302043202020302020302020302020302020302020302020302020302020302020302020302020300A20202020302E383235302020202D302E3030303020202020302E303030302043202020302020302020302020302020302020302020302020302020302020302020302020300A20202020302E343132352020202D302E3731343520202020302E303030302043202020302020302020302020302020302020302020302020302020302020302020302020300A2020202D302E343132352020202D302E3731343520202020302E303030302043202020302020302020302020302020302020302020302020302020302020302020302020300A2020202D302E3832353020202020302E3030303020202020302E303030302043202020302020302020302020302020302020302020302020302020302020302020302020300A2020202D302E3431323520202020302E3731343520202020302E303030302043202020302020302020302020302020302020302020302020302020302020302020302020300A20202020302E3431323520202020302E3731343520202020302E303030302043202020302020302020302020302020302020302020302020302020302020302020302020300A2020202D312E3635303020202020302E3030303020202020302E30303030204E202020302020332020302020302020302020302020302020302020302020302020302020300A2020202D322E303632352020202D302E3731343520202020302E30303030204F202020302020302020302020302020302020302020302020302020302020302020302020300A2020202D322E3036323520202020302E3731343520202020302E30303030204F202020302020352020302020302020302020302020302020302020302020302020302020300A20202020322E3036323520202020302E3731343520202020302E30303030204F202020302020302020302020302020302020302020302020302020302020302020302020300A2020312020322020312020302020202020200A2020322020332020312020302020202020200A2020332020342020322020302020202020200A2020342020352020312020302020202020200A2020352020362020322020302020202020200A2020362020372020312020302020202020200A2020322020372020322020302020202020200A2020382020392020322020302020202020200A2020382031302020312020302020202020200A2020352020382020312020302020202020200A2020312031312020312020302020202020200A4D202043484720203220202038202020312020313020202D310A4D2020454E44
Contributor: YAMAMOTO M, DEP. CHEMISTRY, FAC. SCIENCE, NARA WOMEN'S UNIV.
InstType: EI
InstName: HITACHI M-80
IoniMethod: _ENERGY 70 eV
IonPolarity: pos
Date: 2010-10-09 19:48:36+02:00
Num Peaks: 53
26 14 27 67 29 70 30 112 31 90 37 20 38 33 39 155 40 17 41 54 
46 42 49 11 50 177 51 332 52 93 53 93 55 23 61 19 62 56 63 153 
64 40 65 44 66 42 67 43 73 13 74 80 75 66 76 84 77 999 78 349 
79 273 80 19 86 13 89 419 90 55 91 29 92 26 94 61 95 21 104 15 
105 114 106 208 107 645 108 184 109 12 122 13 124 66 125 13 136 165 137 49 
152 49 153 334 154 42 
