Name: HEXACHLOROBENZENE
CAS: 118-74-1
MW: 281
Formula: C6Cl6
Synonym: MassBank: JP011624
Synonym: HEXACHLOROBENZENE
Structure: 4845584143484C4F524F42454E5A454E452E6D6F6C0A20204368656D447261773038313131303230313532440A2031322031322020302020302020302020302020302020302020302020303939392056323030300A2020202D302E383235302020202D302E3030303020202020302E303030302043202020302020302020302020302020302020302020302020302020302020302020302020300A2020202D302E3431323520202020302E3731343520202020302E303030302043202020302020302020302020302020302020302020302020302020302020302020302020300A20202020302E3431323520202020302E3731343520202020302E303030302043202020302020302020302020302020302020302020302020302020302020302020302020300A20202020302E383235302020202D302E3030303020202020302E303030302043202020302020302020302020302020302020302020302020302020302020302020302020300A20202020302E343132352020202D302E3731343520202020302E303030302043202020302020302020302020302020302020302020302020302020302020302020302020300A2020202D302E343132352020202D302E3731343520202020302E303030302043202020302020302020302020302020302020302020302020302020302020302020302020300A2020202D312E363530302020202D302E3030303020202020302E3030303020436C2020302020302020302020302020302020302020302020302020302020302020302020300A2020202D302E3832353020202020312E3432383920202020302E3030303020436C2020302020302020302020302020302020302020302020302020302020302020302020300A20202020302E3832353020202020312E3432383920202020302E3030303020436C2020302020302020302020302020302020302020302020302020302020302020302020300A20202020312E363530302020202D302E3030303020202020302E3030303020436C2020302020302020302020302020302020302020302020302020302020302020302020300A20202020302E383235302020202D312E3432383920202020302E3030303020436C2020302020302020302020302020302020302020302020302020302020302020302020300A2020202D302E383235302020202D312E3432383920202020302E3030303020436C2020302020302020302020302020302020302020302020302020302020302020302020300A2020312020322020312020302020202020200A2020322020332020322020302020202020200A2020332020342020312020302020202020200A2020342020352020322020302020202020200A2020352020362020312020302020202020200A2020312020362020322020302020202020200A2020312020372020312020302020202020200A2020322020382020312020302020202020200A2020332020392020312020302020202020200A2020342031302020312020302020202020200A2020352031312020312020302020202020200A2020362031322020312020302020202020200A4D2020454E44
Contributor: YAMAMOTO M, DEP. CHEMISTRY, FAC. SCIENCE, NARA WOMEN'S UNIV.
InstType: EI
InstName: HITACHI M-2500
IoniMethod: _ENERGY 70 eV
IonPolarity: pos
Date: 2010-10-09 19:48:36+02:00
Num Peaks: 54
35 23 36 32 47 35 49 11 60 23 71 61 72 30 73 16 83 14 88 12 
89 12 94 13 95 37 97 12 106 55 107 117 108 40 109 34 118 50 120 33 
130 17 132 11 141 40 142 219 143 61 144 122 145 14 146 18 165 11 167 11 
177 73 179 72 181 23 212 109 214 140 215 10 216 69 218 15 247 139 248 12 
249 237 250 20 251 141 252 13 253 47 282 530 283 35 284 999 285 66 286 801 
287 53 288 352 290 83 292 10 
