Name: MassBank: JP010994
MW: 256
Formula: C14H8O5
Synonym: MassBank: JP010994
Synonym: 3-((3,6-DIOXO-1,4-CYCLOHEXADIENYL)METHYL)-PARA-TROPOQUINONE
Structure: 332D2828332C362D44494F584F2D312C342D4359434C4F484558414449454E594C294D455448594C292D504152412D54524F504F5155494E4F4E452E6D6F6C0A20204368656D447261773032323231303038353332440A2031392032302020302020302020302020302020302020302020302020303939392056323030300A2020202D312E383333392020202D302E3233323520202020302E303030302043202020302020302020302020302020302020302020302020302020302020302020302020300A2020202D312E383333392020202D312E3035373520202020302E303030302043202020302020302020302020302020302020302020302020302020302020302020302020300A2020202D312E313838392020202D312E3537313920202020302E303030302043202020302020302020302020302020302020302020302020302020302020302020302020300A2020202D302E333834362020202D312E3338383320202020302E303030302043202020302020302020302020302020302020302020302020302020302020302020302020300A2020202D302E303236362020202D302E3634353020202020302E303030302043202020302020302020302020302020302020302020302020302020302020302020302020300A2020202D302E3338343620202020302E3039383320202020302E303030302043202020302020302020302020302020302020302020302020302020302020302020302020300A2020202D312E3138383920202020302E3238313920202020302E303030302043202020302020302020302020302020302020302020302020302020302020302020302020300A20202020302E373938342020202D302E3634353020202020302E30303030204F202020302020302020302020302020302020302020302020302020302020302020302020300A20202020302E313239382020202D322E3033333320202020302E30303030204F202020302020302020302020302020302020302020302020302020302020302020302020300A2020202D322E3537373220202020302E3132353420202020302E30303030204F202020302020302020302020302020302020302020302020302020302020302020302020300A20202020302E3132393820202020302E3734333320202020302E303030302043202020302020302020302020302020302020302020302020302020302020302020302020300A20202020302E3934353620202020302E3632303320202020302E303030302043202020302020302020302020302020302020302020302020302020302020302020302020300A20202020312E323437302020202D302E3134373620202020302E303030302043202020302020302020302020302020302020302020302020302020302020302020302020300A20202020322E303632382020202D302E3237303620202020302E303030302043202020302020302020302020302020302020302020302020302020302020302020302020300A20202020322E3537373220202020302E3337343420202020302E303030302043202020302020302020302020302020302020302020302020302020302020302020302020300A20202020322E3237353820202020312E3134323420202020302E303030302043202020302020302020302020302020302020302020302020302020302020302020302020300A20202020312E3436303020202020312E3236353420202020302E303030302043202020302020302020302020302020302020302020302020302020302020302020302020300A20202020312E3135383620202020322E3033333320202020302E30303030204F202020302020302020302020302020302020302020302020302020302020302020302020300A20202020322E333634322020202D312E3033383620202020302E30303030204F202020302020302020302020302020302020302020302020302020302020302020302020300A2020312020322020312020302020202020200A2020322020332020322020302020202020200A2020332020342020312020302020202020200A2020342020352020312020302020202020200A2020352020362020312020302020202020200A2020362020372020322020302020202020200A2020372020312020312020302020202020200A2020352020382020322020302020202020200A2020342020392020322020302020202020200A2020312031302020322020302020202020200A2020362031312020312020302020202020200A2031312031322020312020302020202020200A2031322031332020322020302020202020200A2031332031342020312020302020202020200A2031342031352020312020302020202020200A2031352031362020322020302020202020200A2031362031372020312020302020202020200A2031372031322020312020302020202020200A2031372031382020322020302020202020200A2031342031392020322020302020202020200A4D2020454E44
Contributor: TAKESHITA H, INST. OF ADVANCED MATERIAL STUDY KYUSHU UNIV.
InstType: EI
InstName: JEOL JMS-01-SG-2
IoniMethod: _ENERGY 75 eV
IonPolarity: pos
Date: 2010-10-09 19:48:36+02:00
Num Peaks: 49
39 177 50 90 51 131 53 224 54 647 55 128 62 107 63 271 64 148 78 112 
82 401 89 196 90 171 92 89 115 246 116 255 118 426 144 288 145 74 146 252 
147 107 155 79 171 205 172 313 173 77 174 95 175 32 176 20 183 42 184 58 
185 15 186 28 187 36 199 52 200 432 201 84 202 29 203 16 212 89 213 64 
214 20 227 19 228 999 229 177 230 64 256 245 257 41 258 79 259 15 
