Name: META-FLUOROPHENOL
MW: 112
Formula: C6H5FO
Synonym: MassBank: JP011779
Synonym: META-FLUOROPHENOL
Structure: 310A32310A4D4554412D464C554F524F5048454E4F4C2E6D6F6C0A20204368656D447261773038313131303232343632440A2020382020382020302020302020302020302020302020302020302020303939392056323030300A20202020302E373134352020202D302E3431323520202020302E303030302043202020302020302020302020302020302020302020302020302020302020302020302020300A2020202D302E303030302020202D302E3832353020202020302E303030302043202020302020302020302020302020302020302020302020302020302020302020302020300A2020202D302E373134352020202D302E3431323520202020302E303030302043202020302020302020302020302020302020302020302020302020302020302020302020300A2020202D302E3731343520202020302E3431323520202020302E303030302043202020302020302020302020302020302020302020302020302020302020302020302020300A20202020302E3030303020202020302E3832353020202020302E303030302043202020302020302020302020302020302020302020302020302020302020302020302020300A20202020302E3731343520202020302E3431323520202020302E303030302043202020302020302020302020302020302020302020302020302020302020302020302020300A2020202D312E343238392020202D302E3832353020202020302E303030302046202020302020302020302020302020302020302020302020302020302020302020302020300A20202020312E343238392020202D302E3832353020202020302E30303030204F202020302020302020302020302020302020302020302020302020302020302020302020300A2020312020322020312020302020202020200A2020322020332020322020302020202020200A2020332020342020312020302020202020200A2020342020352020322020302020202020200A2020352020362020312020302020202020200A2020312020362020322020302020202020200A2020332020372020312020302020202020200A2020312020382020312020302020202020200A4D2020454E44
Contributor: TAJIMA S, GUNMA COLLEGE OF TECHNOLOGY
InstType: EI
InstName: HITACHI M-80A
IoniMethod: _ENERGY 70 eV
IonPolarity: pos
Date: 2010-10-09 19:48:36+02:00
Num Peaks: 47
26 43 27 52 29 126 31 133 33 27 36 24 37 121 38 172 39 236 40 18 
41 15 42 20 48 45 49 156 50 81 51 18 52 86 54 38 55 82 56 456 
57 74 59 21 60 129 61 169 63 336 64 359 65 87 66 38 68 50 69 40 
70 24 73 95 74 47 75 69 79 18 80 113 82 51 83 718 84 666 85 30 
92 17 94 39 95 15 96 13 111 23 112 999 113 46 
