Name: METHYL (3-BENZYLOXYBICYCLO(4.1.0)HEPT-2-EN-7-YL)ACETATE
MW: 272
Formula: C17H20O3
Synonym: MassBank: JP011049
Synonym: METHYL (3-BENZYLOXYBICYCLO(4.1.0)HEPT-2-EN-7-YL)ACETATE
Structure: 4D455448594C2028332D42454E5A594C4F585942494359434C4F28342E312E3029484550542D322D454E2D372D594C29414345544154452E6D6F6C0A20204368656D447261773130313831303137323132440A2032302032322020302020302020302020302020302020302020302020303939392056323030300A20202020332E323434372020202D302E3435333020202020302E303030302043202020302020302020302020302020302020302020302020302020302020302020302020300A20202020322E353330332020202D302E3836353520202020302E303030302043202020302020302020302020302020302020302020302020302020302020302020302020300A20202020332E3234343720202020302E3337323020202020302E30303030204F202020302020302020302020302020302020302020302020302020302020302020302020300A20202020332E393539322020202D302E3836353520202020302E30303030204F202020302020302020302020302020302020302020302020302020302020302020302020300A20202020302E393930382020202D302E3435333020202020302E303030302043202020302020302020302020302020302020302020302020302020302020302020302020300A20202020302E313635382020202D302E3435333020202020302E303030302043202020302020302020302020302020302020302020302020302020302020302020302020300A2020202D302E3234363720202020302E3236313520202020302E303030302043202020302020302020302020302020302020302020302020302020302020302020302020300A20202020302E3136353820202020302E3937363020202020302E303030302043202020302020302020302020302020302020302020302020302020302020302020302020300A20202020302E3939303820202020302E3937363020202020302E303030302043202020302020302020302020302020302020302020302020302020302020302020302020300A20202020312E3430333320202020302E3236313520202020302E303030302043202020302020302020302020302020302020302020302020302020302020302020302020300A20202020312E383135382020202D302E3435333020202020302E303030302043202020302020302020302020302020302020302020302020302020302020302020302020300A2020202D312E3037313720202020302E3236313520202020302E30303030204F202020302020302020302020302020302020302020302020302020302020302020302020300A2020202D312E3438343220202020302E3937363020202020302E303030302043202020302020302020302020302020302020302020302020302020302020302020302020300A2020202D322E3330393220202020302E3937363020202020302E303030302043202020302020302020302020302020302020302020302020302020302020302020302020300A2020202D322E3732313720202020302E3236313520202020302E303030302043202020302020302020302020302020302020302020302020302020302020302020302020300A2020202D332E3534363720202020302E3236313520202020302E303030302043202020302020302020302020302020302020302020302020302020302020302020302020300A2020202D332E3935393220202020302E3937363020202020302E303030302043202020302020302020302020302020302020302020302020302020302020302020302020300A2020202D332E3534363720202020312E3639303520202020302E303030302043202020302020302020302020302020302020302020302020302020302020302020302020300A2020202D322E3732313720202020312E3639303520202020302E303030302043202020302020302020302020302020302020302020302020302020302020302020302020300A20202020332E393539322020202D312E3639303520202020302E303030302043202020302020302020302020302020302020302020302020302020302020302020302020300A2020312020322020312020302020202020200A2020312020332020322020302020202020200A2020312020342020312020302020202020200A2020352020362020312020302020202020200A2020362020372020322020302020202020200A2020372020382020312020302020202020200A2020382020392020312020302020202020200A2020392031302020312020302020202020200A2031302031312020312020302020202020200A2020352031312020312020302020202020200A2020352031302020312020302020202020200A2031332031342020312020302020202020200A2031342031352020312020302020202020200A2031352031362020322020302020202020200A2031362031372020312020302020202020200A2031372031382020322020302020202020200A2031382031392020312020302020202020200A2031342031392020322020302020202020200A2031322031332020312020302020202020200A2020372031322020312020302020202020200A2020322031312020312020302020202020200A2020342032302020312020302020202020200A4D2020454E44
Contributor: TAKESHITA H, INST. OF ADVANCED MATERIAL STUDY KYUSHU UNIV.
InstType: EI
InstName: JEOL JMS-01-SG-2
IoniMethod: _ENERGY 75 eV
IonPolarity: pos
Date: 2010-10-09 19:48:36+02:00
Num Peaks: 17
39 50 41 37 59 29 65 103 66 34 77 58 79 81 91 999 92 93 93 55 
107 142 121 62 150 66 164 14 180 10 181 38 272 32 
