Name: 1-METHYL-4-(1'-METHOXYCARBONYL-2'-PYRROLOMETHYLENE)-3-METHOXYCARBONYL-2-PYRAZOLIN-5-ONE
MW: 291
Formula: C13H13N3O5
Synonym: MassBank: JP011865
Synonym: 1-METHYL-4-(1'-METHOXYCARBONYL-2'-PYRROLOMETHYLENE)-3-METHOXYCARBONYL-2-PYRAZOLIN-5-ONE
Structure: 312D4D455448594C2D342D2831272D4D4554484F5859434152424F4E594C2D32272D505952524F4C4F4D455448594C454E45292D332D4D4554484F5859434152424F4E594C2D322D505952415A4F4C494E2D352D4F4E452E6D6F6C0A20204368656D447261773131313930393136343232440A2032342032352020302020302020302020302020302020302020302020303939392056323030300A20202020302E313939342020202D322E3431333520202020302E303030302043202020302020302020302020302020302020302020302020302020302020302020302020300A20202020302E363834362020202D312E3734383220202020302E30303030204E202020302020302020302020302020302020302020302020302020302020302020302020300A20202020302E313939392020202D312E3037383620202020302E303030302043202020302020302020302020302020302020302020302020302020302020302020302020300A2020202D302E353834382020202D312E3333333320202020302E303030302043202020302020302020302020302020302020302020302020302020302020302020302020300A2020202D302E353835312020202D322E3135383320202020302E303030302043202020302020302020302020302020302020302020302020302020302020302020302020300A2020202D312E323532312020202D302E3834383120202020302E303030302048202020302020302020302020302020302020302020302020302020302020302020302020300A2020202D312E323532382020202D322E3634323920202020302E303030302048202020302020302020302020302020302020302020302020302020302020302020302020300A20202020302E343533362020202D332E3139383320202020302E303030302048202020302020302020302020302020302020302020302020302020302020302020302020300A20202020312E353039362020202D312E3734383220202020302E303030302043202020302020302020302020302020302020302020302020302020302020302020302020300A20202020312E393231382020202D312E3033343220202020302E30303030204F202020302020302020302020302020302020302020302020302020302020302020302020300A20202020312E393232332020202D322E3436333120202020302E30303030204F202020302020302020302020302020302020302020302020302020302020302020302020300A20202020322E373436312020202D322E3436333120202020302E303030302043202020302020302020302020302020302020302020302020302020302020302020302020300A20202020302E3630383920202020302E3137363420202020302E303030302043202020302020302020302020302020302020302020302020302020302020302020302020300A2020202D302E3237333520202020312E3135383120202020302E303030302043202020302020302020302020302020302020302020302020302020302020302020302020300A2020202D302E3130313620202020312E3936353120202020302E303030302043202020302020302020302020302020302020302020302020302020302020302020302020300A2020202D302E3831353920202020322E3337373820202020302E30303030204E202020302020302020302020302020302020302020302020302020302020302020302020300A2020202D312E3432393220202020312E3832363020202020302E30303030204E202020302020302020302020302020302020302020302020302020302020302020302020300A2020202D312E3039353720202020312E3037333220202020302E303030302043202020302020302020302020302020302020302020302020302020302020302020302020300A2020202D302E3930313920202020332E3139383320202020302E303030302043202020302020302020302020302020302020302020302020302020302020302020302020300A20202020302E3635323220202020322E3330303320202020302E30303030204F202020302020302020302020302020302020302020302020302020302020302020302020300A2020202D312E3530383220202020302E3335383820202020302E303030302043202020302020302020302020302020302020302020302020302020302020302020302020300A2020202D322E3333333720202020302E3335383820202020302E30303030204F202020302020302020302020302020302020302020302020302020302020302020302020300A2020202D312E303935392020202D302E3335353320202020302E30303030204F202020302020302020302020302020302020302020302020302020302020302020302020300A2020202D322E373436312020202D302E3335353520202020302E303030302043202020302020302020302020302020302020302020302020302020302020302020302020300A2020312020322020312020302020202020200A2020322020332020312020302020202020200A2020332020342020322020302020202020200A2020342020352020312020302020202020200A2020352020312020322020302020202020200A2020342020362020312020302020202020200A2020352020372020312020302020202020200A2020312020382020312020302020202020200A2020322020392020312020302020202020200A2020392031302020322020302020202020200A2020392031312020312020302020202020200A2031312031322020312020302020202020200A2020332031332020312020302020202020200A2031332031342020322020302020202020200A2031342031352020312020302020202020200A2031352031362020312020302020202020200A2031362031372020312020302020202020200A2031372031382020322020302020202020200A2031382031342020312020302020202020200A2031362031392020312020302020202020200A2031352032302020322020302020202020200A2031382032312020312020302020202020200A2032312032322020312020302020202020200A2032312032332020322020302020202020200A2032322032342020312020302020202020200A4D2020454E44
Contributor: YOSHIKI O, FAC, TECHNOLOGY, OSAKA UNIV.
InstType: EI
InstName: Unknown
IoniMethod: _ENERGY 70 eV
IonPolarity: pos
Date: 2010-10-09 19:48:36+02:00
Num Peaks: 113
50 61 51 131 52 61 53 46 54 17 55 21 56 23 57 19 59 467 60 18 
61 16 62 65 63 117 64 59 65 49 66 36 67 26 68 13 69 10 74 41 
75 91 76 98 77 83 78 49 79 29 80 34 81 12 84 97 86 65 87 14 
88 38 89 86 90 82 91 45 92 26 93 17 94 110 95 10 101 15 102 146 
103 158 104 92 105 53 106 29 107 15 108 10 115 12 116 66 117 99 118 169 
119 45 120 11 129 24 130 118 131 118 132 62 133 47 134 15 143 10 144 101 
145 73 146 71 147 19 148 20 149 16 151 19 152 10 157 18 158 52 159 59 
160 31 161 16 162 34 165 11 167 19 172 38 173 69 174 28 175 15 176 43 
177 12 186 22 187 14 188 94 189 55 190 26 192 15 200 61 201 139 202 52 
203 21 204 36 205 28 214 33 215 13 216 114 217 36 218 31 220 26 230 44 
231 18 232 191 233 83 234 21 244 38 246 17 260 36 276 89 277 12 290 68 
291 999 292 138 293 25 
