Name: MassBank: JP011575
MW: 128
Formula: C7H16Si
Synonym: MassBank: JP011575
Synonym: 1,1-DIMETHYLSILACYCLOHEXANE (D3-METHYL)
Structure: 312C312D44494D455448594C53494C414359434C4F484558414E45202844332D4D455448594C292E6D6F6C0A20204368656D447261773130323330393131303532440A2031312031312020302020302020302020302020302020302020302020303939392056323030300A20202020302E3232343020202020302E3139323920202020302E303030302053692020302020302020302020302020302020302020302020302020302020302020302020300A20202020302E393338322020202D302E3231393620202020302E303030302043202020302020302020302020302020302020302020302020302020302020302020302020300A20202020302E393338322020202D312E3034343620202020302E303030302043202020302020302020302020302020302020302020302020302020302020302020302020300A20202020302E323233382020202D312E3435373120202020302E303030302043202020302020302020302020302020302020302020302020302020302020302020302020300A2020202D302E343930372020202D312E3034343620202020302E303030302043202020302020302020302020302020302020302020302020302020302020302020302020300A2020202D302E343930372020202D302E3231393620202020302E303030302043202020302020302020302020302020302020302020302020302020302020302020302020300A2020202D302E3330363220202020302E3832353020202020302E303030302043202020302020302020302020302020302020302020302020302020302020302020302020300A20202020302E3735343420202020302E3832343820202020302E303030302043202020302020302020302020302020302020302020302020302020302020302020302020300A2020202D302E3833363420202020312E3435373120202020302E303030302048202020312020302020302020302020302020302020302020302020302020302020302020300A20202020302E3332353920202020312E3335353220202020302E303030302048202020312020302020302020302020302020302020302020302020302020302020302020300A2020202D302E3933383220202020302E3239343820202020302E303030302048202020312020302020302020302020302020302020302020302020302020302020302020300A2020312020322020312020302020202020200A2020322020332020312020302020202020200A2020332020342020312020302020202020200A2020342020352020312020302020202020200A2020352020362020312020302020202020200A2020312020362020312020302020202020200A2020312020372020312020302020202020200A2020312020382020312020302020202020200A2020372020392020312020302020202020200A2020372031302020312020302020202020200A2020372031312020312020302020202020200A4D202049534F2020332020203920202032202031302020203220203131202020320A4D2020454E44
Contributor: YAMAMOTO M, DEP. CHEMISTRY, FAC. SCIENCE, NARA WOMEN'S UNIV.
InstType: EI
InstName: HITACHI RMU-6M
IoniMethod: _ENERGY 20 eV
IonPolarity: pos
Date: 2010-10-09 19:48:36+02:00
Num Peaks: 30
59 116 60 18 61 52 62 251 63 22 64 17 67 25 71 23 74 31 75 203 
76 32 79 27 85 518 86 66 87 49 88 613 89 87 90 35 102 35 103 84 
113 927 114 119 115 49 116 999 117 125 118 53 130 13 131 649 132 93 133 39 
