Name: MassBank: JP010249
MW: 280
Formula: C15H20O5
Synonym: MassBank: JP010249
Synonym: DIMETHYL CIS-3,3-DIMETHYL-2,3,4,5,6,7-HEXAHYDROINDEN-1(H)-ONE-5,6-DICARBOXYLATE
Synonym: DIMETHYL (5R,6S)-3,3-DIMETHYL-2,3,4,5,6,7-HEXAHYDROINDEN-1(H)-ONE-5,6-DICARBOXYLATE
Structure: 3030343134333032470A637343463930302F3130323231303135313332440A2032322032332020302020302020312020302020302020302020302020303939392056323030300A20202020332E3530303020202020302E3530303020202020302E303030302043202020302020302020322020302020302020302020302020302020302020302020302020300A20202020332E353030302020202D302E3530303020202020302E303030302043202020302020302020312020302020302020302020302020302020302020302020302020300A20202020332E3030303020202020312E3336363020202020302E303030302043202020302020302020302020302020302020302020302020302020302020302020302020300A20202020342E3336363020202020312E3030303020202020302E303030302043202020302020302020302020302020302020302020302020302020302020302020302020300A20202020322E3730303020202020302E3530303020202020302E303030302048202020302020302020302020302020302020302020302020302020302020302020302020300A20202020332E303030302020202D312E3336363020202020302E303030302043202020302020302020302020302020302020302020302020302020302020302020302020300A20202020342E333636302020202D312E3030303020202020302E303030302043202020302020302020302020302020302020302020302020302020302020302020302020300A20202020322E373030302020202D302E3530303020202020302E303030302048202020302020302020302020302020302020302020302020302020302020302020302020300A20202020332E3530303020202020322E3233323120202020302E30303030204F202020302020302020302020302020302020302020302020302020302020302020302020300A20202020322E3030303020202020312E3336363020202020302E30303030204F202020302020302020302020302020302020302020302020302020302020302020302020300A20202020352E3233323120202020302E3530303020202020302E303030302043202020302020302020302020302020302020302020302020302020302020302020302020300A20202020332E353030302020202D322E3233323020202020302E30303030204F202020302020302020302020302020302020302020302020302020302020302020302020300A20202020322E303030302020202D312E3336363020202020302E30303030204F202020302020302020302020302020302020302020302020302020302020302020302020300A20202020352E323332312020202D302E3530303020202020302E303030302043202020302020302020302020302020302020302020302020302020302020302020302020300A20202020332E3030303020202020332E3039383120202020302E303030302043202020302020302020302020302020302020302020302020302020302020302020302020300A20202020362E3138333020202020302E3830393020202020302E303030302043202020302020302020302020302020302020302020302020302020302020302020302020300A20202020332E303030302020202D332E3039383120202020302E303030302043202020302020302020302020302020302020302020302020302020302020302020302020300A20202020362E313833302020202D302E3830393020202020302E303030302043202020302020302020302020302020302020302020302020302020302020302020302020300A20202020362E3737303920202020302E3030303020202020302E303030302043202020302020302020302020302020302020302020302020302020302020302020302020300A20202020352E3837343120202020312E3736303120202020302E303030302043202020302020302020302020302020302020302020302020302020302020302020302020300A20202020362E3939323120202020312E3339363820202020302E303030302043202020302020302020302020302020302020302020302020302020302020302020302020300A20202020362E343932312020202D312E3736303120202020302E30303030204F202020302020302020302020302020302020302020302020302020302020302020302020300A2020312020322020312020302020302020302020300A2020312020332020312020362020302020302020300A2020312020342020312020302020302020302020300A2020312020352020312020312020302020302020300A2020322020362020312020362020302020302020300A2020322020372020312020302020302020302020300A2020322020382020312020312020302020302020300A2020332020392020312020302020302020302020300A2020332031302020322020302020302020302020300A2020342031312020312020302020302020302020300A2020362031322020312020302020302020302020300A2020362031332020322020302020302020302020300A2020372031342020312020302020302020302020300A2020392031352020312020302020302020302020300A2031312031342020322020302020302020302020300A2031312031362020312020302020302020302020300A2031322031372020312020302020302020302020300A2031342031382020312020302020302020302020300A2031362031392020312020302020302020302020300A2031362032302020312020302020302020302020300A2031362032312020312020302020302020302020300A2031382031392020312020302020302020302020300A2031382032322020322020302020302020302020300A4D2020454E44
Contributor: KANEMASA S, INST. OF ADVANCED MATERIAL STUDY KYUSHU UNIV.
InstType: EI
InstName: JEOL JMS-01-SG-2
IoniMethod: _ENERGY 75 eV
IonPolarity: pos
Date: 2010-10-09 19:48:36+02:00
Num Peaks: 35
38 56 40 86 42 711 43 78 58 150 77 187 78 85 79 118 91 163 93 55 
105 189 107 56 117 53 119 305 120 48 121 999 122 99 137 62 145 70 147 50 
161 576 162 86 163 50 165 81 180 159 205 55 208 156 209 216 220 137 221 397 
222 81 240 214 249 139 280 296 281 53 
