Name: MassBank: JP011589
MW: 72
Formula: C3H8Si
Synonym: MassBank: JP011589
Synonym: SILACYCLOBUTANE (1,1-D2)
Structure: 310A31380A53494C414359434C4F425554414E452028312C312D4432292E6D6F6C0A20204368656D447261773038313231303036343532440A2020362020362020302020302020302020302020302020302020302020303939392056323030300A20202020302E3030303020202020302E3030303020202020302E303030302053692020302020302020302020302020302020302020302020302020302020302020302020300A20202020302E3030303020202020302E3832353020202020302E303030302043202020302020302020302020302020302020302020302020302020302020302020302020300A20202020302E3832353020202020302E3832353020202020302E303030302043202020302020302020302020302020302020302020302020302020302020302020302020300A20202020302E3832353020202020302E3030303020202020302E303030302043202020302020302020302020302020302020302020302020302020302020302020302020300A20202020302E303030302020202D302E3832353020202020302E303030302048202020312020302020302020302020302020302020302020302020302020302020302020300A2020202D302E3832353020202020302E3030303020202020302E303030302048202020312020302020302020302020302020302020302020302020302020302020302020300A2020312020322020312020302020202020200A2020322020332020312020302020202020200A2020332020342020312020302020202020200A2020312020342020312020302020202020200A2020312020352020312020302020202020200A2020312020362020312020302020202020200A4D202049534F202032202020352020203220202036202020320A4D2020454E44
Contributor: YAMAMOTO M, DEP. CHEMISTRY, FAC. SCIENCE, NARA WOMEN'S UNIV.
InstType: EI
InstName: HITACHI RMU-6M
IoniMethod: _ENERGY 70 eV
IonPolarity: pos
Date: 2010-10-09 19:48:36+02:00
Num Peaks: 41
26 31 27 74 28 490 29 99 30 106 31 30 32 56 33 42 37 19 38 23 
39 95 40 35 41 45 42 140 43 247 44 637 45 868 46 999 47 133 48 43 
52 11 53 60 54 32 55 60 56 65 57 51 58 98 59 74 60 15 65 39 
66 60 67 62 68 32 69 23 70 110 71 108 72 221 73 205 74 980 75 97 
76 41 
