Name: 17ALPHA-EPITESTERONE
MW: 288
Formula: C19H28O2
Synonym: MassBank: JP011418
Synonym: 17ALPHA-EPITESTERONE
Synonym: 4-ANDROSTEN-17ALPHA-OL-3-ONE
Structure: 3137414C5048412D4550495445535445524F4E452E6D6F6C0A20204368656D447261773132313130393030353532440A2032362032392020302020302020302020302020302020302020302020303939392056323030300A2020202D322E323238372020202D302E3933323320202020302E303030302043202020302020302020302020302020302020302020302020302020302020302020302020300A2020202D322E323238372020202D302E3130373320202020302E303030302043202020302020302020302020302020302020302020302020302020302020302020302020300A2020202D312E3531343220202020302E3330353220202020302E303030302043202020302020302020302020302020302020302020302020302020302020302020302020300A2020202D312E353134322020202D312E3334343820202020302E303030302043202020302020302020302020302020302020302020302020302020302020302020302020300A2020202D302E373939372020202D302E3933323320202020302E303030302043202020302020302020302020302020302020302020302020302020302020302020302020300A2020202D302E303835332020202D312E3334343820202020302E303030302043202020302020302020302020302020302020302020302020302020302020302020302020300A20202020302E363239322020202D302E3933323320202020302E303030302043202020302020302020302020302020302020302020302020302020302020302020302020300A20202020302E363239322020202D302E3130373320202020302E303030302043202020302020302020302020302020302020302020302020302020302020302020302020300A20202020312E3334333720202020302E3330353220202020302E303030302043202020302020302020302020302020302020302020302020302020302020302020302020300A20202020322E3132383320202020302E3035303320202020302E303030302043202020302020302020302020302020302020302020302020302020302020302020302020300A20202020322E3631333220202020302E3731373720202020302E303030302043202020302020302020302020302020302020302020302020302020302020302020302020300A20202020322E3132383320202020312E3338353220202020302E303030302043202020302020302020302020302020302020302020302020302020302020302020302020300A20202020312E3334333720202020312E3133303220202020302E303030302043202020302020302020302020302020302020302020302020302020302020302020302020300A20202020312E3334333720202020312E3935353220202020302E303030302043202020302020302020302020302020302020302020302020302020302020302020302020300A20202020302E3632393220202020312E3534323720202020302E303030302043202020302020302020302020302020302020302020302020302020302020302020302020300A2020202D302E3038353320202020312E3133303220202020302E303030302043202020302020302020302020302020302020302020302020302020302020302020302020300A2020202D302E3038353320202020302E3330353220202020302E303030302043202020302020302020302020302020302020302020302020302020302020302020302020300A2020202D302E373939372020202D302E3130373320202020302E303030302043202020302020302020302020302020302020302020302020302020302020302020302020300A2020202D302E3739393720202020302E3731373720202020302E303030302043202020302020302020302020302020302020302020302020302020302020302020302020300A20202020322E3338333220202020322E3136393820202020302E30303030204F202020302020302020302020302020302020302020302020302020302020302020302020300A2020202D322E393433312020202D312E3334343820202020302E30303030204F202020302020302020302020302020302020302020302020302020302020302020302020300A2020202D302E303835332020202D302E3531393820202020302E303030302048202020302020302020302020302020302020302020302020302020302020302020302020300A20202020302E3632393220202020302E3731373720202020302E303030302048202020302020302020302020302020302020302020302020302020302020302020302020300A20202020312E333433372020202D302E3531393820202020302E303030302048202020302020302020302020302020302020302020302020302020302020302020302020300A2020202D312E353134322020202D322E3136393820202020302E303030302048202020302020302020302020302020302020302020302020302020302020302020302020300A20202020322E3934333120202020312E3531343220202020302E303030302048202020302020302020302020302020302020302020302020302020302020302020302020300A2020312020322020312020302020202020200A2020322020332020312020302020202020200A2020312020342020312020302020202020200A2020342020352020322020302020202020200A2020352020362020312020302020202020200A2020362020372020312020302020202020200A2020372020382020312020302020202020200A2020382020392020312020302020202020200A2020392031302020312020302020202020200A2031302031312020312020302020202020200A2031312031322020312020302020202020200A2031322031332020312020302020202020200A2020392031332020312020302020202020200A2031332031342020312020312020202020200A2031332031352020312020302020202020200A2031352031362020312020302020202020200A2031362031372020312020302020202020200A2020382031372020312020302020202020200A2031372031382020312020302020202020200A2020332031382020312020302020202020200A2020352031382020312020302020202020200A2031382031392020312020312020202020200A2031322032302020312020362020202020200A2020312032312020322020302020202020200A2031372032322020312020362020202020200A2020382032332020312020312020202020200A2020392032342020312020362020202020200A2020342032352020312020302020202020200A2031322032362020312020312020202020200A4D2020454E44
Contributor: HASHIMOTO K, KYOTO COLLEGE OF PHARMACY
InstType: EI
InstName: HITACHI M-80
IoniMethod: _ENERGY 20 eV
IonPolarity: pos
Date: 2010-10-09 19:48:36+02:00
Num Peaks: 135
41 12 43 38 55 46 57 26 67 47 68 16 69 26 71 19 79 58 80 12 
81 86 82 24 83 46 84 10 85 12 91 66 92 15 93 128 94 84 95 123 
96 45 97 106 98 12 104 19 105 153 106 59 107 159 108 69 109 206 110 117 
111 100 112 10 117 25 118 17 119 100 120 57 121 135 122 155 123 261 124 999 
125 126 126 14 129 18 131 116 132 53 133 125 134 143 135 94 136 75 137 129 
138 50 139 11 143 29 144 85 145 115 146 270 147 862 148 235 149 105 150 33 
151 51 152 20 157 33 158 38 159 81 160 55 161 66 162 56 163 31 164 113 
165 253 166 39 167 11 171 33 172 24 173 45 174 63 175 38 176 48 177 26 
179 26 183 12 185 86 186 39 187 74 188 30 189 32 190 39 191 11 192 11 
197 14 199 43 200 38 201 35 202 35 203 284 204 74 205 11 206 10 211 37 
212 14 213 128 214 37 215 19 216 21 217 22 218 15 226 20 227 53 228 461 
229 130 230 21 231 36 232 17 237 21 241 11 242 20 244 27 245 35 246 375 
247 68 248 10 252 35 253 20 255 48 256 11 260 24 270 98 271 29 273 59 
274 15 287 16 288 685 289 154 290 21 
