Name: MassBank: JP010155
MW: 264
Formula: C16H24O3
Synonym: MassBank: JP010155
Synonym: 2-HYDROXYETHYL-6-METHOXY-2,5,7,8-TETRAMETHYL-3,4-DIHYDRO-2H-1-BENZOPYRAN
Structure: 322D485944524F5859455448594C2D362D4D4554484F58592D322C352C372C382D54455452414D455448594C2D332C342D4449485944524F2D32482D312D42454E5A4F505952414E2E6D6F6C0A20204368656D447261773031323131303231343632440A2031392032302020302020302020302020302020302020302020302020303939392056323030300A20202020312E3431383720202020302E3231353220202020302E303030302043202020302020302020302020302020302020302020302020302020302020302020302020300A20202020312E343138372020202D302E3630393820202020302E303030302043202020302020302020302020302020302020302020302020302020302020302020302020300A20202020302E373034332020202D312E3032323320202020302E303030302043202020302020302020302020302020302020302020302020302020302020302020302020300A2020202D302E303130322020202D302E3630393820202020302E303030302043202020302020302020302020302020302020302020302020302020302020302020302020300A2020202D302E3031303220202020302E3231353220202020302E303030302043202020302020302020302020302020302020302020302020302020302020302020302020300A20202020302E3730343320202020302E3632373720202020302E30303030204F202020302020302020302020302020302020302020302020302020302020302020302020300A2020202D302E3732343720202020302E3632373720202020302E303030302043202020302020302020302020302020302020302020302020302020302020302020302020300A2020202D312E3433393220202020302E3231353220202020302E303030302043202020302020302020302020302020302020302020302020302020302020302020302020300A2020202D312E343339322020202D302E3630393820202020302E303030302043202020302020302020302020302020302020302020302020302020302020302020302020300A2020202D302E373234372020202D312E3032323320202020302E303030302043202020302020302020302020302020302020302020302020302020302020302020302020300A2020202D302E3732343720202020312E3435323720202020302E303030302043202020302020302020302020302020302020302020302020302020302020302020302020300A2020202D322E3135333620202020302E3632373720202020302E303030302043202020302020302020302020302020302020302020302020302020302020302020302020300A2020202D302E373234372020202D312E3834373320202020302E303030302043202020302020302020302020302020302020302020302020302020302020302020302020300A2020202D322E313533362020202D312E3032323320202020302E30303030204F202020302020302020302020302020302020302020302020302020302020302020302020300A2020202D322E383638312020202D302E3630393820202020302E303030302043202020302020302020302020302020302020302020302020302020302020302020302020300A20202020322E3231353620202020302E3030313720202020302E303030302043202020302020302020302020302020302020302020302020302020302020302020302020300A20202020312E3733343420202020302E3937373420202020302E303030302043202020302020302020302020302020302020302020302020302020302020302020302020300A20202020322E3535323420202020312E3038353120202020302E303030302043202020302020302020302020302020302020302020302020302020302020302020302020300A20202020322E3836383120202020312E3834373320202020302E30303030204F202020302020302020302020302020302020302020302020302020302020302020302020300A2020312020322020312020302020202020200A2020322020332020312020302020202020200A2020332020342020312020302020202020200A2020342020352020312020302020202020200A2020352020362020312020302020202020200A2020312020362020312020302020202020200A2020372020382020312020302020202020200A2020382020392020322020302020202020200A2020392031302020312020302020202020200A2020342031302020322020302020202020200A2020352020372020322020302020202020200A2020372031312020312020302020202020200A2020382031322020312020302020202020200A2031302031332020312020302020202020200A2031342031352020312020302020202020200A2020392031342020312020302020202020200A2020312031362020312020302020202020200A2020312031372020312020302020202020200A2031372031382020312020302020202020200A2031382031392020312020302020202020200A4D2020454E44
Contributor: KURARAY CO., LTD.
InstType: EI
InstName: JEOL JMS-D-300
IoniMethod: _ENERGY 70 eV
IonPolarity: pos
Date: 2010-10-09 19:48:36+02:00
Num Peaks: 68
27 30 28 80 29 30 31 2 39 50 41 80 43 70 53 8 55 60 57 20 
65 40 67 4 69 20 77 60 79 50 81 2 85 60 91 110 93 70 94 2 
103 20 105 60 107 70 115 2 117 20 119 40 121 40 133 2 135 150 136 40 
139 20 145 2 147 30 149 40 150 80 151 4 152 40 159 30 161 20 163 3 
165 40 173 20 175 40 176 2 177 40 178 910 179 999 180 12 187 20 189 40 
190 20 191 6 202 20 203 60 204 20 216 3 217 60 219 110 231 230 232 4 
234 30 245 10 246 80 247 1 249 10 263 10 264 720 265 120 
