Name: CHLOROHYDROQUINONE
CAS: 615-67-8
MW: 143
Formula: C6H5ClO2
Synonym: MassBank: JP011077
Synonym: CHLOROHYDROQUINONE
Structure: 310A32330A43484C4F524F485944524F5155494E4F4E452E6D6F6C0A20204368656D447261773039303731303034343032440A2020392020392020302020302020302020302020302020302020302020303939392056323030300A20202020302E373134352020202D302E3431323520202020302E303030302043202020302020302020302020302020302020302020302020302020302020302020302020300A20202020302E3731343520202020302E3431323520202020302E303030302043202020302020302020302020302020302020302020302020302020302020302020302020300A2020202D302E3030303020202020302E3832353020202020302E303030302043202020302020302020302020302020302020302020302020302020302020302020302020300A2020202D302E3731343520202020302E3431323520202020302E303030302043202020302020302020302020302020302020302020302020302020302020302020302020300A2020202D302E373134352020202D302E3431323520202020302E303030302043202020302020302020302020302020302020302020302020302020302020302020302020300A20202020302E303030302020202D302E3832353020202020302E303030302043202020302020302020302020302020302020302020302020302020302020302020302020300A20202020312E343238392020202D302E3832353020202020302E30303030204F202020302020302020302020302020302020302020302020302020302020302020302020300A2020202D312E3432383920202020302E3832353020202020302E30303030204F202020302020302020302020302020302020302020302020302020302020302020302020300A20202020312E3432383920202020302E3832353020202020302E3030303020436C2020302020302020302020302020302020302020302020302020302020302020302020300A2020312020322020312020302020202020200A2020322020332020322020302020202020200A2020332020342020312020302020202020200A2020342020352020322020302020202020200A2020352020362020312020302020202020200A2020312020362020322020302020202020200A2020312020372020312020302020202020200A2020342020382020312020302020202020200A2020322020392020312020302020202020200A4D2020454E44
Contributor: YAMAMOTO M, DEP. CHEMISTRY, FAC. SCIENCE, NARA WOMEN'S UNIV.
InstType: EI
InstName: HITACHI M-80
IoniMethod: _ENERGY 70 eV
IonPolarity: pos
Date: 2010-10-09 19:48:36+02:00
Num Peaks: 41
25 10 26 38 27 40 28 10 29 35 37 16 38 14 39 20 49 14 50 48 
51 138 52 408 53 148 54 41 55 43 60 19 61 30 62 31 63 38 69 19 
72 22 73 16 79 49 80 258 81 106 82 15 86 13 87 18 89 15 107 15 
108 31 109 13 110 60 114 12 115 35 117 11 143 26 144 999 145 77 146 330 
147 22 
