Name: 1-BENZYL-1-(3-PYRIDINO)-2-(N-PHTHALIMIDO)-ETHYLAMINE
MW: 357
Formula: C22H19N3O2
Synonym: MassBank: JP010054
Synonym: 1-BENZYL-1-(3-PYRIDINO)-2-(N-PHTHALIMIDO)-ETHYLAMINE
Structure: 312D42454E5A594C2D312D28332D5059524944494E4F292D322D284E2D50485448414C494D49444F292D455448594C414D494E452E6D6F6C0A20204368656D447261773131313730393231343932440A2032372033302020302020302020302020302020302020302020302020303939392056323030300A2020202D322E373933302020202D302E3636323520202020302E303030302043202020302020302020302020302020302020302020302020302020302020302020302020300A2020202D322E373933302020202D312E3438373520202020302E303030302043202020302020302020302020302020302020302020302020302020302020302020302020300A2020202D322E303738352020202D312E3930303020202020302E303030302043202020302020302020302020302020302020302020302020302020302020302020302020300A2020202D312E333634312020202D312E3438373520202020302E303030302043202020302020302020302020302020302020302020302020302020302020302020302020300A2020202D312E333634312020202D302E3636323520202020302E303030302043202020302020302020302020302020302020302020302020302020302020302020302020300A2020202D322E303738352020202D302E3235303020202020302E303030302043202020302020302020302020302020302020302020302020302020302020302020302020300A2020202D302E353739342020202D312E3734323420202020302E303030302043202020302020302020302020302020302020302020302020302020302020302020302020300A2020202D302E303934352020202D312E3037353020202020302E30303030204E202020302020302020302020302020302020302020302020302020302020302020302020300A2020202D302E353739342020202D302E3430373520202020302E303030302043202020302020302020302020302020302020302020302020302020302020302020302020300A2020202D302E3332343520202020302E3337373120202020302E30303030204F202020302020302020302020302020302020302020302020302020302020302020302020300A20202020302E373330352020202D312E3037353020202020302E303030302043202020302020302020302020302020302020302020302020302020302020302020302020300A2020202D302E333234352020202D322E3532373020202020302E30303030204F202020302020302020302020302020302020302020302020302020302020302020302020300A20202020312E313433302020202D302E3336303520202020302E303030302043202020302020302020302020302020302020302020302020302020302020302020302020300A20202020312E3535353520202020302E3335343020202020302E303030302043202020302020302020302020302020302020302020302020302020302020302020302020300A20202020302E3432383520202020302E3035323020202020302E303030302043202020302020302020302020302020302020302020302020302020302020302020302020300A20202020312E383537352020202D302E3737333020202020302E30303030204E202020302020302020302020302020302020302020302020302020302020302020302020300A20202020302E3432383520202020302E3837373020202020302E303030302043202020302020302020302020302020302020302020302020302020302020302020302020300A20202020312E3134333020202020312E3238393520202020302E303030302043202020302020302020302020302020302020302020302020302020302020302020302020300A20202020312E3134333020202020322E3131343520202020302E303030302043202020302020302020302020302020302020302020302020302020302020302020302020300A20202020302E3432383520202020322E3532373020202020302E303030302043202020302020302020302020302020302020302020302020302020302020302020302020300A2020202D302E3238353920202020322E3131343520202020302E303030302043202020302020302020302020302020302020302020302020302020302020302020302020300A2020202D302E3238353920202020312E3238393520202020302E303030302043202020302020302020302020302020302020302020302020302020302020302020302020300A20202020322E3338303520202020302E3335343020202020302E303030302043202020302020302020302020302020302020302020302020302020302020302020302020300A20202020322E3739333020202020312E3036383520202020302E303030302043202020302020302020302020302020302020302020302020302020302020302020302020300A20202020322E3338303520202020312E3738323920202020302E303030302043202020302020302020302020302020302020302020302020302020302020302020302020300A20202020312E3535353520202020312E3738323920202020302E30303030204E202020302020302020302020302020302020302020302020302020302020302020302020300A20202020312E3134333020202020312E3036383520202020302E303030302043202020302020302020302020302020302020302020302020302020302020302020302020300A2020312020322020322020302020202020200A2020322020332020312020302020202020200A2020332020342020322020302020202020200A2020342020352020312020302020202020200A2020352020362020322020302020202020200A2020362020312020312020302020202020200A2020342020372020312020302020202020200A2020372020382020312020302020202020200A2020382020392020312020302020202020200A2020392020352020312020302020202020200A2020392031302020322020302020202020200A2020382031312020312020302020202020200A2020372031322020322020302020202020200A2031312031332020312020302020202020200A2031332031342020312020302020202020200A2031332031352020312020302020202020200A2031332031362020312020302020202020200A2031352031372020312020302020202020200A2031372031382020322020302020202020200A2031382031392020312020302020202020200A2031392032302020322020302020202020200A2032302032312020312020302020202020200A2032312032322020322020302020202020200A2032322031372020312020302020202020200A2031342032332020322020302020202020200A2032332032342020312020302020202020200A2032342032352020322020302020202020200A2032352032362020312020302020202020200A2032362032372020322020302020202020200A2032372031342020312020302020202020200A4D2020454E44
Contributor: KURARAY CO., LTD.
InstType: EI
InstName: JEOL JMS-D-300
IoniMethod: _ENERGY 70 eV
IonPolarity: pos
Date: 2010-10-09 19:48:36+02:00
Num Peaks: 29
28 41 44 110 51 32 52 72 55 69 65 61 76 91 77 59 78 75 79 34 
83 61 91 99 102 64 104 107 105 55 117 99 130 201 133 59 147 150 148 81 
160 83 173 75 174 999 175 164 181 15 183 581 184 74 357 54 365 68 
