Name: MassBank: JP010287
MW: 245
Formula: C15H19NO2
Synonym: MassBank: JP010287
Synonym: METHYL 5-ETHYL-3-METHYL-2-PHENYL-1-PYRROLINE-4-CARBOXYLATE (3,4-TRANS-4,5-CIS)
Synonym: METHYL (4R,5R)-5-ETHYL-3-METHYL-2-PHENYL-1-PYRROLINE-4-CARBOXYLATE
Structure: 303836375F4D455448594C202834522C3552292D352D455448594C2D332D4D455448594C2D322D5048454E594C2D312D505952524F4C494E452D342D434152424F58594C4154452E6D6F6C0A20204368656D447261773130323031303138323532440A2031382031392020302020302020302020302020302020302020302020303939392056323030300A2020202D302E3038303420202020302E3439393320202020302E30303030204E202020302020302020302020302020302020302020302020302020302020302020302020300A20202020302E313734352020202D302E3238353320202020302E303030302043202020302020302020302020302020302020302020302020302020302020302020302020300A2020202D302E343932392020202D302E3737303220202020302E303030302043202020302020302020302020302020302020302020302020302020302020302020302020300A2020202D312E313630342020202D302E3238353320202020302E303030302043202020302020302020302020302020302020302020302020302020302020302020302020300A2020202D302E3930353420202020302E3439393320202020302E303030302043202020302020302020302020302020302020302020302020302020302020302020302020300A2020202D312E393435302020202D302E3534303220202020302E303030302043202020302020302020302020302020302020302020302020302020302020302020302020300A2020202D322E3532383420202020302E3034333220202020302E30303030204F202020302020302020302020302020302020302020302020302020302020302020302020300A2020202D322E313538352020202D312E3333373120202020302E30303030204F202020302020302020302020302020302020302020302020302020302020302020302020300A20202020302E393539312020202D302E3534303220202020302E303030302043202020302020302020302020302020302020302020302020302020302020302020302020300A20202020312E3537323220202020302E3031313820202020302E303030302043202020302020302020302020302020302020302020302020302020302020302020302020300A20202020322E333536382020202D302E3234333120202020302E303030302043202020302020302020302020302020302020302020302020302020302020302020302020300A20202020322E353238342020202D312E3035303120202020302E303030302043202020302020302020302020302020302020302020302020302020302020302020302020300A20202020312E393135332020202D312E3630323120202020302E303030302043202020302020302020302020302020302020302020302020302020302020302020302020300A20202020312E313330362020202D312E3334373220202020302E303030302043202020302020302020302020302020302020302020302020302020302020302020302020300A2020202D302E343932392020202D312E3539353220202020302E303030302043202020302020302020302020302020302020302020302020302020302020302020302020300A2020202D312E3339303420202020312E3136363820202020302E303030302043202020302020302020302020302020302020302020302020302020302020302020302020300A2020202D312E3035343820202020312E3932303520202020302E303030302043202020302020302020302020302020302020302020302020302020302020302020302020300A2020202D312E353735322020202D312E3932303520202020302E303030302043202020302020302020302020302020302020302020302020302020302020302020302020300A2020312020322020322020302020202020200A2020322020332020312020302020202020200A2020332020342020312020302020202020200A2020342020352020312020302020202020200A2020312020352020312020302020202020200A2020362020372020322020302020202020200A2020362020382020312020302020202020200A2020342020362020312020312020202020200A2020392031302020312020302020202020200A2031302031312020322020302020202020200A2031312031322020312020302020202020200A2031322031332020322020302020202020200A2031332031342020312020302020202020200A2020392031342020322020302020202020200A2020322020392020312020302020202020200A2020332031352020312020362020202020200A2031362031372020312020302020202020200A2020352031362020312020312020202020200A2020382031382020312020302020202020200A4D2020454E44
Contributor: KANEMASA S, INST. OF ADVANCED MATERIAL STUDY KYUSHU UNIV.
InstType: EI
InstName: JEOL JMS-01-SG-2
IoniMethod: _ENERGY 75 eV
IonPolarity: pos
Date: 2010-10-09 19:48:36+02:00
Num Peaks: 49
39 570 41 552 42 145 43 295 51 463 52 151 53 240 55 277 59 250 63 162 
67 160 69 290 76 189 77 640 78 143 89 162 91 361 103 296 104 999 105 156 
115 301 116 146 128 162 129 204 130 794 131 188 132 30 141 24 142 33 143 55 
144 69 145 232 146 72 147 60 154 35 155 24 156 305 157 132 158 88 170 65 
174 38 184 43 186 179 187 24 216 63 217 37 230 25 245 80 246 26 
