Name: MassBank: JP010240
MW: 252
Formula: C13H16O5
Synonym: MassBank: JP010240
Synonym: DIMETHYL CIS-2,3,4,5,6,7-HEXAHYDROINDEN-1(H)-ONE-5,6-DICARBOXYLATE
Synonym: DIMETHYL (5R,6S)-2,3,4,5,6,7-HEXAHYDROINDEN-1(H)-ONE-5,6-DICARBOXYLATE
Structure: 310A34360A20204143442F4C6162733130323231303135313832440A2032302032312020302020302020312020302020302020302020302020302020312056323030300A20202031382E353436362020202D362E3030353820202020302E303030302043202020302020302020302020302020302020302020302020302020302020302020302020300A20202031382E353436362020202D372E3030353820202020302E303030302043202020302020302020302020302020302020302020302020302020302020302020302020300A20202031382E303436362020202D352E3133393820202020302E303030302043202020302020302020302020302020302020302020302020302020302020302020302020300A20202031392E343132362020202D352E3530353820202020302E303030302043202020302020302020302020302020302020302020302020302020302020302020302020300A20202031372E373436362020202D362E3030353820202020302E303030302048202020302020302020302020302020302020302020302020302020302020302020302020300A20202031382E303436362020202D372E3837313820202020302E303030302043202020302020302020302020302020302020302020302020302020302020302020302020300A20202031392E343132362020202D372E3530353820202020302E303030302043202020302020302020302020302020302020302020302020302020302020302020302020300A20202031372E373436362020202D372E3030353820202020302E303030302048202020302020302020302020302020302020302020302020302020302020302020302020300A20202031382E353436362020202D342E3237333720202020302E30303030204F202020302020302020302020302020302020302020302020302020302020302020302020300A20202031372E303436362020202D352E3133393820202020302E30303030204F202020302020302020302020302020302020302020302020302020302020302020302020300A20202032302E323738372020202D362E3030353820202020302E303030302043202020302020302020302020302020302020302020302020302020302020302020302020300A20202031382E353436362020202D382E3733373820202020302E30303030204F202020302020302020302020302020302020302020302020302020302020302020302020300A20202031372E303436362020202D372E3837313820202020302E30303030204F202020302020302020302020302020302020302020302020302020302020302020302020300A20202032302E323738372020202D372E3030353820202020302E303030302043202020302020302020302020302020302020302020302020302020302020302020302020300A20202031382E303436362020202D332E3430373720202020302E303030302043202020302020302020302020302020302020302020302020302020302020302020302020300A20202032312E323239362020202D352E3639363820202020302E303030302043202020302020302020302020302020302020302020302020302020302020302020302020300A20202031382E303436362020202D392E3630333920202020302E303030302043202020302020302020302020302020302020302020302020302020302020302020302020300A20202032312E323239362020202D372E3331343820202020302E303030302043202020302020302020302020302020302020302020302020302020302020302020302020300A20202032312E383137352020202D362E3530353820202020302E303030302043202020302020302020302020302020302020302020302020302020302020302020302020300A20202032312E353338372020202D382E3236353920202020302E30303030204F202020302020302020302020302020302020302020302020302020302020302020302020300A2020312020322020312020302020302020302020300A2020312020332020312020362020302020302020300A2020312020342020312020302020302020302020300A2020312020352020312020312020302020302020300A2020322020362020312020362020302020302020300A2020322020372020312020302020302020302020300A2020322020382020312020312020302020302020300A2020332020392020312020302020302020302020300A2020332031302020322020302020302020302020300A2020342031312020312020302020302020302020300A2020362031322020312020302020302020302020300A2020362031332020322020302020302020302020300A2020372031342020312020302020302020302020300A2020392031352020312020302020302020302020300A2031312031342020322020302020302020302020300A2031312031362020312020302020302020302020300A2031322031372020312020302020302020302020300A2031342031382020312020302020302020302020300A2031362031392020312020302020302020302020300A2031382031392020312020302020302020302020300A2031382032302020322020302020302020302020300A4D2020454E44
Contributor: KANEMASA S, INST. OF ADVANCED MATERIAL STUDY KYUSHU UNIV.
InstType: EI
InstName: JEOL JMS-01-SG-2
IoniMethod: _ENERGY 75 eV
IonPolarity: pos
Date: 2010-10-09 19:48:36+02:00
Num Peaks: 35
39 33 40 37 41 34 43 148 44 41 51 36 52 33 55 37 58 48 59 82 
65 41 77 116 78 77 79 79 91 360 92 55 103 58 104 54 105 431 106 45 
131 30 132 93 133 999 134 129 135 37 161 38 177 26 192 227 193 391 194 61 
220 45 221 227 222 33 252 376 253 51 
