Name: 3-ETHOXYPROPYLAMINE
MW: 103
Formula: C5H13NO
Synonym: MassBank: JP010324
Synonym: 3-ETHOXYPROPYLAMINE
Structure: 310A31380A332D4554484F585950524F50594C414D494E452E6D6F6C0A20204368656D447261773032323231303137323932440A2020372020362020302020302020302020302020302020302020302020303939392056323030300A2020202D322E313433342020202D302E3230363320202020302E30303030204E202020302020302020302020302020302020302020302020302020302020302020302020300A2020202D312E3432383920202020302E3230363220202020302E303030302043202020302020302020302020302020302020302020302020302020302020302020302020300A2020202D302E373134352020202D302E3230363320202020302E303030302043202020302020302020302020302020302020302020302020302020302020302020302020300A20202020302E3030303020202020302E3230363320202020302E303030302043202020302020302020302020302020302020302020302020302020302020302020302020300A20202020302E373134352020202D302E3230363220202020302E30303030204F202020302020302020302020302020302020302020302020302020302020302020302020300A20202020312E3432383920202020302E3230363320202020302E303030302043202020302020302020302020302020302020302020302020302020302020302020302020300A20202020322E313433342020202D302E3230363220202020302E303030302043202020302020302020302020302020302020302020302020302020302020302020302020300A2020322020332020312020302020202020200A2020332020342020312020302020202020200A2020312020322020312020302020202020200A2020362020372020312020302020202020200A2020352020362020312020302020202020200A2020342020352020312020302020202020200A4D2020454E44
Contributor: TAJIMA S, GUNMA COLLEGE OF TECHNOLOGY
InstType: EI
InstName: HITACHI M-80A
IoniMethod: _ENERGY 70 eV
IonPolarity: pos
Date: 2010-10-09 19:48:36+02:00
Num Peaks: 21
15 33 18 41 26 26 27 128 28 62 29 117 30 999 31 108 39 20 41 43 
42 51 43 43 44 56 45 61 47 12 56 189 57 141 58 64 59 41 74 120 
86 89 
