Name: MassBank: JP010673
MW: 304
Formula: C21H36O
Synonym: MassBank: JP010673
Synonym: (13R)-13-METHOXYLABDA-7,14-DIENE
Structure: 28313352292D31332D4D4554484F58594C414244412D372C31342D4449454E452E6D6F6C0A20204368656D447261773130303630393135333332440A2032352032362020302020302020302020302020302020302020302020303939392056323030300A20202020302E383830332020202D312E3538323820202020302E30303030204F202020302020302020302020302020302020302020302020302020302020302020302020300A2020202D312E3037313720202020312E3739373920202020302E303030302043202020302020302020302020302020302020302020302020302020302020302020302020300A2020202D312E3037313720202020302E3937333020202020302E303030302043202020302020302020302020302020302020302020302020302020302020302020302020300A2020202D302E3335373220202020302E3536303620202020302E303030302043202020302020302020302020302020302020302020302020302020302020302020302020300A20202020302E3335373320202020302E3937333020202020302E303030302043202020302020302020302020302020302020302020302020302020302020302020302020300A20202020302E3335373320202020312E3739373920202020302E303030302043202020302020302020302020302020302020302020302020302020302020302020302020300A2020202D302E3335373220202020322E3231303420202020302E303030302043202020302020302020302020302020302020302020302020302020302020302020302020300A20202020312E3037313820202020302E3536303620202020302E303030302043202020302020302020302020302020302020302020302020302020302020302020302020300A20202020312E3738363120202020302E3937333020202020302E303030302043202020302020302020302020302020302020302020302020302020302020302020302020300A20202020312E3738363120202020312E3739373920202020302E303030302043202020302020302020302020302020302020302020302020302020302020302020302020300A20202020312E3037313820202020322E3231303420202020302E303030302043202020302020302020302020302020302020302020302020302020302020302020302020300A2020202D312E3738363120202020322E3231303420202020302E303030302048202020302020302020302020302020302020302020302020302020302020302020302020300A20202020302E3231343020202020322E3631303420202020302E303030302048202020302020302020302020302020302020302020302020302020302020302020302020300A20202020302E303535332020202D302E3135333920202020302E303030302043202020302020302020302020302020302020302020302020302020302020302020302020300A2020202D302E393430362020202D302E3032323820202020302E303030302048202020302020302020302020302020302020302020302020302020302020302020302020300A2020202D302E333537322020202D302E3836383420202020302E303030302043202020302020302020302020302020302020302020302020302020302020302020302020300A20202020302E303535332020202D312E3538323820202020302E303030302043202020302020302020302020302020302020302020302020302020302020302020302020300A20202020302E313938352020202D322E3339353320202020302E303030302043202020302020302020302020302020302020302020302020302020302020302020302020300A2020202D302E373230302020202D312E3836353020202020302E303030302043202020302020302020302020302020302020302020302020302020302020302020302020300A2020202D302E343333342020202D322E3932353520202020302E303030302043202020302020302020302020302020302020302020302020302020302020302020302020300A20202020312E3635343920202020322E3739343920202020302E303030302043202020302020302020302020302020302020302020302020302020302020302020302020300A20202020312E323931352020202D302E3836383320202020302E303030302043202020302020302020302020302020302020302020302020302020302020302020302020300A20202020302E3439393920202020302E3136313820202020302E303030302043202020302020302020302020302020302020302020302020302020302020302020302020300A2020202D312E3738363120202020302E3536303620202020302E303030302043202020302020302020302020302020302020302020302020302020302020302020302020300A20202020302E3635383120202020322E3932353520202020302E303030302043202020302020302020302020302020302020302020302020302020302020302020302020300A2020322020332020322020302020202020200A2020332020342020312020302020202020200A2020342020352020312020302020202020200A2020352020362020312020302020202020200A2020362020372020312020302020202020200A2020372020322020312020302020202020200A2020352020382020312020302020202020200A2020382020392020312020302020202020200A2020392031302020312020302020202020200A2031302031312020312020302020202020200A2031312020362020312020302020202020200A2020322031322020312020302020202020200A2020362031332020312020362020202020200A2020342031342020312020362020202020200A2020342031352020312020312020202020200A2031342031362020312020302020202020200A2031362031372020312020302020202020200A2031372031382020312020302020202020200A2031372031392020312020302020202020200A2031382032302020322020302020202020200A2031372020312020312020312020202020200A2031312032312020312020312020202020200A2020312032322020312020302020202020200A2020352032332020312020312020202020200A2020332032342020312020302020202020200A2031312032352020312020362020202020200A4D202053545920203120202031205355500A4D2020534C4220203120202031202020310A4D202053414C20202031202031202032310A4D202053424C20202031202031202032320A4D2020534D5420202031204D650A4D2020534256202020312032322020202D362E3839373420202020382E343632380A4D202053545920203120202032205355500A4D2020534C4220203120202032202020320A4D202053414C20202032202031202032320A4D202053424C20202032202031202032330A4D2020534D5420202032204D650A4D2020534256202020322032332020202D372E3036393420202020382E353932380A4D202053545920203120202033205355500A4D2020534C4220203120202033202020330A4D202053414C20202033202031202032330A4D202053424C20202033202031202032340A4D2020534D5420202033204D650A4D2020534256202020332032342020202D372E3333373920202020372E303637300A4D202053545920203120202034205355500A4D2020534C4220203120202034202020340A4D202053414C20202034202031202032340A4D202053424C20202034202031202032350A4D2020534D5420202034204D650A4D2020534256202020342032352020202D382E3139353020202020372E343635380A4D202053545920203120202035205355500A4D2020534C4220203120202035202020350A4D202053414C20202035202031202032350A4D202053424C20202035202031202032360A4D2020534D5420202035204D650A4D2020534256202020352032362020202D372E3839343220202020382E353933340A4D2020454E44
Contributor: EGUCHI S, FAC. OF SCIENCE, HIROSHIMA UNIV.
InstType: EI
InstName: HITACHI RMU-6L
IoniMethod: _ENERGY 70 eV
IonPolarity: pos
Date: 2010-10-09 19:48:36+02:00
Num Peaks: 95
40 10 41 269 42 22 43 14 45 27 53 70 54 13 55 38 56 27 57 32 
59 18 65 2 66 11 67 136 68 38 69 21 70 16 71 17 72 13 77 5 
78 16 79 120 80 225 81 24 82 37 83 49 84 11 85 51 86 37 87 18 
91 120 92 4 93 213 94 57 95 203 96 3 97 37 98 30 99 32 103 1 
105 127 106 56 107 158 108 15 109 282 110 27 111 23 115 1 117 22 119 164 
120 84 121 14 122 113 123 69 124 36 125 1 131 22 132 11 133 131 134 7 
135 134 136 51 137 44 145 2 147 65 148 115 149 53 151 1 159 14 161 160 
162 39 163 4 164 11 173 13 175 34 176 2 177 27 187 203 188 10 189 13 
190 35 191 98 192 33 201 1 203 16 204 999 205 188 206 1 220 10 257 65 
258 14 272 3 273 12 275 15 304 11 
