Name: METHYL 2-(N-METHYL-N-((4S)-4-(1-METHYLETHYL)-2-OXAZOLIDINONE-3-CARBAMOYL))AMINOACETATE
MW: 258
Formula: C11H18N2O5
Synonym: MassBank: JP011810
Synonym: METHYL 2-(N-METHYL-N-((4S)-4-(1-METHYLETHYL)-2-OXAZOLIDINONE-3-CARBAMOYL))AMINOACETATE
Structure: 313131315F4D455448594C20322D284E2D4D455448594C2D4E2D28283453292D342D28312D4D455448594C455448594C292D322D4F58415A4F4C4944494E4F4E452D332D43415242414D4F594C2929414D494E4F414345544154452E6D6F6C0A20204368656D447261773130323031303230323332440A2031392031392020302020302020302020302020302020302020302020303939392056323030300A20202020322E3037383520202020302E3239313720202020302E303030302043202020302020302020302020302020302020302020302020302020302020302020302020300A20202020312E3235333520202020302E3239313720202020302E303030302043202020302020302020302020302020302020302020302020302020302020302020302020300A20202020322E3439313020202020312E3030363220202020302E30303030204F202020302020302020302020302020302020302020302020302020302020302020302020300A20202020322E343931302020202D302E3432323820202020302E30303030204F202020302020302020302020302020302020302020302020302020302020302020302020300A20202020302E3834313020202020312E3030363220202020302E30303030204E202020302020302020302020302020302020302020302020302020302020302020302020300A20202020302E3031363020202020312E3030363220202020302E303030302043202020302020302020302020302020302020302020302020302020302020302020302020300A2020202D302E3339363520202020302E3239313720202020302E30303030204E202020302020302020302020302020302020302020302020302020302020302020302020300A2020202D302E3339363520202020312E3732303620202020302E30303030204F202020302020302020302020302020302020302020302020302020302020302020302020300A2020202D322E3439313020202020302E3730343220202020302E30303030204F202020302020302020302020302020302020302020302020302020302020302020302020300A2020202D312E3730363420202020302E3935393120202020302E303030302043202020302020302020302020302020302020302020302020302020302020302020302020300A2020202D312E3232313520202020302E3239313720202020302E30303030204E202020302020302020302020302020302020302020302020302020302020302020302020300A2020202D312E373036342020202D302E3337353820202020302E303030302043202020302020302020302020302020302020302020302020302020302020302020302020300A2020202D322E343931302020202D302E3132303820202020302E303030302043202020302020302020302020302020302020302020302020302020302020302020302020300A2020202D312E3435313520202020312E3734333720202020302E30303030204F202020302020302020302020302020302020302020302020302020302020302020302020300A2020202D312E343531352020202D312E3136303420202020302E303030302043202020302020302020302020302020302020302020302020302020302020302020302020300A2020202D302E363534362020202D312E3337333920202020302E303030302043202020302020302020302020302020302020302020302020302020302020302020302020300A2020202D322E303334382020202D312E3734333720202020302E303030302043202020302020302020302020302020302020302020302020302020302020302020302020300A20202020312E3235333520202020312E3732303620202020302E303030302043202020302020302020302020302020302020302020302020302020302020302020302020300A20202020322E303738352020202D312E3133373320202020302E303030302043202020302020302020302020302020302020302020302020302020302020302020302020300A2020312020322020312020302020202020200A2020312020332020322020302020202020200A2020312020342020312020302020202020200A2020362020372020312020302020202020200A2020362020382020322020302020202020200A2020392031302020312020302020202020200A2031302031312020312020302020202020200A2031312031322020312020302020202020200A2031322031332020312020302020202020200A2020392031332020312020302020202020200A2031302031342020322020302020202020200A2020372031312020312020302020202020200A2031352031362020312020302020202020200A2031352031372020312020302020202020200A2031322031352020312020312020202020200A2020352020362020312020302020202020200A2020352031382020312020302020202020200A2020322020352020312020302020202020200A2020342031392020312020302020202020200A4D2020454E44
Contributor: YOSHINORI Y, FAC. SCIENCE, TOHOKU UNIV.
InstType: EI
InstName: Unknown
IoniMethod: _ENERGY 20 eV
IonPolarity: pos
Date: 2010-10-09 19:48:36+02:00
Num Peaks: 33
101 16 102 831 103 143 104 62 112 122 114 75 115 11 129 205 132 16 140 31 
144 74 146 43 156 13 165 56 167 24 170 14 171 14 182 26 187 14 191 21 
198 27 199 999 200 115 201 11 203 11 214 55 226 63 227 106 228 12 232 17 
244 10 258 306 259 39 
