Name: T-MUUROLOL
MW: 222
Formula: C15H26O
Synonym: MassBank: JP010682
Synonym: T-MUUROLOL
Structure: 303531385F542D4D5555524F4C4F4C2E6D6F6C0A20204368656D447261773038323031303034313932440A2031392032302020302020302020302020302020302020302020302020303939392056323030300A2020202D312E3738363220202020302E3833353320202020302E303030302043202020302020302020302020302020302020302020302020302020302020302020302020300A2020202D312E3738363220202020302E3031303320202020302E303030302043202020302020302020302020302020302020302020302020302020302020302020302020300A2020202D312E303731372020202D302E3430323220202020302E303030302043202020302020302020302020302020302020302020302020302020302020302020302020300A2020202D302E3335373220202020302E3031303320202020302E303030302043202020302020302020302020302020302020302020302020302020302020302020302020300A2020202D302E3335373220202020302E3833353320202020302E303030302043202020302020302020302020302020302020302020302020302020302020302020302020300A2020202D312E3037313720202020312E3234373820202020302E303030302043202020302020302020302020302020302020302020302020302020302020302020302020300A20202020302E333537322020202D302E3430323220202020302E303030302043202020302020302020302020302020302020302020302020302020302020302020302020300A20202020312E3037313720202020302E3031303320202020302E303030302043202020302020302020302020302020302020302020302020302020302020302020302020300A20202020312E3037313720202020302E3833353320202020302E303030302043202020302020302020302020302020302020302020302020302020302020302020302020300A20202020302E3335373220202020312E3234373820202020302E303030302043202020302020302020302020302020302020302020302020302020302020302020302020300A20202020312E373836322020202D302E3430323220202020302E303030302043202020302020302020302020302020302020302020302020302020302020302020302020300A2020202D302E363539322020202D312E3131363720202020302E303030302043202020302020302020302020302020302020302020302020302020302020302020302020300A2020202D312E303731372020202D312E3833313220202020302E303030302043202020302020302020302020302020302020302020302020302020302020302020302020300A20202020302E313635382020202D312E3131363720202020302E303030302043202020302020302020302020302020302020302020302020302020302020302020302020300A2020202D302E3438383320202020312E3833313220202020302E303030302043202020302020302020302020302020302020302020302020302020302020302020302020300A2020202D312E3635353120202020312E3833313220202020302E30303030204F202020302020302020302020302020302020302020302020302020302020302020302020300A20202020302E3436373820202020302E3833353320202020302E303030302048202020302020302020302020302020302020302020302020302020302020302020302020300A20202020302E3433393720202020302E3232333820202020302E303030302048202020302020302020302020302020302020302020302020302020302020302020302020300A2020202D312E363535312020202D302E3938353620202020302E303030302048202020302020302020302020302020302020302020302020302020302020302020302020300A2020312020322020312020302020202020200A2020322020332020312020302020202020200A2020332020342020312020302020202020200A2020342020352020312020302020202020200A2020352020362020312020302020202020200A2020362020312020312020302020202020200A2020342020372020312020302020202020200A2020372020382020322020302020202020200A2020382020392020312020302020202020200A2020392031302020312020302020202020200A2031302020352020312020302020202020200A2020382031312020312020302020202020200A2020332031322020312020362020202020200A2031322031332020312020302020202020200A2031322031342020312020302020202020200A2020362031352020312020312020202020200A2020362031362020312020362020202020200A2020352031372020312020362020202020200A2020342031382020312020362020202020200A2020332031392020312020312020202020200A4D2020454E44
Contributor: EGUCHI S, FAC. OF SCIENCE, HIROSHIMA UNIV.
InstType: EI
InstName: HITACHI RMU-6L
IoniMethod: _ENERGY 70 eV
IonPolarity: pos
Date: 2010-10-09 19:48:36+02:00
Num Peaks: 67
41 300 42 30 43 800 44 3 53 200 54 15 55 230 56 3 57 65 58 210 
59 50 65 5 67 150 68 40 69 280 70 5 71 380 77 160 78 40 79 31 
80 110 82 350 83 120 91 21 92 130 93 290 94 370 95 999 96 160 97 50 
105 370 106 8 107 140 108 190 109 370 110 7 111 40 119 250 120 80 121 77 
122 150 123 120 127 120 133 9 134 100 135 110 136 50 137 13 138 50 145 50 
147 80 148 8 149 110 150 60 151 110 152 13 161 720 162 140 164 520 165 9 
179 140 189 140 204 820 205 18 207 80 222 315 223 70 
