Name: MassBank: JP011643
MW: 288
Formula: C12H8N4O5
Synonym: MassBank: JP011643
Synonym: 3,3'-DINITROAZOXYBENZENE
Structure: 332C33272D44494E4954524F415A4F585942454E5A454E452E6D6F6C0A20204368656D447261773032323131303139343232440A2032312032322020302020302020302020302020302020302020302020303939392056323030300A2020202D312E3434333720202020302E3335373220202020302E30303030204E202020302020332020302020302020302020302020302020302020302020302020302020300A2020202D312E3835363320202020312E3037313720202020302E30303030204F202020302020352020302020302020302020302020302020302020302020302020302020300A2020202D312E383536332020202D302E3335373220202020302E30303030204E202020302020302020302020302020302020302020302020302020302020302020302020300A2020202D302E3631383820202020302E3335373220202020302E303030302043202020302020302020302020302020302020302020302020302020302020302020302020300A2020202D302E3230363220202020312E3037313720202020302E303030302043202020302020302020302020302020302020302020302020302020302020302020302020300A20202020302E3631383820202020312E3037313720202020302E303030302043202020302020302020302020302020302020302020302020302020302020302020302020300A20202020312E3033313320202020302E3335373220202020302E303030302043202020302020302020302020302020302020302020302020302020302020302020302020300A20202020302E363138382020202D302E3335373220202020302E303030302043202020302020302020302020302020302020302020302020302020302020302020302020300A2020202D302E323036322020202D302E3335373220202020302E303030302043202020302020302020302020302020302020302020302020302020302020302020302020300A2020202D312E343433382020202D312E3037313720202020302E303030302043202020302020302020302020302020302020302020302020302020302020302020302020300A2020202D302E363138382020202D312E3037313720202020302E303030302043202020302020302020302020302020302020302020302020302020302020302020302020300A2020202D302E323036322020202D312E3738363220202020302E303030302043202020302020302020302020302020302020302020302020302020302020302020302020300A2020202D302E363138382020202D322E3530303620202020302E303030302043202020302020302020302020302020302020302020302020302020302020302020302020300A2020202D312E343433372020202D322E3530303620202020302E303030302043202020302020302020302020302020302020302020302020302020302020302020302020300A2020202D312E383536332020202D312E3738363220202020302E303030302043202020302020302020302020302020302020302020302020302020302020302020302020300A20202020302E363138382020202D312E3738363220202020302E30303030204E202020302020332020302020302020302020302020302020302020302020302020302020300A20202020312E303331332020202D322E3530303620202020302E30303030204F202020302020302020302020302020302020302020302020302020302020302020302020300A20202020312E303331332020202D312E3037313720202020302E30303030204F202020302020352020302020302020302020302020302020302020302020302020302020300A20202020312E3033313320202020312E3738363220202020302E30303030204E202020302020332020302020302020302020302020302020302020302020302020302020300A20202020302E3631383820202020322E3530303620202020302E30303030204F202020302020302020302020302020302020302020302020302020302020302020302020300A20202020312E3835363320202020312E3738363220202020302E30303030204F202020302020352020302020302020302020302020302020302020302020302020302020300A2020312020322020312020302020202020200A2020312020332020322020302020202020200A2020342020352020312020302020202020200A2020352020362020322020302020202020200A2020362020372020312020302020202020200A2020372020382020322020302020202020200A2020382020392020312020302020202020200A2020342020392020322020302020202020200A2020312020342020312020302020202020200A2031302031312020312020302020202020200A2031312031322020322020302020202020200A2031322031332020312020302020202020200A2031332031342020322020302020202020200A2031342031352020312020302020202020200A2031302031352020322020302020202020200A2020332031302020312020302020202020200A2031362031372020322020302020202020200A2031362031382020312020302020202020200A2031322031362020312020302020202020200A2031392032302020322020302020202020200A2031392032312020312020302020202020200A2020362031392020312020302020202020200A4D202043484720203620202031202020312020203220202D3120203136202020312020313820202D3120203139202020312020323120202D310A4D2020454E44
Contributor: YAMAMOTO M, DEP. CHEMISTRY, FAC. SCIENCE, NARA WOMEN'S UNIV.
InstType: EI
InstName: HITACHI M-2500
IoniMethod: _ENERGY 70 eV
IonPolarity: pos
Date: 2010-10-09 19:48:36+02:00
Num Peaks: 60
27 13 28 13 30 58 37 10 38 23 39 154 50 173 51 88 52 46 53 14 
62 23 63 285 64 175 65 43 66 11 74 44 75 354 76 376 77 52 78 51 
79 33 80 22 90 351 91 55 92 440 93 38 94 14 106 48 107 11 110 34 
120 11 121 65 122 999 123 71 127 10 128 12 138 99 139 61 140 39 149 25 
150 496 151 45 152 76 153 11 155 10 165 11 166 89 167 29 168 34 195 10 
196 10 214 19 242 30 258 48 260 14 272 53 287 95 288 866 289 133 290 18 
