Name: SPIRO(4.4)SILANONANE
MW: 140
Formula: C8H16Si
Synonym: MassBank: JP011603
Synonym: SPIRO(4.4)SILANONANE
Structure: 310A32340A303535335F535049524F28342E342953494C414E4F4E414E452E6D6F6C0A20204368656D447261773038323031303035333632440A2020392031302020302020302020302020302020302020302020302020303939392056323030300A2020202D302E343834392020202D302E3636373420202020302E303030302043202020302020302020302020302020302020302020302020302020302020302020302020300A2020202D312E323639362020202D302E3431323520202020302E303030302043202020302020302020302020302020302020302020302020302020302020302020302020300A2020202D312E3236393620202020302E3431323520202020302E303030302043202020302020302020302020302020302020302020302020302020302020302020302020300A2020202D302E3438343920202020302E3636373420202020302E303030302043202020302020302020302020302020302020302020302020302020302020302020302020300A2020202D302E3030303020202020302E3030303020202020302E303030302053692020302020302020302020302020302020302020302020302020302020302020302020300A20202020302E3438343920202020302E3636373420202020302E303030302043202020302020302020302020302020302020302020302020302020302020302020302020300A20202020312E3236393620202020302E3431323520202020302E303030302043202020302020302020302020302020302020302020302020302020302020302020302020300A20202020312E323639362020202D302E3431323520202020302E303030302043202020302020302020302020302020302020302020302020302020302020302020302020300A20202020302E343834392020202D302E3636373420202020302E303030302043202020302020302020302020302020302020302020302020302020302020302020302020300A2020312020322020312020302020202020200A2020322020332020312020302020202020200A2020332020342020312020302020202020200A2020342020352020312020302020202020200A2020352020362020312020302020202020200A2020362020372020312020302020202020200A2020372020382020312020302020202020200A2020382020392020312020302020202020200A2020312020352020312020302020202020200A2020352020392020312020302020202020200A4D2020454E44
Contributor: YAMAMOTO M, DEP. CHEMISTRY, FAC. SCIENCE, NARA WOMEN'S UNIV.
InstType: EI
InstName: HITACHI RMU-6M
IoniMethod: _ENERGY 70 eV
IonPolarity: pos
Date: 2010-10-09 19:48:36+02:00
Num Peaks: 36
27 32 28 34 29 48 31 26 39 26 41 18 42 50 43 128 44 20 45 26 
53 46 54 29 55 162 56 137 57 146 58 31 59 22 67 24 69 29 70 36 
71 16 81 27 82 60 83 198 84 700 85 131 86 33 97 30 98 24 111 28 
112 999 113 131 114 44 140 333 141 49 142 18 
