Name: MassBank: JP011268
MW: 168
Formula: C3H2F6O
Synonym: MassBank: JP011268
Synonym: 1,1,1,3,3,3-HEXAFLUORO-2-PROPANOL
Structure: 312C312C312C332C332C332D48455841464C554F524F2D322D50524F50414E4F4C2E6D6F6C0A20204368656D447261773130323230393232343632440A2031302020392020302020302020302020302020302020302020302020303939392056323030300A20202020302E3236313520202020302E3731343520202020302E303030302043202020302020302020302020302020302020302020302020302020302020302020302020300A2020202D302E313531302020202D302E3030303020202020302E303030302043202020302020302020302020302020302020302020302020302020302020302020302020300A20202020302E323631352020202D302E3731343520202020302E303030302043202020302020302020302020302020302020302020302020302020302020302020302020300A2020202D302E393736302020202D302E3030303020202020302E30303030204F202020302020302020302020302020302020302020302020302020302020302020302020300A20202020302E393736302020202D302E3330323020202020302E303030302046202020302020302020302020302020302020302020302020302020302020302020302020300A20202020302E363734302020202D312E3432383920202020302E303030302046202020302020302020302020302020302020302020302020302020302020302020302020300A2020202D302E343533302020202D312E3132373020202020302E303030302046202020302020302020302020302020302020302020302020302020302020302020302020300A2020202D302E3435333020202020312E3132373020202020302E303030302046202020302020302020302020302020302020302020302020302020302020302020302020300A20202020302E3637343020202020312E3432383920202020302E303030302046202020302020302020302020302020302020302020302020302020302020302020302020300A20202020302E3937363020202020302E3330323020202020302E303030302046202020302020302020302020302020302020302020302020302020302020302020302020300A2020312020322020312020302020202020200A2020322020332020312020302020202020200A2020322020342020312020302020202020200A2020332020352020312020312020202020200A2020332020362020312020302020202020200A2020332020372020312020312020202020200A2020312020382020312020312020202020200A2020312020392020312020302020202020200A2020312031302020312020312020202020200A4D2020454E44
Contributor: TAJIMA S, GUNMA COLLEGE OF TECHNOLOGY
InstType: EI
InstName: HITACHI M-80A
IoniMethod: _ENERGY 70 eV
IonPolarity: pos
Date: 2010-10-09 19:48:36+02:00
Num Peaks: 35
17 22 18 16 19 10 29 999 30 109 31 393 32 127 33 24 40 16 43 14 
44 60 47 25 49 420 50 277 51 691 52 16 60 77 61 10 63 49 67 32 
69 885 70 12 74 10 78 44 79 215 80 134 81 12 82 21 93 29 99 334 
100 32 101 135 113 16 129 191 149 56 
