Name: MassBank: JP010038
MW: 334
Formula: C20H30O4
Synonym: MassBank: JP010038
Synonym: 2-(2-ACETOXYETHYL)-6-HEXYL-7-HYDROXY-2-METHYL-3,4-DIHYDRO-2H-1-BENZOPYRAN
Structure: 322D28322D414345544F5859455448594C292D362D484558594C2D372D485944524F58592D322D4D455448594C2D332C342D4449485944524F2D32482D312D42454E5A4F505952414E2E6D6F6C0A20204368656D447261773132323130393130353332440A2032342032352020302020302020302020302020302020302020302020303939392056323030300A20202020312E383233342020202D302E3235373620202020302E303030302043202020302020302020302020302020302020302020302020302020302020302020302020300A20202020312E383233342020202D312E3038323620202020302E303030302043202020302020302020302020302020302020302020302020302020302020302020302020300A20202020312E313038392020202D312E3439353120202020302E303030302043202020302020302020302020302020302020302020302020302020302020302020302020300A20202020302E333934342020202D312E3038323620202020302E303030302043202020302020302020302020302020302020302020302020302020302020302020302020300A20202020302E333934342020202D302E3235373620202020302E303030302043202020302020302020302020302020302020302020302020302020302020302020302020300A20202020312E3130383920202020302E3135343920202020302E30303030204F202020302020302020302020302020302020302020302020302020302020302020302020300A2020202D302E3332303120202020302E3135343920202020302E303030302043202020302020302020302020302020302020302020302020302020302020302020302020300A2020202D312E303334352020202D302E3235373620202020302E303030302043202020302020302020302020302020302020302020302020302020302020302020302020300A2020202D312E303334352020202D312E3038323620202020302E303030302043202020302020302020302020302020302020302020302020302020302020302020302020300A2020202D302E333230312020202D312E3439353120202020302E303030302043202020302020302020302020302020302020302020302020302020302020302020302020300A20202020322E3130353520202020302E3531373620202020302E303030302043202020302020302020302020302020302020302020302020302020302020302020302020300A2020202D312E3734393020202020302E3135343920202020302E30303030204F202020302020302020302020302020302020302020302020302020302020302020302020300A2020202D312E373439302020202D312E3439353120202020302E303030302043202020302020302020302020302020302020302020302020302020302020302020302020300A2020202D322E343633352020202D312E3038323620202020302E303030302043202020302020302020302020302020302020302020302020302020302020302020302020300A2020202D332E313737392020202D312E3439353120202020302E303030302043202020302020302020302020302020302020302020302020302020302020302020302020300A2020202D332E383932342020202D312E3038323620202020302E303030302043202020302020302020302020302020302020302020302020302020302020302020302020300A2020202D342E363036392020202D312E3439353120202020302E303030302043202020302020302020302020302020302020302020302020302020302020302020302020300A2020202D352E333231342020202D312E3038323620202020302E303030302043202020302020302020302020302020302020302020302020302020302020302020302020300A20202020322E363335382020202D302E3430303920202020302E303030302043202020302020302020302020302020302020302020302020302020302020302020302020300A20202020332E3136363120202020302E3233313120202020302E303030302043202020302020302020302020302020302020302020302020302020302020302020302020300A20202020332E3937383620202020302E3038373920202020302E30303030204F202020302020302020302020302020302020302020302020302020302020302020302020300A20202020342E3530383920202020302E3731393920202020302E303030302043202020302020302020302020302020302020302020302020302020302020302020302020300A20202020352E3332313420202020302E3537363620202020302E30303030204F202020302020302020302020302020302020302020302020302020302020302020302020300A20202020342E3232363720202020312E3439353120202020302E303030302043202020302020302020302020302020302020302020302020302020302020302020302020300A2020312020322020312020302020202020200A2020322020332020312020302020202020200A2020332020342020312020302020202020200A2020342020352020312020302020202020200A2020352020362020312020302020202020200A2020312020362020312020302020202020200A2020372020382020312020302020202020200A2020382020392020322020302020202020200A2020392031302020312020302020202020200A2020342031302020322020302020202020200A2020352020372020322020302020202020200A2020312031312020312020302020202020200A2020382031322020312020302020202020200A2031332031342020312020302020202020200A2031342031352020312020302020202020200A2031352031362020312020302020202020200A2031362031372020312020302020202020200A2031372031382020312020302020202020200A2020392031332020312020302020202020200A2031392032302020312020302020202020200A2032322032332020322020302020202020200A2032322032342020312020302020202020200A2032312032322020312020302020202020200A2032302032312020312020302020202020200A2020312031392020312020302020202020200A4D2020454E44
Contributor: KURARAY CO., LTD.
InstType: EI
InstName: JEOL JMS-D-300
IoniMethod: _ENERGY 70 eV
IonPolarity: pos
Date: 2010-10-09 19:48:36+02:00
Num Peaks: 88
27 20 29 39 39 16 41 78 43 268 53 19 55 71 57 21 65 14 67 27 
69 113 77 29 79 38 81 50 83 22 85 14 91 37 93 26 95 14 97 18 
98 18 105 16 107 33 108 20 119 13 121 16 123 55 133 20 135 91 136 57 
137 54 145 17 147 46 148 22 149 60 159 15 160 15 161 55 162 13 163 97 
164 15 173 14 174 24 175 80 176 15 177 40 185 21 187 15 188 17 189 120 
190 13 191 18 194 23 195 15 202 16 203 673 204 98 205 44 206 27 207 999 
208 150 209 17 219 50 221 80 222 12 231 30 233 18 243 13 245 141 246 46 
247 120 248 23 257 32 259 171 260 39 263 156 264 26 273 31 274 98 275 62 
277 33 289 22 290 15 292 95 293 18 334 366 335 80 336 14 
