Name: MassBank: JP011848
MW: 225
Formula: C13H11N3O
Synonym: MassBank: JP011848
Synonym: 3H,4H-3-BENZYLPYRRO(1,2-D)(1,2,4)TRIAZIN-4-ONE
Structure: 313132345F33482C34482D332D42454E5A594C505952524F28312C322D442928312C322C3429545249415A494E2D342D4F4E452E6D6F6C0A20204368656D447261773130323031303230333632440A2031372031392020302020302020302020302020302020302020302020303939392056323030300A2020202D312E323132392020202D312E3432383120202020302E303030302043202020302020302020302020302020302020302020302020302020302020302020302020300A2020202D312E323132392020202D322E3235333120202020302E303030302043202020302020302020302020302020302020302020302020302020302020302020302020300A2020202D302E343238332020202D322E3530383120202020302E303030302043202020302020302020302020302020302020302020302020302020302020302020302020300A20202020302E303536372020202D312E3834303620202020302E303030302043202020302020302020302020302020302020302020302020302020302020302020302020300A2020202D302E343237332020202D312E3137343020202020302E30303030204E202020302020302020302020302020302020302020302020302020302020302020302020300A20202020302E383737312020202D312E3735343420202020302E303030302043202020302020302020302020302020302020302020302020302020302020302020302020300A20202020312E323132392020202D312E3030303920202020302E30303030204E202020302020302020302020302020302020302020302020302020302020302020302020300A20202020302E373238342020202D302E3333343320202020302E30303030204E202020302020302020302020302020302020302020302020302020302020302020302020300A2020202D302E303932372020202D302E3431393520202020302E303030302043202020302020302020302020302020302020302020302020302020302020302020302020300A2020202D302E3537373520202020302E3234373820202020302E30303030204F202020302020302020302020302020302020302020302020302020302020302020302020300A20202020312E3036343420202020302E3431393220202020302E303030302043202020302020302020302020302020302020302020302020302020302020302020302020300A20202020302E3537393920202020312E3038363920202020302E303030302043202020302020302020302020302020302020302020302020302020302020302020302020300A20202020302E3931353920202020312E3834303420202020302E303030302043202020302020302020302020302020302020302020302020302020302020302020302020300A20202020302E3433313420202020322E3530383120202020302E303030302043202020302020302020302020302020302020302020302020302020302020302020302020300A2020202D302E3338393220202020322E3432323320202020302E303030302043202020302020302020302020302020302020302020302020302020302020302020302020300A2020202D302E3732353220202020312E3636383920202020302E303030302043202020302020302020302020302020302020302020302020302020302020302020302020300A2020202D302E3234303620202020312E3030313120202020302E303030302043202020302020302020302020302020302020302020302020302020302020302020302020300A2020312020322020322020302020202020200A2020322020332020312020302020202020200A2020332020342020322020302020202020200A2020342020352020312020302020202020200A2020352020312020312020302020202020200A2020342020362020312020302020202020200A2020362020372020322020302020202020200A2020372020382020312020302020202020200A2020382020392020312020302020202020200A2020392020352020312020302020202020200A2020392031302020322020302020202020200A2020382031312020312020302020202020200A2031312031322020312020302020202020200A2031322031332020322020302020202020200A2031332031342020312020302020202020200A2031342031352020322020302020202020200A2031352031362020312020302020202020200A2031362031372020322020302020202020200A2031372031322020312020302020202020200A4D2020454E44
Contributor: YOSHIKI O, FAC, TECHNOLOGY, OSAKA UNIV.
InstType: EI
InstName: Unknown
IoniMethod: _ENERGY 70 eV
IonPolarity: pos
Date: 2010-10-09 19:48:36+02:00
Num Peaks: 32
50 67 51 240 52 62 56 21 62 14 63 55 64 34 65 279 66 27 76 15 
77 86 78 46 79 19 89 32 90 19 91 999 92 92 93 14 94 127 104 23 
105 26 106 15 121 41 132 404 133 40 169 16 183 11 196 26 197 36 224 16 
225 241 226 37 
