Name: 1-(PENTAMETHYLDISILANYL)-4-(1-PHENYLTETRAMETHYLDISILANYL)BUT-1-EN-3-YNE
MW: 374
Formula: C19H34Si4
Synonym: MassBank: JP011706
Synonym: 1-(PENTAMETHYLDISILANYL)-4-(1-PHENYLTETRAMETHYLDISILANYL)BUT-1-EN-3-YNE
Structure: 312D2850454E54414D455448594C444953494C414E594C292D342D28312D5048454E594C54455452414D455448594C444953494C414E594C294255542D312D454E2D332D594E452E6D6F6C0A20204368656D447261773131313730393230313132440A2032332032332020302020302020302020302020302020302020302020303939392056323030300A20202020302E3631383820202020312E3235303720202020302E303030302043202020302020302020302020302020302020302020302020302020302020302020302020300A20202020302E3230363320202020302E3533363220202020302E303030302043202020302020302020302020302020302020302020302020302020302020302020302020300A2020202D302E3631383820202020302E3533363220202020302E303030302043202020302020302020302020302020302020302020302020302020302020302020302020300A2020202D312E3434333820202020302E3533363220202020302E303030302043202020302020302020302020302020302020302020302020302020302020302020302020300A2020202D322E3236383720202020302E3533363220202020302E303030302053692020302020302020302020302020302020302020302020302020302020302020302020300A2020202D322E3236383720202020312E3336313220202020302E303030302053692020302020302020302020302020302020302020302020302020302020302020302020300A2020202D322E323638372020202D302E3533363320202020302E303030302043202020302020302020302020302020302020302020302020302020302020302020302020300A2020202D312E353534332020202D302E3934383820202020302E303030302043202020302020302020302020302020302020302020302020302020302020302020302020300A2020202D312E353534332020202D312E3737333720202020302E303030302043202020302020302020302020302020302020302020302020302020302020302020302020300A2020202D322E323638372020202D322E3138363220202020302E303030302043202020302020302020302020302020302020302020302020302020302020302020302020300A2020202D322E393833322020202D312E3737333820202020302E303030302043202020302020302020302020302020302020302020302020302020302020302020302020300A2020202D322E393833322020202D302E3934383720202020302E303030302043202020302020302020302020302020302020302020302020302020302020302020302020300A2020202D332E3039333820202020302E3533363220202020302E303030302043202020302020302020302020302020302020302020302020302020302020302020302020300A2020202D322E3236383720202020322E3138363220202020302E303030302043202020302020302020302020302020302020302020302020302020302020302020302020300A2020202D332E3039333820202020312E3336313220202020302E303030302043202020302020302020302020302020302020302020302020302020302020302020302020300A2020202D312E3434333820202020312E3336313220202020302E303030302043202020302020302020302020302020302020302020302020302020302020302020302020300A20202020312E3434333820202020312E3235303720202020302E303030302053692020302020302020302020302020302020302020302020302020302020302020302020300A20202020322E3236383820202020312E3235303720202020302E303030302053692020302020302020302020302020302020302020302020302020302020302020302020300A20202020312E3434333820202020322E3037353720202020302E303030302043202020302020302020302020302020302020302020302020302020302020302020302020300A20202020312E3434333820202020302E3432353720202020302E303030302043202020302020302020302020302020302020302020302020302020302020302020302020300A20202020322E3236383820202020302E3432353720202020302E303030302043202020302020302020302020302020302020302020302020302020302020302020302020300A20202020332E3039333820202020312E3235303720202020302E303030302043202020302020302020302020302020302020302020302020302020302020302020302020300A20202020322E3236383820202020322E3037353720202020302E303030302043202020302020302020302020302020302020302020302020302020302020302020302020300A2020312020322020322020302020202020200A2020322020332020312020302020202020200A2020332020342020332020302020202020200A2020352020362020312020302020202020200A2020372020382020312020302020202020200A2020382020392020322020302020202020200A2020392031302020312020302020202020200A2031302031312020322020302020202020200A2031312031322020312020302020202020200A2020372031322020322020302020202020200A2020352020372020312020302020202020200A2020352031332020312020302020202020200A2020362031342020312020302020202020200A2020362031352020312020302020202020200A2020362031362020312020302020202020200A2020342020352020312020302020202020200A2031372031382020312020302020202020200A2031372031392020312020302020202020200A2031372032302020312020302020202020200A2031382032312020312020302020202020200A2031382032322020312020302020202020200A2031382032332020312020302020202020200A2020312031372020312020302020202020200A4D2020454E44
Contributor: FAC. TECHNOLOGY, HIROSHIMA UNIV.
InstType: EI
InstName: SHIMADZU QP-1000
IoniMethod: _ENERGY 70 eV
IonPolarity: pos
Date: 2010-10-09 19:48:36+02:00
Num Peaks: 45
54 11 58 11 59 11 60 63 73 999 74 84 75 32 83 32 97 32 105 53 
107 32 116 32 121 21 125 11 127 42 129 53 131 32 135 453 136 53 137 11 
141 32 143 11 145 42 151 11 155 53 159 42 163 32 175 11 177 21 187 11 
189 11 191 11 203 11 209 21 213 32 217 32 227 42 239 42 271 11 286 11 
301 76 302 25 303 11 359 34 360 13 
