Name: MassBank: JP010838
MW: 286
Formula: C20H30O
Synonym: MassBank: JP010838
Synonym: (1S,2E,4E,7E,11E)-10-OXOCEMBRA-2,4,7,11-TETRAENE
Structure: 2831532C32452C34452C37452C313145292D31302D4F584F43454D4252412D322C342C372C31312D5445545241454E452E6D6F6C0A20204368656D447261773130313930393134313632440A2032372032372020302020302020302020302020302020302020302020303939392056323030300A2020202D312E3937343420202020302E3130353920202020302E303030302043202020302020302020302020302020302020302020302020302020302020302020302020300A2020202D312E393734342020202D302E3731393120202020302E303030302043202020302020302020302020302020302020302020302020302020302020302020302020300A2020202D312E333931312020202D312E3330323420202020302E303030302043202020302020302020302020302020302020302020302020302020302020302020302020300A2020202D302E353636312020202D312E3330323420202020302E303030302043202020302020302020302020302020302020302020302020302020302020302020302020300A20202020302E303137332020202D302E3731393120202020302E303030302043202020302020302020302020302020302020302020302020302020302020302020302020300A20202020302E3031373320202020302E3130353920202020302E303030302043202020302020302020302020302020302020302020302020302020302020302020302020300A2020202D302E3536363120202020302E3638393320202020302E303030302043202020302020302020302020302020302020302020302020302020302020302020302020300A2020202D312E3339313120202020302E3638393320202020302E303030302043202020302020302020302020302020302020302020302020302020302020302020302020300A20202020302E363030362020202D312E3330323420202020302E303030302043202020302020302020302020302020302020302020302020302020302020302020302020300A20202020312E343235362020202D312E3330323420202020302E303030302043202020302020302020302020302020302020302020302020302020302020302020302020300A20202020322E303039302020202D302E3731393120202020302E303030302043202020302020302020302020302020302020302020302020302020302020302020302020300A20202020322E3030393020202020302E3130353920202020302E303030302043202020302020302020302020302020302020302020302020302020302020302020302020300A20202020312E3432353620202020302E3638393320202020302E303030302043202020302020302020302020302020302020302020302020302020302020302020302020300A20202020302E3630303620202020302E3638393320202020302E303030302043202020302020302020302020302020302020302020302020302020302020302020302020300A2020202D322E3733333320202020302E3431383420202020302E303030302048202020302020302020302020302020302020302020302020302020302020302020302020300A2020202D312E313735322020202D302E3531313420202020302E303030302048202020302020302020302020302020302020302020302020302020302020302020302020300A2020202D302E373733382020202D302E3531313420202020302E303030302048202020302020302020302020302020302020302020302020302020302020302020302020300A20202020302E323932352020202D322E3036393520202020302E303030302048202020302020302020302020302020302020302020302020302020302020302020302020300A20202020312E323134312020202D302E3131303020202020302E303030302048202020302020302020302020302020302020302020302020302020302020302020302020300A2020202D312E3339313120202020312E3530383220202020302E303030302048202020302020302020302020302020302020302020302020302020302020302020302020300A2020202D312E3937343420202020312E3237323620202020302E303030302043202020302020302020302020302020302020302020302020302020302020302020302020300A2020202D322E3737313320202020312E3035393120202020302E303030302043202020302020302020302020302020302020302020302020302020302020302020302020300A2020202D312E3736303920202020322E3036393520202020302E303030302043202020302020302020302020302020302020302020302020302020302020302020302020300A20202020322E3737313320202020302E3432313620202020302E30303030204F202020302020302020302020302020302020302020302020302020302020302020302020300A20202020312E323131382020202D302E3530343620202020302E303030302043202020302020302020302020302020302020302020302020302020302020302020302020300A2020202D312E373037332020202D322E3036333820202020302E303030302043202020302020302020302020302020302020302020302020302020302020302020302020300A20202020302E3238333720202020312E3435323020202020302E303030302043202020302020302020302020302020302020302020302020302020302020302020302020300A2020312020322020322020302020202020200A2020322020332020312020302020202020200A2020332020342020322020302020202020200A2020342020352020312020302020202020200A2020362020372020312020302020202020200A2020372020382020312020302020202020200A2020382020312020312020302020202020200A2020352020392020312020302020202020200A2020392031302020322020302020202020200A2031302031312020312020302020202020200A2031312031322020312020302020202020200A2031322031332020312020302020202020200A2031332031342020322020302020202020200A2031342020362020312020302020202020200A2020312031352020312020302020202020200A2020322031362020312020302020202020200A2020342031372020312020302020202020200A2020392031382020312020302020202020200A2031332031392020312020302020202020200A2020382032302020312020312020202020200A2020382032312020312020362020202020200A2032312032322020312020302020202020200A2032312032332020312020302020202020200A2031322032342020322020302020202020200A2031302032352020312020302020202020200A2020332032362020312020302020202020200A2031342032372020312020302020202020200A4D202053545920203120202031205355500A4D2020534C4220203120202031202020310A4D202053414C20202031202031202032350A4D202053424C20202031202031202032350A4D2020534D5420202031204D650A4D2020534256202020312032352020202D372E3134303620202020382E373936320A4D202053545920203120202032205355500A4D2020534C4220203120202032202020320A4D202053414C20202032202031202032360A4D202053424C20202032202031202032360A4D2020534D5420202032204D650A4D2020534256202020322032362020202D372E3234333020202020372E323337300A4D202053545920203120202033205355500A4D2020534C4220203120202033202020330A4D202053414C20202033202031202032370A4D202053424C20202033202031202032370A4D2020534D5420202033204D650A4D2020534256202020332032372020202D372E3234333720202020382E373631310A4D2020454E44
Contributor: HAMAMATSU UNIV. SCHOOL OF MEDICINE
InstType: EI
InstName: HITACHI RMU-6L
IoniMethod: _ENERGY 70 eV
IonPolarity: pos
Date: 2010-10-09 19:48:36+02:00
Num Peaks: 116
40 74 41 999 42 86 43 49 47 220 48 118 49 294 50 4 51 115 52 33 
53 379 54 13 55 636 56 43 57 99 65 16 66 52 67 457 68 130 69 47 
70 55 71 74 77 370 78 10 79 423 80 162 81 665 82 30 83 767 84 180 
85 463 86 11 87 78 88 122 91 504 92 13 93 487 94 85 95 504 96 26 
97 101 103 50 104 34 105 46 106 130 107 518 108 147 109 23 110 49 111 55 
115 62 116 4 117 101 118 34 119 329 120 20 121 298 122 149 123 404 124 6 
128 36 129 53 131 121 132 6 133 233 134 115 135 264 136 13 137 122 143 46 
145 162 146 5 147 236 148 201 149 155 150 12 151 56 157 47 159 144 160 5 
161 174 162 100 163 130 164 5 173 66 175 124 176 41 177 6 178 32 183 26 
187 72 188 3 189 83 190 49 191 70 201 5 202 29 203 63 204 31 205 5 
206 24 215 49 216 23 217 8 218 46 219 10 225 41 231 3 233 17 243 135 
244 30 271 4 272 10 286 152 287 45 288 10 
