Name: 4-AMINOBUTYRIC ACID
CAS: 56-12-2
MW: 103
Formula: C4H9NO2
Synonym: MassBank: JP011892
Synonym: 4-AMINOBUTYRIC ACID
Synonym: GAMMA-AMINOBUTYRIC ACID
Structure: 310A31380A342D414D494E4F4255545952494320414349442E6D6F6C0A20204368656D447261773033323531303034353832440A2020372020362020302020302020302020302020302020302020302020303939392056323030300A20202020312E303731372020202D302E3230363220202020302E303030302043202020302020302020302020302020302020302020302020302020302020302020302020300A20202020302E333537322020202D302E3631383820202020302E303030302043202020302020302020302020302020302020302020302020302020302020302020302020300A2020202D302E333537322020202D302E3230363220202020302E303030302043202020302020302020302020302020302020302020302020302020302020302020302020300A2020202D312E303731372020202D302E3631383820202020302E303030302043202020302020302020302020302020302020302020302020302020302020302020302020300A20202020312E3037313720202020302E3631383820202020302E30303030204F202020302020302020302020302020302020302020302020302020302020302020302020300A20202020312E373836322020202D302E3631383820202020302E30303030204F202020302020302020302020302020302020302020302020302020302020302020302020300A2020202D312E373836322020202D302E3230363220202020302E30303030204E202020302020302020302020302020302020302020302020302020302020302020302020300A2020312020322020312020302020202020200A2020322020332020312020302020202020200A2020332020342020312020302020202020200A2020312020352020322020302020202020200A2020312020362020312020302020202020200A2020342020372020312020302020202020200A4D2020454E44
Contributor: YAMAMOTO M, DEP. CHEMISTRY, FAC. SCIENCE, NARA WOMEN'S UNIV.
InstType: EI
InstName: HITACHI M-2500
IoniMethod: _ENERGY 70 eV
IonPolarity: pos
Date: 2010-10-09 19:48:36+02:00
Num Peaks: 25
15 11 17 13 18 46 26 23 27 62 28 175 29 39 30 999 31 23 39 39 
40 11 41 69 42 61 43 129 44 77 45 57 54 13 55 16 56 75 57 12 
69 17 84 23 85 13 86 15 103 39 
