Name: 4-ACETYL-2-PHENYL-1-PYRROLINE
MW: 187
Formula: C12H13NO
Synonym: MassBank: JP010262
Synonym: 4-ACETYL-2-PHENYL-1-PYRROLINE
Structure: 342D41434554594C2D322D5048454E594C2D312D505952524F4C494E452E6D6F6C0A20204368656D447261773033323531303034313632440A2031342031352020302020302020302020302020302020302020302020303939392056323030300A2020202D302E313239382020202D312E3134393520202020302E30303030204E202020302020302020302020302020302020302020302020302020302020302020302020300A2020202D302E323136312020202D302E3332393020202020302E303030302043202020302020302020302020302020302020302020302020302020302020302020302020300A20202020302E3533373620202020302E3030363620202020302E303030302043202020302020302020302020302020302020302020302020302020302020302020302020300A20202020312E303839372020202D302E3630363520202020302E303030302043202020302020302020302020302020302020302020302020302020302020302020302020300A20202020302E363737322020202D312E3332313020202020302E303030302043202020302020302020302020302020302020302020302020302020302020302020302020300A2020202D302E3933303520202020302E3038333520202020302E303030302043202020302020302020302020302020302020302020302020302020302020302020302020300A2020202D312E363435302020202D302E3332393020202020302E303030302043202020302020302020302020302020302020302020302020302020302020302020302020300A2020202D322E3335393520202020302E3038333520202020302E303030302043202020302020302020302020302020302020302020302020302020302020302020302020300A2020202D322E3335393520202020302E3930383520202020302E303030302043202020302020302020302020302020302020302020302020302020302020302020302020300A2020202D312E3634353020202020312E3332313020202020302E303030302043202020302020302020302020302020302020302020302020302020302020302020302020300A2020202D302E3933303520202020302E3930383520202020302E303030302043202020302020302020302020302020302020302020302020302020302020302020302020300A20202020312E393130312020202D302E3532303320202020302E303030302043202020302020302020302020302020302020302020302020302020302020302020302020300A20202020322E3238343720202020302E3231343820202020302E30303030204F202020302020302020302020302020302020302020302020302020302020302020302020300A20202020322E333539352020202D312E3231323220202020302E303030302043202020302020302020302020302020302020302020302020302020302020302020302020300A2020312020322020322020302020202020200A2020322020332020312020302020202020200A2020332020342020312020302020202020200A2020342020352020312020302020202020200A2020312020352020312020302020202020200A2020362020372020312020302020202020200A2020372020382020322020302020202020200A2020382020392020312020302020202020200A2020392031302020322020302020202020200A2031302031312020312020302020202020200A2020362031312020322020302020202020200A2020322020362020312020302020202020200A2031322031332020322020302020202020200A2031322031342020312020302020202020200A2020342031322020312020302020202020200A4D2020454E44
Contributor: KANEMASA S, INST. OF ADVANCED MATERIAL STUDY KYUSHU UNIV.
InstType: EI
InstName: JEOL JMS-01-SG-2
IoniMethod: _ENERGY 75 eV
IonPolarity: pos
Date: 2010-10-09 19:48:36+02:00
Num Peaks: 32
39 137 41 444 42 36 43 473 50 41 51 113 58 36 63 49 65 39 69 59 
76 41 77 207 84 53 89 53 90 43 91 112 103 72 104 123 105 89 115 117 
116 57 117 367 118 42 142 37 143 185 144 999 145 125 158 76 159 51 172 35 
187 233 188 34 
