Name: 5-PHENETHYL-3-STYRYL-2-ISOXAZOLINE
MW: 277
Formula: C19H19NO
Synonym: MassBank: JP010207
Synonym: 5-PHENETHYL-3-STYRYL-2-ISOXAZOLINE
Structure: 352D5048454E455448594C2D332D53545952594C2D322D49534F58415A4F4C494E452E6D6F6C0A20204368656D447261773034323331303037333332440A2032312032332020302020302020302020302020302020302020302020303939392056323030300A20202020302E313433312020202D312E3039373020202020302E30303030204F202020302020302020302020302020302020302020302020302020302020302020302020300A2020202D302E363633392020202D302E3932353520202020302E30303030204E202020302020302020302020302020302020302020302020302020302020302020302020300A2020202D302E373530312020202D302E3130353020202020302E303030302043202020302020302020302020302020302020302020302020302020302020302020302020300A20202020302E3030333620202020302E3233303520202020302E303030302043202020302020302020302020302020302020302020302020302020302020302020302020300A20202020302E353535362020202D302E3338323620202020302E303030302043202020302020302020302020302020302020302020302020302020302020302020302020300A2020202D312E3436343620202020302E3330373520202020302E303030302043202020302020302020302020302020302020302020302020302020302020302020302020300A2020202D322E313739302020202D302E3130353020202020302E303030302043202020302020302020302020302020302020302020302020302020302020302020302020300A2020202D322E3839333520202020302E3330373520202020302E303030302043202020302020302020302020302020302020302020302020302020302020302020302020300A2020202D332E363038302020202D302E3130353020202020302E303030302043202020302020302020302020302020302020302020302020302020302020302020302020300A2020202D342E3332323520202020302E3330373520202020302E303030302043202020302020302020302020302020302020302020302020302020302020302020302020300A2020202D342E3332323520202020312E3133323520202020302E303030302043202020302020302020302020302020302020302020302020302020302020302020302020300A2020202D332E3630383020202020312E3534353020202020302E303030302043202020302020302020302020302020302020302020302020302020302020302020302020300A2020202D322E3839333520202020312E3133323520202020302E303030302043202020302020302020302020302020302020302020302020302020302020302020302020300A20202020312E333736312020202D302E3239363320202020302E303030302043202020302020302020302020302020302020302020302020302020302020302020302020300A20202020312E383631302020202D302E3936333820202020302E303030302043202020302020302020302020302020302020302020302020302020302020302020302020300A20202020322E363831352020202D302E3837373520202020302E303030302043202020302020302020302020302020302020302020302020302020302020302020302020300A20202020332E303137312020202D302E3132333920202020302E303030302043202020302020302020302020302020302020302020302020302020302020302020302020300A20202020332E383337352020202D302E3033373620202020302E303030302043202020302020302020302020302020302020302020302020302020302020302020302020300A20202020342E333232352020202D302E3730353120202020302E303030302043202020302020302020302020302020302020302020302020302020302020302020302020300A20202020332E393836392020202D312E3435383720202020302E303030302043202020302020302020302020302020302020302020302020302020302020302020302020300A20202020332E313636342020202D312E3534353020202020302E303030302043202020302020302020302020302020302020302020302020302020302020302020302020300A2020312020322020312020302020202020200A2020322020332020322020302020202020200A2020332020342020312020302020202020200A2020342020352020312020302020202020200A2020312020352020312020302020202020200A2020362020372020322020302020202020200A2020372020382020312020302020202020200A2020382020392020312020302020202020200A2020392031302020322020302020202020200A2031302031312020312020302020202020200A2031312031322020322020302020202020200A2031322031332020312020302020202020200A2020382031332020322020302020202020200A2020332020362020312020302020202020200A2031342031352020312020302020202020200A2031352031362020312020302020202020200A2031362031372020312020302020202020200A2031372031382020322020302020202020200A2031382031392020312020302020202020200A2031392032302020322020302020202020200A2032302032312020312020302020202020200A2031362032312020322020302020202020200A2020352031342020312020302020202020200A4D2020454E44
Contributor: KANEMASA S, INST. OF ADVANCED MATERIAL STUDY KYUSHU UNIV.
InstType: EI
InstName: JEOL JMS-01-SG-2
IoniMethod: _ENERGY 75 eV
IonPolarity: pos
Date: 2010-10-09 19:48:36+02:00
Num Peaks: 32
39 71 41 100 50 43 51 121 63 72 65 177 76 51 77 444 78 121 79 77 
89 56 91 715 92 87 102 99 103 392 104 144 105 162 106 41 115 233 116 59 
117 66 127 39 128 121 129 102 130 86 142 49 143 257 144 166 172 122 276 999 
277 655 278 106 
