Name: 1-METHYLSILACYCLOBUTANE
MW: 86
Formula: C4H10Si
Synonym: MassBank: JP011590
Synonym: 1-METHYLSILACYCLOBUTANE
Structure: 310A31350A312D4D455448594C53494C414359434C4F425554414E452E6D6F6C0A20204368656D447261773131323130393138333632440A2020352020352020302020302020302020302020302020302020302020303939392056323030300A2020202D302E3137303920202020302E3030303020202020302E303030302053692020302020302020302020302020302020302020302020302020302020302020302020300A20202020302E3431323520202020302E3538333420202020302E303030302043202020302020302020302020302020302020302020302020302020302020302020302020300A20202020302E3939353920202020302E3030303020202020302E303030302043202020302020302020302020302020302020302020302020302020302020302020302020300A20202020302E343132352020202D302E3538333420202020302E303030302043202020302020302020302020302020302020302020302020302020302020302020302020300A2020202D302E3939353920202020302E3030303020202020302E303030302043202020302020302020302020302020302020302020302020302020302020302020302020300A2020312020322020312020302020202020200A2020322020332020312020302020202020200A2020332020342020312020302020202020200A2020312020342020312020302020202020200A2020312020352020312020302020202020200A4D2020454E44
Contributor: YAMAMOTO M, DEP. CHEMISTRY, FAC. SCIENCE, NARA WOMEN'S UNIV.
InstType: EI
InstName: HITACHI RMU-6M
IoniMethod: _ENERGY 70 eV
IonPolarity: pos
Date: 2010-10-09 19:48:36+02:00
Num Peaks: 30
27 30 28 50 29 77 30 10 31 26 39 39 41 17 42 101 43 600 44 68 
45 122 46 10 53 45 54 10 55 44 56 11 57 23 58 999 59 124 60 41 
65 10 66 20 67 19 69 12 70 22 71 56 85 23 86 303 87 32 88 11 
