Name: 4-(1-METHYLETHENYL)CYCLOHEXENE-1-METHANOL
MW: 152
Formula: C10H16O
Synonym: MassBank: JP010926
Synonym: 4-(1-METHYLETHENYL)CYCLOHEXENE-1-METHANOL
Structure: 342D28312D4D455448594C455448454E594C294359434C4F484558454E452D312D4D455448414E4F4C2E6D6F6C0A20204368656D447261773130313831303137323032440A2031312031312020302020302020302020302020302020302020302020303939392056323030300A20202020302E3832353020202020302E3030303020202020302E303030302043202020302020302020302020302020302020302020302020302020302020302020302020300A20202020302E343132352020202D302E3731343520202020302E303030302043202020302020302020302020302020302020302020302020302020302020302020302020300A2020202D302E343132352020202D302E3731343520202020302E303030302043202020302020302020302020302020302020302020302020302020302020302020302020300A2020202D302E3832353020202020302E3030303020202020302E303030302043202020302020302020302020302020302020302020302020302020302020302020302020300A2020202D302E3431323520202020302E3731343520202020302E303030302043202020302020302020302020302020302020302020302020302020302020302020302020300A20202020302E3431323520202020302E3731343520202020302E303030302043202020302020302020302020302020302020302020302020302020302020302020302020300A20202020312E3635303020202020302E3030303020202020302E303030302043202020302020302020302020302020302020302020302020302020302020302020302020300A20202020322E3036323520202020302E3731343520202020302E30303030204F202020302020302020302020302020302020302020302020302020302020302020302020300A2020202D312E3635303020202020302E3030303020202020302E303030302043202020302020302020302020302020302020302020302020302020302020302020302020300A2020202D322E303632352020202D302E3731343520202020302E303030302043202020302020302020302020302020302020302020302020302020302020302020302020300A2020202D322E3036323520202020302E3731343520202020302E303030302043202020302020302020302020302020302020302020302020302020302020302020302020300A2020312020322020322020302020202020200A2020322020332020312020302020202020200A2020332020342020312020302020202020200A2020342020352020312020302020202020200A2020352020362020312020302020202020200A2020312020362020312020302020202020200A2020372020382020312020302020202020200A2020312020372020312020302020202020200A2020392031302020322020302020202020200A2020392031312020312020302020202020200A2020342020392020312020302020202020200A4D2020454E44
Contributor: KURARAY CO., LTD.
InstType: EI
InstName: JEOL JMS-D-300
IoniMethod: _ENERGY 70 eV
IonPolarity: pos
Date: 2010-10-09 19:48:36+02:00
Num Peaks: 47
27 153 28 152 29 122 30 63 31 47 39 235 40 92 41 392 42 67 43 116 
51 75 53 278 55 438 56 134 57 60 65 105 66 72 67 651 68 999 69 157 
77 265 78 88 79 683 80 113 81 176 83 191 84 307 91 464 92 353 93 612 
94 314 95 163 96 56 105 302 106 525 107 98 108 65 109 91 117 49 119 641 
120 78 121 281 123 78 124 61 134 431 135 69 152 196 
