Name: MassBank: JP010712
MW: 214
Formula: C14H14O2
Synonym: MassBank: JP010712
Synonym: (2Z)-2-(2,4-HEXADIYNYIDENE)-1,6-DIOXASPIRO(4,5)DEC-3-ENE
Structure: 28325A292D322D28322C342D484558414449594E594944454E45292D312C362D44494F5841535049524F28342C35294445432D332D454E452E6D6F6C0A20204368656D447261773130323030393232343232440A2031392032302020302020302020302020302020302020302020302020303939392056323030300A2020202D322E313731342020202D312E3737343120202020302E303030302043202020302020302020302020302020302020302020302020302020302020302020302020300A2020202D312E373538392020202D322E3438383620202020302E303030302043202020302020302020302020302020302020302020302020302020302020302020302020300A2020202D302E393333392020202D322E3439313120202020302E30303030204F202020302020302020302020302020302020302020302020302020302020302020302020300A2020202D302E353231342020202D312E3737343120202020302E303030302043202020302020302020302020302020302020302020302020302020302020302020302020300A2020202D302E393333392020202D312E3035393620202020302E303030302043202020302020302020302020302020302020302020302020302020302020302020302020300A2020202D312E373538392020202D312E3035393620202020302E303030302043202020302020302020302020302020302020302020302020302020302020302020302020300A2020202D302E303335382020202D322E3434313020202020302E303030302043202020302020302020302020302020302020302020302020302020302020302020302020300A20202020302E373438322020202D322E3138363620202020302E303030302043202020302020302020302020302020302020302020302020302020302020302020302020300A20202020302E373438322020202D312E3336313620202020302E303030302043202020302020302020302020302020302020302020302020302020302020302020302020300A2020202D302E303333372020202D312E3130393120202020302E30303030204F202020302020302020302020302020302020302020302020302020302020302020302020300A20202020312E343138302020202D322E3637323720202020302E303030302048202020302020302020302020302020302020302020302020302020302020302020302020300A2020202D302E323839322020202D332E3232363020202020302E303030302048202020302020302020302020302020302020302020302020302020302020302020302020300A20202020312E343135302020202D302E3837353820202020302E303030302043202020302020302020302020302020302020302020302020302020302020302020302020300A20202020322E313731342020202D312E3231313420202020302E303030302048202020302020302020302020302020302020302020302020302020302020302020302020300A20202020312E333237372020202D302E3035353420202020302E303030302043202020302020302020302020302020302020302020302020302020302020302020302020300A20202020312E3234303420202020302E3736343920202020302E303030302043202020302020302020302020302020302020302020302020302020302020302020302020300A20202020312E3135333120202020312E3538353320202020302E303030302043202020302020302020302020302020302020302020302020302020302020302020302020300A20202020312E3036353820202020322E3430353720202020302E303030302043202020302020302020302020302020302020302020302020302020302020302020302020300A20202020302E3937383520202020332E3232363020202020302E303030302043202020302020302020302020302020302020302020302020302020302020302020302020300A2020312020322020312020302020202020200A2020322020332020312020302020202020200A2020332020342020312020302020202020200A2020342020352020312020302020202020200A2020352020362020312020302020202020200A2020362020312020312020302020202020200A2020342020372020312020302020202020200A2020372020382020322020302020202020200A2020382020392020312020302020202020200A2020392031302020312020302020202020200A2031302020342020312020302020202020200A2020382031312020312020302020202020200A2020372031322020312020302020202020200A2020392031332020322020302020202020200A2031332031342020312020302020202020200A2031332031352020312020302020202020200A2031352031362020332020302020202020200A2031362031372020312020302020202020200A2031372031382020332020302020202020200A2031382031392020312020302020202020200A4D2020454E44
Contributor: EGUCHI S, FAC. OF SCIENCE, HIROSHIMA UNIV.
InstType: EI
InstName: HITACHI RMU-6L
IoniMethod: _ENERGY 70 eV
IonPolarity: pos
Date: 2010-10-09 19:48:36+02:00
Num Peaks: 129
41 480 42 120 43 190 50 61 51 380 52 225 53 255 54 28 55 560 56 60 
57 60 61 4 62 115 63 210 64 65 65 12 66 60 67 120 68 70 69 8 
70 20 71 50 73 30 74 23 75 300 76 650 77 385 78 12 79 140 80 70 
81 180 82 18 83 60 84 20 85 30 86 6 87 110 88 75 89 105 90 3 
91 180 92 45 93 50 94 5 95 70 96 40 97 35 98 4 99 35 100 30 
101 70 102 38 103 130 104 75 105 60 106 2 107 60 108 20 109 20 110 5 
111 20 113 50 114 40 115 52 116 120 117 80 118 30 119 4 120 20 121 30 
122 40 124 3 126 70 127 195 128 290 129 28 130 240 131 110 132 60 133 4 
134 20 135 20 137 30 138 5 139 55 140 30 141 140 142 10 143 160 144 100 
145 130 146 3 147 50 148 30 149 90 150 4 151 25 152 60 153 70 154 3 
155 80 156 560 157 290 158 40 159 140 160 40 161 25 165 3 167 30 168 20 
169 210 170 8 171 210 172 60 173 50 181 4 182 20 183 40 184 50 185 27 
186 180 187 40 197 50 198 3 199 80 200 65 213 140 214 999 215 160 
