Name: MassBank: JP010577
CAS: 67-51-6
MW: 96
Formula: C5H8N2
Synonym: MassBank: JP010577
Synonym: 3,5-DIMETHYLPYRAZOLE
Structure: 310A31390A332C352D44494D455448594C505952415A4F4C452E6D6F6C0A20204368656D447261773032323231303031343032440A2020372020372020302020302020302020302020302020302020302020303939392056323030300A2020202D302E3037313120202020302E3738323420202020302E30303030204E202020302020302020302020302020302020302020302020302020302020302020302020300A20202020302E3731333620202020302E3532373520202020302E30303030204E202020302020302020302020302020302020302020302020302020302020302020302020300A20202020302E373133362020202D302E3239373520202020302E303030302043202020302020302020302020302020302020302020302020302020302020302020302020300A2020202D302E303731312020202D302E3535323420202020302E303030302043202020302020302020302020302020302020302020302020302020302020302020302020300A2020202D302E3535363020202020302E3131353020202020302E303030302043202020302020302020302020302020302020302020302020302020302020302020302020300A2020202D312E3338313020202020302E3131353020202020302E303030302043202020302020302020302020302020302020302020302020302020302020302020302020300A20202020312E333831302020202D302E3738323420202020302E303030302043202020302020302020302020302020302020302020302020302020302020302020302020300A2020312020322020312020302020202020200A2020322020332020322020302020202020200A2020332020342020312020302020202020200A2020342020352020322020302020202020200A2020312020352020312020302020202020200A2020352020362020312020302020202020200A2020332020372020312020302020202020200A4D2020454E44
Contributor: NARA WOMEN'S UNIVERSITY
InstType: EI
InstName: HITACHI M-80
IoniMethod: _ENERGY 70 eV
IonPolarity: pos
Date: 2010-10-09 19:48:36+02:00
Num Peaks: 34
15 20 26 26 27 57 28 62 29 39 30 12 37 14 38 33 39 169 40 47 
41 116 42 112 43 18 50 14 51 31 52 34 53 23 54 146 55 48 56 26 
61 11 62 22 63 38 65 52 66 25 67 36 68 43 69 17 81 171 94 11 
95 666 96 999 97 293 98 16 
