Name: MassBank: JP010229
MW: 392
Formula: C23H24N2O4
Synonym: MassBank: JP010229
Synonym: 4-METHOXYCARBONYL-6-ETHYL-5-PHENYL-2-(PARA-TOLYL)PERHYDROPYRROLO(3,4-C)PYRROLE-1,3-DIONE (3A,4-CIS-6,6A-TRANS)
Synonym: (4S,6R)-4-METHOXYCARBONYL-6-ETHYL-5-PHENYL-2-(PARA-TOLYL)PERHYDROPYRROLO(3,4-C)PYRROLE-1,3-DIONE
Structure: 2834532C3652292D342D4D4554484F5859434152424F4E594C2D362D455448594C2D352D5048454E594C2D322D28504152412D544F4C594C29504552485944524F505952524F4C4F28332C342D4329505952524F4C452D312C332D44494F4E452E6D6F6C0A20204368656D447261773130323230393033323332440A2033332033362020302020302020302020302020302020302020302020303939392056323030300A2020202D322E3530373320202020302E3633323820202020302E303030302043202020302020302020302020302020302020302020302020302020302020302020302020300A2020202D312E3737393920202020312E3838343720202020302E303030302043202020302020302020302020302020302020302020302020302020302020302020302020300A2020202D302E3431313820202020302E3232303320202020302E303030302043202020302020302020302020302020302020302020302020302020302020302020302020300A2020202D302E3431313820202020312E3034353320202020302E303030302043202020302020302020302020302020302020302020302020302020302020302020302020300A2020202D312E3139363420202020312E3330303220202020302E303030302043202020302020302020302020302020302020302020302020302020302020302020302020300A2020202D312E3638313420202020302E3633323820202020302E30303030204E202020302020302020302020302020302020302020302020302020302020302020302020300A2020202D312E313936342020202D302E3033343620202020302E303030302043202020302020302020302020302020302020302020302020302020302020302020302020300A20202020302E333732382020202D302E3033343620202020302E303030302043202020302020302020302020302020302020302020302020302020302020302020302020300A20202020302E3835373720202020302E3633323820202020302E30303030204E202020302020302020302020302020302020302020302020302020302020302020302020300A20202020302E3337323820202020312E3330303220202020302E303030302043202020302020302020302020302020302020302020302020302020302020302020302020300A20202020302E3632373720202020322E3038343920202020302E30303030204F202020302020302020302020302020302020302020302020302020302020302020302020300A20202020312E3638323720202020302E3633323820202020302E303030302043202020302020302020302020302020302020302020302020302020302020302020302020300A20202020302E363237372020202D302E3831393220202020302E30303030204F202020302020302020302020302020302020302020302020302020302020302020302020300A2020202D302E3431313820202020312E3837303320202020302E303030302048202020302020302020302020302020302020302020302020302020302020302020302020300A2020202D302E343131382020202D302E3630343720202020302E303030302048202020302020302020302020302020302020302020302020302020302020302020302020300A2020202D302E3938323920202020322E3039373120202020302E303030302048202020302020302020302020302020302020302020302020302020302020302020302020300A2020202D312E313936342020202D302E3835393620202020302E303030302043202020302020302020302020302020302020302020302020302020302020302020302020300A2020202D312E373739382020202D302E3631373920202020302E303030302048202020302020302020302020302020302020302020302020302020302020302020302020300A20202020322E303935322020202D302E3038313720202020302E303030302043202020302020302020302020302020302020302020302020302020302020302020302020300A20202020322E393230322020202D302E3038313720202020302E303030302043202020302020302020302020302020302020302020302020302020302020302020302020300A20202020332E3333323720202020302E3633323820202020302E303030302043202020302020302020302020302020302020302020302020302020302020302020302020300A20202020322E3932303220202020312E3334373220202020302E303030302043202020302020302020302020302020302020302020302020302020302020302020302020300A20202020322E3039353220202020312E3334373220202020302E303030302043202020302020302020302020302020302020302020302020302020302020302020302020300A2020202D302E343831392020202D312E3237323120202020302E30303030204F202020302020302020302020302020302020302020302020302020302020302020302020300A2020202D312E393130392020202D312E3237323120202020302E30303030204F202020302020302020302020302020302020302020302020302020302020302020302020300A2020202D312E393130392020202D322E3039373120202020302E303030302043202020302020302020302020302020302020302020302020302020302020302020302020300A2020202D322E3537373020202020312E3637313720202020302E303030302043202020302020302020302020302020302020302020302020302020302020302020302020300A2020202D322E3931393820202020312E3334373320202020302E303030302043202020302020302020302020302020302020302020302020302020302020302020302020300A2020202D332E3734343820202020312E3334373320202020302E303030302043202020302020302020302020302020302020302020302020302020302020302020302020300A2020202D342E3135373320202020302E3633323820202020302E303030302043202020302020302020302020302020302020302020302020302020302020302020302020300A2020202D332E373434382020202D302E3038313620202020302E303030302043202020302020302020302020302020302020302020302020302020302020302020302020300A2020202D322E393139382020202D302E3038313620202020302E303030302043202020302020302020302020302020302020302020302020302020302020302020302020300A20202020342E3135373320202020302E3633323820202020302E303030302043202020302020302020302020302020302020302020302020302020302020302020302020300A2020332020342020312020302020202020200A2020342020352020312020302020202020200A2020352020362020312020302020202020200A2020362020372020312020302020202020200A2020372020332020312020302020202020200A2020332020382020312020302020202020200A2020382020392020312020302020202020200A2020392031302020312020302020202020200A2031302020342020312020302020202020200A2031302031312020322020302020202020200A2020392031322020312020302020202020200A2020382031332020322020302020202020200A2020342031342020312020312020202020200A2020332031352020312020312020202020200A2020352031362020312020312020202020200A2020372031372020312020312020202020200A2031322031392020322020302020202020200A2031392032302020312020302020202020200A2032302032312020322020302020202020200A2032312032322020312020302020202020200A2032322032332020322020302020202020200A2032332031322020312020302020202020200A2020372031382020312020362020202020200A2020352020322020312020362020202020200A2031372032342020322020302020202020200A2031372032352020312020302020202020200A2032352032362020312020302020202020200A2020322032372020312020302020202020200A2020362020312020312020302020202020200A2020312032382020322020302020202020200A2032382032392020312020302020202020200A2032392033302020322020302020202020200A2033302033312020312020302020202020200A2033312033322020322020302020202020200A2033322020312020312020302020202020200A2032312033332020312020302020202020200A4D202053545920203120202031205355500A4D2020534C4220203120202031202020310A4D202053414C20202031202031202033330A4D202053424C20202031202031202033360A4D2020534D5420202031204D650A4D2020534256202020312033362020202D352E3331323820202020372E373039310A4D2020454E44
Contributor: KANEMASA S, INST. OF ADVANCED MATERIAL STUDY KYUSHU UNIV.
InstType: EI
InstName: JEOL JMS-01-SG-2
IoniMethod: _ENERGY 75 eV
IonPolarity: pos
Date: 2010-10-09 19:48:36+02:00
Num Peaks: 34
38 46 40 66 42 36 51 50 55 30 60 54 66 32 76 215 77 69 91 72 
104 147 105 38 115 81 116 42 117 49 130 41 132 66 133 122 143 216 144 207 
145 32 156 89 158 41 170 100 172 564 173 86 202 133 333 999 334 251 335 36 
363 175 364 41 392 156 393 45 
