Name: 4-(3-CHLOROBENZOYL)-1-OXA-3-PHENYL-2-AZACYCLOPENT-2-EN-5-ONE
MW: 299
Formula: C16H10ClNO3
Synonym: MassBank: JP012110
Synonym: 4-(3-CHLOROBENZOYL)-1-OXA-3-PHENYL-2-AZACYCLOPENT-2-EN-5-ONE
Structure: 342D28332D43484C4F524F42454E5A4F594C292D312D4F58412D332D5048454E594C2D322D415A414359434C4F50454E542D322D454E2D352D4F4E452E6D6F6C0A20204368656D447261773033323331303233333332440A2032312032332020302020302020302020302020302020302020302020303939392056323030300A20202020302E3039313020202020312E3737303320202020302E30303030204F202020302020302020302020302020302020302020302020302020302020302020302020300A2020202D302E3731363020202020312E3539383820202020302E30303030204E202020302020302020302020302020302020302020302020302020302020302020302020300A2020202D302E3830323220202020302E3737383320202020302E303030302043202020302020302020302020302020302020302020302020302020302020302020302020300A2020202D302E3034383620202020302E3434323820202020302E303030302043202020302020302020302020302020302020302020302020302020302020302020302020300A20202020302E3530333520202020312E3035353920202020302E303030302043202020302020302020302020302020302020302020302020302020302020302020302020300A20202020312E3332333920202020302E3936393620202020302E30303030204F202020302020302020302020302020302020302020302020302020302020302020302020300A2020202D312E353136372020202D302E3435393220202020302E303030302043202020302020302020302020302020302020302020302020302020302020302020302020300A2020202D312E3531363720202020302E3336353820202020302E303030302043202020302020302020302020302020302020302020302020302020302020302020302020300A2020202D322E3233313220202020302E3737383320202020302E303030302043202020302020302020302020302020302020302020302020302020302020302020302020300A2020202D322E3934353720202020302E3336353820202020302E303030302043202020302020302020302020302020302020302020302020302020302020302020302020300A2020202D322E393435372020202D302E3435393220202020302E303030302043202020302020302020302020302020302020302020302020302020302020302020302020300A2020202D322E323331322020202D302E3837313720202020302E303030302043202020302020302020302020302020302020302020302020302020302020302020302020300A20202020302E313233302020202D302E3336343220202020302E303030302043202020302020302020302020302020302020302020302020302020302020302020302020300A20202020302E383933322020202D302E3635393820202020302E303030302043202020302020302020302020302020302020302020302020302020302020302020302020300A20202020312E353334332020202D302E3134303720202020302E303030302043202020302020302020302020302020302020302020302020302020302020302020302020300A20202020322E333034352020202D302E3433363320202020302E303030302043202020302020302020302020302020302020302020302020302020302020302020302020300A20202020322E343333362020202D312E3235313220202020302E303030302043202020302020302020302020302020302020302020302020302020302020302020302020300A20202020312E373932342020202D312E3737303320202020302E303030302043202020302020302020302020302020302020302020302020302020302020302020302020300A20202020312E303232322020202D312E3437343720202020302E303030302043202020302020302020302020302020302020302020302020302020302020302020302020300A2020202D302E353138322020202D302E3838333420202020302E30303030204F202020302020302020302020302020302020302020302020302020302020302020302020300A20202020322E3934353720202020302E3038323920202020302E3030303020436C2020302020302020302020302020302020302020302020302020302020302020302020300A2020312020322020312020302020202020200A2020322020332020322020302020202020200A2020332020342020312020302020202020200A2020342020352020312020302020202020200A2020312020352020312020302020202020200A2020352020362020322020302020202020200A2020372020382020312020302020202020200A2020382020392020322020302020202020200A2020392031302020312020302020202020200A2031302031312020322020302020202020200A2031312031322020312020302020202020200A2020372031322020312020302020202020200A2020332020382020312020302020202020200A2031332031342020312020302020202020200A2031342031352020312020302020202020200A2031352031362020322020302020202020200A2031362031372020312020302020202020200A2031372031382020322020302020202020200A2031382031392020312020302020202020200A2031342031392020322020302020202020200A2031332032302020322020302020202020200A2031362032312020312020302020202020200A2020342031332020312020302020202020200A4D2020454E44
Contributor: HISAHIRO HAGIWARA, INSTITUTE FOR CHEMICAL REACTION SCIENCE TOHOKU UNIV.
InstType: EI
InstName: JEOL JMS-DX-300
IoniMethod: _ENERGY 70 eV
IonPolarity: pos
Date: 2010-10-09 19:48:36+02:00
Num Peaks: 30
36 14 38 11 39 27 50 54 51 53 52 11 62 11 63 40 74 21 75 95 
76 53 77 44 89 67 102 47 103 37 104 19 105 22 111 199 112 18 113 69 
116 109 117 13 139 999 140 108 141 393 142 38 144 31 156 41 158 14 299 4 
