Name: MassBank: JP011714
MW: 414
Formula: C28H22Si2
Synonym: MassBank: JP011714
Synonym: 1,2-DIETHYNYL-1,1,2,2-TETRAPHENYLDISILANE
Structure: 312C322D4449455448594E594C2D312C312C322C322D54455452415048454E594C444953494C414E452E6D6F6C0A20204368656D447261773131303330393233323132440A2033302033332020302020302020302020302020302020302020302020303939392056323030300A2020202D302E363630302020202D302E3234373520202020302E303030302053692020302020302020302020302020302020302020302020302020302020302020302020300A20202020302E363630302020202D302E3234373520202020302E303030302053692020302020302020302020302020302020302020302020302020302020302020302020300A20202020302E363630302020202D312E3037323520202020302E303030302043202020302020302020302020302020302020302020302020302020302020302020302020300A20202020312E333734352020202D312E3438353020202020302E303030302043202020302020302020302020302020302020302020302020302020302020302020302020300A20202020312E333734352020202D322E3331303020202020302E303030302043202020302020302020302020302020302020302020302020302020302020302020302020300A20202020302E363630302020202D322E3732323520202020302E303030302043202020302020302020302020302020302020302020302020302020302020302020302020300A2020202D302E303534352020202D322E3331303020202020302E303030302043202020302020302020302020302020302020302020302020302020302020302020302020300A2020202D302E303534352020202D312E3438353020202020302E303030302043202020302020302020302020302020302020302020302020302020302020302020302020300A20202020312E343835302020202D302E3234373520202020302E303030302043202020302020302020302020302020302020302020302020302020302020302020302020300A20202020312E3839373520202020302E3436373020202020302E303030302043202020302020302020302020302020302020302020302020302020302020302020302020300A20202020322E3732323520202020302E3436373020202020302E303030302043202020302020302020302020302020302020302020302020302020302020302020302020300A20202020332E313335302020202D302E3234373520202020302E303030302043202020302020302020302020302020302020302020302020302020302020302020302020300A20202020322E373232352020202D302E3936323020202020302E303030302043202020302020302020302020302020302020302020302020302020302020302020302020300A20202020312E383937352020202D302E3936323020202020302E303030302043202020302020302020302020302020302020302020302020302020302020302020302020300A2020202D302E3636303020202020312E3037323520202020302E303030302043202020302020302020302020302020302020302020302020302020302020302020302020300A20202020302E3035343520202020312E3438353020202020302E303030302043202020302020302020302020302020302020302020302020302020302020302020302020300A20202020302E3035343520202020322E3331303020202020302E303030302043202020302020302020302020302020302020302020302020302020302020302020302020300A2020202D302E3636303020202020322E3732323520202020302E303030302043202020302020302020302020302020302020302020302020302020302020302020302020300A2020202D312E3337343520202020322E3331303020202020302E303030302043202020302020302020302020302020302020302020302020302020302020302020302020300A2020202D312E3337343520202020312E3438353020202020302E303030302043202020302020302020302020302020302020302020302020302020302020302020302020300A2020202D312E343835302020202D302E3234373520202020302E303030302043202020302020302020302020302020302020302020302020302020302020302020302020300A2020202D312E3839373520202020302E3436373020202020302E303030302043202020302020302020302020302020302020302020302020302020302020302020302020300A2020202D322E3732323520202020302E3436373020202020302E303030302043202020302020302020302020302020302020302020302020302020302020302020302020300A2020202D332E313335302020202D302E3234373520202020302E303030302043202020302020302020302020302020302020302020302020302020302020302020302020300A2020202D322E373232352020202D302E3936323020202020302E303030302043202020302020302020302020302020302020302020302020302020302020302020302020300A2020202D312E383937352020202D302E3936323020202020302E303030302043202020302020302020302020302020302020302020302020302020302020302020302020300A20202020302E3636303020202020302E3537373520202020302E303030302043202020302020302020302020302020302020302020302020302020302020302020302020300A20202020302E3636303020202020312E3430323520202020302E303030302043202020302020302020302020302020302020302020302020302020302020302020302020300A2020202D302E363630302020202D312E3037323520202020302E303030302043202020302020302020302020302020302020302020302020302020302020302020302020300A2020202D302E363630302020202D312E3839373520202020302E303030302043202020302020302020302020302020302020302020302020302020302020302020302020300A2020312020322020312020302020202020200A2020332020342020312020302020202020200A2020342020352020322020302020202020200A2020352020362020312020302020202020200A2020362020372020322020302020202020200A2020372020382020312020302020202020200A2020332020382020322020302020202020200A2020322020332020312020302020202020200A2020392031302020312020302020202020200A2031302031312020322020302020202020200A2031312031322020312020302020202020200A2031322031332020322020302020202020200A2031332031342020312020302020202020200A2020392031342020322020302020202020200A2020322020392020312020302020202020200A2031352031362020312020302020202020200A2031362031372020322020302020202020200A2031372031382020312020302020202020200A2031382031392020322020302020202020200A2031392032302020312020302020202020200A2031352032302020322020302020202020200A2020312031352020312020302020202020200A2032312032322020312020302020202020200A2032322032332020322020302020202020200A2032332032342020312020302020202020200A2032342032352020322020302020202020200A2032352032362020312020302020202020200A2032312032362020322020302020202020200A2020312032312020312020302020202020200A2032372032382020332020302020202020200A2020322032372020312020302020202020200A2032392033302020332020302020202020200A2020312032392020312020302020202020200A4D2020454E44
Contributor: FAC. TECHNOLOGY, HIROSHIMA UNIV.
InstType: EI
InstName: Unknown
IoniMethod: _ENERGY 70 eV
IonPolarity: pos
Date: 2010-10-09 19:48:36+02:00
Num Peaks: 42
39 11 50 11 51 85 53 787 54 53 55 32 77 106 78 43 79 181 102 21 
103 362 104 74 105 999 106 117 107 32 129 426 130 74 131 53 152 32 153 43 
154 11 155 234 156 32 157 11 165 32 178 43 179 53 180 117 181 468 182 74 
183 32 195 32 197 436 198 74 199 11 259 32 336 11 337 43 338 11 414 85 
415 96 416 32 
