Name: MassBank: JP011763
MW: 556
Formula: C36H40Si3
Synonym: MassBank: JP011763
Synonym: 1,1,4,4,5-PENTAMETHYL-6-ITRANS(METHYLDIPHENYLSILYLETHENYL)-2,3-DIPHENYL-1,4,DISILACYCLOHEXA-2,5-DIENE
Structure: 312C312C342C342C352D50454E54414D455448594C2D362D495452414E53284D455448594C44495048454E594C53494C594C455448454E594C292D322C332D44495048454E594C2D312C342C444953494C414359434C4F484558412D322C352D4449454E452E6D6F6C0A20204368656D447261773130323330393032303932440A2034312034352020302020302020302020302020302020302020302020303939392056323030300A2020202D312E3235383620202020302E3835343120202020302E303030302043202020302020302020302020302020302020302020302020302020302020302020302020300A2020202D302E3138363120202020302E3835343120202020302E303030302043202020302020302020302020302020302020302020302020302020302020302020302020300A2020202D312E3739343920202020312E3738323920202020302E303030302043202020302020302020302020302020302020302020302020302020302020302020302020300A2020202D312E3637313120202020302E3133393620202020302E303030302048202020302020302020302020302020302020302020302020302020302020302020302020300A20202020302E3232363420202020302E3133393620202020302E303030302043202020302020302020302020302020302020302020302020302020302020302020302020300A20202020302E3232363420202020312E3536383520202020302E303030302048202020302020302020302020302020302020302020302020302020302020302020302020300A2020202D322E3230373420202020322E3439373420202020302E303030302043202020302020302020302020302020302020302020302020302020302020302020302020300A2020202D312E3038303420202020322E3139353420202020302E303030302043202020302020302020302020302020302020302020302020302020302020302020302020300A2020202D322E3530393420202020312E3337303420202020302E303030302043202020302020302020302020302020302020302020302020302020302020302020302020300A2020202D302E313836372020202D302E3537343920202020302E303030302043202020302020302020302020302020302020302020302020302020302020302020302020300A20202020302E323235382020202D312E3239303820202020302E303030302053692020302020302020302020302020302020302020302020302020302020302020302020300A20202020312E303531302020202D312E3238393620202020302E303030302043202020302020302020302020302020302020302020302020302020302020302020302020300A20202020312E343633332020202D302E3537353220202020302E303030302043202020302020302020302020302020302020302020302020302020302020302020302020300A20202020312E3035313020202020302E3133383520202020302E303030302053692020302020302020302020302020302020302020302020302020302020302020302020300A2020202D312E303131372020202D302E3537343920202020302E303030302043202020302020302020302020302020302020302020302020302020302020302020302020300A20202020312E343633352020202D322E3030343020202020302E303030302043202020302020302020302020302020302020302020302020302020302020302020302020300A20202020322E323838332020202D302E3537353220202020302E303030302043202020302020302020302020302020302020302020302020302020302020302020302020300A20202020312E303531342020202D322E3731383620202020302E303030302043202020302020302020302020302020302020302020302020302020302020302020302020300A20202020312E343633362020202D332E3433323920202020302E303030302043202020302020302020302020302020302020302020302020302020302020302020302020300A20202020322E323838362020202D332E3433323920202020302E303030302043202020302020302020302020302020302020302020302020302020302020302020302020300A20202020322E373031312020202D322E3731383420202020302E303030302043202020302020302020302020302020302020302020302020302020302020302020302020300A20202020322E323838362020202D322E3030333920202020302E303030302043202020302020302020302020302020302020302020302020302020302020302020302020300A20202020322E373030382020202D312E3238393720202020302E303030302043202020302020302020302020302020302020302020302020302020302020302020302020300A20202020332E353235382020202D312E3238393720202020302E303030302043202020302020302020302020302020302020302020302020302020302020302020302020300A20202020332E393338332020202D302E3537353220202020302E303030302043202020302020302020302020302020302020302020302020302020302020302020302020300A20202020332E3532353820202020302E3133393320202020302E303030302043202020302020302020302020302020302020302020302020302020302020302020302020300A20202020322E3730303820202020302E3133393320202020302E303030302043202020302020302020302020302020302020302020302020302020302020302020302020300A20202020312E3832363320202020302E3432303520202020302E303030302043202020302020302020302020302020302020302020302020302020302020302020302020300A2020202D302E353439352020202D312E3537323820202020302E303030302043202020302020302020302020302020302020302020302020302020302020302020302020300A20202020302E3930383420202020302E3935313120202020302E303030302043202020302020302020302020302020302020302020302020302020302020302020302020300A20202020302E333639342020202D322E3130333220202020302E303030302043202020302020302020302020302020302020302020302020302020302020302020302020300A2020202D332E3232333820202020312E3738323920202020302E303030302043202020302020302020302020302020302020302020302020302020302020302020302020300A2020202D332E3933383320202020312E3337303420202020302E303030302043202020302020302020302020302020302020302020302020302020302020302020302020300A2020202D332E3933383320202020302E3534353420202020302E303030302043202020302020302020302020302020302020302020302020302020302020302020302020300A2020202D332E3232333820202020302E3133323920202020302E303030302043202020302020302020302020302020302020302020302020302020302020302020302020300A2020202D322E3530393420202020302E3534353420202020302E303030302043202020302020302020302020302020302020302020302020302020302020302020302020300A2020202D302E3336363020202020312E3738323920202020302E303030302043202020302020302020302020302020302020302020302020302020302020302020302020300A20202020302E3334383520202020322E3139353420202020302E303030302043202020302020302020302020302020302020302020302020302020302020302020302020300A20202020302E3334383520202020332E3032303420202020302E303030302043202020302020302020302020302020302020302020302020302020302020302020302020300A2020202D302E3336363020202020332E3433323920202020302E303030302043202020302020302020302020302020302020302020302020302020302020302020302020300A2020202D312E3038303420202020332E3032303420202020302E303030302043202020302020302020302020302020302020302020302020302020302020302020302020300A2020312020322020322020302020202020200A2020312020332020312020302020202020200A2020312020342020312020302020202020200A2020322020352020312020302020202020200A2020322020362020312020302020202020200A2020332020372020312020302020202020200A2020332020382020312020302020202020200A2020332020392020312020302020202020200A2020352031302020322020302020202020200A2031302031312020312020302020202020200A2031312031322020312020302020202020200A2031322031332020322020302020202020200A2031332031342020312020302020202020200A2031342020352020312020302020202020200A2031302031352020312020302020202020200A2031322031362020312020302020202020200A2031332031372020312020302020202020200A2031362031382020322020302020202020200A2031382031392020312020302020202020200A2031392032302020322020302020202020200A2032302032312020312020302020202020200A2032312032322020322020302020202020200A2032322031362020312020302020202020200A2031372032332020322020302020202020200A2032332032342020312020302020202020200A2032342032352020322020302020202020200A2032352032362020312020302020202020200A2032362032372020322020302020202020200A2032372031372020312020302020202020200A2031342032382020312020312020202020200A2031312032392020312020312020202020200A2031342033302020312020362020202020200A2031312033312020312020362020202020200A2020392033322020322020302020202020200A2033322033332020312020302020202020200A2033332033342020322020302020202020200A2033342033352020312020302020202020200A2033352033362020322020302020202020200A2033362020392020312020302020202020200A2020382033372020322020302020202020200A2033372033382020312020302020202020200A2033382033392020322020302020202020200A2033392034302020312020302020202020200A2034302034312020322020302020202020200A2034312020382020312020302020202020200A4D2020454E44
Contributor: FAC. TECHNOLOGY, HIROSHIMA UNIV.
InstType: EI
InstName: SHIMADZU QP-1000
IoniMethod: _ENERGY 70 eV
IonPolarity: pos
Date: 2010-10-09 19:48:36+02:00
Num Peaks: 98
55 17 57 21 58 20 59 46 67 12 69 23 73 149 74 13 83 21 91 12 
93 24 95 10 97 72 98 11 99 11 105 92 106 12 107 24 119 38 120 29 
121 37 125 12 129 13 131 13 135 378 136 53 137 18 141 13 145 47 151 32 
152 10 155 32 159 55 165 31 166 26 167 13 175 10 177 11 178 12 181 130 
182 28 183 29 185 12 195 83 197 999 198 190 199 55 200 11 213 11 221 27 
227 16 228 104 229 27 241 11 243 54 244 14 245 14 277 14 285 23 290 18 
300 27 301 13 305 34 306 11 319 10 328 11 329 112 330 37 331 17 343 16 
344 182 345 62 346 22 358 15 359 20 363 30 364 11 378 38 379 17 391 14 
406 60 407 23 420 39 421 31 422 10 463 20 478 179 479 85 480 36 481 12 
540 17 541 24 542 19 543 10 556 342 557 298 558 149 560 19 
