Name: MANNITOL
CAS: 69-65-8
MW: 182
Formula: C6H14O6
Synonym: MassBank: JP010511
Synonym: MANNITOL
Structure: 4D414E4E49544F4C2E6D6F6C0A20204368656D447261773038313131303232333132440A2031322031312020302020302020302020302020302020302020302020303939392056323030300A2020202D312E383536332020202D302E3335373220202020302E30303030204F202020302020302020302020302020302020302020302020302020302020302020302020300A2020202D312E303331332020202D302E3335373220202020302E303030302043202020302020302020302020302020302020302020302020302020302020302020302020300A2020202D302E3631383720202020302E3335373220202020302E303030302043202020302020302020302020302020302020302020302020302020302020302020302020300A2020202D312E3033313320202020312E3037313720202020302E30303030204F202020302020302020302020302020302020302020302020302020302020302020302020300A20202020302E3230363220202020302E3335373220202020302E303030302043202020302020302020302020302020302020302020302020302020302020302020302020300A20202020302E3631383720202020312E3037313720202020302E30303030204F202020302020302020302020302020302020302020302020302020302020302020302020300A20202020302E363138382020202D302E3335373220202020302E303030302043202020302020302020302020302020302020302020302020302020302020302020302020300A20202020302E323036332020202D312E3037313720202020302E30303030204F202020302020302020302020302020302020302020302020302020302020302020302020300A20202020312E343433372020202D302E3335373220202020302E303030302043202020302020302020302020302020302020302020302020302020302020302020302020300A20202020312E383536332020202D312E3037313720202020302E30303030204F202020302020302020302020302020302020302020302020302020302020302020302020300A20202020312E3835363320202020302E3335373220202020302E303030302043202020302020302020302020302020302020302020302020302020302020302020302020300A20202020312E3434333820202020312E3037313720202020302E30303030204F202020302020302020302020302020302020302020302020302020302020302020302020300A2020312020322020312020302020202020200A2020322020332020312020302020202020200A2020332020342020312020312020202020200A2020332020352020312020302020202020200A2020352020362020312020312020202020200A2020352020372020312020302020202020200A2020372020382020312020312020202020200A2020372020392020312020302020202020200A2020392031302020312020312020202020200A2020392031312020312020302020202020200A2031312031322020312020302020202020200A4D2020454E44
Contributor: NARA WOMEN'S UNIVERSITY
InstType: EI
InstName: HITACHI M-80
IoniMethod: _ENERGY 70 eV
IonPolarity: pos
Date: 2010-10-09 19:48:36+02:00
Num Peaks: 39
26 26 27 76 28 83 32 21 40 39 42 42 43 281 44 229 45 262 46 12 
47 17 55 73 56 226 57 223 58 16 59 15 60 192 61 763 62 26 69 47 
71 79 72 19 73 999 74 422 75 34 85 119 86 21 87 16 89 15 91 72 
97 12 103 608 104 57 115 26 116 12 133 187 134 11 146 23 183 22 
