Name: 1-DIMETHYLSILYL-3-DIMEHYLSILYLPROPANE (D8)
MW: 160
Formula: C7H20Si2
Synonym: MassBank: JP012022
Synonym: 1-DIMETHYLSILYL-3-DIMEHYLSILYLPROPANE (D8)
Structure: 312D44494D455448594C53494C594C2D332D44494D4548594C53494C594C50524F50414E4520284438292E6D6F6C0A20204368656D447261773131313830393031333232440A2031372031362020302020302020302020302020302020302020302020303939392056323030300A2020202D322E3437353020202020302E3030303020202020302E303030302043202020302020302020302020302020302020302020302020302020302020302020302020300A2020202D312E3635303020202020302E3030303020202020302E303030302053692020302020302020302020302020302020302020302020302020302020302020302020300A2020202D302E3832353020202020302E3030303020202020302E303030302043202020302020302020302020302020302020302020302020302020302020302020302020300A2020202D312E3635303020202020302E3832353020202020302E303030302048202020312020302020302020302020302020302020302020302020302020302020302020300A2020202D312E363530302020202D302E3832353020202020302E303030302043202020302020302020302020302020302020302020302020302020302020302020302020300A20202020302E3030303020202020302E3030303020202020302E303030302043202020302020302020302020302020302020302020302020302020302020302020302020300A20202020302E3832353020202020302E3030303020202020302E303030302043202020302020302020302020302020302020302020302020302020302020302020302020300A20202020312E3635303020202020302E3030303020202020302E303030302053692020302020302020302020302020302020302020302020302020302020302020302020300A20202020322E3437353020202020302E3030303020202020302E303030302043202020302020302020302020302020302020302020302020302020302020302020302020300A2020202D302E3832353020202020302E3832353020202020302E303030302048202020312020302020302020302020302020302020302020302020302020302020302020300A2020202D302E383235302020202D302E3832353020202020302E303030302048202020312020302020302020302020302020302020302020302020302020302020302020300A20202020302E3030303020202020302E3832353020202020302E303030302048202020312020302020302020302020302020302020302020302020302020302020302020300A20202020302E303030302020202D302E3832353020202020302E303030302048202020312020302020302020302020302020302020302020302020302020302020302020300A20202020302E3832353020202020302E3832353020202020302E303030302048202020312020302020302020302020302020302020302020302020302020302020302020300A20202020302E383235302020202D302E3832353020202020302E303030302048202020312020302020302020302020302020302020302020302020302020302020302020300A20202020312E3635303020202020302E3832353020202020302E303030302043202020302020302020302020302020302020302020302020302020302020302020302020300A20202020312E363530302020202D302E3832353020202020302E303030302048202020312020302020302020302020302020302020302020302020302020302020302020300A2020312020322020312020302020202020200A2020322020332020312020302020202020200A2020322020342020312020302020202020200A2020322020352020312020302020202020200A2020332020362020312020302020202020200A2020362020372020312020302020202020200A2020372020382020312020302020202020200A2020382020392020312020302020202020200A2020332031302020312020312020202020200A2020332031312020312020312020202020200A2020362031322020312020312020202020200A2020362031332020312020312020202020200A2020372031342020312020312020202020200A2020372031352020312020312020202020200A2020382031362020312020302020202020200A2020382031372020312020302020202020200A4D202049534F202038202020342020203220203130202020322020313120202032202031322020203220203133202020322020313420202032202031352020203220203137202020320A4D2020454E44
Contributor: YAMAMOTO M, DEP. CHEMISTRY, FAC. SCIENCE, NARA WOMEN'S UNIV.
InstType: EI
InstName: HITACHI RMU-6M
IoniMethod: _ENERGY 70 eV
IonPolarity: pos
Date: 2010-10-09 19:48:36+02:00
Num Peaks: 103
28 15 29 48 30 63 31 123 32 93 33 31 34 173 39 27 41 23 42 27 
43 274 44 157 45 94 46 342 47 61 48 83 49 69 50 19 53 15 54 11 
55 31 56 21 57 40 58 119 59 438 60 867 61 132 62 69 63 253 64 150 
65 73 66 999 67 92 68 40 69 23 71 19 72 464 73 80 74 61 75 27 
76 201 77 58 78 464 79 251 80 50 81 19 82 11 83 10 84 15 85 146 
86 317 87 92 88 236 89 309 90 88 91 50 92 11 93 96 94 90 98 27 
99 50 100 571 101 106 102 90 103 50 104 31 105 69 106 545 107 107 108 86 
109 19 110 15 118 10 119 19 120 36 121 46 122 150 123 83 124 100 125 59 
134 33 135 10 136 65 137 75 138 23 139 44 140 10 146 15 147 19 148 13 
149 23 150 367 151 69 152 44 153 402 154 73 155 36 163 23 164 126 165 173 
166 176 167 30 168 61 
