Name: ALPHA-SELINENE
MW: 204
Formula: C15H24
Synonym: MassBank: JP010674
Synonym: ALPHA-SELINENE
Structure: 414C5048412D53454C494E454E452E6D6F6C0A20204368656D447261773038303631303131313132440A2031382031392020302020302020302020302020302020302020302020303939392056323030300A2020202D312E3132363120202020302E3230363220202020302E303030302043202020302020302020302020302020302020302020302020302020302020302020302020300A2020202D312E313236312020202D302E3631383820202020302E303030302043202020302020302020302020302020302020302020302020302020302020302020302020300A2020202D302E343131362020202D312E3033313320202020302E303030302043202020302020302020302020302020302020302020302020302020302020302020302020300A20202020302E333032382020202D302E3631383820202020302E303030302043202020302020302020302020302020302020302020302020302020302020302020302020300A20202020302E3330323820202020302E3230363220202020302E303030302043202020302020302020302020302020302020302020302020302020302020302020302020300A2020202D302E3431313620202020302E3631383820202020302E303030302043202020302020302020302020302020302020302020302020302020302020302020302020300A20202020312E303137332020202D312E3033313320202020302E303030302043202020302020302020302020302020302020302020302020302020302020302020302020300A20202020312E373331382020202D302E3631383820202020302E303030302043202020302020302020302020302020302020302020302020302020302020302020302020300A20202020312E3733313820202020302E3230363220202020302E303030302043202020302020302020302020302020302020302020302020302020302020302020302020300A20202020312E3031373320202020302E3631383820202020302E303030302043202020302020302020302020302020302020302020302020302020302020302020302020300A20202020312E3031373320202020312E3434333820202020302E303030302043202020302020302020302020302020302020302020302020302020302020302020302020300A20202020302E333032382020202D312E3434333820202020302E303030302043202020302020302020302020302020302020302020302020302020302020302020302020300A20202020302E3330323820202020312E3033313320202020302E303030302048202020302020302020302020302020302020302020302020302020302020302020302020300A2020202D312E3333393620202020312E3030333120202020302E303030302048202020302020302020302020302020302020302020302020302020302020302020302020300A2020202D312E3934343020202020302E3039383620202020302E303030302043202020302020302020302020302020302020302020302020302020302020302020302020300A20202020322E3434363320202020302E3631383820202020302E303030302048202020302020302020302020302020302020302020302020302020302020302020302020300A2020202D322E323539372020202D302E3636333620202020302E303030302043202020302020302020302020302020302020302020302020302020302020302020302020300A2020202D322E3434363320202020302E3735333120202020302E303030302043202020302020302020302020302020302020302020302020302020302020302020302020300A2020312020322020312020302020202020200A2020322020332020312020302020202020200A2020332020342020312020302020202020200A2020342020352020312020302020202020200A2020352020362020312020302020202020200A2020362020312020312020302020202020200A2020342020372020312020302020202020200A2020372020382020312020302020202020200A2020382020392020312020302020202020200A2020392031302020322020302020202020200A2031302020352020312020302020202020200A2031302031312020312020302020202020200A2020342031322020312020312020202020200A2020352031332020312020362020202020200A2020312031342020312020362020202020200A2020312031352020312020312020202020200A2020392031362020312020302020202020200A2031352031372020322020302020202020200A2031352031382020312020302020202020200A4D2020454E44
Contributor: EGUCHI S, FAC. OF SCIENCE, HIROSHIMA UNIV.
InstType: EI
InstName: HITACHI RMU-6L
IoniMethod: _ENERGY 70 eV
IonPolarity: pos
Date: 2010-10-09 19:48:36+02:00
Num Peaks: 67
41 850 42 60 43 230 51 6 52 40 53 380 54 40 55 57 56 40 57 80 
65 270 66 6 67 530 68 110 69 340 70 4 77 400 78 90 79 700 80 15 
81 870 82 130 83 80 91 77 92 190 93 999 94 280 95 53 96 80 97 80 
103 65 104 4 105 855 106 240 107 790 108 36 109 470 110 80 115 65 117 9 
118 40 119 455 120 230 121 32 122 260 123 230 124 40 131 13 132 40 133 570 
134 180 135 17 136 80 137 40 145 90 146 4 147 325 148 130 149 130 161 61 
162 215 175 210 176 60 189 55 190 90 204 680 205 155 
