Name: UNDECYLENIC ACID
CAS: 112-38-9
MW: 184
Formula: C11H20O2
Synonym: MassBank: JP011328
Synonym: UNDECYLENIC ACID
Synonym: 10-UNDECENOIC ACID
Structure: 31302D554E444543454E4F494320414349442E6D6F6C0A20204368656D447261773038313031303134353332440A2031332031322020302020302020302020302020302020302020302020303939392056323030300A20202020322E3835373920202020302E3431323520202020302E303030302043202020302020302020302020302020302020302020302020302020302020302020302020300A20202020322E383537392020202D302E3431323520202020302E303030302043202020302020302020302020302020302020302020302020302020302020302020302020300A20202020322E313433342020202D302E3832353020202020302E303030302043202020302020302020302020302020302020302020302020302020302020302020302020300A20202020312E343238392020202D302E3431323520202020302E303030302043202020302020302020302020302020302020302020302020302020302020302020302020300A20202020302E373134352020202D302E3832353020202020302E303030302043202020302020302020302020302020302020302020302020302020302020302020302020300A2020202D302E303030302020202D302E3431323520202020302E303030302043202020302020302020302020302020302020302020302020302020302020302020302020300A2020202D302E373134352020202D302E3832353020202020302E303030302043202020302020302020302020302020302020302020302020302020302020302020302020300A2020202D312E343238392020202D302E3431323520202020302E303030302043202020302020302020302020302020302020302020302020302020302020302020302020300A2020202D322E313433342020202D302E3832353020202020302E303030302043202020302020302020302020302020302020302020302020302020302020302020302020300A2020202D322E383537392020202D302E3431323520202020302E303030302043202020302020302020302020302020302020302020302020302020302020302020302020300A2020202D332E353732342020202D302E3832353020202020302E303030302043202020302020302020302020302020302020302020302020302020302020302020302020300A20202020322E3134333420202020302E3832353020202020302E30303030204F202020302020302020302020302020302020302020302020302020302020302020302020300A20202020332E3537323420202020302E3832353020202020302E30303030204F202020302020302020302020302020302020302020302020302020302020302020302020300A2020312020322020312020302020202020200A2020322020332020312020302020202020200A2020332020342020312020302020202020200A2020342020352020312020302020202020200A2020352020362020312020302020202020200A2020362020372020312020302020202020200A2020372020382020312020302020202020200A2020382020392020312020302020202020200A2020392031302020312020302020202020200A2031302031312020322020302020202020200A2020312031322020322020302020202020200A2020312031332020312020302020202020200A4D2020454E44
Contributor: YAMAMOTO M, DEP. CHEMISTRY, FAC. SCIENCE, NARA WOMEN'S UNIV.
InstType: EI
InstName: HITACHI M-2500
IoniMethod: _ENERGY 12 eV
IonPolarity: pos
Date: 2010-10-09 19:48:36+02:00
Num Peaks: 119
18 888 28 11 29 12 31 43 32 128 33 12 36 30 38 13 41 16 42 41 
43 96 44 34 45 33 54 85 55 297 56 263 57 131 58 34 59 30 60 186 
61 46 62 13 66 33 67 95 68 378 69 632 70 346 71 127 72 18 73 341 
74 75 78 18 79 46 80 77 81 148 82 857 83 761 84 999 85 117 86 26 
87 202 88 47 91 31 92 36 93 50 94 143 95 201 96 934 97 581 98 662 
99 127 100 268 101 310 102 66 103 20 105 28 106 54 107 44 108 51 109 140 
110 424 111 211 112 138 113 122 114 419 115 137 116 67 117 24 118 20 119 107 
120 40 121 19 122 398 123 383 124 881 125 322 126 49 127 133 128 119 129 63 
131 17 132 20 133 35 134 18 135 35 136 24 137 285 138 200 139 24 141 89 
142 53 143 30 147 12 148 248 149 53 150 25 151 40 152 27 153 16 154 19 
155 56 156 19 157 13 158 12 161 16 163 19 164 23 165 17 166 490 167 86 
168 29 171 11 176 12 180 13 181 16 182 24 184 71 185 15 186 21 
