Name: 11-METHYL-7-METHYLENE-6-TRIMETHYLSILYLMETHYL-10-DODECEN-3-ONE
MW: 294
Formula: C18H34OSi
Synonym: MassBank: JP012087
Synonym: 11-METHYL-7-METHYLENE-6-TRIMETHYLSILYLMETHYL-10-DODECEN-3-ONE
Structure: 31312D4D455448594C2D372D4D455448594C454E452D362D5452494D455448594C53494C594C4D455448594C2D31302D444F444543454E2D332D4F4E452E6D6F6C0A20204368656D447261773132313030393138303332440A2032302031392020302020302020302020302020302020302020302020303939392056323030300A20202020322E3134333420202020332E3330303020202020302E303030302043202020302020302020302020302020302020302020302020302020302020302020302020300A20202020312E3432383920202020322E3838373520202020302E303030302043202020302020302020302020302020302020302020302020302020302020302020302020300A20202020312E3432383920202020322E3036323520202020302E303030302043202020302020302020302020302020302020302020302020302020302020302020302020300A20202020302E3731343520202020312E3635303020202020302E303030302043202020302020302020302020302020302020302020302020302020302020302020302020300A20202020302E3731343520202020302E3832353020202020302E303030302043202020302020302020302020302020302020302020302020302020302020302020302020300A2020202D302E3030303020202020302E3431323520202020302E303030302043202020302020302020302020302020302020302020302020302020302020302020302020300A2020202D302E303030302020202D302E3431323520202020302E303030302043202020302020302020302020302020302020302020302020302020302020302020302020300A20202020302E373134352020202D302E3832353020202020302E303030302043202020302020302020302020302020302020302020302020302020302020302020302020300A20202020302E373134352020202D312E3635303020202020302E303030302043202020302020302020302020302020302020302020302020302020302020302020302020300A20202020312E343238392020202D322E3036323520202020302E303030302043202020302020302020302020302020302020302020302020302020302020302020302020300A20202020312E343238392020202D322E3838373520202020302E303030302043202020302020302020302020302020302020302020302020302020302020302020302020300A20202020322E313433342020202D332E3330303020202020302E303030302043202020302020302020302020302020302020302020302020302020302020302020302020300A20202020322E3134333420202020312E3635303020202020302E30303030204F202020302020302020302020302020302020302020302020302020302020302020302020300A2020202D302E3731343520202020302E3832353020202020302E303030302043202020302020302020302020302020302020302020302020302020302020302020302020300A2020202D312E3432383920202020302E3431323520202020302E303030302053692020302020302020302020302020302020302020302020302020302020302020302020300A2020202D312E303136342020202D302E3330323020202020302E303030302043202020302020302020302020302020302020302020302020302020302020302020302020300A2020202D322E313433342020202D302E3030303020202020302E303030302043202020302020302020302020302020302020302020302020302020302020302020302020300A2020202D312E3834313420202020312E3132373020202020302E303030302043202020302020302020302020302020302020302020302020302020302020302020302020300A2020202D302E373134352020202D302E3832353020202020302E303030302043202020302020302020302020302020302020302020302020302020302020302020302020300A20202020302E373134352020202D332E3330303020202020302E303030302043202020302020302020302020302020302020302020302020302020302020302020302020300A2020312020322020312020302020202020200A2020322020332020312020302020202020200A2020332020342020312020302020202020200A2020342020352020312020302020202020200A2020352020362020312020302020202020200A2020362020372020312020302020202020200A2020372020382020312020302020202020200A2020382020392020312020302020202020200A2020392031302020312020302020202020200A2031302031312020322020302020202020200A2031312031322020312020302020202020200A2020332031332020322020302020202020200A2031352031362020312020312020202020200A2031352031372020312020302020202020200A2031352031382020312020312020202020200A2031342031352020312020302020202020200A2020362031342020312020302020202020200A2020372031392020322020302020202020200A2031312032302020312020302020202020200A4D2020454E44
Contributor: HISAHIRO HAGIWARA, INSTITUTE FOR CHEMICAL REACTION SCIENCE TOHOKU UNIV.
InstType: EI
InstName: JEOL JMS-DX-300
IoniMethod: _ENERGY 70 eV
IonPolarity: pos
Date: 2010-10-09 19:48:36+02:00
Num Peaks: 52
41 187 45 72 53 17 59 53 61 19 67 38 69 292 73 999 74 99 75 342 
76 25 77 18 79 39 81 31 91 23 93 93 94 21 95 104 107 199 108 33 
109 30 117 15 121 42 122 24 129 107 130 19 131 19 135 156 136 15 143 45 
144 254 145 55 148 23 150 75 154 32 155 18 161 31 175 71 176 15 179 99 
180 19 183 76 185 242 186 33 197 21 204 19 207 17 209 24 222 35 265 39 
279 17 294 19 
