Name: BENZOTRIAZOLE
CAS: 95-14-7
MW: 119
Formula: C6H5N3
Synonym: MassBank: JP011064
Synonym: BENZOTRIAZOLE
Synonym: 1,2,3-BENZOTRIAZOLE
Structure: 310A32340A42454E5A4F545249415A4F4C452E6D6F6C0A20204368656D447261773130323330393133303132440A2020392031302020302020302020302020302020302020302020302020303939392056323030300A2020202D302E3836343320202020302E3636373420202020302E30303030204E202020302020302020302020302020302020302020302020302020302020302020302020300A2020202D312E333439322020202D302E3030303020202020302E30303030204E202020302020302020302020302020302020302020302020302020302020302020302020300A2020202D302E383634332020202D302E3636373420202020302E30303030204E202020302020302020302020302020302020302020302020302020302020302020302020300A2020202D302E303739372020202D302E3431323520202020302E303030302043202020302020302020302020302020302020302020302020302020302020302020302020300A2020202D302E3037393720202020302E3431323520202020302E303030302043202020302020302020302020302020302020302020302020302020302020302020302020300A20202020302E363334382020202D302E3832353020202020302E303030302043202020302020302020302020302020302020302020302020302020302020302020302020300A20202020312E333439322020202D302E3431323520202020302E303030302043202020302020302020302020302020302020302020302020302020302020302020302020300A20202020312E3334393220202020302E3431323520202020302E303030302043202020302020302020302020302020302020302020302020302020302020302020302020300A20202020302E3633343820202020302E3832353020202020302E303030302043202020302020302020302020302020302020302020302020302020302020302020302020300A2020312020322020312020302020202020200A2020322020332020322020302020202020200A2020332020342020312020302020202020200A2020342020352020312020302020202020200A2020312020352020312020302020202020200A2020362020372020312020302020202020200A2020372020382020322020302020202020200A2020382020392020312020302020202020200A2020352020392020322020302020202020200A2020342020362020322020302020202020200A4D2020454E44
Contributor: YAMAMOTO M, DEP. CHEMISTRY, FAC. SCIENCE, NARA WOMEN'S UNIV.
InstType: EI
InstName: HITACHI M-80
IoniMethod: _ENERGY 70 eV
IonPolarity: pos
Date: 2010-10-09 19:48:36+02:00
Num Peaks: 31
26 31 27 31 28 32 29 34 37 93 38 210 39 148 40 37 41 83 44 15 
46 13 49 19 50 47 51 56 52 217 53 14 60 12 61 83 62 126 63 480 
64 623 65 192 75 10 76 21 87 14 88 15 90 51 91 779 92 58 119 999 
120 112 
