Name: METHYL 3-METHYL-2-PHENYL-1-PYRROLINE-3-CARBOXYLATE
MW: 217
Formula: C13H15NO2
Synonym: MassBank: JP010264
Synonym: METHYL 3-METHYL-2-PHENYL-1-PYRROLINE-3-CARBOXYLATE
Synonym: METHYL (3R)-3-METHYL-2-PHENYL-1-PYRROLINE-3-CARBOXYLATE
Structure: 303835365F4D455448594C20283352292D332D4D455448594C2D322D5048454E594C2D312D505952524F4C494E452D332D434152424F58594C4154452E6D6F6C0A20204368656D447261773130323031303138323132440A2031362031372020302020302020302020302020302020302020302020303939392056323030300A20202020302E343735382020202D312E3231313420202020302E30303030204E202020302020302020302020302020302020302020302020302020302020302020302020300A20202020302E333839352020202D302E3339303920202020302E303030302043202020302020302020302020302020302020302020302020302020302020302020302020300A20202020312E313433322020202D302E3035353320202020302E303030302043202020302020302020302020302020302020302020302020302020302020302020302020300A20202020312E363935322020202D302E3636383420202020302E303030302043202020302020302020302020302020302020302020302020302020302020302020302020300A20202020312E323832372020202D312E3338323920202020302E303030302043202020302020302020302020302020302020302020302020302020302020302020302020300A20202020302E3733303720202020302E3635393220202020302E303030302043202020302020302020302020302020302020302020302020302020302020302020302020300A2020202D302E3039343320202020302E3635393220202020302E30303030204F202020302020302020302020302020302020302020302020302020302020302020302020300A20202020312E3134333220202020312E3337333620202020302E30303030204F202020302020302020302020302020302020302020302020302020302020302020302020300A2020202D302E3533393320202020302E3134353420202020302E303030302043202020302020302020302020302020302020302020302020302020302020302020302020300A2020202D312E323533372020202D302E3236373120202020302E303030302043202020302020302020302020302020302020302020302020302020302020302020302020300A2020202D312E3936383220202020302E3134353420202020302E303030302043202020302020302020302020302020302020302020302020302020302020302020302020300A2020202D312E3936383220202020302E3937303420202020302E303030302043202020302020302020302020302020302020302020302020302020302020302020302020300A2020202D312E3235333720202020312E3338323920202020302E303030302043202020302020302020302020302020302020302020302020302020302020302020302020300A2020202D302E3533393320202020302E3937303420202020302E303030302043202020302020302020302020302020302020302020302020302020302020302020302020300A20202020312E3831303720202020302E3432393620202020302E303030302043202020302020302020302020302020302020302020302020302020302020302020302020300A20202020312E3936383220202020312E3337333620202020302E303030302043202020302020302020302020302020302020302020302020302020302020302020302020300A2020312020322020322020302020202020200A2020322020332020312020302020202020200A2020332020342020312020302020202020200A2020342020352020312020302020202020200A2020312020352020312020302020202020200A2020362020372020322020302020202020200A2020362020382020312020302020202020200A2020332020362020312020362020202020200A2020392031302020312020302020202020200A2031302031312020322020302020202020200A2031312031322020312020302020202020200A2031322031332020322020302020202020200A2031332031342020312020302020202020200A2020392031342020322020302020202020200A2020322020392020312020302020202020200A2020332031352020312020312020202020200A2020382031362020312020302020202020200A4D2020454E44
Contributor: KANEMASA S, INST. OF ADVANCED MATERIAL STUDY KYUSHU UNIV.
InstType: EI
InstName: JEOL JMS-01-SG-2
IoniMethod: _ENERGY 75 eV
IonPolarity: pos
Date: 2010-10-09 19:48:36+02:00
Num Peaks: 53
39 421 41 239 42 89 43 152 50 210 51 506 52 116 53 198 54 125 55 504 
57 96 59 297 63 201 65 97 75 111 76 233 77 764 78 109 83 100 89 254 
90 175 91 239 99 104 103 214 104 252 105 113 114 116 115 504 116 294 117 999 
118 125 126 14 127 61 128 145 129 122 130 69 131 35 132 90 141 17 142 28 
143 63 144 18 154 20 155 13 156 174 157 99 158 238 159 47 160 135 161 19 
217 55 218 26 219 14 
