Name: MassBank: JP010230
MW: 345
Formula: C21H19N3O2
Synonym: MassBank: JP010230
Synonym: 4-CYANO-5-METHYL-6-PHENYL-2-(PARA-TOLYL)PERHYDROPYRROLO(3,4-C)PYRROLE-1,3-DIONE (3A,4-TRANS-6,6A-CIS)
Synonym: (4R,6R)-4-CYANO-5-METHYL-6-PHENYL-2-(PARA-TOLYL)PERHYDROPYRROLO(3,4-C)PYRROLE-1,3-DIONE
Structure: 2834522C3652292D342D4359414E4F2D352D4D455448594C2D362D5048454E594C2D322D28504152412D544F4C594C29504552485944524F505952524F4C4F28332C342D4329505952524F4C452D312C332D44494F4E452E6D6F6C0A20204368656D447261773130323130393138323932440A2033302033332020302020302020302020302020302020302020302020303939392056323030300A2020202D312E3233363820202020302E3432363620202020302E303030302043202020302020302020302020302020302020302020302020302020302020302020302020300A2020202D312E3233363820202020312E3235313620202020302E303030302043202020302020302020302020302020302020302020302020302020302020302020302020300A2020202D322E3032313420202020312E3530363520202020302E303030302043202020302020302020302020302020302020302020302020302020302020302020302020300A2020202D322E3530363420202020302E3833393120202020302E30303030204E202020302020302020302020302020302020302020302020302020302020302020302020300A2020202D322E3032313420202020302E3137313620202020302E303030302043202020302020302020302020302020302020302020302020302020302020302020302020300A2020202D302E3435323220202020302E3137313620202020302E303030302043202020302020302020302020302020302020302020302020302020302020302020302020300A20202020302E3033323720202020302E3833393120202020302E30303030204E202020302020302020302020302020302020302020302020302020302020302020302020300A2020202D302E3435323220202020312E3530363520202020302E303030302043202020302020302020302020302020302020302020302020302020302020302020302020300A2020202D302E3139373320202020322E3239313120202020302E30303030204F202020302020302020302020302020302020302020302020302020302020302020302020300A20202020302E3835373720202020302E3833393120202020302E303030302043202020302020302020302020302020302020302020302020302020302020302020302020300A2020202D302E313937332020202D302E3631333020202020302E30303030204F202020302020302020302020302020302020302020302020302020302020302020302020300A2020202D312E3233363820202020322E3037363620202020302E303030302048202020302020302020302020302020302020302020302020302020302020302020302020300A2020202D312E323336382020202D302E3339383420202020302E303030302048202020302020302020302020302020302020302020302020302020302020302020302020300A2020202D312E3830373920202020322E3330333420202020302E303030302048202020302020302020302020302020302020302020302020302020302020302020302020300A2020202D322E303231342020202D302E3635333420202020302E303030302043202020302020302020302020302020302020302020302020302020302020302020302020300A2020202D322E363034382020202D302E3431313720202020302E303030302048202020302020302020302020302020302020302020302020302020302020302020302020300A2020202D322E373335392020202D312E3036353920202020302E303030302043202020302020302020302020302020302020302020302020302020302020302020302020300A2020202D322E373335392020202D312E3839303920202020302E303030302043202020302020302020302020302020302020302020302020302020302020302020302020300A2020202D322E303231342020202D322E3330333420202020302E303030302043202020302020302020302020302020302020302020302020302020302020302020302020300A2020202D312E333037302020202D312E3839303920202020302E303030302043202020302020302020302020302020302020302020302020302020302020302020302020300A2020202D312E333037302020202D312E3036353920202020302E303030302043202020302020302020302020302020302020302020302020302020302020302020302020300A20202020312E3237303220202020302E3132343620202020302E303030302043202020302020302020302020302020302020302020302020302020302020302020302020300A20202020322E3039353220202020302E3132343620202020302E303030302043202020302020302020302020302020302020302020302020302020302020302020302020300A20202020322E3530373720202020302E3833393120202020302E303030302043202020302020302020302020302020302020302020302020302020302020302020302020300A20202020322E3039353220202020312E3535333520202020302E303030302043202020302020302020302020302020302020302020302020302020302020302020302020300A20202020312E3237303220202020312E3535333520202020302E303030302043202020302020302020302020302020302020302020302020302020302020302020302020300A2020202D322E3630343920202020322E3039303320202020302E303030302043202020302020302020302020302020302020302020302020302020302020302020302020300A2020202D312E3830383020202020312E3837363820202020302E30303030204E202020302020302020302020302020302020302020302020302020302020302020302020300A2020202D332E3333323320202020302E3833393120202020302E303030302043202020302020302020302020302020302020302020302020302020302020302020302020300A20202020332E3333323320202020302E3833393120202020302E303030302043202020302020302020302020302020302020302020302020302020302020302020302020300A2020312020322020312020302020202020200A2020322020332020312020302020202020200A2020332020342020312020302020202020200A2020342020352020312020302020202020200A2020352020312020312020302020202020200A2020312020362020312020302020202020200A2020362020372020312020302020202020200A2020372020382020312020302020202020200A2020382020322020312020302020202020200A2020382020392020322020302020202020200A2020372031302020312020302020202020200A2020362031312020322020302020202020200A2020322031322020312020362020202020200A2020312031332020312020362020202020200A2020332031342020312020362020202020200A2020352031352020312020362020202020200A2020352031362020312020312020202020200A2031352031372020322020302020202020200A2031372031382020312020302020202020200A2031382031392020322020302020202020200A2031392032302020312020302020202020200A2032302032312020322020302020202020200A2032312031352020312020302020202020200A2031302032322020322020302020202020200A2032322032332020312020302020202020200A2032332032342020322020302020202020200A2032342032352020312020302020202020200A2032352032362020322020302020202020200A2032362031302020312020302020202020200A2020332032372020312020312020202020200A2032372032382020332020302020202020200A2020342032392020312020302020202020200A2032342033302020312020302020202020200A4D202053545920203120202031205355500A4D2020534C4220203120202031202020310A4D202053414C2020203120203220203237202032380A4D202053424C20202031202031202033300A4D2020534D542020203120434E0A4D2020534256202020312033302020202D382E3532333420202020362E383437320A4D202053545920203120202032205355500A4D2020534C4220203120202032202020320A4D202053414C20202032202031202032390A4D202053424C20202032202031202033320A4D2020534D5420202032204D650A4D2020534256202020322033322020202D382E3736353920202020362E323633340A4D202053545920203120202033205355500A4D2020534C4220203120202033202020330A4D202053414C20202033202031202033300A4D202053424C20202033202031202033330A4D2020534D5420202033204D650A4D2020534256202020332033332020202D372E3131353420202020362E323633340A4D2020454E44
Contributor: KANEMASA S, INST. OF ADVANCED MATERIAL STUDY KYUSHU UNIV.
InstType: EI
InstName: JEOL JMS-01-SG-2
IoniMethod: _ENERGY 75 eV
IonPolarity: pos
Date: 2010-10-09 19:48:36+02:00
Num Peaks: 32
41 40 42 125 51 63 65 64 77 152 78 58 89 52 91 136 107 167 115 142 
116 172 117 47 118 221 119 40 130 54 131 155 132 87 133 45 143 69 156 56 
157 999 158 828 159 132 160 72 183 163 184 42 187 43 237 60 268 54 344 57 
345 627 346 140 
