Name: 4(3H)-PYRIMIDONE
MW: 96
Formula: C4H4N2O
Synonym: MassBank: JP010402
Synonym: 4(3H)-PYRIMIDONE
Synonym: 4-HYDROXYPYRIMIDINE
Structure: 310A31390A34283348292D505952494D49444F4E452E6D6F6C0A20204368656D447261773034323031303131303132440A2020372020372020302020302020302020302020302020302020302020303939392056323030300A20202020302E383235302020202D302E3731343520202020302E303030302043202020302020302020302020302020302020302020302020302020302020302020302020300A2020202D302E303030302020202D302E3731343520202020302E30303030204E202020302020302020302020302020302020302020302020302020302020302020302020300A2020202D302E3431323520202020302E3030303020202020302E303030302043202020302020302020302020302020302020302020302020302020302020302020302020300A2020202D302E3030303020202020302E3731343520202020302E303030302043202020302020302020302020302020302020302020302020302020302020302020302020300A20202020302E3832353020202020302E3731343520202020302E303030302043202020302020302020302020302020302020302020302020302020302020302020302020300A20202020312E323337352020202D302E3030303020202020302E30303030204E202020302020302020302020302020302020302020302020302020302020302020302020300A2020202D312E3233373520202020302E3030303020202020302E30303030204F202020302020302020302020302020302020302020302020302020302020302020302020300A2020312020322020312020302020202020200A2020322020332020312020302020202020200A2020332020342020312020302020202020200A2020342020352020322020302020202020200A2020352020362020312020302020202020200A2020312020362020322020302020202020200A2020332020372020322020302020202020200A4D2020454E44
Contributor: MASS SPECTROSCOPY SOC. OF JAPAN (MSSJ)
InstType: EI
InstName: HITACHI RMU-6M
IoniMethod: _ENERGY 20 eV
IonPolarity: pos
Date: 2010-10-09 19:48:36+02:00
Num Peaks: 48
26 30 27 30 28 490 29 6 31 10 32 60 40 50 41 17 42 260 43 270 
44 60 45 5 46 10 52 30 53 20 54 2 55 100 56 110 57 140 58 12 
59 30 60 100 67 40 68 37 69 250 70 80 71 90 72 3 73 50 74 20 
77 10 78 2 79 20 80 10 81 40 82 4 83 60 84 40 85 60 86 2 
87 20 91 170 92 40 93 1 95 40 96 999 97 80 98 30 
