Name: MassBank: JP010503
MW: 221
Formula: C13H19NO2
Synonym: MassBank: JP010503
Synonym: (1'S)-N-(1'-PHENYLETHYL)-3-HYDROXY-2,2-DIMETHYLPROPANAMIDE
Structure: 28312753292D4E2D2831272D5048454E594C455448594C292D332D485944524F58592D322C322D44494D455448594C50524F50414E414D4944452E6D6F6C0A20204368656D447261773130303630393134353132440A2031372031372020302020302020302020302020302020302020302020303939392056323030300A2020202D312E3836363120202020302E3436373820202020302E303030302043202020302020302020302020302020302020302020302020302020302020302020302020300A2020202D312E3034313120202020302E3436373820202020302E303030302043202020302020302020302020302020302020302020302020302020302020302020302020300A2020202D302E3231363120202020302E3436373820202020302E30303030204E202020302020302020302020302020302020302020302020302020302020302020302020300A2020202D312E3034313120202020312E3239323820202020302E303030302048202020302020302020302020302020302020302020302020302020302020302020302020300A2020202D312E303431312020202D302E3335373220202020302E303030302043202020302020302020302020302020302020302020302020302020302020302020302020300A2020202D312E373535362020202D302E3736393720202020302E303030302043202020302020302020302020302020302020302020302020302020302020302020302020300A2020202D312E373535362020202D312E3539343720202020302E303030302043202020302020302020302020302020302020302020302020302020302020302020302020300A2020202D312E303431312020202D322E3030373220202020302E303030302043202020302020302020302020302020302020302020302020302020302020302020302020300A2020202D302E333236372020202D312E3539343720202020302E303030302043202020302020302020302020302020302020302020302020302020302020302020302020300A2020202D302E333236372020202D302E3736393720202020302E303030302043202020302020302020302020302020302020302020302020302020302020302020302020300A20202020302E3139363420202020312E3138323220202020302E303030302043202020302020302020302020302020302020302020302020302020302020302020302020300A20202020312E3032313420202020312E3138323220202020302E303030302043202020302020302020302020302020302020302020302020302020302020302020302020300A20202020312E3032313420202020322E3030373220202020302E303030302043202020302020302020302020302020302020302020302020302020302020302020302020300A20202020312E3032313420202020302E3335373220202020302E303030302043202020302020302020302020302020302020302020302020302020302020302020302020300A2020202D302E3231363120202020312E3839363820202020302E30303030204F202020302020302020302020302020302020302020302020302020302020302020302020300A20202020312E3836363120202020302E3833333420202020302E303030302043202020302020302020302020302020302020302020302020302020302020302020302020300A20202020312E3036393220202020312E3034373020202020302E30303030204F202020302020302020302020302020302020302020302020302020302020302020302020300A2020312020322020312020302020202020200A2020322020332020312020302020202020200A2020322020342020312020312020202020200A2020322020352020312020312020202020200A2020352020362020322020302020202020200A2020362020372020312020302020202020200A2020372020382020322020302020202020200A2020382020392020312020302020202020200A2020392031302020322020302020202020200A2031302020352020312020302020202020200A2020332031312020312020302020202020200A2031312031322020312020302020202020200A2031322031332020312020312020202020200A2031322031342020312020312020202020200A2031312031352020322020302020202020200A2031322031362020312020302020202020200A2031362031372020312020302020202020200A4D202053545920203120202031205355500A4D2020534C4220203120202031202020310A4D202053414C2020203120203220203136202031370A4D202053424C20202031202031202031360A4D2020534D5420202031204348324F480A4D2020534256202020312031362020202D362E3133393520202020352E333434340A4D2020454E44
Contributor: TSUNODA T, FACULTY OF PHARMACEUTICAL SCIENCES, TOKUSHIMA BUNRI UNIV.
InstType: EI
InstName: SHIMADZU LKB-9000B
IoniMethod: _ENERGY 70 eV
IonPolarity: pos
Date: 2010-10-09 19:48:36+02:00
Num Peaks: 22
41 67 42 65 51 59 55 119 56 273 73 205 77 230 78 83 79 154 87 83 
91 83 103 100 104 224 105 999 106 543 120 166 132 291 147 155 192 66 207 59 
222 535 223 90 
