Name: 2-METHYLCYCLOPENTANONE-D3(METHYL)
MW: 98
Formula: C6H10O
Synonym: MassBank: JP011546
Synonym: 2-METHYLCYCLOPENTANONE-D3(METHYL)
Structure: 322D4D455448594C4359434C4F50454E54414E4F4E452D4433284D455448594C292E6D6F6C0A20204368656D447261773031323231303037353232440A2031302031302020302020302020302020302020302020302020302020303939392056323030300A2020202D312E3435393820202020302E3039393020202020302E303030302043202020302020302020302020302020302020302020302020302020302020302020302020300A2020202D312E343539382020202D302E3732363020202020302E303030302043202020302020302020302020302020302020302020302020302020302020302020302020300A2020202D302E363735322020202D302E3938313020202020302E303030302043202020302020302020302020302020302020302020302020302020302020302020302020300A2020202D302E313930322020202D302E3331333520202020302E303030302043202020302020302020302020302020302020302020302020302020302020302020302020300A2020202D302E3637353220202020302E3335333920202020302E303030302043202020302020302020302020302020302020302020302020302020302020302020302020300A2020202D302E3432303220202020312E3133383520202020302E30303030204F202020302020302020302020302020302020302020302020302020302020302020302020300A20202020302E363334382020202D302E3331333520202020302E303030302043202020302020302020302020302020302020302020302020302020302020302020302020300A20202020312E343539382020202D302E3331333520202020302E303030302048202020312020302020302020302020302020302020302020302020302020302020302020300A20202020302E3633343820202020302E3531313520202020302E303030302048202020312020302020302020302020302020302020302020302020302020302020302020300A20202020302E363334382020202D312E3133383520202020302E303030302048202020312020302020302020302020302020302020302020302020302020302020302020300A2020312020322020312020302020202020200A2020322020332020312020302020202020200A2020332020342020312020302020202020200A2020342020352020312020302020202020200A2020352020312020312020302020202020200A2020352020362020322020302020202020200A2020342020372020312020302020202020200A2020372020382020312020302020202020200A2020372020392020312020302020202020200A2020372031302020312020302020202020200A4D202049534F2020332020203820202032202020392020203220203130202020320A4D2020454E44
Contributor: YAMAMOTO M, DEP. CHEMISTRY, FAC. SCIENCE, NARA WOMEN'S UNIV.
InstType: EI
InstName: HITACHI RMU-6M
IoniMethod: _ENERGY 20 eV
IonPolarity: pos
Date: 2010-10-09 19:48:36+02:00
Num Peaks: 24
28 169 29 31 41 85 42 113 43 178 44 205 45 999 46 140 55 485 56 215 
57 82 58 213 59 131 71 136 72 451 73 285 74 139 81 15 82 56 83 144 
84 133 100 58 101 766 102 66 
