Name: MassBank: JP010421
MW: 294
Formula: C14H18N2O5
Synonym: MassBank: JP010421
Synonym: 4'-TERT-BUTYL-2',6'-DIMETHYL-3',5'-DINITROACETOPHENONE
Structure: 34272D544552542D425554594C2D32272C36272D44494D455448594C2D33272C35272D44494E4954524F414345544F5048454E4F4E452E6D6F6C0A20204368656D447261773130313831303137313632440A2032312032312020302020302020302020302020302020302020302020303939392056323030300A20202020312E383536322020202D302E3030303020202020302E303030302043202020302020302020302020302020302020302020302020302020302020302020302020300A20202020322E3236383820202020302E3731343520202020302E303030302043202020302020302020302020302020302020302020302020302020302020302020302020300A20202020322E323638382020202D302E3731343520202020302E30303030204F202020302020302020302020302020302020302020302020302020302020302020302020300A20202020312E303331322020202D302E3030303020202020302E303030302043202020302020302020302020302020302020302020302020302020302020302020302020300A20202020302E363138372020202D302E3731343520202020302E303030302043202020302020302020302020302020302020302020302020302020302020302020302020300A2020202D302E323036322020202D302E3731343520202020302E303030302043202020302020302020302020302020302020302020302020302020302020302020302020300A2020202D302E3631383820202020302E3030303020202020302E303030302043202020302020302020302020302020302020302020302020302020302020302020302020300A2020202D302E3230363320202020302E3731343520202020302E303030302043202020302020302020302020302020302020302020302020302020302020302020302020300A20202020302E3631383720202020302E3731343520202020302E303030302043202020302020302020302020302020302020302020302020302020302020302020302020300A2020202D302E3631383820202020312E3432383920202020302E30303030204E202020302020332020302020302020302020302020302020302020302020302020302020300A2020202D302E3230363320202020322E3134333420202020302E30303030204F202020302020302020302020302020302020302020302020302020302020302020302020300A2020202D312E3434333820202020312E3432383920202020302E30303030204F202020302020352020302020302020302020302020302020302020302020302020302020300A2020202D302E363138382020202D312E3432383920202020302E30303030204E202020302020332020302020302020302020302020302020302020302020302020302020300A2020202D302E323036332020202D322E3134333420202020302E30303030204F202020302020302020302020302020302020302020302020302020302020302020302020300A2020202D312E343433382020202D312E3432383920202020302E30303030204F202020302020352020302020302020302020302020302020302020302020302020302020300A20202020312E3033313220202020312E3432383920202020302E303030302043202020302020302020302020302020302020302020302020302020302020302020302020300A20202020312E303331322020202D312E3432383920202020302E303030302043202020302020302020302020302020302020302020302020302020302020302020302020300A2020202D312E3434333820202020302E3030303020202020302E303030302043202020302020302020302020302020302020302020302020302020302020302020302020300A2020202D312E343433382020202D302E3832353020202020302E303030302043202020302020302020302020302020302020302020302020302020302020302020302020300A2020202D322E3236383820202020302E3030303020202020302E303030302043202020302020302020302020302020302020302020302020302020302020302020302020300A2020202D312E3434333820202020302E3832353020202020302E303030302043202020302020302020302020302020302020302020302020302020302020302020302020300A2020312020322020312020302020202020200A2020342020352020312020302020202020200A2020352020362020322020302020202020200A2020362020372020312020302020202020200A2020372020382020322020302020202020200A2020382020392020312020302020202020200A2020342020392020322020302020202020200A2020312020332020322020302020202020200A2020312020342020312020302020202020200A2031302031312020322020302020202020200A2031302031322020312020302020202020200A2020382031302020312020302020202020200A2031332031342020322020302020202020200A2031332031352020312020302020202020200A2020362031332020312020302020202020200A2020392031362020312020302020202020200A2020352031372020312020302020202020200A2031382031392020312020302020202020200A2031382032312020312020302020202020200A2031382032302020312020302020202020200A2020372031382020312020302020202020200A4D202043484720203420203130202020312020313220202D3120203133202020312020313520202D310A4D2020454E44
Contributor: UOEH
InstType: EI
InstName: JEOL JMS-DX-303
IoniMethod: _ENERGY 70 eV
IonPolarity: pos
Date: 2010-10-09 19:48:36+02:00
Num Peaks: 55
40 83 43 53 44 58 55 12 115 15 116 16 118 14 119 19 128 34 129 25 
130 23 133 22 141 13 142 11 143 30 144 14 145 23 146 22 147 27 148 13 
157 17 158 12 159 27 160 43 161 20 162 22 172 15 175 26 176 21 177 13 
186 23 187 28 188 18 189 29 190 28 191 24 192 13 198 12 201 16 202 26 
203 12 204 12 214 14 215 18 217 13 230 11 247 32 248 16 277 45 279 999 
280 146 281 25 294 337 295 63 296 17 
