Name: MassBank: JP010246
MW: 266
Formula: C14H18O5
Synonym: MassBank: JP010246
Synonym: DIMETHYL (3R*,5S*,6R*)-3-METHYL-2,3,4,5,6,7-HEXAHYDROINDEN-1(H)-ONE-5,6-DICARBOXYLATE
Structure: 303834385F44494D455448594C202833527E2C35537E2C36527E292D332D4D455448594C2D322C332C342C352C362C372D48455841485944524F494E44454E2D312848292D4F4E452D352C362D4449434152424F58594C4154452E6D6F6C0A20204368656D447261773130323031303138313532440A2031392032302020302020302020302020302020302020302020302020303939392056323030300A2020202D312E353738382020202D302E3636373420202020302E303030302043202020302020302020302020302020302020302020302020302020302020302020302020300A2020202D322E303633372020202D302E3030303020202020302E303030302043202020302020302020302020302020302020302020302020302020302020302020302020300A2020202D312E3537383820202020302E3636373420202020302E303030302043202020302020302020302020302020302020302020302020302020302020302020302020300A2020202D302E3739343220202020302E3431323520202020302E303030302043202020302020302020302020302020302020302020302020302020302020302020302020300A2020202D302E3037393720202020302E3832353020202020302E303030302043202020302020302020302020302020302020302020302020302020302020302020302020300A20202020302E3633343820202020302E3431323520202020302E303030302043202020302020302020302020302020302020302020302020302020302020302020302020300A20202020302E363334382020202D302E3431323520202020302E303030302043202020302020302020302020302020302020302020302020302020302020302020302020300A2020202D302E303739372020202D302E3832353020202020302E303030302043202020302020302020302020302020302020302020302020302020302020302020302020300A2020202D302E373934322020202D302E3431323520202020302E303030302043202020302020302020302020302020302020302020302020302020302020302020302020300A2020202D312E383333372020202D312E3435323120202020302E30303030204F202020302020302020302020302020302020302020302020302020302020302020302020300A20202020312E3334393220202020302E3832353020202020302E303030302043202020302020302020302020302020302020302020302020302020302020302020302020300A20202020322E3036333720202020302E3431323520202020302E30303030204F202020302020302020302020302020302020302020302020302020302020302020302020300A20202020312E3334393220202020312E3635303020202020302E30303030204F202020302020302020302020302020302020302020302020302020302020302020302020300A20202020312E333439322020202D302E3832353020202020302E303030302043202020302020302020302020302020302020302020302020302020302020302020302020300A20202020322E303633372020202D302E3431323520202020302E30303030204F202020302020302020302020302020302020302020302020302020302020302020302020300A20202020312E333439322020202D312E3635303020202020302E30303030204F202020302020302020302020302020302020302020302020302020302020302020302020300A2020202D312E3833333720202020312E3435323120202020302E303030302043202020302020302020302020302020302020302020302020302020302020302020302020300A20202020302E3633343820202020322E3036323520202020302E303030302043202020302020302020302020302020302020302020302020302020302020302020302020300A20202020302E363334382020202D322E3036323520202020302E303030302043202020302020302020302020302020302020302020302020302020302020302020302020300A2020312020322020312020302020202020200A2020322020332020312020302020202020200A2020332020342020312020302020202020200A2020342020352020312020302020202020200A2020352020362020312020302020202020200A2020362020372020312020302020202020200A2020372020382020312020302020202020200A2020382020392020312020302020202020200A2020312020392020312020302020202020200A2020342020392020322020302020202020200A2020312031302020322020302020202020200A2031312031322020322020302020202020200A2031312031332020312020302020202020200A2020362031312020312020362020202020200A2031342031352020322020302020202020200A2031342031362020312020302020202020200A2020372031342020312020362020202020200A2020332031372020312020312020202020200A2031332031382020312020302020202020200A2031362031392020312020302020202020200A4D2020454E44
Contributor: KANEMASA S, INST. OF ADVANCED MATERIAL STUDY KYUSHU UNIV.
InstType: EI
InstName: JEOL JMS-01-SG-2
IoniMethod: _ENERGY 75 eV
IonPolarity: pos
Date: 2010-10-09 19:48:36+02:00
Num Peaks: 52
39 110 41 127 43 47 51 82 52 42 53 53 55 51 59 307 65 89 66 40 
77 313 78 138 79 164 91 421 92 62 93 51 103 140 104 72 105 662 106 76 
116 96 117 97 118 94 119 204 120 49 129 84 131 103 133 131 145 41 147 122 
148 999 149 169 150 61 157 15 161 23 163 30 165 15 173 11 174 16 175 23 
177 15 178 30 179 12 191 47 205 23 206 212 207 211 208 24 234 17 235 64 
236 14 266 76 
