Name: 2-AMINO-6-METHYLBENZOTHIAZOLE
MW: 164
Formula: C8H8N2S
Synonym: MassBank: JP012062
Synonym: 2-AMINO-6-METHYLBENZOTHIAZOLE
Structure: 322D414D494E4F2D362D4D455448594C42454E5A4F544849415A4F4C452E6D6F6C0A20204368656D447261773132323130393232323632440A2031312031322020302020302020302020302020302020302020302020303939392056323030300A2020202D302E3830393120202020302E3636373420202020302E303030302053202020302020302020302020302020302020302020302020302020302020302020302020300A2020202D312E323934302020202D302E3030303020202020302E303030302043202020302020302020302020302020302020302020302020302020302020302020302020300A2020202D302E383039312020202D302E3636373420202020302E30303030204E202020302020302020302020302020302020302020302020302020302020302020302020300A2020202D302E303234342020202D302E3431323520202020302E303030302043202020302020302020302020302020302020302020302020302020302020302020302020300A2020202D302E3032343420202020302E3431323520202020302E303030302043202020302020302020302020302020302020302020302020302020302020302020302020300A20202020302E363930302020202D302E3832353020202020302E303030302043202020302020302020302020302020302020302020302020302020302020302020302020300A20202020312E343034352020202D302E3431323520202020302E303030302043202020302020302020302020302020302020302020302020302020302020302020302020300A20202020312E3430343520202020302E3431323520202020302E303030302043202020302020302020302020302020302020302020302020302020302020302020302020300A20202020302E3639303020202020302E3832353020202020302E303030302043202020302020302020302020302020302020302020302020302020302020302020302020300A20202020322E3131393020202020302E3832353020202020302E303030302043202020302020302020302020302020302020302020302020302020302020302020302020300A2020202D322E313139302020202D302E3030303020202020302E30303030204E202020302020302020302020302020302020302020302020302020302020302020302020300A2020312020322020312020302020202020200A2020322020332020322020302020202020200A2020332020342020312020302020202020200A2020342020352020312020302020202020200A2020312020352020312020302020202020200A2020362020372020312020302020202020200A2020372020382020322020302020202020200A2020382020392020312020302020202020200A2020352020392020322020302020202020200A2020342020362020322020302020202020200A2020382031302020312020302020202020200A2020322031312020312020302020202020200A4D2020454E44
Contributor: SUMITA Y, KYOTO COLLEGE OF PHARMACY
InstType: EI
InstName: HITACHI M-80
IoniMethod: _ENERGY 20 eV
IonPolarity: pos
Date: 2010-10-09 19:48:36+02:00
Num Peaks: 22
66 11 77 48 78 50 92 13 103 10 104 50 105 47 106 14 109 27 110 85 
119 10 121 82 122 50 131 56 132 13 136 120 137 62 138 11 163 403 164 999 
165 124 166 49 
