Name: 4-METHOXYBENZYLAMINE
CAS: 2393-23-9
MW: 137
Formula: C8H11NO
Synonym: MassBank: JP011069
Synonym: 4-METHOXYBENZYLAMINE
Structure: 342D4D4554484F585942454E5A594C414D494E452E6D6F6C0A20204368656D447261773034323031303232343932440A2031302031302020302020302020302020302020302020302020302020303939392056323030300A2020202D322E3036323520202020302E3731343520202020302E30303030204E202020302020302020302020302020302020302020302020302020302020302020302020300A2020202D312E363530302020202D302E3030303020202020302E303030302043202020302020302020302020302020302020302020302020302020302020302020302020300A2020202D302E383235302020202D302E3030303020202020302E303030302043202020302020302020302020302020302020302020302020302020302020302020302020300A2020202D302E3431323520202020302E3731343520202020302E303030302043202020302020302020302020302020302020302020302020302020302020302020302020300A20202020302E3431323520202020302E3731343520202020302E303030302043202020302020302020302020302020302020302020302020302020302020302020302020300A20202020302E383235302020202D302E3030303020202020302E303030302043202020302020302020302020302020302020302020302020302020302020302020302020300A20202020302E343132352020202D302E3731343520202020302E303030302043202020302020302020302020302020302020302020302020302020302020302020302020300A2020202D302E343132352020202D302E3731343520202020302E303030302043202020302020302020302020302020302020302020302020302020302020302020302020300A20202020312E363530302020202D302E3030303020202020302E30303030204F202020302020302020302020302020302020302020302020302020302020302020302020300A20202020322E303632352020202D302E3731343520202020302E303030302043202020302020302020302020302020302020302020302020302020302020302020302020300A2020322020332020312020302020202020200A2020332020342020312020302020202020200A2020342020352020322020302020202020200A2020352020362020312020302020202020200A2020362020372020322020302020202020200A2020372020382020312020302020202020200A2020332020382020322020302020202020200A2020312020322020312020302020202020200A2020392031302020312020302020202020200A2020362020392020312020302020202020200A4D2020454E44
Contributor: YAMAMOTO M, DEP. CHEMISTRY, FAC. SCIENCE, NARA WOMEN'S UNIV.
InstType: EI
InstName: HITACHI M-80
IoniMethod: _ENERGY 70 eV
IonPolarity: pos
Date: 2010-10-09 19:48:36+02:00
Num Peaks: 43
15 63 26 10 27 14 29 24 30 224 37 11 38 33 39 99 41 24 50 68 
51 102 52 47 53 21 54 16 62 31 63 90 64 63 65 103 66 87 67 49 
74 22 75 15 76 25 77 197 78 131 79 54 89 50 90 15 104 52 105 52 
106 410 107 47 108 79 109 191 110 16 119 41 120 103 121 400 122 109 134 30 
136 999 137 629 138 56 
