Name: ANTHRAFLAVIC ACID
CAS: 84-60-6
MW: 240
Formula: C14H8O4
Synonym: MassBank: JP010533
Synonym: ANTHRAFLAVIC ACID
Synonym: 2,6-DIHYDROXYANTHRAQUINONE
Structure: 414E54485241464C4156494320414349442E6D6F6C0A20204368656D447261773132323130393034303332440A2031382032302020302020302020302020302020302020302020302020303939392056323030300A20202020312E363530302020202D302E3030303020202020302E303030302043202020302020302020302020302020302020302020302020302020302020302020302020300A20202020322E3036323520202020302E3731343520202020302E303030302043202020302020302020302020302020302020302020302020302020302020302020302020300A20202020312E3635303020202020312E3432383920202020302E303030302043202020302020302020302020302020302020302020302020302020302020302020302020300A20202020302E3832353020202020312E3432383920202020302E303030302043202020302020302020302020302020302020302020302020302020302020302020302020300A20202020302E3431323520202020302E3731343520202020302E303030302043202020302020302020302020302020302020302020302020302020302020302020302020300A2020202D302E3431323520202020302E3731343520202020302E303030302043202020302020302020302020302020302020302020302020302020302020302020302020300A2020202D302E3832353020202020312E3432383920202020302E30303030204F202020302020302020302020302020302020302020302020302020302020302020302020300A2020202D302E383235302020202D302E3030303020202020302E303030302043202020302020302020302020302020302020302020302020302020302020302020302020300A2020202D312E363530302020202D302E3030303020202020302E303030302043202020302020302020302020302020302020302020302020302020302020302020302020300A2020202D322E303632352020202D302E3731343520202020302E303030302043202020302020302020302020302020302020302020302020302020302020302020302020300A2020202D312E363530302020202D312E3432383920202020302E303030302043202020302020302020302020302020302020302020302020302020302020302020302020300A2020202D302E383235302020202D312E3432383920202020302E303030302043202020302020302020302020302020302020302020302020302020302020302020302020300A2020202D302E343132352020202D302E3731343520202020302E303030302043202020302020302020302020302020302020302020302020302020302020302020302020300A20202020302E343132352020202D302E3731343520202020302E303030302043202020302020302020302020302020302020302020302020302020302020302020302020300A20202020302E383235302020202D312E3432383920202020302E30303030204F202020302020302020302020302020302020302020302020302020302020302020302020300A20202020302E3832353020202020302E3030303020202020302E303030302043202020302020302020302020302020302020302020302020302020302020302020302020300A2020202D322E383837352020202D302E3731343520202020302E30303030204F202020302020302020302020302020302020302020302020302020302020302020302020300A20202020322E3838373520202020302E3731343520202020302E30303030204F202020302020302020302020302020302020302020302020302020302020302020302020300A2020312020322020312020302020202020200A2020322020332020322020302020202020200A2020332020342020312020302020202020200A2020342020352020322020302020202020200A2020352020362020312020302020202020200A2020362020372020322020302020202020200A2020362020382020312020302020202020200A2020382020392020312020302020202020200A2020392031302020322020302020202020200A2031302031312020312020302020202020200A2031312031322020322020302020202020200A2031322031332020312020302020202020200A2020382031332020322020302020202020200A2031332031342020312020302020202020200A2031342031352020322020302020202020200A2031342031362020312020302020202020200A2020352031362020312020302020202020200A2020312031362020322020302020202020200A2031302031372020312020302020202020200A2020322031382020312020302020202020200A4D2020454E44
Contributor: NARA WOMEN'S UNIVERSITY
InstType: EI
InstName: HITACHI M-80
IoniMethod: _ENERGY 70 eV
IonPolarity: pos
Date: 2010-10-09 19:48:36+02:00
Num Peaks: 97
14 30 15 15 16 30 26 37 27 148 28 15 29 314 32 10 37 51 38 145 
39 209 40 16 41 20 42 61 43 36 45 29 49 13 50 148 51 122 52 33 
53 220 54 25 55 50 61 98 62 445 63 999 64 301 65 91 66 82 67 20 
69 20 73 26 74 215 75 184 76 77 77 133 78 26 79 22 85 20 86 55 
87 110 88 29 89 58 90 46 91 86 92 433 93 62 98 55 99 47 100 32 
101 105 102 93 103 19 104 11 105 20 106 13 110 18 111 33 113 36 114 15 
115 12 118 13 119 33 120 90 121 28 122 11 125 21 126 158 127 236 128 306 
129 34 130 25 137 23 138 23 139 113 140 20 142 12 145 23 154 20 155 368 
156 66 167 19 168 24 183 68 184 299 185 31 195 25 196 30 211 58 212 234 
213 36 223 62 224 40 239 49 240 437 241 82 242 12 
