Name: MassBank: JP011573
MW: 114
Formula: C6H14Si
Synonym: MassBank: JP011573
Synonym: 1-METHYL-SILACYCLOHEXANE (2,2,6,6-D4)
Structure: 312D4D455448594C2D53494C414359434C4F484558414E452028322C322C362C362D4434292E6D6F6C0A20204368656D447261773131323030393132303932440A2031312031312020302020302020302020302020302020302020302020303939392056323030300A20202020302E3030303020202020302E3431323520202020302E303030302053692020302020302020302020302020302020302020302020302020302020302020302020300A20202020302E3731343520202020302E3030303020202020302E303030302043202020302020302020302020302020302020302020302020302020302020302020302020300A20202020302E373134352020202D302E3832353020202020302E303030302043202020302020302020302020302020302020302020302020302020302020302020302020300A2020202D302E303030302020202D312E3233373520202020302E303030302043202020302020302020302020302020302020302020302020302020302020302020302020300A2020202D302E373134352020202D302E3832353020202020302E303030302043202020302020302020302020302020302020302020302020302020302020302020302020300A2020202D302E3731343520202020302E3030303020202020302E303030302043202020302020302020302020302020302020302020302020302020302020302020302020300A2020202D312E353236392020202D302E3134333320202020302E303030302048202020312020302020302020302020302020302020302020302020302020302020302020300A2020202D302E3939363620202020302E3737353220202020302E303030302048202020312020302020302020302020302020302020302020302020302020302020302020300A20202020302E3939363620202020302E3737353220202020302E303030302048202020312020302020302020302020302020302020302020302020302020302020302020300A20202020312E353236392020202D302E3134333320202020302E303030302048202020312020302020302020302020302020302020302020302020302020302020302020300A20202020302E3030303020202020312E3233373520202020302E303030302043202020302020302020302020302020302020302020302020302020302020302020302020300A2020312020322020312020302020202020200A2020322020332020312020302020202020200A2020332020342020312020302020202020200A2020342020352020312020302020202020200A2020352020362020312020302020202020200A2020312020362020312020302020202020200A2020362020372020312020312020202020200A2020362020382020312020362020202020200A2020322020392020312020312020202020200A2020322031302020312020362020202020200A2020312031312020312020302020202020200A4D202049534F20203420202037202020322020203820202032202020392020203220203130202020320A4D2020454E44
Contributor: YAMAMOTO M, DEP. CHEMISTRY, FAC. SCIENCE, NARA WOMEN'S UNIV.
InstType: EI
InstName: HITACHI RMU-6M
IoniMethod: _ENERGY 20 eV
IonPolarity: pos
Date: 2010-10-09 19:48:36+02:00
Num Peaks: 29
45 23 46 14 58 127 59 65 60 162 61 57 62 17 71 14 72 31 73 92 
74 256 75 66 76 19 86 32 87 143 88 999 89 156 90 115 91 13 100 17 
101 47 102 31 103 205 104 26 116 72 117 252 118 667 119 99 120 25 
