Name: PENTAMETHYLDISILANE
MW: 132
Formula: C5H16Si2
Synonym: MassBank: JP011358
Synonym: PENTAMETHYLDISILANE
Structure: 310A31380A50454E54414D455448594C444953494C414E452E6D6F6C0A20204368656D447261773038313231303034353332440A2020372020362020302020302020302020302020302020302020302020303939392056323030300A2020202D302E303030302020202D302E3230363320202020302E303030302053692020302020302020302020302020302020302020302020302020302020302020302020300A2020202D302E3030303020202020302E3631383720202020302E303030302053692020302020302020302020302020302020302020302020302020302020302020302020300A20202020302E383235302020202D302E3230363320202020302E303030302043202020302020302020302020302020302020302020302020302020302020302020302020300A2020202D302E303030302020202D312E3033313320202020302E303030302043202020302020302020302020302020302020302020302020302020302020302020302020300A2020202D302E383235302020202D302E3230363320202020302E303030302043202020302020302020302020302020302020302020302020302020302020302020302020300A2020202D302E3731343520202020312E3033313320202020302E303030302043202020302020302020302020302020302020302020302020302020302020302020302020300A20202020302E3731343520202020312E3033313320202020302E303030302043202020302020302020302020302020302020302020302020302020302020302020302020300A2020312020322020312020302020202020200A2020312020332020312020302020202020200A2020312020342020312020302020202020200A2020312020352020312020302020202020200A2020322020362020312020302020202020200A2020322020372020312020302020202020200A4D2020454E44
Contributor: YAMAMOTO M, DEP. CHEMISTRY, FAC. SCIENCE, NARA WOMEN'S UNIV.
InstType: EI
InstName: HITACHI RMU-6M
IoniMethod: _ENERGY 70 eV
IonPolarity: pos
Date: 2010-10-09 19:48:36+02:00
Num Peaks: 26
15 31 28 10 29 49 31 62 42 18 43 190 44 40 45 142 53 10 55 9 
57 18 58 49 59 119 60 9 69 10 72 10 73 999 74 80 75 31 101 10 
116 22 117 139 118 22 131 22 132 102 133 10 
