Name: BICYCLO(4.3.0)NONAN-7-ONE
MW: 138
Formula: C9H14O
Synonym: MassBank: JP011876
Synonym: BICYCLO(4.3.0)NONAN-7-ONE
Structure: 42494359434C4F28342E332E30294E4F4E414E2D372D4F4E452E6D6F6C0A20204368656D447261773039303531303139303532440A2031302031312020302020302020302020302020302020302020302020303939392056323030300A20202020302E323937352020202D302E3430373920202020302E303030302043202020302020302020302020302020302020302020302020302020302020302020302020300A20202020312E313232352020202D302E3430373920202020302E303030302043202020302020302020302020302020302020302020302020302020302020302020302020300A20202020312E3533353020202020302E3330363520202020302E303030302043202020302020302020302020302020302020302020302020302020302020302020302020300A20202020312E3132323520202020312E3032313020202020302E303030302043202020302020302020302020302020302020302020302020302020302020302020302020300A20202020302E3239373520202020312E3032313020202020302E303030302043202020302020302020302020302020302020302020302020302020302020302020302020300A2020202D302E3131353020202020302E3330363520202020302E303030302043202020302020302020302020302020302020302020302020302020302020302020302020300A2020202D302E3932313920202020302E3133353020202020302E303030302043202020302020302020302020302020302020302020302020302020302020302020302020300A2020202D312E303038322020202D302E3638353520202020302E303030302043202020302020302020302020302020302020302020302020302020302020302020302020300A2020202D302E323534352020202D312E3032313020202020302E303030302043202020302020302020302020302020302020302020302020302020302020302020302020300A2020202D312E3533353020202020302E3638373120202020302E30303030204F202020302020302020302020302020302020302020302020302020302020302020302020300A2020312020322020312020302020202020200A2020322020332020312020302020202020200A2020332020342020312020302020202020200A2020342020352020312020302020202020200A2020352020362020312020302020202020200A2020362020372020312020302020202020200A2020372020382020312020302020202020200A2020382020392020312020302020202020200A2020312020392020312020302020202020200A2020312020362020312020302020202020200A2020372031302020322020302020202020200A4D2020454E44
Contributor: YAMAMOTO M, DEP. CHEMISTRY, FAC. SCIENCE, NARA WOMEN'S UNIV.
InstType: EI
InstName: HITACHI RMU-6M
IoniMethod: _ENERGY 70 eV
IonPolarity: pos
Date: 2010-10-09 19:48:36+02:00
Num Peaks: 66
15 26 26 42 27 372 28 164 29 138 31 10 32 18 37 12 38 34 39 418 
40 87 41 565 42 58 43 40 44 16 45 12 50 40 51 84 52 57 53 210 
54 461 55 250 56 77 57 44 58 20 62 13 63 31 64 11 65 64 66 121 
67 999 68 305 69 167 70 29 71 28 72 12 77 77 78 46 79 231 80 158 
81 683 82 280 83 429 84 41 91 65 92 55 93 45 94 613 95 187 96 640 
97 83 98 20 105 17 107 21 109 323 110 138 111 24 119 14 120 70 121 16 
122 29 123 25 137 46 138 544 139 73 140 16 
