Name: MassBank: JP012084
MW: 266
Formula: C16H26O3
Synonym: MassBank: JP012084
Synonym: 1BETA,(4A)BETA-DIMETHYL-7-(1-CARBOMETHOXY-1-METHYL)-(8A)BETA-OCTAHYDRONAPHTHALEN-2(3H)-ONE
Structure: 31424554412C28344129424554412D44494D455448594C2D372D28312D434152424F4D4554484F58592D312D4D455448594C292D28384129424554412D4F435441485944524F4E4150485448414C454E2D32283348292D4F4E452E6D6F6C0A20204368656D447261773132313130393031313932440A2032312032322020302020302020302020302020302020302020302020303939392056323030300A20202020312E3432383920202020302E3631383820202020302E303030302043202020302020302020302020302020302020302020302020302020302020302020302020300A20202020322E3134333420202020302E3230363320202020302E303030302043202020302020302020302020302020302020302020302020302020302020302020302020300A20202020322E313433342020202D302E3631383720202020302E303030302043202020302020302020302020302020302020302020302020302020302020302020302020300A20202020312E343238392020202D312E3033313220202020302E303030302043202020302020302020302020302020302020302020302020302020302020302020302020300A20202020302E373134352020202D302E3631383720202020302E303030302043202020302020302020302020302020302020302020302020302020302020302020302020300A2020202D302E303030302020202D312E3033313220202020302E303030302043202020302020302020302020302020302020302020302020302020302020302020302020300A2020202D302E373134352020202D302E3631383820202020302E303030302043202020302020302020302020302020302020302020302020302020302020302020302020300A2020202D302E3731343520202020302E3230363220202020302E303030302043202020302020302020302020302020302020302020302020302020302020302020302020300A20202020302E3030303020202020302E3631383820202020302E303030302043202020302020302020302020302020302020302020302020302020302020302020302020300A20202020302E3731343520202020302E3230363320202020302E303030302043202020302020302020302020302020302020302020302020302020302020302020302020300A20202020322E3835373920202020302E3631383820202020302E30303030204F202020302020302020302020302020302020302020302020302020302020302020302020300A2020202D312E3432383920202020302E3631383720202020302E303030302043202020302020302020302020302020302020302020302020302020302020302020302020300A2020202D322E3134333420202020302E3230363220202020302E303030302043202020302020302020302020302020302020302020302020302020302020302020302020300A2020202D322E313433342020202D302E3631383820202020302E30303030204F202020302020302020302020302020302020302020302020302020302020302020302020300A2020202D322E3835373920202020302E3631383720202020302E30303030204F202020302020302020302020302020302020302020302020302020302020302020302020300A2020202D322E3835373920202020312E3434333720202020302E303030302043202020302020302020302020302020302020302020302020302020302020302020302020300A2020202D312E3432383920202020312E3434333720202020302E303030302043202020302020302020302020302020302020302020302020302020302020302020302020300A20202020302E3731343520202020312E3033313320202020302E303030302048202020302020302020302020302020302020302020302020302020302020302020302020300A20202020302E373134352020202D312E3434333720202020302E303030302043202020302020302020302020302020302020302020302020302020302020302020302020300A20202020312E3031363420202020312E3333333220202020302E303030302043202020302020302020302020302020302020302020302020302020302020302020302020300A20202020322E3031323320202020312E3230323120202020302E303030302048202020302020302020302020302020302020302020302020302020302020302020302020300A2020312020322020312020302020202020200A2020322020332020312020302020202020200A2020332020342020312020302020202020200A2020342020352020312020302020202020200A2020352020362020312020302020202020200A2020362020372020312020302020202020200A2020372020382020312020302020202020200A2020382020392020312020302020202020200A2020392031302020312020302020202020200A2020312031302020312020302020202020200A2020352031302020312020302020202020200A2020322031312020322020302020202020200A2031332031342020322020302020202020200A2031352031362020312020302020202020200A2031332031352020312020302020202020200A2031322031332020312020302020202020200A2020382031322020312020302020202020200A2031322031372020312020302020202020200A2031302031382020312020312020202020200A2020352031392020312020312020202020200A2020312032302020312020312020202020200A2020312032312020312020362020202020200A4D2020454E44
Contributor: HISAHIRO HAGIWARA, INSTITUTE FOR CHEMICAL REACTION SCIENCE TOHOKU UNIV.
InstType: EI
InstName: JEOL JMS-DX-300
IoniMethod: _ENERGY 70 eV
IonPolarity: pos
Date: 2010-10-09 19:48:36+02:00
Num Peaks: 42
41 205 55 266 57 106 67 201 69 99 79 158 81 240 88 718 91 125 93 236 
95 275 97 140 105 174 106 96 107 434 109 162 119 132 121 309 122 164 123 463 
124 161 134 157 135 172 138 115 151 109 160 91 161 589 162 98 163 195 177 200 
178 287 179 448 182 112 189 138 206 106 207 163 234 112 235 131 248 253 251 353 
266 999 267 218 
