Name: HEXAPHENYLETHANE
MW: 486
Formula: C38H30
Synonym: MassBank: JP012103
Synonym: HEXAPHENYLETHANE
Structure: 313135305F484558415048454E594C455448414E452E6D6F6C0A20204368656D447261773130323031303230343732440A2033382034332020302020302020302020302020302020302020302020303939392056323030300A2020202D302E333431342020202D302E3230363620202020302E303030302043202020302020302020302020302020302020302020302020302020302020302020302020300A20202020302E3337333120202020302E3230353920202020302E303030302043202020302020302020302020302020302020302020302020302020302020302020302020300A2020202D302E3936373720202020302E3333303320202020302E303030302043202020302020302020302020302020302020302020302020302020302020302020302020300A20202020312E303139392020202D302E3330363220202020302E303030302043202020302020302020302020302020302020302020302020302020302020302020302020300A20202020302E3234313820202020312E3032303420202020302E303030302043202020302020302020302020302020302020302020302020302020302020302020302020300A20202020312E3038373620202020302E3631383420202020302E303030302043202020302020302020302020302020302020302020302020302020302020302020302020300A2020202D302E323038382020202D312E3032303820202020302E303030302043202020302020302020302020302020302020302020302020302020302020302020302020300A2020202D312E303636342020202D302E3630303220202020302E303030302043202020302020302020302020302020302020302020302020302020302020302020302020300A2020202D302E3831363020202020312E3134313320202020302E303030302043202020302020302020302020302020302020302020302020302020302020302020302020300A2020202D312E3434323420202020312E3637383220202020302E303030302043202020302020302020302020302020302020302020302020302020302020302020302020300A2020202D322E3232303520202020312E3430343120202020302E303030302043202020302020302020302020302020302020302020302020302020302020302020302020300A2020202D322E3337323320202020302E3539333220202020302E303030302043202020302020302020302020302020302020302020302020302020302020302020302020300A2020202D312E3734353920202020302E3035363320202020302E303030302043202020302020302020302020302020302020302020302020302020302020302020302020300A2020202D312E373639382020202D302E3136393020202020302E303030302043202020302020302020302020302020302020302020302020302020302020302020302020300A2020202D322E343934392020202D302E3536323620202020302E303030302043202020302020302020302020302020302020302020302020302020302020302020302020300A2020202D322E353136352020202D312E3338373420202020302E303030302043202020302020302020302020302020302020302020302020302020302020302020302020300A2020202D312E383133312020202D312E3831383520202020302E303030302043202020302020302020302020302020302020302020302020302020302020302020302020300A2020202D312E303838312020202D312E3432343920202020302E303030302043202020302020302020302020302020302020302020302020302020302020302020302020300A20202020302E383939372020202D312E3132323420202020302E303030302043202020302020302020302020302020302020302020302020302020302020302020302020300A20202020312E353436352020202D312E3633343620202020302E303030302043202020302020302020302020302020302020302020302020302020302020302020302020300A20202020322E333133342020202D312E3333303620202020302E303030302043202020302020302020302020302020302020302020302020302020302020302020302020300A20202020322E343333362020202D302E3531343420202020302E303030302043202020302020302020302020302020302020302020302020302020302020302020302020300A20202020312E373836382020202D302E3030323220202020302E303030302043202020302020302020302020302020302020302020302020302020302020302020302020300A20202020312E3830323120202020302E3230353920202020302E303030302043202020302020302020302020302020302020302020302020302020302020302020302020300A20202020322E3531363520202020302E3631383420202020302E303030302043202020302020302020302020302020302020302020302020302020302020302020302020300A20202020322E3531363520202020312E3434333420202020302E303030302043202020302020302020302020302020302020302020302020302020302020302020302020300A20202020312E3830323120202020312E3835353920202020302E303030302043202020302020302020302020302020302020302020302020302020302020302020302020300A20202020312E3038373620202020312E3434333420202020302E303030302043202020302020302020302020302020302020302020302020302020302020302020302020300A20202020302E3838313620202020312E3534313420202020302E303030302043202020302020302020302020302020302020302020302020302020302020302020302020300A20202020302E3735303320202020322E3335353820202020302E303030302043202020302020302020302020302020302020302020302020302020302020302020302020300A2020202D302E3032303720202020322E3634393420202020302E303030302043202020302020302020302020302020302020302020302020302020302020302020302020300A2020202D302E3636303420202020322E3132383520202020302E303030302043202020302020302020302020302020302020302020302020302020302020302020302020300A2020202D302E3532393220202020312E3331343020202020302E303030302043202020302020302020302020302020302020302020302020302020302020302020302020300A2020202D302E383437372020202D312E3534323820202020302E303030302043202020302020302020302020302020302020302020302020302020302020302020302020300A2020202D302E373135322020202D322E3335373120202020302E303030302043202020302020302020302020302020302020302020302020302020302020302020302020300A20202020302E303536332020202D322E3634393420202020302E303030302043202020302020302020302020302020302020302020302020302020302020302020302020300A20202020302E363935322020202D322E3132373520202020302E303030302043202020302020302020302020302020302020302020302020302020302020302020302020300A20202020302E353632372020202D312E3331333220202020302E303030302043202020302020302020302020302020302020302020302020302020302020302020302020300A2020312020322020312020302020202020200A2020312020332020312020302020202020200A2020322020342020312020302020202020200A2020322020352020312020302020202020200A2020322020362020312020302020202020200A2020312020372020312020302020202020200A2020312020382020312020302020202020200A2020332020392020322020302020202020200A2020392031302020312020302020202020200A2031302031312020322020302020202020200A2031312031322020312020302020202020200A2031322031332020322020302020202020200A2031332020332020312020302020202020200A2020382031342020322020302020202020200A2031342031352020312020302020202020200A2031352031362020322020302020202020200A2031362031372020312020302020202020200A2031372031382020322020302020202020200A2031382020382020312020302020202020200A2020342031392020322020302020202020200A2031392032302020312020302020202020200A2032302032312020322020302020202020200A2032312032322020312020302020202020200A2032322032332020322020302020202020200A2032332020342020312020302020202020200A2020362032342020322020302020202020200A2032342032352020312020302020202020200A2032352032362020322020302020202020200A2032362032372020312020302020202020200A2032372032382020322020302020202020200A2032382020362020312020302020202020200A2020352032392020322020302020202020200A2032392033302020312020302020202020200A2033302033312020322020302020202020200A2033312033322020312020302020202020200A2033322033332020322020302020202020200A2033332020352020312020302020202020200A2020372033342020322020302020202020200A2033342033352020312020302020202020200A2033352033362020322020302020202020200A2033362033372020312020302020202020200A2033372033382020322020302020202020200A2033382020372020312020302020202020200A4D2020454E44
Contributor: HISAHIRO HAGIWARA, INSTITUTE FOR CHEMICAL REACTION SCIENCE TOHOKU UNIV.
InstType: EI
InstName: JEOL JMS-DX-300
IoniMethod: _ENERGY 70 eV
IonPolarity: pos
Date: 2010-10-09 19:48:36+02:00
Num Peaks: 33
39 96 50 64 51 275 63 44 65 72 76 45 77 811 78 82 91 32 94 45 
105 660 106 57 115 59 139 50 152 83 153 80 154 34 163 40 164 54 165 732 
166 285 167 112 181 55 182 59 215 72 216 63 228 38 241 52 242 37 243 999 
244 247 259 304 260 73 
