Name: SQUALENE HEXAEPOXIDE
MW: 506
Formula: C30H50O6
Synonym: MassBank: JP010102
Synonym: SQUALENE HEXAEPOXIDE
Synonym: 2,6,10,15,19,23-HEXAMETHYL-2,6-10,14,18,22-TETRACOSAHEXAENE HEXAEPOXIDE
Structure: 535155414C454E45204845584145504F584944452E6D6F6C0A20204368656D447261773132323130393032303232440A2033362034312020302020302020302020302020302020302020302020303939392056323030300A2020202D352E3836373820202020322E3637303220202020302E303030302043202020302020302020302020302020302020302020302020302020302020302020302020300A2020202D352E3233353820202020322E3133393920202020302E303030302043202020302020302020302020302020302020302020302020302020302020302020302020300A2020202D342E3630333920202020322E3637303220202020302E303030302043202020302020302020302020302020302020302020302020302020302020302020302020300A2020202D342E3832333320202020312E3432353420202020302E303030302043202020302020302020302020302020302020302020302020302020302020302020302020300A2020202D342E3130383920202020312E3031323920202020302E303030302043202020302020302020302020302020302020302020302020302020302020302020302020300A2020202D342E3130383920202020302E3138373920202020302E303030302043202020302020302020302020302020302020302020302020302020302020302020302020300A2020202D332E333934342020202D302E3232343620202020302E303030302043202020302020302020302020302020302020302020302020302020302020302020302020300A2020202D322E3836343120202020302E3430373420202020302E303030302043202020302020302020302020302020302020302020302020302020302020302020302020300A2020202D322E383634312020202D302E3835363620202020302E303030302043202020302020302020302020302020302020302020302020302020302020302020302020300A2020202D322E303838392020202D312E3133383720202020302E303030302043202020302020302020302020302020302020302020302020302020302020302020302020300A2020202D312E393435362020202D312E3935313220202020302E303030302043202020302020302020302020302020302020302020302020302020302020302020302020300A2020202D312E313730342020202D322E3233333420202020302E303030302043202020302020302020302020302020302020302020302020302020302020302020302020300A2020202D312E333133362020202D332E3034353820202020302E303030302043202020302020302020302020302020302020302020302020302020302020302020302020300A2020202D302E373537392020202D312E3531383920202020302E303030302043202020302020302020302020302020302020302020302020302020302020302020302020300A2020202D302E373537392020202D302E3639333920202020302E303030302043202020302020302020302020302020302020302020302020302020302020302020302020300A2020202D302E303433342020202D302E3238313420202020302E303030302043202020302020302020302020302020302020302020302020302020302020302020302020300A20202020302E363731312020202D302E3639333920202020302E303030302043202020302020302020302020302020302020302020302020302020302020302020302020300A20202020312E343936312020202D302E3639333920202020302E303030302043202020302020302020302020302020302020302020302020302020302020302020302020300A20202020322E323731332020202D302E3937363120202020302E303030302043202020302020302020302020302020302020302020302020302020302020302020302020300A20202020312E3633393320202020302E3131383620202020302E303030302043202020302020302020302020302020302020302020302020302020302020302020302020300A20202020322E3431343620202020302E3430303720202020302E303030302043202020302020302020302020302020302020302020302020302020302020302020302020300A20202020332E303436362020202D302E3132393620202020302E303030302043202020302020302020302020302020302020302020302020302020302020302020302020300A20202020332E383539302020202D302E3237323820202020302E303030302043202020302020302020302020302020302020302020302020302020302020302020302020300A20202020342E3134313220202020302E3530323420202020302E303030302043202020302020302020302020302020302020302020302020302020302020302020302020300A20202020342E3935333720202020302E3634353720202020302E303030302043202020302020302020302020302020302020302020302020302020302020302020302020300A20202020352E3233353820202020312E3432303920202020302E303030302043202020302020302020302020302020302020302020302020302020302020302020302020300A20202020352E3039323620202020322E3233333420202020302E303030302043202020302020302020302020302020302020302020302020302020302020302020302020300A20202020352E3233353820202020332E3034353820202020302E303030302043202020302020302020302020302020302020302020302020302020302020302020302020300A20202020342E3236373620202020322E3233333420202020302E303030302043202020302020302020302020302020302020302020302020302020302020302020302020300A20202020342E353733352020202D302E3638353320202020302E303030302043202020302020302020302020302020302020302020302020302020302020302020302020300A2020202D352E3634383320202020312E3432353420202020302E30303030204F202020302020302020302020302020302020302020302020302020302020302020302020300A2020202D332E363736362020202D302E3939393820202020302E30303030204F202020302020302020302020302020302020302020302020302020302020302020302020300A2020202D302E333435342020202D322E3233333420202020302E30303030204F202020302020302020302020302020302020302020302020302020302020302020302020300A20202020312E303833362020202D312E3430383420202020302E30303030204F202020302020302020302020302020302020302020302020302020302020302020302020300A20202020332E333238372020202D302E3930343820202020302E30303030204F202020302020302020302020302020302020302020302020302020302020302020302020300A20202020352E3836373820202020312E3935313220202020302E30303030204F202020302020302020302020302020302020302020302020302020302020302020302020300A2020312020322020312020302020202020200A2020322020332020312020302020202020200A2020322020342020312020302020202020200A2020342020352020312020302020202020200A2020352020362020312020302020202020200A2020362020372020312020302020202020200A2020372020382020312020302020202020200A2020372020392020312020302020202020200A2020392031302020312020302020202020200A2031302031312020312020302020202020200A2031312031322020312020302020202020200A2031322031332020312020302020202020200A2031322031342020312020302020202020200A2031342031352020312020302020202020200A2031352031362020312020302020202020200A2031362031372020312020302020202020200A2031372031382020312020302020202020200A2031382031392020312020302020202020200A2031382032302020312020302020202020200A2032302032312020312020302020202020200A2032312032322020312020302020202020200A2032322032332020312020302020202020200A2032332032342020312020302020202020200A2032342032352020312020302020202020200A2032352032362020312020302020202020200A2032362032372020312020302020202020200A2032372032382020312020302020202020200A2032372032392020312020302020202020200A2032332033302020312020302020202020200A2020322033312020312020302020202020200A2020342033312020312020302020202020200A2020372033322020312020302020202020200A2020392033322020312020302020202020200A2031322033332020312020302020202020200A2031342033332020312020302020202020200A2031372033342020312020302020202020200A2031382033342020312020302020202020200A2032322033352020312020302020202020200A2032332033352020312020302020202020200A2032362033362020312020302020202020200A2032372033362020312020302020202020200A4D2020454E44
Contributor: KURARAY CO., LTD.
InstType: EI
InstName: JEOL JMS-D-300
IoniMethod: _ENERGY 70 eV
IonPolarity: pos
Date: 2010-10-09 19:48:36+02:00
Num Peaks: 163
27 14 41 101 43 692 53 16 55 161 59 35 60 17 67 49 68 22 69 186 
71 506 72 26 73 28 77 7 79 49 81 170 82 23 83 50 85 159 93 102 
94 11 95 121 96 22 97 78 98 14 99 131 100 11 101 14 105 33 106 26 
107 127 108 106 109 219 110 40 111 115 112 11 113 25 114 11 115 11 117 19 
119 39 120 19 121 98 122 53 123 115 124 101 125 786 126 120 127 283 128 21 
129 21 131 29 132 13 133 54 134 35 135 104 136 40 137 167 138 24 139 45 
140 16 141 38 142 54 143 999 144 78 145 58 146 21 147 51 148 116 149 157 
150 62 151 104 152 26 153 101 154 27 155 313 156 52 157 38 159 41 160 11 
161 41 162 45 163 74 164 40 165 63 166 19 167 69 168 24 169 53 170 32 
171 22 173 39 174 17 175 45 176 18 177 34 179 39 181 22 182 46 183 54 
185 18 187 19 189 37 191 73 192 32 193 57 194 25 195 38 197 17 199 23 
201 21 203 27 205 19 207 34 208 30 209 453 210 64 211 72 212 15 213 18 
215 14 217 26 219 25 221 97 222 28 223 25 225 31 226 19 227 241 228 48 
229 15 231 14 233 26 234 61 235 41 236 20 237 9 239 49 247 37 248 15 
249 29 259 19 261 21 277 23 279 46 280 28 281 14 301 11 305 27 306 16 
318 18 319 39 337 10 345 22 361 20 363 44 364 21 365 17 429 14 446 15 
488 42 489 16 506 29 
