Name: MassBank: JP011755
MW: 414
Formula: C22H38Si4
Synonym: MassBank: JP011755
Synonym: 4,4'-(PENTAMETHYLDISILANYL)BIPHENYLENE
Structure: 313130335F342C34272D2850454E54414D455448594C444953494C414E594C2942495048454E594C454E452E6D6F6C0A20204368656D447261773130323031303230313732440A2032362032372020302020302020302020302020302020302020302020303939392056323030300A2020202D312E373836382020202D302E3230353620202020302E303030302043202020302020302020302020302020302020302020302020302020302020302020302020300A2020202D312E373836382020202D312E3033303620202020302E303030302043202020302020302020302020302020302020302020302020302020302020302020302020300A2020202D312E303732332020202D312E3434333120202020302E303030302043202020302020302020302020302020302020302020302020302020302020302020302020300A2020202D302E333537382020202D312E3033303620202020302E303030302043202020302020302020302020302020302020302020302020302020302020302020302020300A2020202D302E333537382020202D302E3230353620202020302E303030302043202020302020302020302020302020302020302020302020302020302020302020302020300A2020202D312E3037323320202020302E3230363920202020302E303030302043202020302020302020302020302020302020302020302020302020302020302020302020300A20202020302E3335363720202020302E3230363920202020302E303030302043202020302020302020302020302020302020302020302020302020302020302020302020300A20202020312E303731312020202D302E3230353620202020302E303030302043202020302020302020302020302020302020302020302020302020302020302020302020300A20202020312E3738353620202020302E3230363920202020302E303030302043202020302020302020302020302020302020302020302020302020302020302020302020300A20202020312E3738353620202020312E3033313920202020302E303030302043202020302020302020302020302020302020302020302020302020302020302020302020300A20202020312E3037313120202020312E3434343420202020302E303030302043202020302020302020302020302020302020302020302020302020302020302020302020300A20202020302E3335363720202020312E3033313920202020302E303030302043202020302020302020302020302020302020302020302020302020302020302020302020300A2020202D322E343938312020202D312E3434333120202020302E303030302053692020302020302020302020302020302020302020302020302020302020302020302020300A2020202D322E303838372020202D322E3135373520202020302E303030302043202020302020302020302020302020302020302020302020302020302020302020302020300A2020202D322E393133372020202D302E3732383620202020302E303030302043202020302020302020302020302020302020302020302020302020302020302020302020300A2020202D332E323134322020202D312E3835353620202020302E303030302053692020302020302020302020302020302020302020302020302020302020302020302020300A2020202D322E383032312020202D322E3537303020202020302E303030302043202020302020302020302020302020302020302020302020302020302020302020302020300A2020202D332E393239312020202D322E3236383120202020302E303030302043202020302020302020302020302020302020302020302020302020302020302020302020300A2020202D332E363237312020202D312E3134313120202020302E303030302043202020302020302020302020302020302020302020302020302020302020302020302020300A20202020322E3530303220202020312E3434333120202020302E303030302053692020302020302020302020302020302020302020302020302020302020302020302020300A20202020322E3038373620202020322E3135383920202020302E303030302043202020302020302020302020302020302020302020302020302020302020302020302020300A20202020322E3931323620202020302E3733303020202020302E303030302043202020302020302020302020302020302020302020302020302020302020302020302020300A20202020332E3231343620202020312E3835353620202020302E303030302053692020302020302020302020302020302020302020302020302020302020302020302020300A20202020322E3830323120202020322E3537303020202020302E303030302043202020302020302020302020302020302020302020302020302020302020302020302020300A20202020332E3932393120202020322E3236383120202020302E303030302043202020302020302020302020302020302020302020302020302020302020302020302020300A20202020332E3632373120202020312E3134313120202020302E303030302043202020302020302020302020302020302020302020302020302020302020302020302020300A2020312020322020322020302020202020200A2020322020332020312020302020202020200A2020332020342020322020302020202020200A2020342020352020312020302020202020200A2020352020362020322020302020202020200A2020362020312020312020302020202020200A2020352020372020312020302020202020200A2020372020382020322020302020202020200A2020382020392020312020302020202020200A2020392031302020322020302020202020200A2031302031312020312020302020202020200A2031312031322020322020302020202020200A2031322020372020312020302020202020200A2031302032302020312020302020202020200A2020322031332020312020302020202020200A2031332031342020312020302020202020200A2031332031362020312020302020202020200A2031332031352020312020302020202020200A2031362031372020312020302020202020200A2031362031382020312020302020202020200A2031362031392020312020302020202020200A2032302032312020312020302020202020200A2032302032332020312020302020202020200A2032302032322020312020302020202020200A2032332032342020312020302020202020200A2032332032352020312020302020202020200A2032332032362020312020302020202020200A4D2020454E44
Contributor: FAC. TECHNOLOGY, HIROSHIMA UNIV.
InstType: EI
InstName: SHIMADZU QP-1000
IoniMethod: _ENERGY 70 eV
IonPolarity: pos
Date: 2010-10-09 19:48:36+02:00
Num Peaks: 61
41 11 43 83 45 212 46 12 55 10 57 22 59 77 73 999 74 81 83 10 
101 15 115 23 116 722 118 54 119 19 120 11 131 208 133 21 134 24 155 10 
165 23 179 14 180 11 181 31 193 32 194 11 195 109 196 24 207 14 209 40 
210 11 211 10 221 11 223 13 224 91 225 25 235 11 237 22 251 25 253 116 
254 31 255 13 267 54 268 63 269 25 283 469 284 133 285 48 311 18 325 14 
326 17 341 593 342 223 343 97 344 20 399 43 400 20 401 11 414 134 415 59 
416 29 
