Name: SPIRO(5.5)SILAUNDECANE
MW: 168
Formula: C10H20Si
Synonym: MassBank: JP011600
Synonym: SPIRO(5.5)SILAUNDECANE
Structure: 303535315F535049524F28352E352953494C41554E444543414E452E6D6F6C0A20204368656D447261773038323031303035333532440A2031312031322020302020302020302020302020302020302020302020303939392056323030300A20202020302E3431323520202020302E3731343520202020302E303030302043202020302020302020302020302020302020302020302020302020302020302020302020300A20202020312E3233373520202020302E3731343520202020302E303030302043202020302020302020302020302020302020302020302020302020302020302020302020300A20202020312E363439392020202D302E3030303020202020302E303030302043202020302020302020302020302020302020302020302020302020302020302020302020300A20202020312E323337352020202D302E3731343520202020302E303030302043202020302020302020302020302020302020302020302020302020302020302020302020300A20202020302E343132352020202D302E3731343520202020302E303030302043202020302020302020302020302020302020302020302020302020302020302020302020300A2020202D302E303030302020202D302E3030303020202020302E303030302053692020302020302020302020302020302020302020302020302020302020302020302020300A2020202D302E343132352020202D302E3731343520202020302E303030302043202020302020302020302020302020302020302020302020302020302020302020302020300A2020202D312E323337352020202D302E3731343520202020302E303030302043202020302020302020302020302020302020302020302020302020302020302020302020300A2020202D312E363439392020202D302E3030303020202020302E303030302043202020302020302020302020302020302020302020302020302020302020302020302020300A2020202D312E3233373520202020302E3731343520202020302E303030302043202020302020302020302020302020302020302020302020302020302020302020302020300A2020202D302E3431323520202020302E3731343520202020302E303030302043202020302020302020302020302020302020302020302020302020302020302020302020300A2020312020322020312020302020202020200A2020322020332020312020302020202020200A2020332020342020312020302020202020200A2020342020352020312020302020202020200A2020352020362020312020302020202020200A2020362020372020312020302020202020200A2020372020382020312020302020202020200A2020382020392020312020302020202020200A2020392031302020312020302020202020200A2031302031312020312020302020202020200A2020312020362020312020302020202020200A2020362031312020312020302020202020200A4D2020454E44
Contributor: YAMAMOTO M, DEP. CHEMISTRY, FAC. SCIENCE, NARA WOMEN'S UNIV.
InstType: EI
InstName: HITACHI RMU-6M
IoniMethod: _ENERGY 70 eV
IonPolarity: pos
Date: 2010-10-09 19:48:36+02:00
Num Peaks: 53
27 63 28 43 29 57 31 48 39 63 41 88 42 90 43 445 44 71 45 175 
53 53 54 23 55 248 56 101 57 147 58 45 59 94 66 21 67 61 68 36 
69 173 70 219 71 406 72 51 73 35 81 38 82 38 83 240 84 301 85 93 
86 27 95 70 96 57 97 634 98 522 99 444 100 77 101 28 111 118 112 656 
113 130 114 49 125 337 126 396 127 114 128 28 139 43 140 837 141 122 142 56 
168 999 169 172 170 61 
