Name: MassBank: JP011576
MW: 128
Formula: C7H16Si
Synonym: MassBank: JP011576
Synonym: 1,1-DIMETHYLSILACYCLOHEXANE(D6-DIMETHYL)
Structure: 312C312D44494D455448594C53494C414359434C4F484558414E452844362D44494D455448594C292E6D6F6C0A20204368656D447261773130323330393131303732440A2031342031342020302020302020302020302020302020302020302020303939392056323030300A20202020302E3032383720202020302E3031353220202020302E303030302053692020302020302020302020302020302020302020302020302020302020302020302020300A20202020302E373433312020202D302E3339363220202020302E303030302043202020302020302020302020302020302020302020302020302020302020302020302020300A20202020302E373433312020202D312E3232313220202020302E303030302043202020302020302020302020302020302020302020302020302020302020302020302020300A20202020302E303238372020202D312E3633333720202020302E303030302043202020302020302020302020302020302020302020302020302020302020302020302020300A2020202D302E363835382020202D312E3232313220202020302E303030302043202020302020302020302020302020302020302020302020302020302020302020302020300A2020202D302E363835382020202D302E3339363220202020302E303030302043202020302020302020302020302020302020302020302020302020302020302020302020300A2020202D302E3739323520202020302E3730343820202020302E303030302043202020302020302020302020302020302020302020302020302020302020302020302020300A20202020302E3835303020202020302E3730343920202020302E303030302043202020302020302020302020302020302020302020302020302020302020302020302020300A2020202D312E3438313820202020312E3135383620202020302E303030302048202020312020302020302020302020302020302020302020302020302020302020302020300A2020202D302E3235363220202020312E3633333720202020302E303030302048202020312020302020302020302020302020302020302020302020302020302020302020300A2020202D312E3238353620202020302E3034333420202020302E303030302048202020312020302020302020302020302020302020302020302020302020302020302020300A20202020312E3438313820202020312E3233353520202020302E303030302048202020312020302020302020302020302020302020302020302020302020302020302020300A20202020302E3331393420202020312E3333363720202020302E303030302048202020312020302020302020302020302020302020302020302020302020302020302020300A20202020312E3338303520202020302E3037333220202020302E303030302048202020312020302020302020302020302020302020302020302020302020302020302020300A2020312020322020312020302020202020200A2020322020332020312020302020202020200A2020332020342020312020302020202020200A2020342020352020312020302020202020200A2020352020362020312020302020202020200A2020312020362020312020302020202020200A2020312020372020312020312020202020200A2020312020382020312020362020202020200A2020372020392020312020302020202020200A2020372031302020312020302020202020200A2020372031312020312020302020202020200A2020382031322020312020302020202020200A2020382031332020312020302020202020200A2020382031342020312020302020202020200A4D202049534F2020362020203920202032202031302020203220203131202020322020313220202032202031332020203220203134202020320A4D2020454E44
Contributor: YAMAMOTO M, DEP. CHEMISTRY, FAC. SCIENCE, NARA WOMEN'S UNIV.
InstType: EI
InstName: HITACHI RMU-6M
IoniMethod: _ENERGY 20 eV
IonPolarity: pos
Date: 2010-10-09 19:48:36+02:00
Num Peaks: 28
28 21 46 12 62 120 64 25 65 81 74 15 77 11 78 110 79 20 82 35 
86 18 87 33 88 536 89 51 90 22 91 52 92 19 105 21 106 54 114 12 
115 18 116 999 117 122 118 37 133 10 134 428 135 62 136 17 
