Name: 2-(2-NITROBENZOYL)TROPONE
MW: 255
Formula: C14H9NO4
Synonym: MassBank: JP010988
Synonym: 2-(2-NITROBENZOYL)TROPONE
Structure: 322D28322D4E4954524F42454E5A4F594C2954524F504F4E452E6D6F6C0A20204368656D447261773132323130393134303132440A2031392032302020302020302020302020302020302020302020302020303939392056323030300A2020202D302E353839392020202D302E3738303020202020302E30303030204F202020302020302020302020302020302020302020302020302020302020302020302020300A2020202D312E313034332020202D302E3133353020202020302E303030302043202020302020302020302020302020302020302020302020302020302020302020302020300A2020202D312E393038362020202D302E3331383620202020302E303030302043202020302020302020302020302020302020302020302020302020302020302020302020300A2020202D322E3535333620202020302E3139353820202020302E303030302043202020302020302020302020302020302020302020302020302020302020302020302020300A2020202D322E3535333620202020312E3032303820202020302E303030302043202020302020302020302020302020302020302020302020302020302020302020302020300A2020202D312E3930383620202020312E3533353120202020302E303030302043202020302020302020302020302020302020302020302020302020302020302020302020300A2020202D312E3130343320202020312E3335313620202020302E303030302043202020302020302020302020302020302020302020302020302020302020302020302020300A2020202D302E3734363420202020302E3630383320202020302E303030302043202020302020302020302020302020302020302020302020302020302020302020302020300A20202020302E3037383620202020302E3630383320202020302E303030302043202020302020302020302020302020302020302020302020302020302020302020302020300A20202020302E343931312020202D302E3130363220202020302E303030302043202020302020302020302020302020302020302020302020302020302020302020302020300A20202020312E333136312020202D302E3130363220202020302E303030302043202020302020302020302020302020302020302020302020302020302020302020302020300A20202020312E373238362020202D302E3832303720202020302E303030302043202020302020302020302020302020302020302020302020302020302020302020302020300A20202020312E333136312020202D312E3533353120202020302E303030302043202020302020302020302020302020302020302020302020302020302020302020302020300A20202020302E343931312020202D312E3533353120202020302E303030302043202020302020302020302020302020302020302020302020302020302020302020302020300A20202020302E303738362020202D302E3832303720202020302E303030302043202020302020302020302020302020302020302020302020302020302020302020302020300A20202020302E3439313120202020312E3332323720202020302E30303030204F202020302020302020302020302020302020302020302020302020302020302020302020300A20202020312E3732383620202020302E3630383320202020302E30303030204E202020302020332020302020302020302020302020302020302020302020302020302020300A20202020312E3331363120202020312E3332323720202020302E30303030204F202020302020302020302020302020302020302020302020302020302020302020302020300A20202020322E3535333620202020302E3630383320202020302E30303030204F202020302020352020302020302020302020302020302020302020302020302020302020300A2020312020322020322020302020202020200A2020322020332020312020302020202020200A2020332020342020322020302020202020200A2020342020352020312020302020202020200A2020352020362020322020302020202020200A2020362020372020312020302020202020200A2020372020382020322020302020202020200A2020322020382020312020302020202020200A2020392031302020312020302020202020200A2031302031312020312020302020202020200A2031312031322020322020302020202020200A2031322031332020312020302020202020200A2031332031342020322020302020202020200A2031342031352020312020302020202020200A2031302031352020322020302020202020200A2020392031362020322020302020202020200A2031372031382020322020302020202020200A2031372031392020312020302020202020200A2031312031372020312020302020202020200A2020382020392020312020302020202020200A4D202043484720203220203137202020312020313920202D310A4D2020454E44
Contributor: TAKESHITA H, INST. OF ADVANCED MATERIAL STUDY KYUSHU UNIV.
InstType: EI
InstName: JEOL JMS-01-SG-2
IoniMethod: _ENERGY 75 eV
IonPolarity: pos
Date: 2010-10-09 19:48:36+02:00
Num Peaks: 37
39 129 50 218 51 407 52 48 63 149 64 47 65 120 74 78 75 88 76 310 
77 461 78 74 89 117 104 139 105 313 115 56 127 56 133 247 134 67 150 49 
151 59 152 172 153 49 154 99 170 55 171 11 180 75 181 230 182 111 183 20 
208 10 209 999 210 171 211 29 226 24 227 13 255 18 
