Name: 2-DIMETHYLPROPIONIC ACID CHLOROMETHYL ESTER
MW: 150
Formula: C6H11ClO2
Synonym: MassBank: JP012066
Synonym: 2-DIMETHYLPROPIONIC ACID CHLOROMETHYL ESTER
Structure: 310A32320A322D44494D455448594C50524F50494F4E494320414349442043484C4F524F4D455448594C2045535445522E6D6F6C0A20204368656D447261773031303331303132313832440A2020392020382020302020302020302020302020302020302020302020303939392056323030300A2020202D302E3335373220202020302E3135313020202020302E303030302043202020302020302020302020302020302020302020302020302020302020302020302020300A2020202D312E303731372020202D302E3236313520202020302E303030302043202020302020302020302020302020302020302020302020302020302020302020302020300A2020202D312E3438343220202020302E3435333020202020302E303030302043202020302020302020302020302020302020302020302020302020302020302020302020300A2020202D302E3335373220202020302E3937363020202020302E30303030204F202020302020302020302020302020302020302020302020302020302020302020302020300A20202020302E333537322020202D302E3236313520202020302E30303030204F202020302020302020302020302020302020302020302020302020302020302020302020300A2020202D312E373836322020202D302E3637343020202020302E303030302043202020302020302020302020302020302020302020302020302020302020302020302020300A2020202D302E363539322020202D302E3937363020202020302E303030302043202020302020302020302020302020302020302020302020302020302020302020302020300A20202020312E3037313720202020302E3135313020202020302E303030302043202020302020302020302020302020302020302020302020302020302020302020302020300A20202020312E373836322020202D302E3236313520202020302E3030303020436C2020302020302020302020302020302020302020302020302020302020302020302020300A2020312020322020312020302020202020200A2020322020332020312020312020202020200A2020312020342020322020302020202020200A2020312020352020312020302020202020200A2020322020362020312020302020202020200A2020322020372020312020312020202020200A2020382020392020312020302020202020200A2020352020382020312020302020202020200A4D2020454E44
Contributor: SUMITA Y, KYOTO COLLEGE OF PHARMACY
InstType: EI
InstName: HITACHI M-80
IoniMethod: _ENERGY 20 eV
IonPolarity: pos
Date: 2010-10-09 19:48:36+02:00
Num Peaks: 18
28 17 29 103 41 186 42 13 43 72 49 18 55 15 56 68 57 999 58 65 
59 16 69 13 77 46 79 16 85 176 86 11 150 12 152 4 
