Name: 3-ISOPROPENYL-6-METHYL-5-(6-METHYL-2-METHYLENE-1-TRIMETHYLSILYLMETHYL-5-HEPTENYL)CYCLOHEXANONE
MW: 360
Formula: C23H40OSi
Synonym: MassBank: JP012093
Synonym: 3-ISOPROPENYL-6-METHYL-5-(6-METHYL-2-METHYLENE-1-TRIMETHYLSILYLMETHYL-5-HEPTENYL)CYCLOHEXANONE
Structure: 332D49534F50524F50454E594C2D362D4D455448594C2D352D28362D4D455448594C2D322D4D455448594C454E452D312D5452494D455448594C53494C594C4D455448594C2D352D48455054454E594C294359434C4F484558414E4F4E452E6D6F6C0A20204368656D447261773032323231303231353032440A2032352032352020302020302020302020302020302020302020302020303939392056323030300A2020202D312E343433372020202D322E3038383120202020302E303030302043202020302020302020302020302020302020302020302020302020302020302020302020300A2020202D312E383536332020202D312E3337333720202020302E303030302043202020302020302020302020302020302020302020302020302020302020302020302020300A2020202D312E343433382020202D302E3635393220202020302E303030302043202020302020302020302020302020302020302020302020302020302020302020302020300A2020202D302E363138382020202D302E3635393220202020302E303030302043202020302020302020302020302020302020302020302020302020302020302020302020300A2020202D302E323036322020202D312E3337333720202020302E303030302043202020302020302020302020302020302020302020302020302020302020302020302020300A2020202D302E363138372020202D322E3038383120202020302E303030302043202020302020302020302020302020302020302020302020302020302020302020302020300A20202020302E363138372020202D312E3337333720202020302E303030302043202020302020302020302020302020302020302020302020302020302020302020302020300A20202020312E303331332020202D302E3635393220202020302E303030302043202020302020302020302020302020302020302020302020302020302020302020302020300A20202020302E3631383820202020302E3035353320202020302E303030302043202020302020302020302020302020302020302020302020302020302020302020302020300A20202020312E3033313220202020302E3736393720202020302E303030302043202020302020302020302020302020302020302020302020302020302020302020302020300A20202020302E3631383720202020312E3438343220202020302E303030302043202020302020302020302020302020302020302020302020302020302020302020302020300A20202020312E3033313220202020322E3139383720202020302E303030302043202020302020302020302020302020302020302020302020302020302020302020302020300A20202020302E3631383720202020322E3931333120202020302E303030302043202020302020302020302020302020302020302020302020302020302020302020302020300A20202020312E383536322020202D302E3635393220202020302E303030302043202020302020302020302020302020302020302020302020302020302020302020302020300A20202020312E3835363220202020322E3139383720202020302E303030302043202020302020302020302020302020302020302020302020302020302020302020302020300A20202020312E303331332020202D322E3038383120202020302E303030302043202020302020302020302020302020302020302020302020302020302020302020302020300A20202020312E383536322020202D322E3038383120202020302E303030302053692020302020302020302020302020302020302020302020302020302020302020302020300A20202020322E363831322020202D322E3038383120202020302E303030302043202020302020302020302020302020302020302020302020302020302020302020302020300A20202020312E383536322020202D322E3931333120202020302E303030302043202020302020302020302020302020302020302020302020302020302020302020302020300A20202020312E383536322020202D312E3236333120202020302E303030302043202020302020302020302020302020302020302020302020302020302020302020302020300A2020202D302E323036322020202D322E3830323620202020302E303030302043202020302020302020302020302020302020302020302020302020302020302020302020300A2020202D312E3835363320202020302E3035353320202020302E303030302043202020302020302020302020302020302020302020302020302020302020302020302020300A2020202D312E3434333820202020302E3736393720202020302E303030302043202020302020302020302020302020302020302020302020302020302020302020302020300A2020202D322E3638313220202020302E3035353320202020302E303030302043202020302020302020302020302020302020302020302020302020302020302020302020300A2020202D312E383536332020202D322E3830323620202020302E30303030204F202020302020302020302020302020302020302020302020302020302020302020302020300A2020312020322020312020302020202020200A2020322020332020312020302020202020200A2020332020342020312020302020202020200A2020342020352020312020302020202020200A2020352020362020312020302020202020200A2020312020362020312020302020202020200A2020372020382020312020302020202020200A2020382020392020312020302020202020200A2020392031302020312020302020202020200A2031302031312020312020302020202020200A2031312031322020322020302020202020200A2031322031332020312020302020202020200A2020382031342020322020302020202020200A2031322031352020312020302020202020200A2031372031382020312020302020202020200A2031372031392020312020312020202020200A2031372032302020312020312020202020200A2031362031372020312020302020202020200A2020372031362020312020302020202020200A2020352020372020312020302020202020200A2020362032312020312020302020202020200A2032322032332020322020302020202020200A2032322032342020312020302020202020200A2020332032322020312020302020202020200A2020312032352020322020302020202020200A4D2020454E44
Contributor: HISAHIRO HAGIWARA, INSTITUTE FOR CHEMICAL REACTION SCIENCE TOHOKU UNIV.
InstType: EI
InstName: JEOL JMS-DX-300
IoniMethod: _ENERGY 70 eV
IonPolarity: pos
Date: 2010-10-09 19:48:36+02:00
Num Peaks: 41
39 29 41 110 42 38 43 409 44 22 45 49 55 75 58 250 59 57 67 39 
69 98 73 999 74 117 75 114 77 21 79 23 81 35 91 24 93 41 94 20 
95 21 97 40 105 23 107 33 109 45 117 26 119 28 135 251 136 40 141 44 
151 47 181 64 195 54 196 32 209 104 210 36 221 36 223 61 224 70 345 31 
360 23 
