Name: NICOTINE
MW: 162
Formula: C10H14N2
Synonym: MassBank: JP010826
Synonym: NICOTINE
Synonym: 3-(1-METHYL-2-PYRROLIDINYL)PYRIDINE
Structure: 4E49434F54494E452E6D6F6C0A20204368656D447261773032323231303038353832440A2031332031342020302020302020302020302020302020302020302020303939392056323030300A2020202D312E313236382020202D312E3035363620202020302E303030302043202020302020302020302020302020302020302020302020302020302020302020302020300A2020202D312E313730302020202D302E3233323820202020302E30303030204E202020302020302020302020302020302020302020302020302020302020302020302020300A2020202D302E3532383820202020302E3238363420202020302E303030302043202020302020302020302020302020302020302020302020302020302020302020302020300A20202020302E3236383120202020302E3037323920202020302E303030302043202020302020302020302020302020302020302020302020302020302020302020302020300A20202020302E343831362020202D302E3732343020202020302E303030302043202020302020302020302020302020302020302020302020302020302020302020302020300A20202020312E323738352020202D302E3933373520202020302E303030302043202020302020302020302020302020302020302020302020302020302020302020302020300A20202020312E383631392020202D302E3335343120202020302E303030302043202020302020302020302020302020302020302020302020302020302020302020302020300A20202020312E3634383320202020302E3434323720202020302E30303030204E202020302020302020302020302020302020302020302020302020302020302020302020300A20202020302E3835313420202020302E3635363320202020302E303030302043202020302020302020302020302020302020302020302020302020302020302020302020300A2020202D302E3832343520202020312E3035363620202020302E303030302043202020302020302020302020302020302020302020302020302020302020302020302020300A2020202D312E3634383320202020312E3031333520202020302E303030302043202020302020302020302020302020302020302020302020302020302020302020302020300A2020202D312E3836313920202020302E3231363620202020302E303030302043202020302020302020302020302020302020302020302020302020302020302020302020300A2020202D302E3131363320202020312E3030303920202020302E303030302048202020302020302020302020302020302020302020302020302020302020302020302020300A2020312020322020312020302020202020200A2020322020332020312020302020202020200A2020332020342020312020312020202020200A2020342020352020322020302020202020200A2020352020362020312020302020202020200A2020362020372020322020302020202020200A2020372020382020312020302020202020200A2020382020392020322020302020202020200A2020342020392020312020302020202020200A2020332031302020312020302020202020200A2031302031312020312020302020202020200A2031312031322020312020302020202020200A2020322031322020312020302020202020200A2020332031332020312020362020202020200A4D2020454E44
Contributor: HAMAMATSU UNIV. SCHOOL OF MEDICINE
InstType: EI
InstName: JEOL JMS-AX-505-H
IoniMethod: _ENERGY 70 eV
IonPolarity: pos
Date: 2010-10-09 19:48:36+02:00
Num Peaks: 45
51 28 52 11 54 21 55 20 63 22 64 12 65 53 66 12 67 30 69 13 
73 19 77 17 78 36 79 10 81 13 82 32 83 11 84 999 85 60 92 38 
93 11 104 31 105 13 117 39 118 45 119 63 120 28 130 48 132 18 133 263 
134 40 144 10 145 15 146 16 147 15 159 22 160 12 161 260 162 336 163 42 
171 11 207 35 281 12 355 10 401 13 
