Name: GUANINE
CAS: 73-40-5
MW: 151
Formula: C5H5N5O
Synonym: MassBank: JP011648
Synonym: GUANINE
Structure: 4755414E494E452E6D6F6C0A20204368656D447261773038313131303230303032440A2031312031322020302020302020302020302020302020302020302020303939392056323030300A20202020312E343539342020202D302E3032333820202020302E30303030204E202020302020302020302020302020302020302020302020302020302020302020302020300A20202020312E373535312020202D302E3739343020202020302E303030302043202020302020302020302020302020302020302020302020302020302020302020302020300A20202020312E313133392020202D312E3331333220202020302E30303030204E202020302020302020302020302020302020302020302020302020302020302020302020300A20202020302E343232302020202D302E3836333920202020302E303030302043202020302020302020302020302020302020302020302020302020302020302020302020300A2020202D302E333734382020202D312E3037373420202020302E30303030204E202020302020302020302020302020302020302020302020302020302020302020302020300A2020202D302E393538322020202D302E3439343120202020302E303030302043202020302020302020302020302020302020302020302020302020302020302020302020300A2020202D312E373535312020202D302E3730373620202020302E30303030204E202020302020302020302020302020302020302020302020302020302020302020302020300A2020202D302E3734343720202020302E3330323820202020302E30303030204E202020302020302020302020302020302020302020302020302020302020302020302020300A20202020302E3035323220202020302E3531363320202020302E303030302043202020302020302020302020302020302020302020302020302020302020302020302020300A20202020302E3236353720202020312E3331333220202020302E30303030204F202020302020302020302020302020302020302020302020302020302020302020302020300A20202020302E363335362020202D302E3036373020202020302E303030302043202020302020302020302020302020302020302020302020302020302020302020302020300A2020312020322020312020302020202020200A2020322020332020322020302020202020200A2020332020342020312020302020202020200A2020342020352020312020302020202020200A2020352020362020322020302020202020200A2020362020372020312020302020202020200A2020362020382020312020302020202020200A2020382020392020312020302020202020200A2020392031302020322020302020202020200A2020392031312020312020302020202020200A2020312031312020312020302020202020200A2020342031312020322020302020202020200A4D2020454E44
Contributor: YAMAMOTO M, DEP. CHEMISTRY, FAC. SCIENCE, NARA WOMEN'S UNIV.
InstType: EI
InstName: HITACHI M-2500
IoniMethod: _ENERGY 70 eV
IonPolarity: pos
Date: 2010-10-09 19:48:36+02:00
Num Peaks: 60
15 10 17 10 18 49 27 21 28 108 29 13 36 27 38 12 39 15 41 14 
42 35 43 155 44 45 45 11 53 85 54 114 55 24 56 11 65 13 66 14 
68 23 69 41 70 15 73 108 74 71 75 17 77 10 79 14 80 19 81 57 
82 21 83 19 91 54 92 20 96 22 103 11 106 20 107 11 108 91 109 148 
110 122 111 10 115 15 117 14 119 11 120 68 123 11 124 11 131 18 132 14 
133 125 134 92 135 138 136 17 147 23 148 10 149 24 150 11 151 999 152 109 
