Name: PTH-L-ARGININE
MW: 291
Formula: C13H17N5OS
Synonym: MassBank: JP011084
Synonym: PTH-L-ARGININE
Structure: 303633345F5054482D4C2D415247494E494E452E6D6F6C0A20204368656D447261773038323031303037313732440A2032302032312020302020302020302020302020302020302020302020303939392056323030300A2020202D332E353730312020202D302E3730373720202020302E303030302043202020302020302020302020302020302020302020302020302020302020302020302020300A2020202D332E353730312020202D312E3533323720202020302E303030302043202020302020302020302020302020302020302020302020302020302020302020302020300A2020202D322E383535362020202D312E3934353220202020302E303030302043202020302020302020302020302020302020302020302020302020302020302020302020300A2020202D322E313431322020202D312E3533323720202020302E303030302043202020302020302020302020302020302020302020302020302020302020302020302020300A2020202D322E313431322020202D302E3730373720202020302E303030302043202020302020302020302020302020302020302020302020302020302020302020302020300A2020202D322E383535362020202D302E3239353220202020302E303030302043202020302020302020302020302020302020302020302020302020302020302020302020300A2020202D312E333136322020202D302E3730373720202020302E30303030204E202020302020302020302020302020302020302020302020302020302020302020302020300A2020202D312E333136322020202D312E3533323720202020302E303030302053202020302020302020302020302020302020302020302020302020302020302020302020300A2020202D302E363031372020202D302E3239353220202020302E303030302043202020302020302020302020302020302020302020302020302020302020302020302020300A20202020302E313132382020202D302E3730373720202020302E303030302043202020302020302020302020302020302020302020302020302020302020302020302020300A20202020302E313132382020202D312E3533323720202020302E30303030204E202020302020302020302020302020302020302020302020302020302020302020302020300A2020202D302E3630313720202020302E3532393820202020302E30303030204F202020302020302020302020302020302020302020302020302020302020302020302020300A20202020302E393039372020202D302E3932313220202020302E303030302048202020302020302020302020302020302020302020302020302020302020302020302020300A20202020302E3532353320202020302E3030363820202020302E303030302043202020302020302020302020302020302020302020302020302020302020302020302020300A20202020312E3332323220202020302E3232303320202020302E303030302043202020302020302020302020302020302020302020302020302020302020302020302020300A20202020312E3533353720202020312E3031373220202020302E303030302043202020302020302020302020302020302020302020302020302020302020302020302020300A20202020322E3333323620202020312E3233303720202020302E30303030204E202020302020302020302020302020302020302020302020302020302020302020302020300A20202020332E3135373620202020312E3233303720202020302E303030302043202020302020302020302020302020302020302020302020302020302020302020302020300A20202020332E3537303120202020312E3934353220202020302E30303030204E202020302020302020302020302020302020302020302020302020302020302020302020300A20202020332E3537303120202020302E3531363220202020302E30303030204E202020302020302020302020302020302020302020302020302020302020302020302020300A2020312020322020322020302020202020200A2020322020332020312020302020202020200A2020332020342020322020302020202020200A2020342020352020312020302020202020200A2020352020362020322020302020202020200A2020362020312020312020302020202020200A2020352020372020312020302020202020200A2020372020382020312020302020202020200A2020372020392020312020302020202020200A2020392031302020312020302020202020200A2031302031312020312020302020202020200A2020382031312020312020302020202020200A2020392031322020322020302020202020200A2031302031332020312020312020202020200A2031302031342020312020362020202020200A2031342031352020312020302020202020200A2031352031362020312020302020202020200A2031362031372020312020302020202020200A2031372031382020312020302020202020200A2031382031392020322020302020202020200A2031382032302020312020302020202020200A4D2020454E44
Contributor: YAMAMOTO M, DEP. CHEMISTRY, FAC. SCIENCE, NARA WOMEN'S UNIV.
InstType: EI
InstName: HITACHI M-80
IoniMethod: _ENERGY 70 eV
IonPolarity: pos
Date: 2010-10-09 19:48:36+02:00
Num Peaks: 94
14 18 15 64 16 247 18 35 26 84 27 230 28 260 29 54 30 156 32 60 
33 23 34 23 35 175 36 621 37 125 38 253 39 533 40 163 41 509 42 146 
43 184 44 55 45 46 49 28 50 135 51 208 52 135 53 74 54 129 55 97 
56 52 58 43 59 128 60 91 61 50 62 62 63 172 64 267 65 289 66 486 
67 105 68 167 69 85 70 59 71 36 72 52 73 24 74 46 76 38 77 218 
78 68 83 15 84 27 85 84 86 19 87 20 90 25 91 296 92 129 93 999 
94 93 95 59 96 30 97 32 98 31 99 18 100 36 104 16 108 15 111 33 
119 272 120 39 123 15 126 219 127 316 128 38 129 19 135 136 136 51 137 14 
139 16 151 16 153 25 154 34 155 414 156 54 157 28 203 17 204 11 205 15 
231 15 274 14 275 20 291 10 
