Name: 1-DEHYDROXYTESTSTERONE
MW: 286
Formula: C19H26O2
Synonym: MassBank: JP011416
Synonym: 1-DEHYDROXYTESTSTERONE
Synonym: 1,4-ANDROSTADIENE-17BATA-OL-3-ONE
Structure: 312D4445485944524F585954455354535445524F4E452E6D6F6C0A20204368656D447261773131313430393232323732440A2032382033312020302020302020302020302020302020302020302020303939392056323030300A2020202D322E313933352020202D302E3131333420202020302E303030302043202020302020302020302020302020302020302020302020302020302020302020302020300A2020202D322E313933352020202D302E3933383420202020302E303030302043202020302020302020302020302020302020302020302020302020302020302020302020300A2020202D312E343739312020202D312E3335303920202020302E303030302043202020302020302020302020302020302020302020302020302020302020302020302020300A2020202D302E373634372020202D302E3933383420202020302E303030302043202020302020302020302020302020302020302020302020302020302020302020302020300A2020202D302E373634372020202D302E3131333420202020302E303030302043202020302020302020302020302020302020302020302020302020302020302020302020300A2020202D312E3437393120202020302E3239393120202020302E303030302043202020302020302020302020302020302020302020302020302020302020302020302020300A2020202D302E303530312020202D312E3335303920202020302E303030302043202020302020302020302020302020302020302020302020302020302020302020302020300A20202020302E363634342020202D302E3933383420202020302E303030302043202020302020302020302020302020302020302020302020302020302020302020302020300A20202020302E363634342020202D302E3131333420202020302E303030302043202020302020302020302020302020302020302020302020302020302020302020302020300A2020202D302E3035303120202020302E3239393120202020302E303030302043202020302020302020302020302020302020302020302020302020302020302020302020300A20202020312E3337383720202020302E3239393120202020302E303030302043202020302020302020302020302020302020302020302020302020302020302020302020300A20202020312E3337383720202020312E3132343120202020302E303030302043202020302020302020302020302020302020302020302020302020302020302020302020300A20202020302E3636343420202020312E3533363620202020302E303030302043202020302020302020302020302020302020302020302020302020302020302020302020300A2020202D302E3035303120202020312E3132343120202020302E303030302043202020302020302020302020302020302020302020302020302020302020302020302020300A20202020322E3136333420202020302E3034343120202020302E303030302043202020302020302020302020302020302020302020302020302020302020302020302020300A20202020322E3634383320202020302E3731313620202020302E303030302043202020302020302020302020302020302020302020302020302020302020302020302020300A20202020322E3136333420202020312E3337393020202020302E303030302043202020302020302020302020302020302020302020302020302020302020302020302020300A20202020312E3337383720202020312E3934393120202020302E303030302043202020302020302020302020302020302020302020302020302020302020302020302020300A20202020312E3934393920202020322E3137353920202020302E30303030204F202020302020302020302020302020302020302020302020302020302020302020302020300A20202020312E333738372020202D302E3532353920202020302E303030302048202020302020302020302020302020302020302020302020302020302020302020302020300A2020202D302E3736343720202020302E3731313620202020302E303030302043202020302020302020302020302020302020302020302020302020302020302020302020300A2020202D322E3930383020202020302E3239393120202020302E303030302048202020302020302020302020302020302020302020302020302020302020302020302020300A2020202D312E3437393120202020312E3132343120202020302E303030302048202020302020302020302020302020302020302020302020302020302020302020302020300A2020202D322E393038302020202D312E3335303920202020302E30303030204F202020302020302020302020302020302020302020302020302020302020302020302020300A2020202D312E343739312020202D322E3137353920202020302E303030302048202020302020302020302020302020302020302020302020302020302020302020302020300A20202020322E3930383020202020312E3733343220202020302E303030302048202020302020302020302020302020302020302020302020302020302020302020302020300A20202020302E3535333720202020302E3239393120202020302E303030302048202020302020302020302020302020302020302020302020302020302020302020302020300A2020202D302E303530312020202D302E3532353920202020302E303030302048202020302020302020302020302020302020302020302020302020302020302020302020300A2020312020322020312020302020202020200A2020322020332020312020302020202020200A2020332020342020322020302020202020200A2020342020352020312020302020202020200A2020352020362020312020302020202020200A2020362020312020322020302020202020200A2020342020372020312020302020202020200A2020372020382020312020302020202020200A2020382020392020312020302020202020200A2020392031302020312020302020202020200A2031302020352020312020302020202020200A2020392031312020312020302020202020200A2031312031322020312020302020202020200A2031322031332020312020302020202020200A2031332031342020312020302020202020200A2031342031302020312020302020202020200A2031312031352020312020302020202020200A2031352031362020312020302020202020200A2031362031372020312020302020202020200A2031372031322020312020302020202020200A2031322031382020312020312020202020200A2031372031392020312020312020202020200A2020392032302020312020312020202020200A2020352032312020312020312020202020200A2020312032322020312020302020202020200A2020362032332020312020302020202020200A2020322032342020322020302020202020200A2020332032352020312020302020202020200A2031372032362020312020362020202020200A2031312032372020312020362020202020200A2031302032382020312020362020202020200A4D2020454E44
Contributor: HASHIMOTO K, KYOTO COLLEGE OF PHARMACY
InstType: EI
InstName: HITACHI M-80
IoniMethod: _ENERGY 20 eV
IonPolarity: pos
Date: 2010-10-09 19:48:36+02:00
Num Peaks: 38
55 12 67 11 79 12 81 21 91 20 93 43 94 13 95 20 97 14 105 28 
107 42 108 58 109 26 110 16 119 23 120 14 121 112 122 999 123 108 124 12 
131 13 133 32 134 54 135 32 145 19 146 12 147 86 148 15 151 21 159 20 
160 16 161 18 165 17 173 13 227 18 268 5 286 61 287 18 
