Name: NITRODURENE
MW: 179
Formula: C10H13NO2
Synonym: MassBank: JP010557
Synonym: NITRODURENE
Structure: 303931355F4E4954524F445552454E452E6D6F6C0A20204368656D447261773130323031303138333932440A2031342031342020302020302020302020302020302020302020302020303939392056323030300A2020202D302E373134352020202D302E3832353020202020302E303030302043202020302020302020302020302020302020302020302020302020302020302020302020300A2020202D302E303030302020202D302E3431323520202020302E303030302043202020302020302020302020302020302020302020302020302020302020302020302020300A2020202D302E3030303020202020302E3431323520202020302E303030302043202020302020302020302020302020302020302020302020302020302020302020302020300A2020202D302E3731343520202020302E3832353020202020302E303030302043202020302020302020302020302020302020302020302020302020302020302020302020300A20202020302E3731343520202020302E3832353020202020302E303030302043202020302020302020302020302020302020302020302020302020302020302020302020300A20202020312E3432383920202020302E3431323520202020302E303030302043202020302020302020302020302020302020302020302020302020302020302020302020300A20202020312E343238392020202D302E3431323520202020302E303030302043202020302020302020302020302020302020302020302020302020302020302020302020300A20202020322E313433332020202D302E3832353020202020302E303030302043202020302020302020302020302020302020302020302020302020302020302020302020300A20202020302E373134352020202D302E3832353020202020302E303030302043202020302020302020302020302020302020302020302020302020302020302020302020300A2020202D312E343238392020202D302E3431323520202020302E30303030204E202020302020332020302020302020302020302020302020302020302020302020302020300A2020202D312E3432383920202020302E3431323520202020302E30303030204F202020302020302020302020302020302020302020302020302020302020302020302020300A2020202D322E313433332020202D302E3832353020202020302E30303030204F202020302020352020302020302020302020302020302020302020302020302020302020300A20202020302E373134352020202D312E3635303020202020302E303030302043202020302020302020302020302020302020302020302020302020302020302020302020300A20202020302E3731343520202020312E3635303020202020302E303030302043202020302020302020302020302020302020302020302020302020302020302020302020300A2020312020322020312020302020202020200A2020322020332020312020302020202020200A2020332020342020312020302020202020200A2020332020352020322020302020202020200A2020352020362020312020302020202020200A2020362020372020322020302020202020200A2020372020382020312020302020202020200A2020372020392020312020302020202020200A2020322020392020322020302020202020200A2031302031312020322020302020202020200A2031302031322020312020302020202020200A2020312031302020312020302020202020200A2020392031332020312020302020202020200A2020352031342020312020302020202020200A4D202043484720203220203130202020312020313220202D310A4D2020454E44
Contributor: NARA WOMEN'S UNIVERSITY
InstType: EI
InstName: HITACHI M-80
IoniMethod: _ENERGY 70 eV
IonPolarity: pos
Date: 2010-10-09 19:48:36+02:00
Num Peaks: 63
15 17 27 73 28 16 29 33 30 110 38 11 39 158 41 130 43 38 51 89 
52 31 53 68 55 40 62 16 63 69 64 24 65 111 66 18 67 35 74 10 
77 180 78 49 79 152 80 24 81 12 89 29 91 372 92 70 93 132 94 44 
95 15 102 25 103 76 104 28 105 293 106 84 107 389 108 46 115 215 116 89 
117 285 118 128 119 91 120 45 121 16 127 12 128 28 129 20 130 14 131 52 
132 64 133 265 134 589 135 70 146 15 147 19 149 18 162 732 163 85 178 11 
179 999 180 125 181 13 
