Name: MassBank: JP011366
MW: 128
Formula: C7H16Si
Synonym: MassBank: JP011366
Synonym: 1,1-DIMETHYLSILACYCLOHEXANE(METHYL-D3)
Structure: 312C312D44494D455448594C53494C414359434C4F484558414E45284D455448594C2D4433292E6D6F6C0A20204368656D447261773130323330393131313232440A2031312031312020302020302020302020302020302020302020302020303939392056323030300A20202020302E3232363120202020302E3234313620202020302E303030302053692020302020302020302020302020302020302020302020302020302020302020302020300A20202020302E393430362020202D302E3137303920202020302E303030302043202020302020302020302020302020302020302020302020302020302020302020302020300A20202020302E393430362020202D302E3939353920202020302E303030302043202020302020302020302020302020302020302020302020302020302020302020302020300A20202020302E323236312020202D312E3430383420202020302E303030302043202020302020302020302020302020302020302020302020302020302020302020302020300A2020202D302E343838332020202D302E3939353920202020302E303030302043202020302020302020302020302020302020302020302020302020302020302020302020300A2020202D302E343838332020202D302E3137303920202020302E303030302043202020302020302020302020302020302020302020302020302020302020302020302020300A2020202D302E3335373220202020302E3832353020202020302E303030302043202020302020302020302020302020302020302020302020302020302020302020302020300A20202020302E3934303620202020302E3635343120202020302E303030302043202020302020302020302020302020302020302020302020302020302020302020302020300A2020202D302E3934303620202020312E3430383420202020302E303030302048202020312020302020302020302020302020302020302020302020302020302020302020300A20202020302E3232363120202020312E3430383420202020302E303030302048202020312020302020302020302020302020302020302020302020302020302020302020300A2020202D302E3934303620202020302E3234313620202020302E303030302048202020312020302020302020302020302020302020302020302020302020302020302020300A2020312020322020312020302020202020200A2020322020332020312020302020202020200A2020332020342020312020302020202020200A2020342020352020312020302020202020200A2020352020362020312020302020202020200A2020312020362020312020302020202020200A2020312020372020312020302020202020200A2020312020382020312020302020202020200A2020372020392020312020302020202020200A2020372031302020312020302020202020200A2020372031312020312020302020202020200A4D202049534F2020332020203920202032202031302020203220203131202020320A4D2020454E44
Contributor: YAMAMOTO M, DEP. CHEMISTRY, FAC. SCIENCE, NARA WOMEN'S UNIV.
InstType: EI
InstName: HITACHI RMU-6M
IoniMethod: _ENERGY 70 eV
IonPolarity: pos
Date: 2010-10-09 19:48:36+02:00
Num Peaks: 67
27 42 28 46 29 65 30 39 31 29 32 63 33 32 39 50 40 13 41 50 
42 32 43 208 44 66 45 99 46 191 47 49 48 85 53 30 54 14 55 49 
56 25 57 38 58 26 59 176 60 51 61 127 62 125 63 57 64 28 66 14 
67 33 68 18 69 28 70 15 71 47 72 23 73 24 74 57 75 299 76 54 
77 18 79 32 81 14 83 19 84 26 85 659 86 89 87 72 88 833 89 120 
90 42 97 21 100 11 102 54 103 85 104 13 111 18 113 882 114 120 115 48 
116 999 117 121 118 41 130 9 131 618 132 82 133 24 
