Name: 2-(HYDROXY(4-CYANOPHENYL)METHYL)TROPONE
MW: 237
Formula: C15H11NO2
Synonym: MassBank: JP010991
Synonym: 2-(HYDROXY(4-CYANOPHENYL)METHYL)TROPONE
Structure: 322D28485944524F585928342D4359414E4F5048454E594C294D455448594C2954524F504F4E452E6D6F6C0A20204368656D447261773132323130393230353332440A2031382031392020302020302020302020302020302020302020302020303939392056323030300A2020202D312E383236312020202D312E3435383420202020302E30303030204F202020302020302020302020302020302020302020302020302020302020302020302020300A2020202D312E393435302020202D302E3634323020202020302E303030302043202020302020302020302020302020302020302020302020302020302020302020302020300A2020202D322E373332312020202D302E3339343920202020302E303030302043202020302020302020302020302020302020302020302020302020302020302020302020300A2020202D332E3032373920202020302E3337333520202020302E303030302043202020302020302020302020302020302020302020302020302020302020302020302020300A2020202D322E3631353420202020312E3038383020202020302E303030302043202020302020302020302020302020302020302020302020302020302020302020302020300A2020202D312E3738383020202020312E3231353420202020302E303030302043202020302020302020302020302020302020302020302020302020302020302020302020300A2020202D312E3230343620202020302E3633323120202020302E303030302043202020302020302020302020302020302020302020302020302020302020302020302020300A2020202D312E323632312020202D302E3138323520202020302E303030302043202020302020302020302020302020302020302020302020302020302020302020302020300A2020202D302E353437362020202D302E3539353020202020302E303030302043202020302020302020302020302020302020302020302020302020302020302020302020300A20202020302E313635332020202D302E3138333420202020302E303030302043202020302020302020302020302020302020302020302020302020302020302020302020300A20202020302E3136353320202020302E3633373120202020302E303030302043202020302020302020302020302020302020302020302020302020302020302020302020300A20202020302E3838343820202020312E3035323520202020302E303030302043202020302020302020302020302020302020302020302020302020302020302020302020300A20202020312E3630343920202020302E3633363820202020302E303030302043202020302020302020302020302020302020302020302020302020302020302020302020300A20202020312E363034392020202D302E3139353020202020302E303030302043202020302020302020302020302020302020302020302020302020302020302020302020300A20202020302E383834332020202D302E3631313020202020302E303030302043202020302020302020302020302020302020302020302020302020302020302020302020300A20202020322E3331333420202020312E3034353920202020302E303030302043202020302020302020302020302020302020302020302020302020302020302020302020300A20202020332E3032373920202020312E3435383420202020302E30303030204E202020302020302020302020302020302020302020302020302020302020302020302020300A2020202D302E353437362020202D312E3432313820202020302E30303030204F202020302020302020302020302020302020302020302020302020302020302020302020300A2020312020322020322020302020202020200A2020322020332020312020302020202020200A2020332020342020322020302020202020200A2020342020352020312020302020202020200A2020352020362020322020302020202020200A2020362020372020312020302020202020200A2020372020382020322020302020202020200A2020322020382020312020302020202020200A2031302031312020312020302020202020200A2031312031322020322020302020202020200A2031322031332020312020302020202020200A2031332031342020322020302020202020200A2031342031352020312020302020202020200A2031302031352020322020302020202020200A2031362031372020332020302020202020200A2031332031362020312020302020202020200A2020392031302020312020302020202020200A2020392031382020312020302020202020200A2020382020392020312020302020202020200A4D2020454E44
Contributor: TAKESHITA H, INST. OF ADVANCED MATERIAL STUDY KYUSHU UNIV.
InstType: EI
InstName: JEOL JMS-01-SG-2
IoniMethod: _ENERGY 75 eV
IonPolarity: pos
Date: 2010-10-09 19:48:36+02:00
Num Peaks: 29
38 126 40 57 50 97 51 263 52 84 63 78 75 82 76 75 77 398 78 104 
79 96 89 69 102 219 104 78 105 193 106 86 107 454 130 479 131 70 135 110 
164 63 190 590 191 238 208 79 218 116 219 103 236 102 237 999 238 179 
