Name: 2-CYANO-5-METHOXYTROPONE
MW: 161
Formula: C9H7NO2
Synonym: MassBank: JP010962
Synonym: 2-CYANO-5-METHOXYTROPONE
Structure: 322D4359414E4F2D352D4D4554484F585954524F504F4E452E6D6F6C0A20204368656D447261773031303331303132303232440A2031322031322020302020302020302020302020302020302020302020303939392056323030300A2020202D302E3934373520202020312E3135373620202020302E30303030204F202020302020302020302020302020302020302020302020302020302020302020302020300A2020202D302E3433333220202020302E3531323620202020302E303030302043202020302020302020302020302020302020302020302020302020302020302020302020300A20202020302E3337313220202020302E3639363220202020302E303030302043202020302020302020302020302020302020302020302020302020302020302020302020300A20202020312E3031363220202020302E3138313820202020302E303030302043202020302020302020302020302020302020302020302020302020302020302020302020300A20202020312E303136322020202D302E3634333220202020302E303030302043202020302020302020302020302020302020302020302020302020302020302020302020300A20202020302E333731322020202D312E3135373620202020302E303030302043202020302020302020302020302020302020302020302020302020302020302020302020300A2020202D302E343333322020202D302E3937343020202020302E303030302043202020302020302020302020302020302020302020302020302020302020302020302020300A2020202D302E373931312020202D302E3233303720202020302E303030302043202020302020302020302020302020302020302020302020302020302020302020302020300A20202020312E373539352020202D312E3030313220202020302E30303030204F202020302020302020302020302020302020302020302020302020302020302020302020300A20202020322E343431312020202D302E3533363420202020302E303030302043202020302020302020302020302020302020302020302020302020302020302020302020300A2020202D312E363136312020202D302E3233303720202020302E303030302043202020302020302020302020302020302020302020302020302020302020302020302020300A2020202D322E343431312020202D302E3233303720202020302E30303030204E202020302020302020302020302020302020302020302020302020302020302020302020300A2020312020322020322020302020202020200A2020322020332020312020302020202020200A2020332020342020322020302020202020200A2020342020352020312020302020202020200A2020352020362020322020302020202020200A2020362020372020312020302020202020200A2020372020382020322020302020202020200A2020322020382020312020302020202020200A2020392031302020312020302020202020200A2020352020392020312020302020202020200A2031312031322020332020302020202020200A2020382031312020312020302020202020200A4D2020454E44
Contributor: TAKESHITA H, INST. OF ADVANCED MATERIAL STUDY KYUSHU UNIV.
InstType: EI
InstName: JEOL JMS-01-SG-2
IoniMethod: _ENERGY 75 eV
IonPolarity: pos
Date: 2010-10-09 19:48:36+02:00
Num Peaks: 24
37 83 38 71 39 154 41 93 43 90 50 113 51 100 53 70 55 75 57 79 
63 203 64 221 69 97 75 79 76 113 90 460 102 68 103 308 104 87 118 123 
133 999 134 92 161 983 162 102 
