Name: 1-METHYL-3-(PHENYLSULFONYL)PYRROLIDINE
MW: 225
Formula: C11H15NO2S
Synonym: MassBank: JP010167
Synonym: 1-METHYL-3-(PHENYLSULFONYL)PYRROLIDINE
Structure: 312D4D455448594C2D332D285048454E594C53554C464F4E594C29505952524F4C4944494E452E6D6F6C0A20204368656D447261773131313930393136333132440A2031352031362020302020302020302020302020302020302020302020303939392056323030300A20202020312E3935313120202020302E3337363320202020302E30303030204E202020302020302020302020302020302020302020302020302020302020302020302020300A20202020312E3136363420202020302E3633313220202020302E303030302043202020302020302020302020302020302020302020302020302020302020302020302020300A20202020302E363831352020202D302E3033363220202020302E303030302043202020302020302020302020302020302020302020302020302020302020302020302020300A20202020312E313636342020202D302E3730333720202020302E303030302043202020302020302020302020302020302020302020302020302020302020302020302020300A20202020312E393531312020202D302E3434383720202020302E303030302043202020302020302020302020302020302020302020302020302020302020302020302020300A2020202D302E313433352020202D302E3033363220202020302E303030302053202020302020302020302020302020302020302020302020302020302020302020302020300A2020202D302E3134333520202020302E3738383820202020302E30303030204F202020302020302020302020302020302020302020302020302020302020302020302020300A2020202D302E313433352020202D302E3836313220202020302E30303030204F202020302020302020302020302020302020302020302020302020302020302020302020300A2020202D302E393638352020202D302E3033363220202020302E303030302043202020302020302020302020302020302020302020302020302020302020302020302020300A2020202D312E333831302020202D302E3735303720202020302E303030302043202020302020302020302020302020302020302020302020302020302020302020302020300A2020202D322E323036302020202D302E3735303720202020302E303030302043202020302020302020302020302020302020302020302020302020302020302020302020300A2020202D322E363138352020202D302E3033363220202020302E303030302043202020302020302020302020302020302020302020302020302020302020302020302020300A2020202D322E3230363020202020302E3637383320202020302E303030302043202020302020302020302020302020302020302020302020302020302020302020302020300A2020202D312E3338313020202020302E3637383320202020302E303030302043202020302020302020302020302020302020302020302020302020302020302020302020300A20202020322E3631383520202020302E3836313220202020302E303030302043202020302020302020302020302020302020302020302020302020302020302020302020300A2020312020322020312020302020202020200A2020322020332020312020302020202020200A2020332020342020312020302020202020200A2020342020352020312020302020202020200A2020312020352020312020302020202020200A2020362020372020322020302020202020200A2020362020382020322020302020202020200A2020392031302020312020302020202020200A2031302031312020322020302020202020200A2031312031322020312020302020202020200A2031322031332020322020302020202020200A2031332031342020312020302020202020200A2020392031342020322020302020202020200A2020362020392020312020302020202020200A2020332020362020312020302020202020200A2020312031352020312020302020202020200A4D2020454E44
Contributor: KANEMASA S, INST. OF ADVANCED MATERIAL STUDY KYUSHU UNIV.
InstType: EI
InstName: JEOL JMS-01-SG-2
IoniMethod: _ENERGY 75 eV
IonPolarity: pos
Date: 2010-10-09 19:48:36+02:00
Num Peaks: 27
38 50 40 86 41 371 42 37 43 14 50 21 51 98 52 12 53 11 55 52 
56 14 57 51 58 19 65 12 67 43 68 14 71 12 77 147 78 25 81 14 
82 448 83 999 84 123 91 10 109 11 225 34 226 10 
