Name: MassBank: JP010486
MW: 138
Formula: C8H10O2
Synonym: MassBank: JP010486
Synonym: 1,4-DIMETHOXYBENZENE
Synonym: PARA-DIMETHOXYBENZENE
Structure: 312C342D44494D4554484F585942454E5A454E452E6D6F6C0A20204368656D447261773131313430393233303432440A2031302031302020302020302020302020302020302020302020302020303939392056323030300A2020202D302E3832353020202020302E3030303020202020302E303030302043202020302020302020302020302020302020302020302020302020302020302020302020300A2020202D302E3431323520202020302E3731343520202020302E303030302043202020302020302020302020302020302020302020302020302020302020302020302020300A20202020302E3431323520202020302E3731343520202020302E303030302043202020302020302020302020302020302020302020302020302020302020302020302020300A20202020302E383235302020202D302E3030303020202020302E303030302043202020302020302020302020302020302020302020302020302020302020302020302020300A20202020302E343132352020202D302E3731343520202020302E303030302043202020302020302020302020302020302020302020302020302020302020302020302020300A2020202D302E343132352020202D302E3731343520202020302E303030302043202020302020302020302020302020302020302020302020302020302020302020302020300A20202020312E363530302020202D302E3030303020202020302E30303030204F202020302020302020302020302020302020302020302020302020302020302020302020300A20202020322E303632352020202D302E3731343520202020302E303030302043202020302020302020302020302020302020302020302020302020302020302020302020300A2020202D312E3635303020202020302E3030303020202020302E30303030204F202020302020302020302020302020302020302020302020302020302020302020302020300A2020202D322E3036323520202020302E3731343520202020302E303030302043202020302020302020302020302020302020302020302020302020302020302020302020300A2020312020322020312020302020202020200A2020322020332020322020302020202020200A2020332020342020312020302020202020200A2020342020352020322020302020202020200A2020352020362020312020302020202020200A2020312020362020322020302020202020200A2020372020382020312020302020202020200A2020342020372020312020302020202020200A2020392031302020312020302020202020200A2020312020392020312020302020202020200A4D2020454E44
Contributor: TAJIMA S, GUNMA COLLEGE OF TECHNOLOGY
InstType: EI
InstName: HITACHI M-80A
IoniMethod: _ENERGY 70 eV
IonPolarity: pos
Date: 2010-10-09 19:48:36+02:00
Num Peaks: 27
15 378 26 135 27 62 29 119 38 132 39 186 41 384 50 116 51 156 52 229 
53 162 54 166 62 72 63 260 64 196 65 125 66 37 67 41 77 90 79 62 
80 105 92 78 95 471 123 999 124 99 138 736 139 75 
