Name: MassBank: JP011665
CAS: 7477-67-0
MW: 346
Formula: C20H18N4O2
Synonym: MassBank: JP011665
Synonym: 4,4'-BIS-(1-PHENYL-3-METHYL-5-PYRAZOLONE)
Structure: 313039395F342C34272D4249532D28312D5048454E594C2D332D4D455448594C2D352D505952415A4F4C4F4E45292E6D6F6C0A20204368656D447261773130323031303230313632440A2032362032392020302020302020302020302020302020302020302020303939392056323030300A2020202D332E383539342020202D302E3634363920202020302E303030302043202020302020302020302020302020302020302020302020302020302020302020302020300A2020202D332E383539342020202D312E3437313920202020302E303030302043202020302020302020302020302020302020302020302020302020302020302020302020300A2020202D332E313434392020202D312E3838343420202020302E303030302043202020302020302020302020302020302020302020302020302020302020302020302020300A2020202D322E343330342020202D312E3437313920202020302E303030302043202020302020302020302020302020302020302020302020302020302020302020302020300A2020202D322E343330342020202D302E3634363920202020302E303030302043202020302020302020302020302020302020302020302020302020302020302020302020300A2020202D332E313434392020202D302E3233343420202020302E303030302043202020302020302020302020302020302020302020302020302020302020302020302020300A2020202D312E373135392020202D302E3233343420202020302E30303030204E202020302020302020302020302020302020302020302020302020302020302020302020300A2020202D302E393632332020202D302E3537303020202020302E303030302043202020302020302020302020302020302020302020302020302020302020302020302020300A2020202D302E3431303220202020302E3034333120202020302E303030302043202020302020302020302020302020302020302020302020302020302020302020302020300A2020202D302E3832323720202020302E3735373620202020302E303030302043202020302020302020302020302020302020302020302020302020302020302020302020300A2020202D312E3632393720202020302E3538363120202020302E30303030204E202020302020302020302020302020302020302020302020302020302020302020302020300A2020202D302E3438373220202020312E3531313320202020302E303030302043202020302020302020302020302020302020302020302020302020302020302020302020300A2020202D302E373930372020202D312E3337363920202020302E30303030204F202020302020302020302020302020302020302020302020302020302020302020302020300A20202020302E343130322020202D302E3034333120202020302E303030302043202020302020302020302020302020302020302020302020302020302020302020302020300A20202020302E383232372020202D302E3735373620202020302E303030302043202020302020302020302020302020302020302020302020302020302020302020302020300A20202020312E363239372020202D302E3538363120202020302E30303030204E202020302020302020302020302020302020302020302020302020302020302020302020300A20202020312E3731353920202020302E3233343420202020302E30303030204E202020302020302020302020302020302020302020302020302020302020302020302020300A20202020302E3936323320202020302E3537303020202020302E303030302043202020302020302020302020302020302020302020302020302020302020302020302020300A20202020322E3433303420202020302E3634363920202020302E303030302043202020302020302020302020302020302020302020302020302020302020302020302020300A20202020302E3739303720202020312E3337363920202020302E30303030204F202020302020302020302020302020302020302020302020302020302020302020302020300A20202020302E343837322020202D312E3531313320202020302E303030302043202020302020302020302020302020302020302020302020302020302020302020302020300A20202020332E3134343920202020302E3233343420202020302E303030302043202020302020302020302020302020302020302020302020302020302020302020302020300A20202020332E3835393420202020302E3634363920202020302E303030302043202020302020302020302020302020302020302020302020302020302020302020302020300A20202020332E3835393420202020312E3437313920202020302E303030302043202020302020302020302020302020302020302020302020302020302020302020302020300A20202020332E3134343920202020312E3838343420202020302E303030302043202020302020302020302020302020302020302020302020302020302020302020302020300A20202020322E3433303420202020312E3437313920202020302E303030302043202020302020302020302020302020302020302020302020302020302020302020302020300A2020312020322020322020302020202020200A2020322020332020312020302020202020200A2020332020342020322020302020202020200A2020342020352020312020302020202020200A2020352020362020322020302020202020200A2020362020312020312020302020202020200A2020352020372020312020302020202020200A2020372020382020312020302020202020200A2020382020392020312020302020202020200A2020392031302020312020302020202020200A2031302031312020322020302020202020200A2031312020372020312020302020202020200A2031302031322020312020302020202020200A2020382031332020322020302020202020200A2020392031342020312020302020202020200A2031342031352020312020302020202020200A2031352031362020322020302020202020200A2031362031372020312020302020202020200A2031372031382020312020302020202020200A2031382031342020312020302020202020200A2031372031392020312020302020202020200A2031382032302020322020302020202020200A2031352032312020312020302020202020200A2031392032322020322020302020202020200A2032322032332020312020302020202020200A2032332032342020322020302020202020200A2032342032352020312020302020202020200A2032352032362020322020302020202020200A2032362031392020312020302020202020200A4D2020454E44
Contributor: YAMAMOTO M, DEP. CHEMISTRY, FAC. SCIENCE, NARA WOMEN'S UNIV.
InstType: EI
InstName: HITACHI M-2500
IoniMethod: _ENERGY 70 eV
IonPolarity: pos
Date: 2010-10-09 19:48:36+02:00
Num Peaks: 52
18 39 39 19 40 11 41 12 42 31 51 42 52 13 53 14 64 15 65 19 
67 16 77 316 78 30 91 42 92 22 93 44 94 17 105 42 106 23 115 10 
118 16 119 10 122 26 128 17 132 14 142 15 143 14 144 13 158 10 172 12 
173 172 174 24 184 16 185 42 186 11 198 24 202 10 212 13 213 130 214 21 
225 11 226 48 227 18 241 71 242 13 254 39 255 16 276 11 345 22 346 999 
347 240 348 32 
