Name: TERT-BUTYLIODODIMETHYLSILANE
MW: 241
Formula: C6H15ISi
Synonym: MassBank: JP011961
Synonym: TERT-BUTYLIODODIMETHYLSILANE
Structure: 310A32300A544552542D425554594C494F444F44494D455448594C53494C414E452E6D6F6C0A20204368656D447261773038313231303037313032440A2020382020372020302020302020302020302020302020302020302020303939392056323030300A2020202D302E3030303020202020302E3431323520202020302E303030302053692020302020302020302020302020302020302020302020302020302020302020302020300A20202020302E3832353020202020302E3431323520202020302E303030302043202020302020302020302020302020302020302020302020302020302020302020302020300A2020202D302E3832353020202020302E3431323520202020302E303030302043202020302020302020302020302020302020302020302020302020302020302020302020300A2020202D302E3030303020202020312E3233373520202020302E303030302049202020302020302020302020302020302020302020302020302020302020302020302020300A2020202D302E303030302020202D302E3431323520202020302E303030302043202020302020302020302020302020302020302020302020302020302020302020302020300A20202020302E383235302020202D302E3431323520202020302E303030302043202020302020302020302020302020302020302020302020302020302020302020302020300A2020202D302E303030302020202D312E3233373520202020302E303030302043202020302020302020302020302020302020302020302020302020302020302020302020300A2020202D302E383235302020202D302E3431323520202020302E303030302043202020302020302020302020302020302020302020302020302020302020302020302020300A2020312020322020312020302020202020200A2020312020332020312020302020202020200A2020312020342020312020302020202020200A2020352020362020312020302020202020200A2020352020382020312020302020202020200A2020352020372020312020302020202020200A2020312020352020312020302020202020200A4D2020454E44
Contributor: ISHIKAWA M, HIROSHIMA UNIV. FAC. TEQUNOLOGY
InstType: EI
InstName: SHIMADZU QP-1000
IoniMethod: _ENERGY 70 eV
IonPolarity: pos
Date: 2010-10-09 19:48:36+02:00
Num Peaks: 19
53 63 54 21 55 121 56 363 57 589 58 295 59 495 60 32 73 999 74 84 
75 58 115 126 116 11 154 6 155 8 157 12 185 123 186 13 242 13 
