Name: MassBank: JP010965
MW: 233
Formula: C9H8Cl2O3
Synonym: MassBank: JP010965
Synonym: 3,5-DICHLORO-2,6-DIMETHOXYTROPONE
Structure: 332C352D444943484C4F524F2D322C362D44494D4554484F585954524F504F4E452E6D6F6C0A20204368656D447261773032323231303030353032440A2031342031342020302020302020302020302020302020302020302020303939392056323030300A20202020312E3338383320202020312E3135333820202020302E30303030204F202020302020302020302020302020302020302020302020302020302020302020302020300A20202020302E3734333320202020302E3633393420202020302E303030302043202020302020302020302020302020302020302020302020302020302020302020302020300A20202020302E393236392020202D302E3136343920202020302E303030302043202020302020302020302020302020302020302020302020302020302020302020302020300A20202020302E343132352020202D302E3830393920202020302E303030302043202020302020302020302020302020302020302020302020302020302020302020302020300A2020202D302E343132352020202D302E3830393920202020302E303030302043202020302020302020302020302020302020302020302020302020302020302020302020300A2020202D302E393236392020202D302E3136343920202020302E303030302043202020302020302020302020302020302020302020302020302020302020302020302020300A2020202D302E3734333320202020302E3633393420202020302E303030302043202020302020302020302020302020302020302020302020302020302020302020302020300A20202020302E3030303020202020302E3939373420202020302E303030302043202020302020302020302020302020302020302020302020302020302020302020302020300A20202020302E373730352020202D312E3535333220202020302E30303030204F202020302020302020302020302020302020302020302020302020302020302020302020300A20202020302E333035372020202D322E3233343920202020302E303030302043202020302020302020302020302020302020302020302020302020302020302020302020300A20202020302E3030303020202020312E3832323420202020302E30303030204F202020302020302020302020302020302020302020302020302020302020302020302020300A20202020302E3731343520202020322E3233343920202020302E303030302043202020302020302020302020302020302020302020302020302020302020302020302020300A2020202D302E373730352020202D312E3535333220202020302E3030303020436C2020302020302020302020302020302020302020302020302020302020302020302020300A2020202D312E3338383320202020312E3135333820202020302E3030303020436C2020302020302020302020302020302020302020302020302020302020302020302020300A2020312020322020322020302020202020200A2020322020332020312020302020202020200A2020332020342020322020302020202020200A2020342020352020312020302020202020200A2020352020362020322020302020202020200A2020362020372020312020302020202020200A2020372020382020322020302020202020200A2020322020382020312020302020202020200A2020392031302020312020302020202020200A2020342020392020312020302020202020200A2031312031322020312020302020202020200A2020382031312020312020302020202020200A2020352031332020312020302020202020200A2020372031342020312020302020202020200A4D2020454E44
Contributor: TAKESHITA H, INST. OF ADVANCED MATERIAL STUDY KYUSHU UNIV.
InstType: EI
InstName: JEOL JMS-01-SG-2
IoniMethod: _ENERGY 75 eV
IonPolarity: pos
Date: 2010-10-09 19:48:36+02:00
Num Peaks: 33
15 116 50 150 53 122 61 137 62 223 63 109 69 215 73 105 85 243 87 111 
97 305 99 204 113 290 120 119 141 165 148 173 150 110 163 949 165 605 167 100 
169 141 171 226 176 114 191 321 193 202 205 105 206 999 207 123 208 625 210 103 
234 587 236 407 238 66 
