Name: MassBank: JP010427
MW: 201
Formula: C7H12ClN5
Synonym: MassBank: JP010427
Synonym: 2-CHLORO-4,6-BIS(ETHYLAMINO)-1,3,5-TRIAZINE
Synonym: SIMAZINE
Structure: 322D43484C4F524F2D342C362D42495328455448594C414D494E4F292D312C332C352D545249415A494E452E6D6F6C0A20204368656D447261773031303331303130343032440A2031332031332020302020302020302020302020302020302020302020303939392056323030300A20202020312E323337352020202D302E3335373220202020302E30303030204E202020302020302020302020302020302020302020302020302020302020302020302020300A20202020302E383235302020202D312E3037313720202020302E303030302043202020302020302020302020302020302020302020302020302020302020302020302020300A20202020302E303030302020202D312E3037313720202020302E30303030204E202020302020302020302020302020302020302020302020302020302020302020302020300A2020202D302E343132352020202D302E3335373220202020302E303030302043202020302020302020302020302020302020302020302020302020302020302020302020300A2020202D302E3030303020202020302E3335373220202020302E30303030204E202020302020302020302020302020302020302020302020302020302020302020302020300A20202020302E3832353020202020302E3335373220202020302E303030302043202020302020302020302020302020302020302020302020302020302020302020302020300A20202020312E3233373520202020312E3037313720202020302E30303030204E202020302020302020302020302020302020302020302020302020302020302020302020300A20202020322E3036323520202020312E3037313720202020302E303030302043202020302020302020302020302020302020302020302020302020302020302020302020300A20202020322E3437353020202020312E3738363220202020302E303030302043202020302020302020302020302020302020302020302020302020302020302020302020300A2020202D312E323337352020202D302E3335373220202020302E30303030204E202020302020302020302020302020302020302020302020302020302020302020302020300A2020202D312E3635303020202020302E3335373220202020302E303030302043202020302020302020302020302020302020302020302020302020302020302020302020300A2020202D322E3437353020202020302E3335373220202020302E303030302043202020302020302020302020302020302020302020302020302020302020302020302020300A20202020312E323337352020202D312E3738363220202020302E3030303020436C2020302020302020302020302020302020302020302020302020302020302020302020300A2020312020322020312020302020202020200A2020322020332020322020302020202020200A2020332020342020312020302020202020200A2020342020352020322020302020202020200A2020352020362020312020302020202020200A2020312020362020322020302020202020200A2020382020392020312020302020202020200A2020372020382020312020302020202020200A2020362020372020312020302020202020200A2031312031322020312020302020202020200A2031302031312020312020302020202020200A2020342031302020312020302020202020200A2020322031332020312020302020202020200A4D2020454E44
Contributor: UOEH
InstType: EI
InstName: JEOL JMS-DX-303
IoniMethod: _ENERGY 70 eV
IonPolarity: pos
Date: 2010-10-09 19:48:36+02:00
Num Peaks: 83
40 19 41 16 42 62 43 196 44 297 45 15 53 22 54 15 55 97 62 43 
64 14 67 16 68 230 69 90 70 27 71 181 72 10 78 11 79 20 80 18 
81 20 83 17 85 189 86 17 87 59 89 15 90 13 91 100 92 11 93 118 
94 40 95 30 96 195 97 18 104 75 105 23 106 27 109 11 110 41 116 12 
117 39 119 15 121 11 122 48 123 103 129 42 130 36 131 26 132 102 133 11 
134 31 136 13 137 14 138 170 139 15 143 47 144 15 145 126 146 15 147 37 
157 23 158 254 159 40 160 78 161 20 166 38 170 14 172 135 173 426 174 71 
175 153 176 14 184 14 186 618 187 61 188 207 189 15 198 20 200 148 201 999 
202 143 203 360 204 36 
