Name: MassBank: JP010429
MW: 304
Formula: C12H21N2O3PS
Synonym: MassBank: JP010429
Synonym: PHOSPHOROTHIOIC ACID O,O-DIETHYL O-(6-METHYL-2-(1-METHYLETHYL)-4-PYRIMIDINYL) ESTER
Synonym: DIAZINON
Structure: 50484F5350484F524F5448494F49432041434944204F2C4F2D4449455448594C204F2D28362D4D455448594C2D322D28312D4D455448594C455448594C292D342D505952494D4944494E594C292045535445522E6D6F6C0A20204368656D447261773038313231303035343032440A2031392031392020302020302020302020302020302020302020302020303939392056323030300A20202020302E373134352020202D302E3838303320202020302E303030302050202020302020302020302020302020302020302020302020302020302020302020302020300A20202020312E343238392020202D302E3436373820202020302E30303030204F202020302020302020302020302020302020302020302020302020302020302020302020300A20202020302E333032302020202D302E3136353820202020302E30303030204F202020302020302020302020302020302020302020302020302020302020302020302020300A2020202D302E303030302020202D312E3239323820202020302E30303030204F202020302020302020302020302020302020302020302020302020302020302020302020300A20202020312E313237302020202D312E3539343720202020302E303030302053202020302020302020302020302020302020302020302020302020302020302020302020300A2020202D312E3432383920202020302E3335373220202020302E303030302043202020302020302020302020302020302020302020302020302020302020302020302020300A2020202D302E373134352020202D302E3035353320202020302E30303030204E202020302020302020302020302020302020302020302020302020302020302020302020300A2020202D302E373134352020202D302E3838303320202020302E303030302043202020302020302020302020302020302020302020302020302020302020302020302020300A2020202D312E343238392020202D312E3239323820202020302E303030302043202020302020302020302020302020302020302020302020302020302020302020302020300A2020202D322E313433342020202D302E3838303320202020302E303030302043202020302020302020302020302020302020302020302020302020302020302020302020300A2020202D322E313433342020202D302E3035353320202020302E30303030204E202020302020302020302020302020302020302020302020302020302020302020302020300A2020202D312E3432383920202020312E3138323220202020302E303030302043202020302020302020302020302020302020302020302020302020302020302020302020300A2020202D302E3731343520202020312E3539343720202020302E303030302043202020302020302020302020302020302020302020302020302020302020302020302020300A2020202D322E3134333420202020312E3539343720202020302E303030302043202020302020302020302020302020302020302020302020302020302020302020302020300A2020202D322E383537392020202D312E3239323820202020302E303030302043202020302020302020302020302020302020302020302020302020302020302020302020300A20202020322E313433342020202D302E3838303320202020302E303030302043202020302020302020302020302020302020302020302020302020302020302020302020300A20202020322E383537392020202D302E3436373820202020302E303030302043202020302020302020302020302020302020302020302020302020302020302020302020300A20202020302E3731343520202020302E3534383720202020302E303030302043202020302020302020302020302020302020302020302020302020302020302020302020300A20202020302E3330323020202020312E3236333120202020302E303030302043202020302020302020302020302020302020302020302020302020302020302020302020300A2020312020322020312020302020202020200A2020312020332020312020302020202020200A2020312020342020312020302020202020200A2020312020352020322020302020202020200A2020362020372020312020302020202020200A2020372020382020322020302020202020200A2020382020392020312020302020202020200A2020392031302020322020302020202020200A2031302031312020312020302020202020200A2020362031312020322020302020202020200A2031322031332020312020302020202020200A2031322031342020312020302020202020200A2020362031322020312020302020202020200A2031302031352020312020302020202020200A2020342020382020312020302020202020200A2031362031372020312020302020202020200A2020322031362020312020302020202020200A2031382031392020312020302020202020200A2020332031382020312020302020202020200A4D2020454E44
Contributor: UOEH
InstType: EI
InstName: JEOL JMS-DX-303
IoniMethod: _ENERGY 70 eV
IonPolarity: pos
Date: 2010-10-09 19:48:36+02:00
Num Peaks: 100
39 67 41 112 42 99 43 137 45 19 47 21 52 30 53 13 54 86 55 27 
65 107 66 192 67 62 68 83 69 18 70 28 80 11 81 24 82 21 83 25 
84 149 93 346 94 34 96 11 97 224 98 23 99 18 100 16 108 13 109 42 
110 39 111 12 114 15 115 12 119 47 121 36 124 212 125 76 126 18 133 33 
134 84 135 259 136 37 137 896 138 79 140 16 147 28 149 15 150 12 151 233 
152 845 153 411 154 39 155 10 161 15 162 154 163 179 164 56 165 23 167 85 
168 42 179 999 180 142 181 16 183 32 195 50 196 10 197 15 199 498 200 51 
215 125 216 162 217 23 220 15 227 265 228 34 231 103 232 30 233 57 243 37 
247 48 248 266 249 30 250 17 259 52 260 129 261 53 262 13 272 11 273 30 
276 282 277 39 278 18 288 14 289 110 290 21 303 18 304 685 305 109 306 42 
