Name: CYCLOOCTANONE
MW: 126
Formula: C8H14O
Synonym: MassBank: JP010849
Synonym: CYCLOOCTANONE
Structure: 310A32330A4359434C4F4F4354414E4F4E452E6D6F6C0A20204368656D447261773039323031303038353232440A2020392020392020302020302020302020302020302020302020302020303939392056323030300A2020202D302E363139352020202D302E3339393820202020302E303030302043202020302020302020302020302020302020302020302020302020302020302020302020300A2020202D302E3631393520202020302E3432353220202020302E303030302043202020302020302020302020302020302020302020302020302020302020302020302020300A2020202D302E3033343320202020312E3031303420202020302E303030302043202020302020302020302020302020302020302020302020302020302020302020302020300A20202020302E3739373520202020312E3031303420202020302E303030302043202020302020302020302020302020302020302020302020302020302020302020302020300A20202020312E3338383020202020302E3431393920202020302E303030302043202020302020302020302020302020302020302020302020302020302020302020302020300A20202020312E333838302020202D302E3431373120202020302E303030302043202020302020302020302020302020302020302020302020302020302020302020302020300A20202020302E373934382020202D312E3031303420202020302E303030302043202020302020302020302020302020302020302020302020302020302020302020302020300A2020202D302E303434392020202D312E3031303420202020302E303030302043202020302020302020302020302020302020302020302020302020302020302020302020300A2020202D312E333838302020202D302E3730383820202020302E30303030204F202020302020302020302020302020302020302020302020302020302020302020302020300A2020312020322020312020302020202020200A2020322020332020312020302020202020200A2020332020342020312020302020202020200A2020342020352020312020302020202020200A2020352020362020312020302020202020200A2020362020372020312020302020202020200A2020372020382020312020302020202020200A2020312020382020312020302020202020200A2020312020392020322020302020202020200A4D2020454E44
Contributor: SODA AROMATIC CO., LTD.
InstType: EI
InstName: HITACHI M-80B
IoniMethod: _ENERGY 70 eV
IonPolarity: pos
Date: 2010-10-09 19:48:36+02:00
Num Peaks: 48
14 19 15 28 26 41 27 357 29 173 30 11 37 11 38 24 39 442 40 15 
41 846 42 726 43 141 50 15 51 36 52 19 53 74 54 81 550 999 56 318 
57 68 58 45 590 12 63 12 65 18 66 14 67 159 68 110 69 263 70 237 
71 51 72 15 77 10 79 36 80 29 81 22 82 341 83 377 84 405 85 30 
93 50 97 162 98 910 99 55 108 13 111 64 126 131 127 17 
