Name: SILACYCLOHEXANE (1-D)
MW: 100
Formula: C5H12Si
Synonym: MassBank: JP011367
Synonym: SILACYCLOHEXANE (1-D)
Structure: 310A32300A53494C414359434C4F484558414E452028312D44292E6D6F6C0A20204368656D447261773038313231303036343632440A2020372020372020302020302020302020302020302020302020302020303939392056323030300A2020202D302E3431323520202020302E3030303020202020302E303030302053692020302020302020302020302020302020302020302020302020302020302020302020300A20202020302E3030303020202020302E3731343520202020302E303030302043202020302020302020302020302020302020302020302020302020302020302020302020300A20202020302E3832353020202020302E3731343520202020302E303030302043202020302020302020302020302020302020302020302020302020302020302020302020300A20202020312E323337352020202D302E3030303020202020302E303030302043202020302020302020302020302020302020302020302020302020302020302020302020300A20202020302E383235302020202D302E3731343520202020302E303030302043202020302020302020302020302020302020302020302020302020302020302020302020300A20202020302E303030302020202D302E3731343520202020302E303030302043202020302020302020302020302020302020302020302020302020302020302020302020300A2020202D312E3233373520202020302E3030303020202020302E303030302048202020312020302020302020302020302020302020302020302020302020302020302020300A2020312020322020312020302020202020200A2020322020332020312020302020202020200A2020332020342020312020302020202020200A2020342020352020312020302020202020200A2020352020362020312020302020202020200A2020312020362020312020302020202020200A2020312020372020312020302020202020200A4D202049534F20203120202037202020320A4D2020454E44
Contributor: YAMAMOTO M, DEP. CHEMISTRY, FAC. SCIENCE, NARA WOMEN'S UNIV.
InstType: EI
InstName: HITACHI RMU-6M
IoniMethod: _ENERGY 70 eV
IonPolarity: pos
Date: 2010-10-09 19:48:36+02:00
Num Peaks: 47
26 8 27 49 28 50 29 47 30 20 31 40 32 42 39 58 40 13 41 63 
42 38 43 177 44 230 45 227 46 72 47 13 53 30 54 11 55 48 56 35 
57 42 58 98 59 91 60 88 61 13 66 16 67 22 68 10 69 20 70 72 
71 142 72 334 73 999 74 120 75 40 83 24 84 11 85 10 86 26 96 7 
97 39 98 78 99 53 100 75 101 437 102 63 103 21 
