Name: CARBON TETRABROMIDE
MW: 327
Formula: CBr4
Synonym: MassBank: JP011283
Synonym: CARBON TETRABROMIDE
Synonym: TETRABROMOMETHANE
Structure: 310A31340A434152424F4E20544554524142524F4D4944452E6D6F6C0A20204368656D447261773038313131303137313732440A2020352020342020302020302020302020302020302020302020302020303939392056323030300A20202020302E3030303020202020302E3030303020202020302E303030302043202020302020302020302020302020302020302020302020302020302020302020302020300A20202020302E303030302020202D302E3832353020202020302E303030302042722020302020302020302020302020302020302020302020302020302020302020302020300A2020202D302E3832353020202020302E3030303020202020302E303030302042722020302020302020302020302020302020302020302020302020302020302020302020300A20202020302E3030303020202020302E3832353020202020302E303030302042722020302020302020302020302020302020302020302020302020302020302020302020300A20202020302E3832353020202020302E3030303020202020302E303030302042722020302020302020302020302020302020302020302020302020302020302020302020300A2020312020322020312020302020202020200A2020312020332020312020302020202020200A2020312020342020312020302020202020200A2020312020352020312020302020202020200A4D2020454E44
Contributor: TAJIMA S, GUNMA COLLEGE OF TECHNOLOGY
InstType: EI
InstName: HITACHI M-80A
IoniMethod: _ENERGY 70 eV
IonPolarity: pos
Date: 2010-10-09 19:48:36+02:00
Num Peaks: 21
12 115 79 433 80 15 81 422 82 14 91 339 93 328 125 10 126 10 158 19 
160 37 162 18 170 158 172 304 174 147 249 346 251 999 252 11 253 971 254 11 
255 320 
