Name: MassBank: JP011355
MW: 86
Formula: C6H14
Synonym: MassBank: JP011355
Synonym: 2,2-DIMETHYLBUTANE
Structure: 310A31360A322C322D44494D455448594C425554414E452E6D6F6C0A20204368656D447261773132323030393036353132440A2020362020352020302020302020302020302020302020302020302020303939392056323030300A20202020302E303535332020202D302E3731343520202020302E303030302043202020302020302020302020302020302020302020302020302020302020302020302020300A2020202D302E3335373220202020302E3030303020202020302E303030302043202020302020302020302020302020302020302020302020302020302020302020302020300A20202020302E3335373220202020302E3431323520202020302E303030302043202020302020302020302020302020302020302020302020302020302020302020302020300A20202020312E3037313720202020302E3030303020202020302E303030302043202020302020302020302020302020302020302020302020302020302020302020302020300A2020202D312E303731372020202D302E3431323520202020302E303030302043202020302020302020302020302020302020302020302020302020302020302020302020300A2020202D302E3736393720202020302E3731343520202020302E303030302043202020302020302020302020302020302020302020302020302020302020302020302020300A2020322020312020312020312020202020200A2020322020332020312020302020202020200A2020332020342020312020302020202020200A2020322020352020312020302020202020200A2020322020362020312020312020202020200A4D2020454E44
Contributor: YAMAMOTO M, DEP. CHEMISTRY, FAC. SCIENCE, NARA WOMEN'S UNIV.
InstType: EI
InstName: HITACHI RMU-6M
IoniMethod: _ENERGY 70 eV
IonPolarity: pos
Date: 2010-10-09 19:48:36+02:00
Num Peaks: 25
15 27 26 23 27 286 28 54 29 410 32 14 38 20 39 257 40 35 41 650 
42 29 43 999 44 33 50 17 51 24 53 46 54 11 55 155 56 325 57 985 
58 46 69 13 70 39 71 825 72 45 
