Name: 3-ISOPROPENYL-6-METHYL-5-(1-TRIMETHYLSILYLMETHYL-2-PROPENYL)CYCLOHEXANONE
MW: 278
Formula: C17H30OSi
Synonym: MassBank: JP012094
Synonym: 3-ISOPROPENYL-6-METHYL-5-(1-TRIMETHYLSILYLMETHYL-2-PROPENYL)CYCLOHEXANONE
Structure: 332D49534F50524F50454E594C2D362D4D455448594C2D352D28312D5452494D455448594C53494C594C4D455448594C2D322D50524F50454E594C294359434C4F484558414E4F4E452E6D6F6C0A20204368656D447261773032323231303231343932440A2031392031392020302020302020302020302020302020302020302020303939392056323030300A2020202D312E343433372020202D312E3037313720202020302E303030302043202020302020302020302020302020302020302020302020302020302020302020302020300A2020202D312E383536332020202D302E3335373220202020302E303030302043202020302020302020302020302020302020302020302020302020302020302020302020300A2020202D312E3434333720202020302E3335373220202020302E303030302043202020302020302020302020302020302020302020302020302020302020302020302020300A2020202D302E3631383820202020302E3335373220202020302E303030302043202020302020302020302020302020302020302020302020302020302020302020302020300A2020202D302E323036322020202D302E3335373220202020302E303030302043202020302020302020302020302020302020302020302020302020302020302020302020300A2020202D302E363138372020202D312E3037313720202020302E303030302043202020302020302020302020302020302020302020302020302020302020302020302020300A20202020302E363138372020202D302E3335373220202020302E303030302043202020302020302020302020302020302020302020302020302020302020302020302020300A20202020312E303331332020202D312E3037313720202020302E303030302043202020302020302020302020302020302020302020302020302020302020302020302020300A20202020312E383536332020202D312E3037313720202020302E303030302043202020302020302020302020302020302020302020302020302020302020302020302020300A20202020312E3033313320202020302E3335373220202020302E303030302043202020302020302020302020302020302020302020302020302020302020302020302020300A20202020312E3835363220202020302E3335373220202020302E303030302053692020302020302020302020302020302020302020302020302020302020302020302020300A20202020322E3638313220202020302E3335373220202020302E303030302043202020302020302020302020302020302020302020302020302020302020302020302020300A20202020312E383536322020202D302E3436373820202020302E303030302043202020302020302020302020302020302020302020302020302020302020302020302020300A20202020312E3835363220202020312E3138323220202020302E303030302043202020302020302020302020302020302020302020302020302020302020302020302020300A2020202D302E323036322020202D312E3738363220202020302E303030302043202020302020302020302020302020302020302020302020302020302020302020302020300A2020202D312E3835363320202020312E3037313720202020302E303030302043202020302020302020302020302020302020302020302020302020302020302020302020300A2020202D312E3434333820202020312E3738363220202020302E303030302043202020302020302020302020302020302020302020302020302020302020302020302020300A2020202D322E3638313220202020312E3037313720202020302E303030302043202020302020302020302020302020302020302020302020302020302020302020302020300A2020202D312E383536332020202D312E3738363220202020302E30303030204F202020302020302020302020302020302020302020302020302020302020302020302020300A2020312020322020312020302020202020200A2020322020332020312020302020202020200A2020332020342020312020302020202020200A2020342020352020312020302020202020200A2020352020362020312020302020202020200A2020312020362020312020302020202020200A2020372020382020312020302020202020200A2020382020392020322020302020202020200A2031312031322020312020302020202020200A2031312031332020312020312020202020200A2031312031342020312020312020202020200A2031302031312020312020302020202020200A2020372031302020312020302020202020200A2020352020372020312020302020202020200A2020362031352020312020302020202020200A2031362031372020322020302020202020200A2031362031382020312020302020202020200A2020332031362020312020302020202020200A2020312031392020322020302020202020200A4D2020454E44
Contributor: HISAHIRO HAGIWARA, INSTITUTE FOR CHEMICAL REACTION SCIENCE TOHOKU UNIV.
InstType: EI
InstName: JEOL JMS-DX-300
IoniMethod: _ENERGY 70 eV
IonPolarity: pos
Date: 2010-10-09 19:48:36+02:00
Num Peaks: 35
41 65 43 99 45 79 55 112 58 37 59 76 67 52 69 34 73 999 74 98 
75 147 79 32 81 56 91 30 93 36 97 104 107 42 109 44 117 33 119 36 
127 191 128 32 141 45 169 35 170 36 181 115 182 32 195 84 196 30 209 100 
221 38 223 41 224 179 225 38 263 38 
