Name: 2'-HYDROXY-6'-METHOXYACETOPHENONE
MW: 166
Formula: C9H10O3
Synonym: MassBank: JP010718
Synonym: 2'-HYDROXY-6'-METHOXYACETOPHENONE
Structure: 32272D485944524F58592D36272D4D4554484F5859414345544F5048454E4F4E452E6D6F6C0A20204368656D447261773132313930393032353632440A2031322031322020302020302020302020302020302020302020302020303939392056323030300A2020202D302E3335373220202020312E3033313320202020302E303030302043202020302020302020302020302020302020302020302020302020302020302020302020300A20202020302E3335373220202020312E3434333820202020302E303030302043202020302020302020302020302020302020302020302020302020302020302020302020300A2020202D312E3037313720202020312E3434333820202020302E30303030204F202020302020302020302020302020302020302020302020302020302020302020302020300A2020202D302E3335373220202020302E3230363320202020302E303030302043202020302020302020302020302020302020302020302020302020302020302020302020300A2020202D312E303731372020202D302E3230363220202020302E303030302043202020302020302020302020302020302020302020302020302020302020302020302020300A2020202D312E303731372020202D312E3033313220202020302E303030302043202020302020302020302020302020302020302020302020302020302020302020302020300A2020202D302E333537322020202D312E3434333820202020302E303030302043202020302020302020302020302020302020302020302020302020302020302020302020300A20202020302E333537322020202D312E3033313320202020302E303030302043202020302020302020302020302020302020302020302020302020302020302020302020300A20202020302E333537322020202D302E3230363220202020302E303030302043202020302020302020302020302020302020302020302020302020302020302020302020300A20202020312E3037313720202020302E3230363320202020302E30303030204F202020302020302020302020302020302020302020302020302020302020302020302020300A20202020312E373836322020202D302E3230363220202020302E303030302043202020302020302020302020302020302020302020302020302020302020302020302020300A2020202D312E3738363220202020302E3230363320202020302E30303030204F202020302020302020302020302020302020302020302020302020302020302020302020300A2020312020322020312020302020202020200A2020342020352020312020302020202020200A2020352020362020322020302020202020200A2020362020372020312020302020202020200A2020372020382020322020302020202020200A2020382020392020312020302020202020200A2020342020392020322020302020202020200A2020312020332020322020302020202020200A2020312020342020312020302020202020200A2031302031312020312020302020202020200A2020392031302020312020302020202020200A2020352031322020312020302020202020200A4D2020454E44
Contributor: SUMITA Y, KYOTO COLLEGE OF PHARMACY
InstType: EI
InstName: HITACHI M-80
IoniMethod: _ENERGY 20 eV
IonPolarity: pos
Date: 2010-10-09 19:48:36+02:00
Num Peaks: 19
43 34 65 34 77 19 81 11 93 36 95 12 105 16 108 78 121 22 123 11 
136 102 147 31 148 70 149 12 151 999 152 90 166 491 167 49 168 5 
