Name: MassBank: JP010731
MW: 196
Formula: C10H12O4
Synonym: MassBank: JP010731
Synonym: 3'-HYDROXY-2',4'-DIMETHOXYACETOPHENONE
Structure: 33272D485944524F58592D32272C34272D44494D4554484F5859414345544F5048454E4F4E452E6D6F6C0A20204368656D447261773032323131303137333732440A2031342031342020302020302020302020302020302020302020302020303939392056323030300A2020202D312E363530302020202D302E3335373220202020302E303030302043202020302020302020302020302020302020302020302020302020302020302020302020300A2020202D322E3036323520202020302E3335373220202020302E303030302043202020302020302020302020302020302020302020302020302020302020302020302020300A2020202D322E303632352020202D312E3037313720202020302E30303030204F202020302020302020302020302020302020302020302020302020302020302020302020300A2020202D302E383235302020202D302E3335373220202020302E303030302043202020302020302020302020302020302020302020302020302020302020302020302020300A2020202D302E3431323520202020302E3335373220202020302E303030302043202020302020302020302020302020302020302020302020302020302020302020302020300A20202020302E3431323520202020302E3335373220202020302E303030302043202020302020302020302020302020302020302020302020302020302020302020302020300A20202020302E383235302020202D302E3335373220202020302E303030302043202020302020302020302020302020302020302020302020302020302020302020302020300A20202020302E343132352020202D312E3037313720202020302E303030302043202020302020302020302020302020302020302020302020302020302020302020302020300A2020202D302E343132352020202D312E3037313720202020302E303030302043202020302020302020302020302020302020302020302020302020302020302020302020300A20202020312E363530302020202D302E3335373220202020302E30303030204F202020302020302020302020302020302020302020302020302020302020302020302020300A20202020322E303632352020202D312E3037313720202020302E303030302043202020302020302020302020302020302020302020302020302020302020302020302020300A2020202D302E3832353020202020312E3037313720202020302E30303030204F202020302020302020302020302020302020302020302020302020302020302020302020300A2020202D312E3635303020202020312E3037313720202020302E303030302043202020302020302020302020302020302020302020302020302020302020302020302020300A20202020302E3832353020202020312E3037313720202020302E30303030204F202020302020302020302020302020302020302020302020302020302020302020302020300A2020312020322020312020302020202020200A2020342020352020312020302020202020200A2020352020362020322020302020202020200A2020362020372020312020302020202020200A2020372020382020322020302020202020200A2020382020392020312020302020202020200A2020342020392020322020302020202020200A2020312020332020322020302020202020200A2020312020342020312020302020202020200A2031302031312020312020302020202020200A2020372031302020312020302020202020200A2031322031332020312020302020202020200A2020352031322020312020302020202020200A2020362031342020312020302020202020200A4D2020454E44
Contributor: SUMITA Y, KYOTO COLLEGE OF PHARMACY
InstType: EI
InstName: HITACHI M-80
IoniMethod: _ENERGY 20 eV
IonPolarity: pos
Date: 2010-10-09 19:48:36+02:00
Num Peaks: 38
43 55 65 21 77 12 82 18 92 15 93 27 95 14 107 19 108 19 110 17 
120 86 121 20 123 32 135 62 136 24 137 60 138 24 147 19 148 108 149 117 
150 29 151 33 153 59 163 106 164 12 165 16 166 48 167 12 177 26 178 91 
179 49 181 999 182 97 183 14 195 11 196 478 197 58 198 7 
