Name: MassBank: JP010478
MW: 162
Formula: C8H18O3
Synonym: MassBank: JP010478
Synonym: 1,1,1-TRIETHOXYETHANE
Structure: 312C312C312D5452494554484F5859455448414E452E6D6F6C0A20204368656D447261773130323230393232353932440A2031312031302020302020302020302020302020302020302020302020303939392056323030300A20202020302E333136382020202D302E3039353720202020302E303030302043202020302020302020302020302020302020302020302020302020302020302020302020300A20202020302E3331363820202020302E3732393320202020302E303030302043202020302020302020302020302020302020302020302020302020302020302020302020300A20202020312E313431382020202D302E3039353720202020302E30303030204F202020302020302020302020302020302020302020302020302020302020302020302020300A20202020312E3535343320202020302E3631383720202020302E303030302043202020302020302020302020302020302020302020302020302020302020302020302020300A20202020312E3134313820202020312E3333333220202020302E303030302043202020302020302020302020302020302020302020302020302020302020302020302020300A20202020302E333136382020202D302E3932303720202020302E30303030204F202020302020302020302020302020302020302020302020302020302020302020302020300A20202020312E303331332020202D312E3333333220202020302E303030302043202020302020302020302020302020302020302020302020302020302020302020302020300A20202020312E373435372020202D302E3932303720202020302E303030302043202020302020302020302020302020302020302020302020302020302020302020302020300A2020202D302E353038322020202D302E3039353720202020302E30303030204F202020302020302020302020302020302020302020302020302020302020302020302020300A2020202D302E3932303720202020302E3631383820202020302E303030302043202020302020302020302020302020302020302020302020302020302020302020302020300A2020202D312E3734353720202020302E3631383820202020302E303030302043202020302020302020302020302020302020302020302020302020302020302020302020300A2020312020322020312020302020202020200A2020342020352020312020302020202020200A2020332020342020312020302020202020200A2020312020332020312020302020202020200A2020372020382020312020302020202020200A2020362020372020312020302020202020200A2020312020362020312020302020202020200A2031302031312020312020302020202020200A2020392031302020312020302020202020200A2020312020392020312020302020202020200A4D2020454E44
Contributor: TAJIMA S, GUNMA COLLEGE OF TECHNOLOGY
InstType: EI
InstName: HITACHI M-80A
IoniMethod: _ENERGY 70 eV
IonPolarity: pos
Date: 2010-10-09 19:48:36+02:00
Num Peaks: 32
19 15 26 76 27 351 28 57 29 567 30 50 31 195 39 11 41 24 42 236 
43 999 44 36 45 168 46 23 47 26 59 12 60 157 61 965 62 24 63 63 
70 13 73 16 75 13 87 11 89 276 90 14 91 32 116 39 117 559 118 39 
119 14 147 50 
