Name: MassBank: JP010195
MW: 312
Formula: C19H24N2O2
Synonym: MassBank: JP010195
Synonym: 5-METHYL-4,4-PENTAMETHYLENE-2-PARA-TOLYLPEPHYDROPYRROLO(3,4-C)PYRROLE-1,3-DIONE
Structure: 352D4D455448594C2D342C342D50454E54414D455448594C454E452D322D504152412D544F4C594C504550485944524F505952524F4C4F28332C342D4329505952524F4C452D312C332D44494F4E452E6D6F6C0A20204368656D447261773034323331303037313932440A2032332032362020302020302020302020302020302020302020302020303939392056323030300A2020202D322E3436393720202020312E3235333520202020302E303030302043202020302020302020302020302020302020302020302020302020302020302020302020300A2020202D322E3436393720202020302E3432383520202020302E303030302043202020302020302020302020302020302020302020302020302020302020302020302020300A2020202D312E3735353220202020302E3031363020202020302E303030302043202020302020302020302020302020302020302020302020302020302020302020302020300A2020202D312E3034303720202020302E3432383520202020302E303030302043202020302020302020302020302020302020302020302020302020302020302020302020300A2020202D312E3034303720202020312E3235333520202020302E303030302043202020302020302020302020302020302020302020302020302020302020302020302020300A2020202D312E3735353220202020312E3636363020202020302E303030302043202020302020302020302020302020302020302020302020302020302020302020302020300A2020202D302E3332363320202020302E3031363020202020302E30303030204E202020302020302020302020302020302020302020302020302020302020302020302020300A2020202D302E323430302020202D302E3830343520202020302E303030302043202020302020302020302020302020302020302020302020302020302020302020302020300A20202020302E353637302020202D302E3937363020202020302E303030302043202020302020302020302020302020302020302020302020302020302020302020302020300A20202020302E393739352020202D302E3236313520202020302E303030302043202020302020302020302020302020302020302020302020302020302020302020302020300A20202020302E3432373420202020302E3335313620202020302E303030302043202020302020302020302020302020302020302020302020302020302020302020302020300A20202020312E313139302020202D312E3538393120202020302E303030302043202020302020302020302020302020302020302020302020302020302020302020302020300A20202020312E383732372020202D312E3235333520202020302E30303030204E202020302020302020302020302020302020302020302020302020302020302020302020300A20202020312E373836342020202D302E3433333020202020302E303030302043202020302020302020302020302020302020302020302020302020302020302020302020300A20202020322E353731302020202D302E3638383020202020302E303030302043202020302020302020302020302020302020302020302020302020302020302020302020300A20202020332E313834312020202D302E3133353920202020302E303030302043202020302020302020302020302020302020302020302020302020302020302020302020300A20202020332E3031323620202020302E3637313020202020302E303030302043202020302020302020302020302020302020302020302020302020302020302020302020300A20202020322E3232383020202020302E3932363020202020302E303030302043202020302020302020302020302020302020302020302020302020302020302020302020300A20202020312E3631343920202020302E3337333920202020302E303030302043202020302020302020302020302020302020302020302020302020302020302020302020300A20202020302E3539383920202020312E3135383620202020302E30303030204F202020302020302020302020302020302020302020302020302020302020302020302020300A2020202D302E383533312020202D312E3335363520202020302E30303030204F202020302020302020302020302020302020302020302020302020302020302020302020300A20202020322E353837312020202D312E3636363020202020302E303030302043202020302020302020302020302020302020302020302020302020302020302020302020300A2020202D332E3138343120202020312E3636363020202020302E303030302043202020302020302020302020302020302020302020302020302020302020302020302020300A2020312020322020322020302020202020200A2020322020332020312020302020202020200A2020332020342020322020302020202020200A2020342020352020312020302020202020200A2020352020362020322020302020202020200A2020362020312020312020302020202020200A2020342020372020312020302020202020200A2020372020382020312020302020202020200A2020382020392020312020302020202020200A2020392031302020312020302020202020200A2031302031312020312020302020202020200A2031312020372020312020302020202020200A2020392031322020312020302020202020200A2031322031332020312020302020202020200A2031332031342020312020302020202020200A2031342031302020312020302020202020200A2031342031352020312020302020202020200A2031352031362020312020302020202020200A2031362031372020312020302020202020200A2031372031382020312020302020202020200A2031382031392020312020302020202020200A2031392031342020312020302020202020200A2031312032302020322020302020202020200A2020382032312020322020302020202020200A2031332032322020312020302020202020200A2020312032332020312020302020202020200A4D2020454E44
Contributor: KANEMASA S, INST. OF ADVANCED MATERIAL STUDY KYUSHU UNIV.
InstType: EI
InstName: JEOL JMS-01-SG-2
IoniMethod: _ENERGY 75 eV
IonPolarity: pos
Date: 2010-10-09 19:48:36+02:00
Num Peaks: 21
42 55 43 52 44 111 45 33 56 41 58 58 82 33 91 41 94 117 95 61 
96 39 108 116 128 61 135 39 210 33 256 283 257 67 269 999 270 220 312 336 
313 76 
