Name: MassBank: JP010190
MW: 298
Formula: C18H22N2O2
Synonym: MassBank: JP010190
Synonym: 5-METHYL-4,4-TETRAMETHYLENE-2-PARA-TOLYLPERHYDROPYRROLO(3,4-C)PYRROLE-1,3-DIONE
Structure: 352D4D455448594C2D342C342D54455452414D455448594C454E452D322D504152412D544F4C594C504552485944524F505952524F4C4F28332C342D4329505952524F4C452D312C332D44494F4E452E6D6F6C0A20204368656D447261773034323331303037323032440A2032322032352020302020302020302020302020302020302020302020303939392056323030300A2020202D302E313033312020202D302E3237353120202020302E30303030204E202020302020302020302020302020302020302020302020302020302020302020302020300A20202020302E333831382020202D302E3934323620202020302E303030302043202020302020302020302020302020302020302020302020302020302020302020302020300A20202020312E313636342020202D302E3638373620202020302E303030302043202020302020302020302020302020302020302020302020302020302020302020302020300A20202020312E3136363420202020302E3133373420202020302E303030302043202020302020302020302020302020302020302020302020302020302020302020302020300A20202020302E3338313820202020302E3339323320202020302E303030302043202020302020302020302020302020302020302020302020302020302020302020302020300A20202020322E343336302020202D302E3237353120202020302E30303030204E202020302020302020302020302020302020302020302020302020302020302020302020300A20202020312E393531312020202D302E3934323620202020302E303030302043202020302020302020302020302020302020302020302020302020302020302020302020300A20202020312E3935313120202020302E3339323320202020302E303030302043202020302020302020302020302020302020302020302020302020302020302020302020300A20202020302E313236392020202D312E3732373220202020302E30303030204F202020302020302020302020302020302020302020302020302020302020302020302020300A20202020302E3132363920202020312E3137363920202020302E30303030204F202020302020302020302020302020302020302020302020302020302020302020302020300A2020202D302E393238312020202D302E3237353120202020302E303030302043202020302020302020302020302020302020302020302020302020302020302020302020300A2020202D312E333430362020202D302E3938393620202020302E303030302043202020302020302020302020302020302020302020302020302020302020302020302020300A2020202D322E353738312020202D302E3237353120202020302E303030302043202020302020302020302020302020302020302020302020302020302020302020302020300A2020202D312E3334303620202020302E3433393320202020302E303030302043202020302020302020302020302020302020302020302020302020302020302020302020300A2020202D322E313635362020202D302E3938393620202020302E303030302043202020302020302020302020302020302020302020302020302020302020302020302020300A2020202D322E3136353620202020302E3433393320202020302E303030302043202020302020302020302020302020302020302020302020302020302020302020302020300A2020202D332E343033312020202D302E3237353120202020302E303030302043202020302020302020302020302020302020302020302020302020302020302020302020300A20202020312E3436363120202020312E3035393720202020302E303030302043202020302020302020302020302020302020302020302020302020302020302020302020300A20202020312E3935313120202020312E3732373220202020302E303030302043202020302020302020302020302020302020302020302020302020302020302020302020300A20202020322E3733353720202020312E3437323320202020302E303030302043202020302020302020302020302020302020302020302020302020302020302020302020300A20202020322E3733353720202020302E3634373320202020302E303030302043202020302020302020302020302020302020302020302020302020302020302020302020300A20202020332E3430333120202020302E3136323320202020302E303030302043202020302020302020302020302020302020302020302020302020302020302020302020300A2020312020322020312020302020202020200A2020322020332020312020302020202020200A2020332020342020312020302020202020200A2020342020352020312020302020202020200A2020312020352020312020302020202020200A2020362020372020312020302020202020200A2020362020382020312020302020202020200A2020332020372020312020302020202020200A2020342020382020312020302020202020200A2020322020392020322020302020202020200A2020352031302020322020302020202020200A2031312031322020312020302020202020200A2031312031342020322020302020202020200A2031322031352020322020302020202020200A2031332031352020312020302020202020200A2031332031362020322020302020202020200A2031342031362020312020302020202020200A2031332031372020312020302020202020200A2020312031312020312020302020202020200A2031382031392020312020302020202020200A2031392032302020312020302020202020200A2032302032312020312020302020202020200A2020382031382020312020302020202020200A2020382032312020312020302020202020200A2032312032322020312020302020202020200A4D2020454E44
Contributor: KANEMASA S, INST. OF ADVANCED MATERIAL STUDY KYUSHU UNIV.
InstType: EI
InstName: JEOL JMS-01-SG-2
IoniMethod: _ENERGY 75 eV
IonPolarity: pos
Date: 2010-10-09 19:48:36+02:00
Num Peaks: 34
40 51 42 88 43 97 44 57 54 44 56 85 65 36 67 56 68 77 77 53 
78 39 79 45 80 34 81 78 82 52 91 82 93 41 94 288 95 181 96 34 
107 41 108 309 109 80 110 75 132 36 133 52 164 49 255 37 256 999 257 182 
269 70 270 195 298 140 299 33 
