Name: MassBank: JP010708
MW: 332
Formula: C19H24O5
Synonym: MassBank: JP010708
Synonym: (2Z)-2-(2,4-HEXADIYNYLIDENE)-3-ISOVALERYLOXY-4-HYDROXY-1,6-DIOXASPIRO(4,5)DECANE
Structure: 28325A292D322D28322C342D484558414449594E594C4944454E45292D332D49534F56414C4552594C4F58592D342D485944524F58592D312C362D44494F5841535049524F28342C3529444543414E452E6D6F6C0A20204368656D447261773130323030393232353532440A2032352032362020302020302020302020302020302020302020302020303939392056323030300A2020202D322E3937373420202020312E3637353820202020302E303030302043202020302020302020302020302020302020302020302020302020302020302020302020300A2020202D322E3536343920202020322E3339303320202020302E303030302043202020302020302020302020302020302020302020302020302020302020302020302020300A2020202D312E3734303720202020322E3339303320202020302E303030302043202020302020302020302020302020302020302020302020302020302020302020302020300A2020202D312E3332373920202020312E3637353420202020302E303030302043202020302020302020302020302020302020302020302020302020302020302020302020300A2020202D312E3734303420202020302E3936313020202020302E30303030204F202020302020302020302020302020302020302020302020302020302020302020302020300A2020202D322E3536343920202020302E3936313020202020302E303030302043202020302020302020302020302020302020302020302020302020302020302020302020300A2020202D302E3834313920202020322E3334323720202020302E303030302043202020302020302020302020302020302020302020302020302020302020302020302020300A2020202D302E3036303020202020322E3039323720202020302E303030302043202020302020302020302020302020302020302020302020302020302020302020302020300A2020202D302E3036303020202020312E3236333420202020302E303030302043202020302020302020302020302020302020302020302020302020302020302020302020300A2020202D302E3834303320202020312E3030393020202020302E30303030204F202020302020302020302020302020302020302020302020302020302020302020302020300A20202020302E3532323320202020322E3637343920202020302E30303030204F202020302020302020302020302020302020302020302020302020302020302020302020300A2020202D312E3039383820202020332E3132363720202020302E30303030204F202020302020302020302020302020302020302020302020302020302020302020302020300A20202020302E3631313620202020302E3738313120202020302E303030302043202020302020302020302020302020302020302020302020302020302020302020302020300A20202020312E3336333920202020312E3131393720202020302E303030302048202020302020302020302020302020302020302020302020302020302020302020302020300A20202020302E353238362020202D302E3033393720202020302E303030302043202020302020302020302020302020302020302020302020302020302020302020302020300A20202020302E343435372020202D302E3836303520202020302E303030302043202020302020302020302020302020302020302020302020302020302020302020302020300A20202020302E333632372020202D312E3638313320202020302E303030302043202020302020302020302020302020302020302020302020302020302020302020302020300A20202020302E323739372020202D322E3530323020202020302E303030302043202020302020302020302020302020302020302020302020302020302020302020302020300A20202020302E313936372020202D332E3332333020202020302E303030302043202020302020302020302020302020302020302020302020302020302020302020302020300A20202020312E3333303820202020322E3633363320202020302E303030302043202020302020302020302020302020302020302020302020302020302020302020302020300A20202020312E3738383320202020332E3332333020202020302E30303030204F202020302020302020302020302020302020302020302020302020302020302020302020300A20202020312E3639363620202020312E3839373020202020302E303030302043202020302020302020302020302020302020302020302020302020302020302020302020300A20202020322E3531393920202020312E3834343220202020302E303030302043202020302020302020302020302020302020302020302020302020302020302020302020300A20202020322E3937373420202020322E3533303720202020302E303030302043202020302020302020302020302020302020302020302020302020302020302020302020300A20202020322E3838353820202020312E3130343720202020302E303030302043202020302020302020302020302020302020302020302020302020302020302020302020300A2020312020322020312020302020202020200A2020322020332020312020302020202020200A2020332020342020312020302020202020200A2020342020352020312020302020202020200A2020352020362020312020302020202020200A2020362020312020312020302020202020200A2020342020372020312020302020202020200A2020372020382020312020302020202020200A2020382020392020312020302020202020200A2020392031302020312020302020202020200A2031302020342020312020302020202020200A2020382031312020312020302020202020200A2020372031322020312020302020202020200A2020392031332020322020302020202020200A2031332031342020312020302020202020200A2031332031352020312020302020202020200A2031352031362020332020302020202020200A2031362031372020312020302020202020200A2031372031382020332020302020202020200A2031382031392020312020302020202020200A2031312032302020312020302020202020200A2032302032312020322020302020202020200A2032302032322020312020302020202020200A2032322032332020312020302020202020200A2032332032342020312020302020202020200A2032332032352020312020302020202020200A4D2020454E44
Contributor: EGUCHI S, FAC. OF SCIENCE, HIROSHIMA UNIV.
InstType: EI
InstName: HITACHI RMU-6L
IoniMethod: _ENERGY 70 eV
IonPolarity: pos
Date: 2010-10-09 19:48:36+02:00
Num Peaks: 119
41 300 42 60 43 305 44 2 45 40 50 50 51 60 52 2 53 40 54 20 
55 265 56 4 57 999 58 80 59 40 60 3 62 15 63 40 64 15 65 4 
67 100 68 20 69 90 70 2 71 150 73 85 74 20 75 4 76 110 77 115 
78 30 79 4 80 15 81 30 83 85 85 94 86 60 87 20 89 20 90 3 
91 45 93 20 97 35 98 2 101 120 102 30 103 35 104 5 105 30 111 35 
113 355 114 8 115 35 117 25 118 40 119 5 121 20 125 35 126 210 127 7 
128 25 129 20 130 15 131 4 132 20 133 20 135 20 136 35 137 45 141 20 
143 30 144 2 145 25 146 30 147 20 148 2 149 15 153 15 155 15 157 2 
158 20 159 35 160 25 161 4 162 10 163 20 164 25 169 2 171 15 172 25 
173 40 174 4 177 20 183 15 184 20 185 5 186 20 187 45 188 20 191 2 
197 15 199 10 201 40 202 5 203 15 210 10 211 15 212 2 213 15 220 165 
221 35 230 15 231 65 248 15 249 15 314 1 315 10 332 35 333 35 
