Name: MassBank: JP010119
MW: 238
Formula: C15H26O2
Synonym: MassBank: JP010119
Synonym: 1,2-EPOXY-3,7,11-TRIMETHYL-(6Z,10)-DODECADIENE-3-OL
Structure: 312C322D45504F58592D332C372C31312D5452494D455448594C2D28365A2C3130292D444F444543414449454E452D332D4F4C2E6D6F6C0A20204368656D447261773131303530393133353432440A2031382031382020302020302020302020302020302020302020302020303939392056323030300A20202020312E3432393020202020312E3734353720202020302E30303030204F202020302020302020302020302020302020302020302020302020302020302020302020300A20202020312E3031363520202020312E3033313320202020302E303030302043202020302020302020302020302020302020302020302020302020302020302020302020300A20202020302E3330323020202020312E3434333820202020302E303030302043202020302020302020302020302020302020302020302020302020302020302020302020300A2020202D302E3431323520202020312E3033313320202020302E303030302043202020302020302020302020302020302020302020302020302020302020302020302020300A2020202D312E3132363920202020312E3434333820202020302E303030302043202020302020302020302020302020302020302020302020302020302020302020302020300A2020202D312E3834313420202020312E3033313320202020302E303030302043202020302020302020302020302020302020302020302020302020302020302020302020300A2020202D312E3834313420202020302E3230363220202020302E303030302043202020302020302020302020302020302020302020302020302020302020302020302020300A2020202D312E313236392020202D302E3230363220202020302E303030302043202020302020302020302020302020302020302020302020302020302020302020302020300A2020202D312E313236392020202D312E3033313320202020302E303030302043202020302020302020302020302020302020302020302020302020302020302020302020300A2020202D302E343132352020202D312E3434333820202020302E303030302043202020302020302020302020302020302020302020302020302020302020302020302020300A2020202D302E343132352020202D322E3236383720202020302E303030302043202020302020302020302020302020302020302020302020302020302020302020302020300A20202020312E3733313020202020302E3631383820202020302E303030302043202020302020302020302020302020302020302020302020302020302020302020302020300A20202020302E333032302020202D312E3033313320202020302E303030302043202020302020302020302020302020302020302020302020302020302020302020302020300A20202020302E3630343020202020302E3331363820202020302E303030302043202020302020302020302020302020302020302020302020302020302020302020302020300A20202020322E313433352020202D302E3039363520202020302E30303030204F202020302020302020302020302020302020302020302020302020302020302020302020300A20202020322E3535353920202020302E3631383620202020302E303030302043202020302020302020302020302020302020302020302020302020302020302020302020300A2020202D312E3132363920202020322E3236383720202020302E303030302048202020302020302020302020302020302020302020302020302020302020302020302020300A2020202D322E3535353920202020312E3434333820202020302E303030302043202020302020302020302020302020302020302020302020302020302020302020302020300A2020312020322020312020302020202020200A2020322020332020312020302020202020200A2020332020342020312020302020202020200A2020342020352020312020302020202020200A2020352020362020322020302020202020200A2020362020372020312020302020202020200A2020372020382020312020302020202020200A2020382020392020312020302020202020200A2020392031302020322020302020202020200A2031302031312020312020302020202020200A2020322031322020312020302020202020200A2031302031332020312020302020202020200A2020322031342020312020302020202020200A2031322031352020312020302020202020200A2031352031362020312020302020202020200A2031362031322020312020302020202020200A2020352031372020312020302020202020200A2020362031382020312020302020202020200A4D2020454E44
Contributor: KURARAY CO., LTD.
InstType: EI
InstName: JEOL JMS-D-300
IoniMethod: _ENERGY 70 eV
IonPolarity: pos
Date: 2010-10-09 19:48:36+02:00
Num Peaks: 79
27 60 28 50 29 90 31 6 39 50 41 460 42 40 43 58 44 100 45 730 
53 60 52 2 55 310 56 20 57 20 58 16 59 310 65 20 67 260 68 4 
69 999 70 80 71 70 72 6 73 330 74 150 75 30 77 2 79 60 81 240 
82 840 83 23 84 20 85 30 87 150 88 5 89 260 90 20 91 20 93 5 
94 60 95 330 96 60 97 6 99 40 101 40 103 100 105 2 107 60 108 40 
109 280 110 4 113 90 114 20 115 20 116 2 117 40 121 70 122 20 123 13 
124 30 127 20 131 30 133 8 135 80 139 30 147 20 149 7 150 60 151 60 
153 100 159 2 164 60 165 30 177 30 191 17 192 20 209 140 220 18 
