Name: MassBank: JP012125
MW: 224
Formula: C13H20O3
Synonym: MassBank: JP012125
Synonym: METHYL (1S,2R,(4A)R,(8A)R)-1,2,3,5,6,7,8,(8A)-OCTAHYDRO-2-METHYLNAPHTHALEN-4(4A)H-ONE-1-CARBOXYLATE
Structure: 313135355F4D455448594C202831532C32522C28344129522C2838412952292D312C322C332C352C362C372C382C283841292D4F435441485944524F2D322D4D455448594C4E4150485448414C454E2D3428344129482D4F4E452D312D434152424F58594C4154452E6D6F6C0A20204368656D447261773130323031303230343932440A2031382031392020302020302020302020302020302020302020302020303939392056323030300A2020202D302E3335373220202020302E3631383720202020302E303030302043202020302020302020302020302020302020302020302020302020302020302020302020300A2020202D312E3037313720202020302E3230363220202020302E303030302043202020302020302020302020302020302020302020302020302020302020302020302020300A2020202D312E303731372020202D302E3631383820202020302E303030302043202020302020302020302020302020302020302020302020302020302020302020302020300A2020202D302E333537322020202D312E3033313320202020302E303030302043202020302020302020302020302020302020302020302020302020302020302020302020300A20202020302E333537322020202D302E3631383820202020302E303030302043202020302020302020302020302020302020302020302020302020302020302020302020300A20202020312E303731372020202D312E3033313320202020302E303030302043202020302020302020302020302020302020302020302020302020302020302020302020300A20202020312E373836312020202D302E3631383820202020302E303030302043202020302020302020302020302020302020302020302020302020302020302020302020300A20202020312E3738363120202020302E3230363220202020302E303030302043202020302020302020302020302020302020302020302020302020302020302020302020300A20202020312E3037313720202020302E3631383820202020302E303030302043202020302020302020302020302020302020302020302020302020302020302020302020300A20202020302E3335373220202020302E3230363220202020302E303030302043202020302020302020302020302020302020302020302020302020302020302020302020300A2020202D302E3335373220202020312E3434333720202020302E303030302043202020302020302020302020302020302020302020302020302020302020302020302020300A2020202D312E3037313720202020312E3835363220202020302E30303030204F202020302020302020302020302020302020302020302020302020302020302020302020300A20202020302E3335373220202020312E3835363220202020302E30303030204F202020302020302020302020302020302020302020302020302020302020302020302020300A2020202D312E3738363120202020302E3631383720202020302E303030302043202020302020302020302020302020302020302020302020302020302020302020302020300A2020202D302E333537322020202D312E3835363220202020302E30303030204F202020302020302020302020302020302020302020302020302020302020302020302020300A20202020312E3037313720202020312E3434333720202020302E303030302043202020302020302020302020302020302020302020302020302020302020302020302020300A20202020302E343235382020202D312E3434303920202020302E303030302048202020302020302020302020302020302020302020302020302020302020302020302020300A20202020302E3432353520202020312E3032383420202020302E303030302048202020302020302020302020302020302020302020302020302020302020302020302020300A2020312020322020312020302020202020200A2020322020332020312020302020202020200A2020332020342020312020302020202020200A2020342020352020312020302020202020200A2020352020362020312020302020202020200A2020362020372020312020302020202020200A2020372020382020312020302020202020200A2020382020392020312020302020202020200A2020392031302020312020302020202020200A2020312031302020312020302020202020200A2020352031302020312020302020202020200A2031312031322020322020302020202020200A2031312031332020312020302020202020200A2020312031312020312020362020202020200A2020322031342020312020312020202020200A2020342031352020322020302020202020200A2031332031362020312020302020202020200A2020352031372020312020362020202020200A2031302031382020312020312020202020200A4D2020454E44
Contributor: HISAHIRO HAGIWARA, INSTITUTE FOR CHEMICAL REACTION SCIENCE TOHOKU UNIV.
InstType: EI
InstName: JEOL JMS-DX-300
IoniMethod: _ENERGY 70 eV
IonPolarity: pos
Date: 2010-10-09 19:48:36+02:00
Num Peaks: 31
35 53 40 122 41 54 42 51 43 369 44 73 47 227 48 103 49 74 50 47 
53 40 58 153 67 45 69 101 80 47 81 97 82 51 83 999 84 46 85 682 
87 114 114 50 118 47 120 44 122 46 124 228 147 151 149 43 164 72 165 53 
224 86 
