Name: MassBank: JP010109
MW: 230
Formula: C10H15BrO
Synonym: MassBank: JP010109
Synonym: 3-BROMOMETHYL-2,2-DIMETHYL-3-CYCLOPENTENYLETHANAL
Synonym: 1-BROMOMETHYL-2,2-DIMETHYL-3-FORMYLMETHYL-1-CYCLOPENTENE
Structure: 332D42524F4D4F4D455448594C2D322C322D44494D455448594C2D332D4359434C4F50454E54454E594C455448414E414C2E6D6F6C0A20204368656D447261773131313730393233333732440A2031332031332020302020302020302020302020302020302020302020303939392056323030300A20202020312E353531362020202D302E3937363320202020302E303030302043202020302020302020302020302020302020302020302020302020302020302020302020300A20202020312E313339312020202D302E3236313820202020302E303030302043202020302020302020302020302020302020302020302020302020302020302020302020300A20202020322E333736362020202D302E3937363320202020302E30303030204F202020302020302020302020302020302020302020302020302020302020302020302020300A20202020302E333134312020202D302E3236313820202020302E303030302043202020302020302020302020302020302020302020302020302020302020302020302020300A2020202D302E3137303820202020302E3430353620202020302E303030302043202020302020302020302020302020302020302020302020302020302020302020302020300A2020202D302E3935353520202020302E3135303720202020302E303030302043202020302020302020302020302020302020302020302020302020302020302020302020300A2020202D302E393535352020202D302E3637343320202020302E303030302043202020302020302020302020302020302020302020302020302020302020302020302020300A2020202D302E313730382020202D302E3932393320202020302E303030302043202020302020302020302020302020302020302020302020302020302020302020302020300A2020202D302E3530363420202020312E3135393320202020302E303030302043202020302020302020302020302020302020302020302020302020302020302020302020300A20202020302E3534333620202020302E3831383120202020302E303030302043202020302020302020302020302020302020302020302020302020302020302020302020300A2020202D312E3632323920202020302E3633353620202020302E303030302043202020302020302020302020302020302020302020302020302020302020302020302020300A2020202D322E3337363620202020302E3330303020202020302E303030302042722020302020302020302020302020302020302020302020302020302020302020302020300A2020202D312E363232392020202D312E3135393320202020302E303030302048202020302020302020302020302020302020302020302020302020302020302020302020300A2020312020322020312020302020202020200A2020312020332020322020302020202020200A2020342020352020312020302020202020200A2020352020362020312020302020202020200A2020362020372020322020302020202020200A2020372020382020312020302020202020200A2020342020382020312020302020202020200A2020322020342020312020302020202020200A2020352020392020312020362020202020200A2020352031302020312020312020202020200A2031312031322020312020302020202020200A2020362031312020312020302020202020200A2020372031332020312020302020202020200A4D2020454E44
Contributor: KURARAY CO., LTD.
InstType: EI
InstName: JEOL JMS-D-300
IoniMethod: _ENERGY 70 eV
IonPolarity: pos
Date: 2010-10-09 19:48:36+02:00
Num Peaks: 45
39 60 40 9 41 95 43 3 51 26 52 13 53 60 55 4 65 34 66 9 
67 54 68 1 69 26 77 52 78 11 79 11 80 11 81 43 91 155 92 6 
93 80 94 17 95 21 105 5 106 99 107 999 108 112 109 17 110 17 117 7 
118 10 121 1 123 23 133 11 135 17 150 9 151 86 152 9 171 7 173 3 
175 17 186 52 187 9 188 5 189 7 
