Name: 4-METHOXY-3-(TRIMETHYLSILYL)METHYL-1-OCTENE
MW: 228
Formula: C13H28OSi
Synonym: MassBank: JP011386
Synonym: 4-METHOXY-3-(TRIMETHYLSILYL)METHYL-1-OCTENE
Structure: 342D4D4554484F58592D332D285452494D455448594C53494C594C294D455448594C2D312D4F4354454E452E6D6F6C0A20204368656D447261773034323031303131333332440A2031352031342020302020302020302020302020302020302020302020303939392056323030300A2020202D322E353030362020202D302E3135313020202020302E303030302043202020302020302020302020302020302020302020302020302020302020302020302020300A2020202D312E373836322020202D302E3536333520202020302E303030302043202020302020302020302020302020302020302020302020302020302020302020302020300A2020202D312E303731372020202D302E3135313020202020302E303030302043202020302020302020302020302020302020302020302020302020302020302020302020300A2020202D302E333537322020202D302E3536333520202020302E303030302043202020302020302020302020302020302020302020302020302020302020302020302020300A20202020302E333537322020202D302E3135313020202020302E303030302043202020302020302020302020302020302020302020302020302020302020302020302020300A20202020312E303731372020202D302E3536333520202020302E303030302043202020302020302020302020302020302020302020302020302020302020302020302020300A20202020312E373836322020202D302E3135313020202020302E303030302043202020302020302020302020302020302020302020302020302020302020302020302020300A20202020322E353030362020202D302E3536333520202020302E303030302043202020302020302020302020302020302020302020302020302020302020302020302020300A2020202D312E3037313720202020302E3637343020202020302E303030302043202020302020302020302020302020302020302020302020302020302020302020302020300A2020202D302E333537322020202D312E3338383520202020302E30303030204F202020302020302020302020302020302020302020302020302020302020302020302020300A20202020302E333537322020202D312E3830313020202020302E303030302043202020302020302020302020302020302020302020302020302020302020302020302020300A2020202D302E3335373220202020312E3038363520202020302E303030302053692020302020302020302020302020302020302020302020302020302020302020302020300A20202020302E3335373220202020312E3439393020202020302E303030302043202020302020302020302020302020302020302020302020302020302020302020302020300A2020202D302E3736393720202020312E3830313020202020302E303030302043202020302020302020302020302020302020302020302020302020302020302020302020300A20202020302E3035353320202020302E3337323020202020302E303030302043202020302020302020302020302020302020302020302020302020302020302020302020300A2020312020322020322020302020202020200A2020322020332020312020302020202020200A2020332020342020312020302020202020200A2020342020352020312020302020202020200A2020352020362020312020302020202020200A2020362020372020312020302020202020200A2020372020382020312020302020202020200A2020332020392020312020302020202020200A2031302031312020312020302020202020200A2020342031302020312020302020202020200A2020392031322020312020302020202020200A2031322031332020312020302020202020200A2031322031342020312020312020202020200A2031322031352020312020312020202020200A4D2020454E44
Contributor: HISAHIRO HAGIWARA, INSTITUTE FOR CHEMICAL REACTION SCIENCE TOHOKU UNIV.
InstType: EI
InstName: JEOL JMS-DX-300
IoniMethod: _ENERGY 70 eV
IonPolarity: pos
Date: 2010-10-09 19:48:36+02:00
Num Peaks: 41
39 15 41 99 42 10 43 46 44 16 45 367 46 13 53 10 54 15 55 29 
57 11 58 29 59 105 60 10 67 71 68 16 69 291 70 52 71 58 72 14 
73 329 74 35 75 30 77 14 81 14 82 23 83 10 85 12 89 295 90 30 
91 15 95 14 96 14 97 26 101 999 102 114 103 18 124 22 127 13 128 16 
197 10 
