Name: (1S)-(-)-CAMPHOR
CAS: 464-48-2
MW: 152
Formula: C10H16O
Synonym: MassBank: JP011329
Synonym: (1S)-(-)-CAMPHOR
Structure: 283153292D282D292D43414D50484F522E6D6F6C0A20204368656D447261773130313930393134303132440A2031322031332020302020302020302020302020302020302020302020303939392056323030300A2020202D302E3731333920202020302E3030303020202020302E303030302043202020302020302020302020302020302020302020302020302020302020302020302020300A2020202D302E373133392020202D302E3832353020202020302E303030302043202020302020302020302020302020302020302020302020302020302020302020302020300A20202020302E303030352020202D312E3233373520202020302E303030302043202020302020302020302020302020302020302020302020302020302020302020302020300A20202020302E373135302020202D302E3832353020202020302E303030302043202020302020302020302020302020302020302020302020302020302020302020302020300A20202020302E3731353020202020302E3030303020202020302E303030302043202020302020302020302020302020302020302020302020302020302020302020302020300A20202020302E3030303520202020302E3431323520202020302E303030302043202020302020302020302020302020302020302020302020302020302020302020302020300A20202020302E3030303520202020312E3233373520202020302E30303030204F202020302020302020302020302020302020302020302020302020302020302020302020300A20202020302E303832392020202D302E3231333520202020302E303030302043202020302020302020302020302020302020302020302020302020302020302020302020300A20202020312E343239352020202D312E3233373520202020302E303030302048202020302020302020302020302020302020302020302020302020302020302020302020300A20202020302E3439343220202020302E3530313920202020302E303030302043202020302020302020302020302020302020302020302020302020302020302020302020300A2020202D312E3432393520202020302E3431323520202020302E303030302043202020302020302020302020302020302020302020302020302020302020302020302020300A2020202D302E333330382020202D302E3932363720202020302E303030302043202020302020302020302020302020302020302020302020302020302020302020302020300A2020312020322020312020302020202020200A2020322020332020312020302020202020200A2020332020342020312020302020202020200A2020342020352020312020302020202020200A2020352020362020312020302020202020200A2020362020312020312020302020202020200A2020362020372020322020302020202020200A2020312020382020312020312020202020200A2020342020382020312020312020202020200A2020342020392020312020362020202020200A2020382031302020312020312020202020200A2020312031312020312020362020202020200A2020382031322020312020312020202020200A4D202053545920203120202031205355500A4D2020534C4220203120202031202020310A4D202053414C20202031202031202031300A4D202053424C20202031202031202031310A4D2020534D5420202031204D650A4D2020534256202020312031312020202D362E3235303120202020372E393534380A4D202053545920203120202032205355500A4D2020534C4220203120202032202020320A4D202053414C20202032202031202031310A4D202053424C20202032202031202031320A4D2020534D5420202032204D650A4D2020534256202020322031322020202D372E3337363920202020372E363531390A4D202053545920203120202033205355500A4D2020534C4220203120202033202020330A4D202053414C20202033202031202031320A4D202053424C20202033202031202031330A4D2020534D5420202033204D650A4D2020534256202020332031332020202D372E3037353120202020362E353236320A4D2020454E44
Contributor: YAMAMOTO M, DEP. CHEMISTRY, FAC. SCIENCE, NARA WOMEN'S UNIV.
InstType: EI
InstName: HITACHI M-2500
IoniMethod: _ENERGY 70 eV
IonPolarity: pos
Date: 2010-10-09 19:48:36+02:00
Num Peaks: 32
18 28 30 26 55 10 68 18 69 22 79 13 80 152 81 282 82 29 83 26 
86 18 87 15 93 38 94 12 95 212 96 27 97 21 100 11 108 689 109 165 
110 162 111 23 123 12 124 20 136 11 137 38 138 34 144 43 150 10 152 999 
153 125 154 13 
