Name: MassBank: JP010711
MW: 248
Formula: C14H16O4
Synonym: MassBank: JP010711
Synonym: (2Z)-2-(2,4-HEXADIYNYLIDENE)-3,4-DIHYDROXY-1,6-DIOXASPIRO(4,5)DECANE
Structure: 28325A292D322D28322C342D484558414449594E594C4944454E45292D332C342D4449485944524F58592D312C362D44494F5841535049524F28342C3529444543414E452E6D6F6C0A20204368656D447261773130323030393232353332440A2031392032302020302020302020302020302020302020302020302020303939392056323030300A2020202D322E3137303620202020312E3737333920202020302E303030302043202020302020302020302020302020302020302020302020302020302020302020302020300A2020202D312E3735383120202020322E3438383420202020302E303030302043202020302020302020302020302020302020302020302020302020302020302020302020300A2020202D302E3933343020202020322E3438383420202020302E303030302043202020302020302020302020302020302020302020302020302020302020302020302020300A2020202D302E3532313220202020312E3737333520202020302E303030302043202020302020302020302020302020302020302020302020302020302020302020302020300A2020202D302E3933333720202020312E3035393120202020302E30303030204F202020302020302020302020302020302020302020302020302020302020302020302020300A2020202D312E3735383120202020312E3035393120202020302E303030302043202020302020302020302020302020302020302020302020302020302020302020302020300A2020202D302E3033353220202020322E3434303820202020302E303030302043202020302020302020302020302020302020302020302020302020302020302020302020300A20202020302E3734363720202020322E3139303820202020302E303030302043202020302020302020302020302020302020302020302020302020302020302020302020300A20202020302E3734363720202020312E3336313520202020302E303030302043202020302020302020302020302020302020302020302020302020302020302020302020300A2020202D302E3033333620202020312E3130373120202020302E30303030204F202020302020302020302020302020302020302020302020302020302020302020302020300A20202020312E3332393020202020322E3737333120202020302E30303030204F202020302020302020302020302020302020302020302020302020302020302020302020300A2020202D302E3239323120202020332E3232343820202020302E30303030204F202020302020302020302020302020302020302020302020302020302020302020302020300A20202020312E3431383320202020302E3837393220202020302E303030302043202020302020302020302020302020302020302020302020302020302020302020302020300A20202020322E3137303620202020312E3231373820202020302E303030302048202020302020302020302020302020302020302020302020302020302020302020302020300A20202020312E3333353320202020302E3035383420202020302E303030302043202020302020302020302020302020302020302020302020302020302020302020302020300A20202020312E323532342020202D302E3736323320202020302E303030302043202020302020302020302020302020302020302020302020302020302020302020302020300A20202020312E313639342020202D312E3538333120202020302E303030302043202020302020302020302020302020302020302020302020302020302020302020302020300A20202020312E303836342020202D322E3430333920202020302E303030302043202020302020302020302020302020302020302020302020302020302020302020302020300A20202020312E303033342020202D332E3232343820202020302E303030302043202020302020302020302020302020302020302020302020302020302020302020302020300A2020312020322020312020302020202020200A2020322020332020312020302020202020200A2020332020342020312020302020202020200A2020342020352020312020302020202020200A2020352020362020312020302020202020200A2020362020312020312020302020202020200A2020342020372020312020302020202020200A2020372020382020312020302020202020200A2020382020392020312020302020202020200A2020392031302020312020302020202020200A2031302020342020312020302020202020200A2020382031312020312020302020202020200A2020372031322020312020302020202020200A2020392031332020322020302020202020200A2031332031342020312020302020202020200A2031332031352020312020302020202020200A2031352031362020332020302020202020200A2031362031372020312020302020202020200A2031372031382020332020302020202020200A2031382031392020312020302020202020200A4D2020454E44
Contributor: EGUCHI S, FAC. OF SCIENCE, HIROSHIMA UNIV.
InstType: EI
InstName: HITACHI RMU-6L
IoniMethod: _ENERGY 70 eV
IonPolarity: pos
Date: 2010-10-09 19:48:36+02:00
Num Peaks: 107
41 650 42 165 43 430 44 8 45 130 50 320 51 320 52 12 53 135 54 40 
55 370 56 7 57 240 58 330 59 70 60 7 61 20 62 45 63 120 64 6 
65 95 66 45 67 300 68 10 69 105 70 75 71 290 72 6 73 305 74 75 
75 105 76 30 77 280 78 95 79 185 80 8 81 80 82 30 83 135 84 5 
85 300 86 45 87 90 88 5 89 100 90 155 91 105 92 2 93 30 94 20 
95 140 96 5 97 70 98 40 99 30 101 6 102 35 103 45 104 110 105 5 
106 45 107 130 108 50 109 3 111 30 112 20 113 999 114 59 115 95 116 25 
117 40 118 9 119 50 121 90 122 25 125 5 126 180 127 50 128 30 129 3 
131 50 132 30 133 45 134 2 135 100 136 500 137 50 141 4 143 70 144 25 
145 50 146 4 147 20 148 20 149 20 159 3 160 20 161 30 173 45 174 3 
175 20 202 20 203 20 230 2 231 40 248 210 249 40 
