Name: MassBank: JP011560
MW: 86
Formula: C6H14
Synonym: MassBank: JP011560
Synonym: 2,2-DIMETHYLBUTANE
Structure: 310A31360A322C322D44494D455448594C425554414E452E6D6F6C0A20204368656D447261773132323030393036353132440A2020362020352020302020302020302020302020302020302020302020303939392056323030300A20202020302E303535332020202D302E3731343520202020302E303030302043202020302020302020302020302020302020302020302020302020302020302020302020300A2020202D302E3335373220202020302E3030303020202020302E303030302043202020302020302020302020302020302020302020302020302020302020302020302020300A20202020302E3335373220202020302E3431323520202020302E303030302043202020302020302020302020302020302020302020302020302020302020302020302020300A20202020312E3037313720202020302E3030303020202020302E303030302043202020302020302020302020302020302020302020302020302020302020302020302020300A2020202D312E303731372020202D302E3431323520202020302E303030302043202020302020302020302020302020302020302020302020302020302020302020302020300A2020202D302E3736393720202020302E3731343520202020302E303030302043202020302020302020302020302020302020302020302020302020302020302020302020300A2020322020312020312020312020202020200A2020322020332020312020302020202020200A2020332020342020312020302020202020200A2020322020352020312020302020202020200A2020322020362020312020312020202020200A4D2020454E44
Contributor: YAMAMOTO M, DEP. CHEMISTRY, FAC. SCIENCE, NARA WOMEN'S UNIV.
InstType: EI
InstName: HITACHI RMU-6M
IoniMethod: _ENERGY 20 eV
IonPolarity: pos
Date: 2010-10-09 19:48:36+02:00
Num Peaks: 18
27 14 28 19 29 158 32 7 39 9 41 282 42 20 43 802 44 30 53 8 
55 75 56 330 57 999 58 42 69 5 70 46 71 860 72 46 
