Name: 2-TERT-BUTYL-5-METHYLPHENOL
CAS: 88-60-8
MW: 164
Formula: C11H16O
Synonym: MassBank: JP010537
Synonym: 2-TERT-BUTYL-5-METHYLPHENOL
Synonym: 6-TERT-BUTYL-META-CRESOL
Structure: 322D544552542D425554594C2D352D4D455448594C5048454E4F4C2E6D6F6C0A20204368656D447261773032323131303136313432440A2031322031322020302020302020302020302020302020302020302020303939392056323030300A20202020302E343132352020202D302E3030303020202020302E303030302043202020302020302020302020302020302020302020302020302020302020302020302020300A2020202D302E3330323020202020302E3431323520202020302E303030302043202020302020302020302020302020302020302020302020302020302020302020302020300A2020202D312E303136342020202D302E3030303020202020302E303030302043202020302020302020302020302020302020302020302020302020302020302020302020300A2020202D312E303136342020202D302E3832353020202020302E303030302043202020302020302020302020302020302020302020302020302020302020302020302020300A2020202D302E333032302020202D312E3233373520202020302E303030302043202020302020302020302020302020302020302020302020302020302020302020302020300A20202020302E343132352020202D302E3832353020202020302E303030302043202020302020302020302020302020302020302020302020302020302020302020302020300A2020202D302E333032302020202D322E3036323520202020302E303030302043202020302020302020302020302020302020302020302020302020302020302020302020300A2020202D302E3330323020202020312E3233373520202020302E303030302043202020302020302020302020302020302020302020302020302020302020302020302020300A2020202D312E3132373020202020312E3233373520202020302E303030302043202020302020302020302020302020302020302020302020302020302020302020302020300A20202020302E3532333020202020312E3233373520202020302E303030302043202020302020302020302020302020302020302020302020302020302020302020302020300A2020202D302E3330323020202020322E3036323520202020302E303030302043202020302020302020302020302020302020302020302020302020302020302020302020300A20202020312E3132373020202020302E3431323520202020302E30303030204F202020302020302020302020302020302020302020302020302020302020302020302020300A2020312020322020312020302020202020200A2020322020332020322020302020202020200A2020332020342020312020302020202020200A2020342020352020322020302020202020200A2020352020362020312020302020202020200A2020312020362020322020302020202020200A2020352020372020312020302020202020200A2020382020392020312020302020202020200A2020382031312020312020302020202020200A2020382031302020312020302020202020200A2020322020382020312020302020202020200A2020312031322020312020302020202020200A4D2020454E44
Contributor: NARA WOMEN'S UNIVERSITY
InstType: EI
InstName: HITACHI M-80
IoniMethod: _ENERGY 70 eV
IonPolarity: pos
Date: 2010-10-09 19:48:36+02:00
Num Peaks: 39
15 11 27 31 28 17 40 45 42 53 44 11 52 23 54 24 56 12 63 16 
65 25 77 78 78 22 79 26 91 111 92 13 93 15 103 20 105 57 107 32 
108 13 109 44 115 53 116 50 117 10 119 12 121 613 122 64 128 15 129 21 
131 15 133 22 135 12 147 14 148 18 149 999 150 110 164 375 165 47 
