Name: ORTHO-HYDROXYACETHOPHENONE
MW: 136
Formula: C8H8O2
Synonym: MassBank: JP011797
Synonym: ORTHO-HYDROXYACETHOPHENONE
Synonym: 2-ACETYLPHENOL
Structure: 4F5254484F2D485944524F585941434554484F5048454E4F4E452E6D6F6C0A20204368656D447261773132323130393232303332440A2031302031302020302020302020302020302020302020302020302020303939392056323030300A2020202D302E323036322020202D302E3335373220202020302E303030302043202020302020302020302020302020302020302020302020302020302020302020302020300A20202020302E3230363220202020302E3335373220202020302E303030302043202020302020302020302020302020302020302020302020302020302020302020302020300A2020202D302E3230363220202020312E3037313720202020302E303030302043202020302020302020302020302020302020302020302020302020302020302020302020300A2020202D312E3033313320202020312E3037313720202020302E303030302043202020302020302020302020302020302020302020302020302020302020302020302020300A2020202D312E3434333820202020302E3335373220202020302E303030302043202020302020302020302020302020302020302020302020302020302020302020302020300A2020202D312E303331332020202D302E3335373220202020302E303030302043202020302020302020302020302020302020302020302020302020302020302020302020300A20202020312E3033313320202020302E3335373220202020302E303030302043202020302020302020302020302020302020302020302020302020302020302020302020300A20202020312E3434333820202020312E3037313720202020302E30303030204F202020302020302020302020302020302020302020302020302020302020302020302020300A20202020312E343433382020202D302E3335373220202020302E303030302043202020302020302020302020302020302020302020302020302020302020302020302020300A20202020302E323036322020202D312E3037313720202020302E30303030204F202020302020302020302020302020302020302020302020302020302020302020302020300A2020312020322020312020302020202020200A2020322020332020322020302020202020200A2020332020342020312020302020202020200A2020342020352020322020302020202020200A2020352020362020312020302020202020200A2020312020362020322020302020202020200A2020372020382020322020302020202020200A2020372020392020312020302020202020200A2020322020372020312020302020202020200A2020312031302020312020302020202020200A4D2020454E44
Contributor: TAJIMA S, GUNMA COLLEGE OF TECHNOLOGY
InstType: EI
InstName: HITACHI M-80A
IoniMethod: _ENERGY 70 eV
IonPolarity: pos
Date: 2010-10-09 19:48:36+02:00
Num Peaks: 50
15 140 16 31 27 143 29 118 31 14 37 110 38 291 39 978 40 67 41 31 
42 116 43 683 44 19 49 37 50 256 51 295 52 88 53 296 54 26 55 54 
61 107 62 238 63 522 64 228 65 944 66 145 67 29 69 14 73 23 74 99 
75 60 76 35 77 198 78 53 79 59 81 21 85 12 86 18 87 15 89 61 
90 63 91 19 92 113 93 272 94 43 107 32 121 999 122 86 136 222 137 27 
