Name: MassBank: JP011899
CAS: 126-81-8
MW: 140
Formula: C8H12O2
Synonym: MassBank: JP011899
Synonym: 5,5-DIMETHYL-1,3-CYCLOHEXANEDIONE
Synonym: DIMEDONE
Structure: 352C352D44494D455448594C2D312C332D4359434C4F484558414E4544494F4E452E6D6F6C0A20204368656D447261773034323331303032313832440A2031302031302020302020302020302020302020302020302020302020303939392056323030300A20202020302E3034393020202020302E3539333920202020302E303030302043202020302020302020302020302020302020302020302020302020302020302020302020300A20202020302E3736333520202020302E3138313420202020302E303030302043202020302020302020302020302020302020302020302020302020302020302020302020300A20202020302E373633352020202D302E3634333620202020302E303030302043202020302020302020302020302020302020302020302020302020302020302020302020300A20202020302E303439302020202D312E3035363120202020302E303030302043202020302020302020302020302020302020302020302020302020302020302020302020300A2020202D302E363635352020202D302E3634333620202020302E303030302043202020302020302020302020302020302020302020302020302020302020302020302020300A2020202D302E3636353520202020302E3138313420202020302E303030302043202020302020302020302020302020302020302020302020302020302020302020302020300A20202020302E3034393020202020312E3431383920202020302E30303030204F202020302020302020302020302020302020302020302020302020302020302020302020300A20202020312E343737392020202D312E3035363120202020302E30303030204F202020302020302020302020302020302020302020302020302020302020302020302020300A2020202D302E393437362020202D312E3431383920202020302E303030302043202020302020302020302020302020302020302020302020302020302020302020302020300A2020202D312E343737392020202D302E3530303420202020302E303030302043202020302020302020302020302020302020302020302020302020302020302020302020300A2020312020322020312020302020202020200A2020322020332020312020302020202020200A2020332020342020312020302020202020200A2020342020352020312020302020202020200A2020352020362020312020302020202020200A2020312020362020312020302020202020200A2020312020372020322020302020202020200A2020332020382020322020302020202020200A2020352020392020312020362020202020200A2020352031302020312020312020202020200A4D2020454E44
Contributor: YAMAMOTO M, DEP. CHEMISTRY, FAC. SCIENCE, NARA WOMEN'S UNIV.
InstType: EI
InstName: HITACHI M-2500
IoniMethod: _ENERGY 70 eV
IonPolarity: pos
Date: 2010-10-09 19:48:36+02:00
Num Peaks: 34
15 19 18 12 26 17 27 137 28 62 29 97 38 21 39 224 40 50 41 296 
42 186 43 115 50 19 51 30 52 13 53 65 54 27 55 439 56 550 57 34 
67 13 69 55 70 184 71 11 82 16 83 999 84 163 85 10 97 119 112 231 
113 17 125 34 140 360 141 36 
