Name: MassBank: JP010628
MW: 288
Formula: C20H32O
Synonym: MassBank: JP010628
Synonym: (3E,7E,11E)-2-HYDROXYCEMBRA-3,7,11,15-TETRAENE
Synonym: MAYOL
Structure: 2833452C37452C313145292D322D485944524F585943454D4252412D332C372C31312C31352D5445545241454E452E6D6F6C0A20204368656D447261773130323130393033323632440A2032362032362020302020302020302020302020302020302020302020303939392056323030300A2020202D312E3539333520202020302E3633333320202020302E303030302043202020302020302020302020302020302020302020302020302020302020302020302020300A2020202D312E353933352020202D302E3139313720202020302E303030302043202020302020302020302020302020302020302020302020302020302020302020302020300A2020202D312E303130322020202D302E3737353020202020302E303030302043202020302020302020302020302020302020302020302020302020302020302020302020300A2020202D302E313835322020202D302E3737353020202020302E303030302043202020302020302020302020302020302020302020302020302020302020302020302020300A20202020302E333938322020202D302E3139313720202020302E303030302043202020302020302020302020302020302020302020302020302020302020302020302020300A20202020302E3339383220202020302E3633333320202020302E303030302043202020302020302020302020302020302020302020302020302020302020302020302020300A2020202D302E3138353220202020312E3231363720202020302E303030302043202020302020302020302020302020302020302020302020302020302020302020302020300A2020202D312E3031303220202020312E3231363720202020302E303030302043202020302020302020302020302020302020302020302020302020302020302020302020300A20202020302E393831352020202D302E3737353020202020302E303030302043202020302020302020302020302020302020302020302020302020302020302020302020300A20202020312E383036352020202D302E3737353020202020302E303030302043202020302020302020302020302020302020302020302020302020302020302020302020300A20202020322E333839392020202D302E3139313720202020302E303030302043202020302020302020302020302020302020302020302020302020302020302020302020300A20202020322E3338393920202020302E3633333320202020302E303030302043202020302020302020302020302020302020302020302020302020302020302020302020300A20202020312E3830363520202020312E3231363720202020302E303030302043202020302020302020302020302020302020302020302020302020302020302020302020300A20202020302E3938313520202020312E3231363720202020302E303030302043202020302020302020302020302020302020302020302020302020302020302020302020300A20202020302E3736383420202020322E3031323520202020302E303030302048202020302020302020302020302020302020302020302020302020302020302020302020300A20202020312E3539333420202020302E3031363620202020302E303030302048202020302020302020302020302020302020302020302020302020302020302020302020300A2020202D322E3335333520202020302E3934353820202020302E303030302048202020302020302020302020302020302020302020302020302020302020302020302020300A2020202D322E333839392020202D302E3430373420202020302E303030302048202020302020302020302020302020302020302020302020302020302020302020302020300A2020202D312E353838392020202D312E3336323120202020302E303030302048202020302020302020302020302020302020302020302020302020302020302020302020300A2020202D322E303031302020202D302E3931313020202020302E30303030204F202020302020302020302020302020302020302020302020302020302020302020302020300A2020202D312E303033342020202D312E3630313620202020302E303030302043202020302020302020302020302020302020302020302020302020302020302020302020300A2020202D312E373234362020202D322E3031323520202020302E303030302043202020302020302020302020302020302020302020302020302020302020302020302020300A2020202D302E323935372020202D322E3031323520202020302E303030302043202020302020302020302020302020302020302020302020302020302020302020302020300A20202020312E3539323720202020302E3333343820202020302E303030302043202020302020302020302020302020302020302020302020302020302020302020302020300A2020202D302E3739363820202020302E3432303120202020302E303030302043202020302020302020302020302020302020302020302020302020302020302020302020300A20202020302E353638362020202D312E3439333920202020302E303030302043202020302020302020302020302020302020302020302020302020302020302020302020300A2020312020322020312020302020202020200A2020322020332020312020302020202020200A2020332020342020312020302020202020200A2020342020352020312020302020202020200A2020362020372020312020302020202020200A2020372020382020312020302020202020200A2020382020312020322020302020202020200A2020352020392020312020302020202020200A2020392031302020322020302020202020200A2031302031312020312020302020202020200A2031312031322020312020302020202020200A2031322031332020312020302020202020200A2031332031342020322020302020202020200A2031342020362020312020302020202020200A2031342031352020312020302020202020200A2031302031362020312020302020202020200A2020312031372020312020302020202020200A2020322031382020312020312020202020200A2020332031392020312020312020202020200A2020322032302020312020362020202020200A2020332032312020312020362020202020200A2032312032322020322020302020202020200A2032312032332020312020302020202020200A2031332032342020312020302020202020200A2020382032352020312020302020202020200A2020392032362020312020302020202020200A4D202053545920203120202031205355500A4D2020534C4220203120202031202020310A4D202053414C20202031202031202032340A4D202053424C20202031202031202032340A4D2020534D5420202031204D650A4D2020534256202020312032342020202D372E3830303420202020352E383438310A4D202053545920203120202032205355500A4D2020534C4220203120202032202020320A4D202053414C20202032202031202032350A4D202053424C20202032202031202032350A4D2020534D5420202032204D650A4D2020534256202020322032352020202D372E3337333220202020352E393333340A4D202053545920203120202033205355500A4D2020534C4220203120202033202020330A4D202053414C20202033202031202032360A4D202053424C20202033202031202032360A4D2020534D5420202033204D650A4D2020534256202020332032362020202D372E3939393520202020362E303131310A4D2020454E44
Contributor: EGUCHI S, FAC. OF SCIENCE, HIROSHIMA UNIV.
InstType: EI
InstName: HITACHI RMU-6L
IoniMethod: _ENERGY 70 eV
IonPolarity: pos
Date: 2010-10-09 19:48:36+02:00
Num Peaks: 143
41 388 42 47 43 129 44 1 53 180 54 470 55 353 56 9 57 176 59 24 
65 82 66 6 67 353 68 859 69 999 70 8 71 129 72 12 77 141 78 5 
79 247 80 129 81 824 82 14 83 212 84 941 85 118 86 1 91 141 92 94 
93 518 94 20 95 365 96 82 97 118 98 1 99 12 105 153 106 71 107 32 
108 129 109 306 110 71 111 5 113 24 115 24 116 12 117 2 118 12 119 165 
120 71 121 42 122 129 123 388 124 118 125 4 126 24 127 12 131 59 132 2 
133 118 134 141 135 235 136 57 137 318 138 82 139 24 145 8 146 35 147 141 
148 118 149 17 150 94 151 71 152 36 153 1 157 24 158 12 159 94 160 4 
161 141 162 59 163 71 164 5 165 35 166 24 167 12 173 4 174 24 175 106 
176 35 177 8 178 35 179 12 185 35 186 1 187 47 188 24 189 82 190 2 
191 94 192 36 193 12 199 4 201 71 202 47 203 35 204 15 205 82 206 47 
207 24 208 1 213 24 214 12 215 24 216 1 217 59 218 24 219 24 220 1 
227 35 228 12 229 6 230 1 231 36 232 24 245 71 246 2 253 24 254 12 
255 29 257 1 259 12 260 24 261 12 270 6 271 24 272 12 273 35 274 1 
288 224 289 71 290 12 
