Name: BIS(3-METHYL-2-BUTENYL) ETHER
MW: 154
Formula: C10H18O
Synonym: MassBank: JP010930
Synonym: BIS(3-METHYL-2-BUTENYL) ETHER
Structure: 42495328332D4D455448594C2D322D425554454E594C292045544845522E6D6F6C0A20204368656D447261773039303531303232303532440A2031312031302020302020302020302020302020302020302020302020303939392056323030300A2020202D302E303030302020202D302E3631383820202020302E30303030204F202020302020302020302020302020302020302020302020302020302020302020302020300A20202020302E373134352020202D302E3230363220202020302E303030302043202020302020302020302020302020302020302020302020302020302020302020302020300A20202020312E343238392020202D302E3631383820202020302E303030302043202020302020302020302020302020302020302020302020302020302020302020302020300A20202020322E313433342020202D302E3230363220202020302E303030302043202020302020302020302020302020302020302020302020302020302020302020302020300A20202020322E383537392020202D302E3631383720202020302E303030302043202020302020302020302020302020302020302020302020302020302020302020302020300A20202020322E3134333420202020302E3631383820202020302E303030302043202020302020302020302020302020302020302020302020302020302020302020302020300A2020202D302E373134352020202D302E3230363320202020302E303030302043202020302020302020302020302020302020302020302020302020302020302020302020300A2020202D312E343238392020202D302E3631383820202020302E303030302043202020302020302020302020302020302020302020302020302020302020302020302020300A2020202D322E313433342020202D302E3230363320202020302E303030302043202020302020302020302020302020302020302020302020302020302020302020302020300A2020202D322E383537392020202D302E3631383820202020302E303030302043202020302020302020302020302020302020302020302020302020302020302020302020300A2020202D322E3134333420202020302E3631383720202020302E303030302043202020302020302020302020302020302020302020302020302020302020302020302020300A2020322020332020312020302020202020200A2020332020342020322020302020202020200A2020342020352020312020302020202020200A2020342020362020312020302020202020200A2020312020322020312020302020202020200A2020372020382020312020302020202020200A2020382020392020322020302020202020200A2020392031302020312020302020202020200A2020392031312020312020302020202020200A2020312020372020312020302020202020200A4D2020454E44
Contributor: KURARAY CO., LTD.
InstType: EI
InstName: JEOL JMS-D-300
IoniMethod: _ENERGY 70 eV
IonPolarity: pos
Date: 2010-10-09 19:48:36+02:00
Num Peaks: 22
27 91 29 163 39 112 40 15 41 881 42 108 43 63 53 83 55 231 56 20 
57 170 67 116 68 92 69 999 70 328 71 127 83 45 85 386 86 31 110 33 
139 305 140 25 
