Name: MassBank: JP011349
MW: 118
Formula: C4H14Si2
Synonym: MassBank: JP011349
Synonym: 1,1,2,2-TETRAMETHYLDISILANE
Structure: 310A31360A312C312C322C322D54455452414D455448594C444953494C414E452E6D6F6C0A20204368656D447261773130323330393031323632440A2020362020352020302020302020302020302020302020302020302020303939392056323030300A20202020302E3431323520202020302E3030303020202020302E303030302053692020302020302020302020302020302020302020302020302020302020302020302020300A2020202D302E343132352020202D302E3030303020202020302E303030302053692020302020302020302020302020302020302020302020302020302020302020302020300A2020202D302E383235302020202D302E3731343520202020302E303030302043202020302020302020302020302020302020302020302020302020302020302020302020300A2020202D302E3832353020202020302E3731343520202020302E303030302043202020302020302020302020302020302020302020302020302020302020302020302020300A20202020302E3832353020202020302E3731343520202020302E303030302043202020302020302020302020302020302020302020302020302020302020302020302020300A20202020302E383235302020202D302E3731343520202020302E303030302043202020302020302020302020302020302020302020302020302020302020302020302020300A2020312020322020312020302020202020200A2020322020332020312020302020202020200A2020322020342020312020302020202020200A2020312020352020312020302020202020200A2020312020362020312020302020202020200A4D2020454E44
Contributor: YAMAMOTO M, DEP. CHEMISTRY, FAC. SCIENCE, NARA WOMEN'S UNIV.
InstType: EI
InstName: HITACHI RMU-6M
IoniMethod: _ENERGY 70 eV
IonPolarity: pos
Date: 2010-10-09 19:48:36+02:00
Num Peaks: 46
28 34 29 51 31 117 32 11 39 21 42 35 43 414 44 62 45 96 50 21 
51 28 52 31 53 23 55 25 57 30 58 615 59 999 60 91 61 34 69 53 
70 18 71 24 72 15 73 847 74 76 75 34 76 10 77 27 81 15 83 13 
84 10 85 40 86 15 87 30 99 16 100 11 101 73 102 146 103 295 104 46 
105 20 116 13 117 84 118 322 119 52 120 26 
