Name: MassBank: JP010303
MW: 287
Formula: C16H17NO4
Synonym: MassBank: JP010303
Synonym: 4-ETHOXYCARBONYLMETHYL-3-METHYL-1-PARA-TOLYL-3-PYRROLINE-2,5-DIONE
Structure: 342D4554484F5859434152424F4E594C4D455448594C2D332D4D455448594C2D312D504152412D544F4C594C2D332D505952524F4C494E452D322C352D44494F4E452E6D6F6C0A20204368656D447261773033323531303231343932440A2032312032322020302020302020302020302020302020302020302020303939392056323030300A2020202D302E3230393520202020302E3030303020202020302E30303030204E202020302020302020302020302020302020302020302020302020302020302020302020300A20202020302E323735342020202D302E3636373420202020302E303030302043202020302020302020302020302020302020302020302020302020302020302020302020300A20202020312E303630312020202D302E3431323520202020302E303030302043202020302020302020302020302020302020302020302020302020302020302020302020300A20202020312E3036303120202020302E3431323520202020302E303030302043202020302020302020302020302020302020302020302020302020302020302020302020300A20202020302E3237353420202020302E3636373420202020302E303030302043202020302020302020302020302020302020302020302020302020302020302020302020300A20202020302E303230352020202D312E3435323120202020302E30303030204F202020302020302020302020302020302020302020302020302020302020302020302020300A20202020302E3032303520202020312E3435323120202020302E30303030204F202020302020302020302020302020302020302020302020302020302020302020302020300A2020202D312E3033343520202020302E3030303020202020302E303030302043202020302020302020302020302020302020302020302020302020302020302020302020300A2020202D312E3434373020202020302E3731343520202020302E303030302043202020302020302020302020302020302020302020302020302020302020302020302020300A2020202D322E3638343520202020302E3030303020202020302E303030302043202020302020302020302020302020302020302020302020302020302020302020302020300A2020202D312E343437302020202D302E3731343520202020302E303030302043202020302020302020302020302020302020302020302020302020302020302020302020300A2020202D322E3237323020202020302E3731343520202020302E303030302043202020302020302020302020302020302020302020302020302020302020302020302020300A2020202D322E323732302020202D302E3731343520202020302E303030302043202020302020302020302020302020302020302020302020302020302020302020302020300A2020202D332E3530393520202020302E3030303020202020302E303030302043202020302020302020302020302020302020302020302020302020302020302020302020300A20202020312E373237352020202D302E3839373420202020302E303030302043202020302020302020302020302020302020302020302020302020302020302020302020300A20202020312E3732373520202020302E3839373420202020302E303030302043202020302020302020302020302020302020302020302020302020302020302020302020300A20202020322E3438313220202020302E3536313920202020302E303030302043202020302020302020302020302020302020302020302020302020302020302020302020300A20202020332E3134383620202020312E3034363820202020302E30303030204F202020302020302020302020302020302020302020302020302020302020302020302020300A20202020322E363130322020202D302E3235333020202020302E30303030204F202020302020302020302020302020302020302020302020302020302020302020302020300A20202020332E333830342020202D302E3534383620202020302E303030302043202020302020302020302020302020302020302020302020302020302020302020302020300A20202020332E353039352020202D312E3336333520202020302E303030302043202020302020302020302020302020302020302020302020302020302020302020302020300A2020312020322020312020302020202020200A2020322020332020312020302020202020200A2020332020342020322020302020202020200A2020342020352020312020302020202020200A2020312020352020312020302020202020200A2020322020362020322020302020202020200A2020352020372020322020302020202020200A2020382020392020312020302020202020200A2020382031312020322020302020202020200A2020392031322020322020302020202020200A2031302031322020312020302020202020200A2031302031332020322020302020202020200A2031312031332020312020302020202020200A2031302031342020312020302020202020200A2020312020382020312020302020202020200A2020332031352020312020302020202020200A2031372031382020322020302020202020200A2032302032312020312020302020202020200A2031392032302020312020302020202020200A2031372031392020312020302020202020200A2031362031372020312020302020202020200A2020342031362020312020302020202020200A4D2020454E44
Contributor: KANEMASA S, INST. OF ADVANCED MATERIAL STUDY KYUSHU UNIV.
InstType: EI
InstName: JEOL JMS-01-SG-2
IoniMethod: _ENERGY 75 eV
IonPolarity: pos
Date: 2010-10-09 19:48:36+02:00
Num Peaks: 33
38 147 39 158 51 55 52 39 53 119 65 36 67 39 68 124 77 66 78 47 
81 95 90 40 91 83 104 56 117 115 130 34 131 37 132 105 133 63 144 68 
157 103 158 65 172 44 186 40 200 53 201 999 202 137 213 115 214 78 215 74 
242 53 287 371 288 68 
