Name: MassBank: JP010381
MW: 196
Formula: C10H12O4
Synonym: MassBank: JP010381
Synonym: (3,4-DIMETHOXYPHENYL)ACETIC ACID
Structure: 28332C342D44494D4554484F58595048454E594C2941434554494320414349442E6D6F6C0A20204368656D447261773130323030393233303032440A2031342031342020302020302020302020302020302020302020302020303939392056323030300A20202020302E3030303720202020302E3731343520202020302E303030302043202020302020302020302020302020302020302020302020302020302020302020302020300A2020202D302E343131382020202D302E3030303020202020302E303030302043202020302020302020302020302020302020302020302020302020302020302020302020300A20202020302E303030372020202D302E3731343520202020302E303030302043202020302020302020302020302020302020302020302020302020302020302020302020300A20202020302E383235372020202D302E3731343520202020302E303030302043202020302020302020302020302020302020302020302020302020302020302020302020300A20202020312E3233383220202020302E3030303020202020302E303030302043202020302020302020302020302020302020302020302020302020302020302020302020300A20202020302E3832353720202020302E3731343520202020302E303030302043202020302020302020302020302020302020302020302020302020302020302020302020300A20202020312E3233383220202020312E3432383920202020302E30303030204F202020302020302020302020302020302020302020302020302020302020302020302020300A20202020322E3036333220202020302E3030303020202020302E30303030204F202020302020302020302020302020302020302020302020302020302020302020302020300A2020202D312E323336382020202D302E3030303020202020302E303030302043202020302020302020302020302020302020302020302020302020302020302020302020300A20202020322E343734352020202D302E3731333120202020302E303030302043202020302020302020302020302020302020302020302020302020302020302020302020300A2020202D312E363439352020202D302E3731343520202020302E303030302043202020302020302020302020302020302020302020302020302020302020302020302020300A2020202D312E323337302020202D312E3432383920202020302E30303030204F202020302020302020302020302020302020302020302020302020302020302020302020300A2020202D322E343734352020202D302E3731343520202020302E30303030204F202020302020302020302020302020302020302020302020302020302020302020302020300A20202020322E3036323720202020312E3432383920202020302E303030302043202020302020302020302020302020302020302020302020302020302020302020302020300A2020312020322020322020302020202020200A2020322020332020312020302020202020200A2020332020342020322020302020202020200A2020342020352020312020302020202020200A2020352020362020322020302020202020200A2020362020312020312020302020202020200A2020362020372020312020302020202020200A2020352020382020312020302020202020200A2020322020392020312020302020202020200A2020382031302020312020302020202020200A2020392031312020312020302020202020200A2031312031322020322020302020202020200A2031312031332020312020302020202020200A2020372031342020312020302020202020200A4D202053545920203120202031205355500A4D2020534C4220203120202031202020310A4D202053414C20202031202031202031300A4D202053424C20202031202031202031300A4D2020534D5420202031204D650A4D2020534256202020312031302020202D342E3439363720202020352E383034340A4D202053545920203120202032205355500A4D2020534C4220203120202032202020320A4D202053414C202020322020332020313120203132202031330A4D202053424C20202032202031202031310A4D2020534D542020203220434F4F480A4D2020534256202020322031312020202D352E3332303820202020352E383033300A4D202053545920203120202033205355500A4D2020534C4220203120202033202020330A4D202053414C20202033202031202031340A4D202053424C20202033202031202031340A4D2020534D5420202033204D650A4D2020534256202020332031342020202D342E3038333620202020362E353137350A4D2020454E44
Contributor: MASS SPECTROSCOPY SOC. OF JAPAN (MSSJ)
InstType: EI
InstName: HITACHI RMU-6M
IoniMethod: _ENERGY 20 eV
IonPolarity: pos
Date: 2010-10-09 19:48:36+02:00
Num Peaks: 99
41 164 42 101 43 509 44 10 45 101 46 18 53 12 54 2 55 217 56 208 
57 247 58 24 59 66 60 188 61 12 65 2 66 10 67 45 68 36 69 15 
70 139 71 179 72 48 73 8 74 30 77 54 78 25 79 4 80 10 81 74 
82 74 83 10 84 89 85 122 86 27 87 2 90 13 91 342 92 36 93 2 
94 21 95 57 96 45 97 6 98 51 99 65 100 21 101 1 103 14 104 13 
105 39 106 4 107 89 108 36 109 48 110 3 111 54 112 24 113 21 114 1 
115 10 118 26 119 39 120 2 121 744 122 68 123 18 124 2 125 17 126 13 
127 16 134 1 135 54 136 18 137 24 138 1 139 18 140 10 141 24 148 1 
149 65 150 12 151 999 152 10 153 16 164 122 165 27 166 27 167 39 168 18 
169 10 188 2 189 18 190 15 191 92 192 1 196 670 197 70 198 12 
