Name: MassBank: JP011097
CAS: 93-17-4
MW: 177
Formula: C10H11NO2
Synonym: MassBank: JP011097
Synonym: (3,4-DIMETHOXYPHENYL)ACETONITRILE
Synonym: HOMOVERATRONITRILE
Structure: 28332C342D44494D4554484F58595048454E594C29414345544F4E495452494C452E6D6F6C0A20204368656D447261773130323030393233303032440A2031332031332020302020302020302020302020302020302020302020303939392056323030300A2020202D302E3431313420202020302E3335373320202020302E303030302043202020302020302020302020302020302020302020302020302020302020302020302020300A2020202D302E383233392020202D302E3335373220202020302E303030302043202020302020302020302020302020302020302020302020302020302020302020302020300A2020202D302E343131342020202D312E3037313720202020302E303030302043202020302020302020302020302020302020302020302020302020302020302020302020300A20202020302E343133362020202D312E3037313720202020302E303030302043202020302020302020302020302020302020302020302020302020302020302020302020300A20202020302E383236312020202D302E3335373220202020302E303030302043202020302020302020302020302020302020302020302020302020302020302020302020300A20202020302E3431333620202020302E3335373320202020302E303030302043202020302020302020302020302020302020302020302020302020302020302020302020300A20202020302E3832363120202020312E3037313720202020302E30303030204F202020302020302020302020302020302020302020302020302020302020302020302020300A20202020312E363531312020202D302E3335373220202020302E30303030204F202020302020302020302020302020302020302020302020302020302020302020302020300A2020202D312E363438392020202D302E3335373220202020302E303030302043202020302020302020302020302020302020302020302020302020302020302020302020300A20202020312E3635303620202020312E3037313720202020302E303030302043202020302020302020302020302020302020302020302020302020302020302020302020300A20202020322E303632342020202D312E3037303320202020302E303030302043202020302020302020302020302020302020302020302020302020302020302020302020300A2020202D322E303632342020202D312E3037313520202020302E303030302043202020302020302020302020302020302020302020302020302020302020302020302020300A2020202D312E323337342020202D312E3037313520202020302E30303030204E202020302020302020302020302020302020302020302020302020302020302020302020300A2020312020322020322020302020202020200A2020322020332020312020302020202020200A2020332020342020322020302020202020200A2020342020352020312020302020202020200A2020352020362020322020302020202020200A2020362020312020312020302020202020200A2020362020372020312020302020202020200A2020352020382020312020302020202020200A2020322020392020312020302020202020200A2020372031302020312020302020202020200A2020382031312020312020302020202020200A2020392031322020312020302020202020200A2031322031332020332020302020202020200A4D202053545920203120202031205355500A4D2020534C4220203120202031202020310A4D202053414C20202031202031202031300A4D202053424C20202031202031202031300A4D2020534D5420202031204D650A4D2020534256202020312031302020202D362E3232373920202020372E383335380A4D202053545920203120202032205355500A4D2020534C4220203120202032202020320A4D202053414C20202032202031202031310A4D202053424C20202032202031202031310A4D2020534D5420202032204D650A4D2020534256202020322031312020202D362E3634313120202020372E313232370A4D202053545920203120202033205355500A4D2020534C4220203120202033202020330A4D202053414C2020203320203220203132202031330A4D202053424C20202033202031202031320A4D2020534D542020203320434E0A4D2020534256202020332031322020202D372E3436353820202020372E313231360A4D2020454E44
Contributor: YAMAMOTO M, DEP. CHEMISTRY, FAC. SCIENCE, NARA WOMEN'S UNIV.
InstType: EI
InstName: HITACHI M-80
IoniMethod: _ENERGY 70 eV
IonPolarity: pos
Date: 2010-10-09 19:48:36+02:00
Num Peaks: 48
15 57 29 14 31 11 38 16 39 38 50 26 51 61 52 13 53 17 62 17 
63 66 64 65 65 76 66 14 75 15 76 36 77 84 78 27 79 65 89 30 
90 29 91 75 92 14 94 143 95 10 102 13 103 26 104 22 105 49 106 48 
107 230 108 22 116 69 119 43 130 16 131 12 132 11 134 100 135 17 146 50 
151 15 160 11 161 16 162 306 163 33 176 14 177 999 178 117 
