Name: MassBank: JP011662
MW: 272
Formula: C18H24O2
Synonym: MassBank: JP011662
Synonym: 19-NORANDROST-4-ENE-3,17-DIONE
Structure: 31392D4E4F52414E44524F53542D342D454E452D332C31372D44494F4E452E6D6F6C0A20204368656D447261773132313130393031313332440A2032342032372020302020302020302020302020302020302020302020303939392056323030300A2020202D322E303633372020202D312E3334343820202020302E303030302043202020302020302020302020302020302020302020302020302020302020302020302020300A2020202D322E303633372020202D302E3531393820202020302E303030302043202020302020302020302020302020302020302020302020302020302020302020302020300A2020202D312E333439322020202D302E3130373320202020302E303030302043202020302020302020302020302020302020302020302020302020302020302020302020300A2020202D312E333439322020202D312E3735373320202020302E303030302043202020302020302020302020302020302020302020302020302020302020302020302020300A2020202D302E363334382020202D312E3334343820202020302E303030302043202020302020302020302020302020302020302020302020302020302020302020302020300A20202020302E303739372020202D312E3735373320202020302E303030302043202020302020302020302020302020302020302020302020302020302020302020302020300A20202020302E373934322020202D312E3334343820202020302E303030302043202020302020302020302020302020302020302020302020302020302020302020302020300A20202020302E373934322020202D302E3531393820202020302E303030302043202020302020302020302020302020302020302020302020302020302020302020302020300A20202020312E353038362020202D302E3130373320202020302E303030302043202020302020302020302020302020302020302020302020302020302020302020302020300A20202020322E323933332020202D302E3336323220202020302E303030302043202020302020302020302020302020302020302020302020302020302020302020302020300A20202020322E3737383220202020302E3330353220202020302E303030302043202020302020302020302020302020302020302020302020302020302020302020302020300A20202020322E3239333320202020302E3937323720202020302E303030302043202020302020302020302020302020302020302020302020302020302020302020302020300A20202020312E3530383620202020302E3731373720202020302E303030302043202020302020302020302020302020302020302020302020302020302020302020302020300A20202020312E3530383620202020312E3534323720202020302E303030302043202020302020302020302020302020302020302020302020302020302020302020302020300A20202020302E3739343220202020312E3133303220202020302E303030302043202020302020302020302020302020302020302020302020302020302020302020302020300A20202020302E3037393720202020302E3731373720202020302E303030302043202020302020302020302020302020302020302020302020302020302020302020302020300A20202020302E303739372020202D302E3130373320202020302E303030302043202020302020302020302020302020302020302020302020302020302020302020302020300A2020202D302E363334382020202D302E3531393820202020302E303030302043202020302020302020302020302020302020302020302020302020302020302020302020300A2020202D302E3633343820202020302E3330353220202020302E303030302048202020302020302020302020302020302020302020302020302020302020302020302020300A2020202D322E373738322020202D312E3735373320202020302E30303030204F202020302020302020302020302020302020302020302020302020302020302020302020300A20202020322E3534383220202020312E3735373320202020302E30303030204F202020302020302020302020302020302020302020302020302020302020302020302020300A20202020302E303739372020202D302E3933323320202020302E303030302048202020302020302020302020302020302020302020302020302020302020302020302020300A20202020302E3739343220202020302E3330353220202020302E303030302048202020302020302020302020302020302020302020302020302020302020302020302020300A20202020312E353038362020202D302E3933323320202020302E303030302048202020302020302020302020302020302020302020302020302020302020302020302020300A2020312020322020312020302020202020200A2020322020332020312020302020202020200A2020312020342020312020302020202020200A2020342020352020322020302020202020200A2020352020362020312020302020202020200A2020362020372020312020302020202020200A2020372020382020312020302020202020200A2020382020392020312020302020202020200A2020392031302020312020302020202020200A2031302031312020312020302020202020200A2031312031322020312020302020202020200A2031322031332020312020302020202020200A2020392031332020312020302020202020200A2031332031342020312020312020202020200A2031332031352020312020302020202020200A2031352031362020312020302020202020200A2031362031372020312020302020202020200A2020382031372020312020302020202020200A2031372031382020312020302020202020200A2020332031382020312020302020202020200A2020352031382020312020302020202020200A2031382031392020312020312020202020200A2020312032302020322020302020202020200A2031322032312020322020302020202020200A2031372032322020312020362020202020200A2020382032332020312020312020202020200A2020392032342020312020362020202020200A4D2020454E44
Contributor: YAMAMOTO M, DEP. CHEMISTRY, FAC. SCIENCE, NARA WOMEN'S UNIV.
InstType: EI
InstName: HITACHI M-80
IoniMethod: _ENERGY 20 eV
IonPolarity: pos
Date: 2010-10-09 19:48:36+02:00
Num Peaks: 148
40 16 41 22 42 27 43 72 44 51 45 48 55 60 57 13 59 113 67 66 
68 17 69 24 71 10 73 55 75 53 77 14 78 13 79 88 80 31 81 94 
82 23 83 30 89 51 91 98 92 35 93 116 94 56 95 59 96 40 97 235 
98 21 103 11 104 27 105 130 106 99 107 170 108 98 109 130 110 496 111 63 
115 12 116 11 117 61 118 43 119 122 120 114 121 79 122 153 123 112 124 39 
125 47 129 32 130 21 131 67 132 70 133 84 134 122 135 97 136 39 137 16 
140 45 141 27 142 25 143 38 144 70 145 115 146 68 147 145 148 121 149 87 
150 62 151 29 153 48 154 27 155 31 156 64 157 40 158 42 159 93 160 97 
161 59 162 54 163 47 164 36 165 11 167 20 169 27 170 34 171 39 172 65 
173 84 174 107 175 36 176 35 177 14 181 18 182 18 183 43 184 25 185 35 
186 325 187 114 188 60 189 14 190 20 193 14 194 10 195 31 196 24 197 50 
198 96 199 43 200 37 201 66 202 47 203 16 207 15 209 30 210 41 211 30 
212 61 213 91 214 35 215 106 216 144 217 33 221 18 225 14 226 44 227 14 
228 275 229 85 230 82 231 22 236 14 237 10 239 27 243 16 244 223 245 48 
254 86 255 32 257 34 270 20 271 21 272 999 273 215 274 28 
