Name: MassBank: JP011398
MW: 210
Formula: C14H26O
Synonym: MassBank: JP011398
Synonym: 3-ETHENYL-2,5-BIS(2-METHYLPROPYL)TETRAHYDROFURAN
Structure: 332D455448454E594C2D322C352D42495328322D4D455448594C50524F50594C295445545241485944524F465552414E2E6D6F6C0A20204368656D447261773032323231303137303632440A2031352031352020302020302020302020302020302020302020302020303939392056323030300A2020202D302E3136323920202020302E3830393120202020302E30303030204F202020302020302020302020302020302020302020302020302020302020302020302020300A20202020302E3632313720202020302E3535343220202020302E303030302043202020302020302020302020302020302020302020302020302020302020302020302020300A20202020302E363231372020202D302E3237303820202020302E303030302043202020302020302020302020302020302020302020302020302020302020302020302020300A2020202D302E313632392020202D302E3532353820202020302E303030302043202020302020302020302020302020302020302020302020302020302020302020302020300A2020202D302E3634373820202020302E3134313720202020302E303030302043202020302020302020302020302020302020302020302020302020302020302020302020300A2020202D312E3437323820202020302E3134313720202020302E303030302043202020302020302020302020302020302020302020302020302020302020302020302020300A2020202D312E3838353320202020302E3835363120202020302E303030302043202020302020302020302020302020302020302020302020302020302020302020302020300A2020202D322E3731303320202020302E3835363120202020302E303030302043202020302020302020302020302020302020302020302020302020302020302020302020300A2020202D312E3437323820202020312E3537303620202020302E303030302043202020302020302020302020302020302020302020302020302020302020302020302020300A20202020312E3238393220202020312E3033393120202020302E303030302043202020302020302020302020302020302020302020302020302020302020302020302020300A20202020322E3034323920202020302E3730333520202020302E303030302043202020302020302020302020302020302020302020302020302020302020302020302020300A20202020322E3731303320202020312E3138383420202020302E303030302043202020302020302020302020302020302020302020302020302020302020302020302020300A20202020322E313239312020202D302E3131373020202020302E303030302043202020302020302020302020302020302020302020302020302020302020302020302020300A20202020312E323839322020202D302E3735353820202020302E303030302043202020302020302020302020302020302020302020302020302020302020302020302020300A20202020312E313630312020202D312E3537303620202020302E303030302043202020302020302020302020302020302020302020302020302020302020302020302020300A2020312020322020312020302020202020200A2020322020332020312020302020202020200A2020332020342020312020302020202020200A2020342020352020312020302020202020200A2020312020352020312020302020202020200A2020362020372020312020302020202020200A2020372020382020312020302020202020200A2020372020392020312020302020202020200A2020352020362020312020302020202020200A2031302031312020312020302020202020200A2031312031322020312020302020202020200A2031312031332020312020302020202020200A2020322031302020312020302020202020200A2031342031352020322020302020202020200A2020332031342020312020302020202020200A4D2020454E44
Contributor: HISAHIRO HAGIWARA, INSTITUTE FOR CHEMICAL REACTION SCIENCE TOHOKU UNIV.
InstType: EI
InstName: JEOL JMS-DX-300
IoniMethod: _ENERGY 70 eV
IonPolarity: pos
Date: 2010-10-09 19:48:36+02:00
Num Peaks: 40
39 149 40 30 41 576 42 86 43 273 44 25 45 37 53 112 54 600 55 434 
56 134 57 394 65 37 66 133 67 416 68 529 69 807 70 234 71 59 73 38 
77 41 79 128 80 177 81 729 82 999 83 251 85 53 91 22 93 68 95 244 
96 339 97 61 107 42 109 417 110 42 124 464 125 56 135 50 153 136 210 7 
