Name: MassBank: JP010646
MW: 388
Formula: C24H36O4
Synonym: MassBank: JP010646
Synonym: (1S,2S,3E,7E,11E)-2,17-DIACETOXYCEMBRA-3,7,11,15-TETRAENE
Structure: 2831532C32532C33452C37452C313145292D322C31372D4449414345544F585943454D4252412D332C372C31312C31352D5445545241454E452E6D6F6C0A20204368656D447261773130313930393134353732440A2033332033332020302020302020302020302020302020302020302020303939392056323030300A2020202D312E3136373720202020312E3633303820202020302E303030302043202020302020302020302020302020302020302020302020302020302020302020302020300A2020202D312E3136373720202020302E3830353820202020302E303030302043202020302020302020302020302020302020302020302020302020302020302020302020300A2020202D302E3538343420202020302E3232323320202020302E303030302043202020302020302020302020302020302020302020302020302020302020302020302020300A20202020302E3234303620202020302E3232323320202020302E303030302043202020302020302020302020302020302020302020302020302020302020302020302020300A20202020302E3832343020202020302E3830353820202020302E303030302043202020302020302020302020302020302020302020302020302020302020302020302020300A20202020302E3832343020202020312E3633303820202020302E303030302043202020302020302020302020302020302020302020302020302020302020302020302020300A20202020302E3234303620202020322E3231343120202020302E303030302043202020302020302020302020302020302020302020302020302020302020302020302020300A2020202D302E3538343420202020322E3231343120202020302E303030302043202020302020302020302020302020302020302020302020302020302020302020302020300A20202020312E3430373320202020302E3232323320202020302E303030302043202020302020302020302020302020302020302020302020302020302020302020302020300A20202020322E3233323320202020302E3232323320202020302E303030302043202020302020302020302020302020302020302020302020302020302020302020302020300A20202020322E3831353720202020302E3830353820202020302E303030302043202020302020302020302020302020302020302020302020302020302020302020302020300A20202020322E3831353720202020312E3633303820202020302E303030302043202020302020302020302020302020302020302020302020302020302020302020302020300A20202020322E3233323320202020322E3231343120202020302E303030302043202020302020302020302020302020302020302020302020302020302020302020302020300A20202020312E3430373320202020322E3231343120202020302E303030302043202020302020302020302020302020302020302020302020302020302020302020302020300A20202020312E3130313120202020322E3937303420202020302E303030302048202020302020302020302020302020302020302020302020302020302020302020302020300A20202020322E3032313520202020312E3031333720202020302E303030302048202020302020302020302020302020302020302020302020302020302020302020302020300A2020202D312E3932333920202020312E3934313120202020302E303030302048202020302020302020302020302020302020302020302020302020302020302020302020300A2020202D312E3936333420202020302E3538373220202020302E303030302048202020302020302020302020302020302020302020302020302020302020302020302020300A2020202D302E333638392020202D302E3538303120202020302E303030302043202020302020302020302020302020302020302020302020302020302020302020302020300A2020202D312E3537323520202020302E3038343820202020302E30303030204F202020302020302020302020302020302020302020302020302020302020302020302020300A2020202D302E393933322020202D302E3530313320202020302E303030302048202020302020302020302020302020302020302020302020302020302020302020302020300A2020202D302E393534322020202D312E3135373920202020302E303030302043202020302020302020302020302020302020302020302020302020302020302020302020300A20202020302E343331392020202D302E3738383820202020302E303030302043202020302020302020302020302020302020302020302020302020302020302020302020300A20202020302E363430382020202D312E3539333120202020302E30303030204F202020302020302020302020302020302020302020302020302020302020302020302020300A20202020302E303533302020202D322E3136383920202020302E303030302043202020302020302020302020302020302020302020302020302020302020302020302020300A2020202D302E373432332020202D312E3934393720202020302E303030302043202020302020302020302020302020302020302020302020302020302020302020302020300A20202020302E323631352020202D322E3937303420202020302E30303030204F202020302020302020302020302020302020302020302020302020302020302020302020300A2020202D322E3430303220202020302E3038303620202020302E303030302043202020302020302020302020302020302020302020302020302020302020302020302020300A2020202D322E3831353720202020302E3738373920202020302E30303030204F202020302020302020302020302020302020302020302020302020302020302020302020300A2020202D322E383037312020202D302E3633373020202020302E303030302043202020302020302020302020302020302020302020302020302020302020302020302020300A20202020312E303930342020202D302E3533393020202020302E303030302043202020302020302020302020302020302020302020302020302020302020302020302020300A20202020322E3031373720202020312E3431373720202020302E303030302043202020302020302020302020302020302020302020302020302020302020302020302020300A2020202D302E3137313920202020312E3530303120202020302E303030302043202020302020302020302020302020302020302020302020302020302020302020302020300A2020312020322020312020302020202020200A2020322020332020312020302020202020200A2020332020342020312020302020202020200A2020342020352020312020302020202020200A2020362020372020312020302020202020200A2020372020382020312020302020202020200A2020382020312020322020302020202020200A2020352020392020312020302020202020200A2020392031302020322020302020202020200A2031302031312020312020302020202020200A2031312031322020312020302020202020200A2031322031332020312020302020202020200A2031332031342020322020302020202020200A2031342020362020312020302020202020200A2031342031352020312020302020202020200A2031302031362020312020302020202020200A2020312031372020312020302020202020200A2020322031382020312020362020202020200A2020332031392020312020312020202020200A2020322032302020312020312020202020200A2020332032312020312020362020202020200A2031392032322020322020302020202020200A2031392032332020312020302020202020200A2032332032342020312020302020202020200A2032342032352020312020302020202020200A2032352032362020312020302020202020200A2032352032372020322020302020202020200A2032302032382020312020302020202020200A2032382032392020322020302020202020200A2032382033302020312020302020202020200A2020392033312020312020302020202020200A2031332033322020312020302020202020200A2020382033332020312020302020202020200A4D202053545920203120202031205355500A4D2020534C4220203120202031202020310A4D202053414C20202031202031202033310A4D202053424C20202031202031202033310A4D2020534D5420202031204D650A4D2020534256202020312033312020202D372E3536343620202020362E303032300A4D202053545920203120202032205355500A4D2020534C4220203120202032202020320A4D202053414C20202032202031202033320A4D202053424C20202032202031202033320A4D2020534D5420202032204D650A4D2020534256202020322033322020202D372E3436323320202020352E393636390A4D202053545920203120202033205355500A4D2020534C4220203120202033202020330A4D202053414C20202033202031202033330A4D202053424C20202033202031202033330A4D2020534D5420202033204D650A4D2020534256202020332033332020202D362E3833353220202020362E303439330A4D2020454E44
Contributor: EGUCHI S, FAC. OF SCIENCE, HIROSHIMA UNIV.
InstType: EI
InstName: HITACHI RMU-6L
IoniMethod: _ENERGY 70 eV
IonPolarity: pos
Date: 2010-10-09 19:48:36+02:00
Num Peaks: 128
41 268 42 31 43 999 44 2 45 55 53 125 54 16 55 24 56 32 57 32 
60 24 65 5 66 24 67 173 68 169 69 9 70 16 71 24 77 94 78 3 
79 189 80 47 81 283 82 5 83 55 84 189 85 39 91 20 92 79 93 197 
94 63 95 11 96 39 97 31 103 24 104 2 105 165 106 71 107 142 108 6 
109 94 110 24 111 16 115 2 116 16 117 79 118 31 119 24 120 79 121 110 
122 39 123 3 126 24 127 16 128 16 129 4 130 16 131 79 132 102 133 17 
134 126 135 142 136 39 137 2 143 39 144 31 145 94 146 4 147 63 148 31 
149 39 150 2 157 71 158 39 159 79 160 3 161 39 162 16 163 16 171 3 
172 16 173 39 174 24 175 3 176 16 177 31 183 16 184 1 185 55 186 24 
187 63 188 2 189 24 199 24 200 8 201 2 202 24 203 16 204 31 205 2 
211 16 212 16 213 31 214 1 215 10 217 24 225 24 226 2 227 10 239 16 
240 12 241 1 253 47 254 16 255 24 268 9 269 39 270 8 285 16 286 2 
287 10 313 12 314 10 328 4 329 16 330 10 388 24 389 10 
