Name: MassBank: JP011897
CAS: 32247-96-4
MW: 305
Formula: C9H5BrF6
Synonym: MassBank: JP011897
Synonym: 3,5-BIS(TRIFLUOROMETHYL)BENZYL BROMIDE
Structure: 332C352D42495328545249464C554F524F4D455448594C2942454E5A594C2042524F4D4944452E6D6F6C0A20204368656D447261773032323231303030343332440A2031362031362020302020302020302020302020302020302020302020303939392056323030300A2020202D312E323337352020202D312E3738363220202020302E303030302043202020302020302020302020302020302020302020302020302020302020302020302020300A2020202D302E383235302020202D312E3037313720202020302E303030302043202020302020302020302020302020302020302020302020302020302020302020302020300A2020202D302E303030302020202D312E3037313720202020302E303030302043202020302020302020302020302020302020302020302020302020302020302020302020300A20202020302E343132352020202D302E3335373220202020302E303030302043202020302020302020302020302020302020302020302020302020302020302020302020300A20202020302E3030303020202020302E3335373220202020302E303030302043202020302020302020302020302020302020302020302020302020302020302020302020300A2020202D302E3832353020202020302E3335373220202020302E303030302043202020302020302020302020302020302020302020302020302020302020302020302020300A2020202D312E323337352020202D302E3335373220202020302E303030302043202020302020302020302020302020302020302020302020302020302020302020302020300A2020202D312E3233373520202020312E3037313720202020302E303030302043202020302020302020302020302020302020302020302020302020302020302020302020300A2020202D312E3935323020202020302E3635393220202020302E303030302046202020302020302020302020302020302020302020302020302020302020302020302020300A2020202D302E3532333020202020312E3438343220202020302E303030302046202020302020302020302020302020302020302020302020302020302020302020302020300A2020202D312E3635303020202020312E3738363220202020302E303030302046202020302020302020302020302020302020302020302020302020302020302020302020300A20202020312E323337352020202D302E3335373220202020302E303030302043202020302020302020302020302020302020302020302020302020302020302020302020300A20202020312E323337352020202D312E3138323220202020302E303030302046202020302020302020302020302020302020302020302020302020302020302020302020300A20202020322E303632352020202D302E3335373220202020302E303030302046202020302020302020302020302020302020302020302020302020302020302020302020300A20202020312E3233373520202020302E3436373820202020302E303030302046202020302020302020302020302020302020302020302020302020302020302020302020300A2020202D322E303632352020202D312E3738363220202020302E303030302042722020302020302020302020302020302020302020302020302020302020302020302020300A2020312020322020312020302020202020200A2020322020332020312020302020202020200A2020332020342020322020302020202020200A2020342020352020312020302020202020200A2020352020362020322020302020202020200A2020362020372020312020302020202020200A2020322020372020322020302020202020200A2020382020392020312020312020202020200A2020382031302020312020312020202020200A2020382031312020312020302020202020200A2020362020382020312020302020202020200A2031322031332020312020312020202020200A2031322031342020312020302020202020200A2031322031352020312020312020202020200A2020342031322020312020302020202020200A2020312031362020312020302020202020200A4D2020454E44
Contributor: YAMAMOTO M, DEP. CHEMISTRY, FAC. SCIENCE, NARA WOMEN'S UNIV.
InstType: EI
InstName: HITACHI M-2500
IoniMethod: _ENERGY 70 eV
IonPolarity: pos
Date: 2010-10-09 19:48:36+02:00
Num Peaks: 36
29 12 31 23 32 15 39 11 62 18 63 26 69 29 75 15 87 17 88 10 
89 15 99 10 104 19 107 16 108 12 127 17 132 12 137 15 138 38 139 14 
156 14 157 18 158 53 173 15 176 11 177 89 187 47 207 26 208 36 226 12 
227 999 228 92 287 55 289 45 306 16 308 15 
