Name: MassBank: JP010647
MW: 288
Formula: C20H32O
Synonym: MassBank: JP010647
Synonym: (1S,2E,4E,7E,10R,11E)-10HYDROXYCEMBRA-2,4,7,11-TETRAENE
Synonym: 10-HYDROXYCEMBRENE
Structure: 2831532C32452C34452C37452C3130522C313145292D3130485944524F585943454D4252412D322C342C372C31312D5445545241454E452E6D6F6C0A20204368656D447261773130313930393134313432440A2032382032382020302020302020302020302020302020302020302020303939392056323030300A2020202D322E3030393020202020302E3130353920202020302E303030302043202020302020302020302020302020302020302020302020302020302020302020302020300A2020202D322E303039302020202D302E3731393120202020302E303030302043202020302020302020302020302020302020302020302020302020302020302020302020300A2020202D312E343235372020202D312E3330323420202020302E303030302043202020302020302020302020302020302020302020302020302020302020302020302020300A2020202D302E363030372020202D312E3330323420202020302E303030302043202020302020302020302020302020302020302020302020302020302020302020302020300A2020202D302E303137332020202D302E3731393120202020302E303030302043202020302020302020302020302020302020302020302020302020302020302020302020300A2020202D302E3031373320202020302E3130353920202020302E303030302043202020302020302020302020302020302020302020302020302020302020302020302020300A2020202D302E3630303720202020302E3638393320202020302E303030302043202020302020302020302020302020302020302020302020302020302020302020302020300A2020202D312E3432353720202020302E3638393320202020302E303030302043202020302020302020302020302020302020302020302020302020302020302020302020300A20202020302E353636302020202D312E3330323420202020302E303030302043202020302020302020302020302020302020302020302020302020302020302020302020300A20202020312E333931302020202D312E3330323420202020302E303030302043202020302020302020302020302020302020302020302020302020302020302020302020300A20202020312E393734342020202D302E3731393120202020302E303030302043202020302020302020302020302020302020302020302020302020302020302020302020300A20202020312E3937343420202020302E3130353920202020302E303030302043202020302020302020302020302020302020302020302020302020302020302020302020300A20202020312E3339313020202020302E3638393320202020302E303030302043202020302020302020302020302020302020302020302020302020302020302020302020300A20202020302E3536363020202020302E3638393320202020302E303030302043202020302020302020302020302020302020302020302020302020302020302020302020300A2020202D322E3736373920202020302E3431383420202020302E303030302048202020302020302020302020302020302020302020302020302020302020302020302020300A2020202D312E323039382020202D302E3531313420202020302E303030302048202020302020302020302020302020302020302020302020302020302020302020302020300A2020202D302E383038342020202D302E3531313420202020302E303030302048202020302020302020302020302020302020302020302020302020302020302020302020300A20202020302E323537392020202D322E3036393520202020302E303030302048202020302020302020302020302020302020302020302020302020302020302020302020300A20202020312E313739352020202D302E3131303020202020302E303030302048202020302020302020302020302020302020302020302020302020302020302020302020300A2020202D312E3432353720202020312E3530383220202020302E303030302048202020302020302020302020302020302020302020302020302020302020302020302020300A20202020322E3830353920202020302E3130353920202020302E303030302048202020302020302020302020302020302020302020302020302020302020302020302020300A2020202D322E3030393020202020312E3237323620202020302E303030302043202020302020302020302020302020302020302020302020302020302020302020302020300A20202020322E3535383220202020302E3638333220202020302E30303030204F202020302020302020302020302020302020302020302020302020302020302020302020300A2020202D322E3830353920202020312E3035393120202020302E303030302043202020302020302020302020302020302020302020302020302020302020302020302020300A2020202D312E3739353520202020322E3036393520202020302E303030302043202020302020302020302020302020302020302020302020302020302020302020302020300A20202020302E3234393120202020312E3435323020202020302E303030302043202020302020302020302020302020302020302020302020302020302020302020302020300A2020202D312E373431392020202D322E3036333820202020302E303030302043202020302020302020302020302020302020302020302020302020302020302020302020300A20202020312E313737322020202D302E3530343620202020302E303030302043202020302020302020302020302020302020302020302020302020302020302020302020300A2020312020322020322020302020202020200A2020322020332020312020302020202020200A2020332020342020322020302020202020200A2020342020352020312020302020202020200A2020362020372020312020302020202020200A2020372020382020312020302020202020200A2020382020312020312020302020202020200A2020352020392020312020302020202020200A2020392031302020322020302020202020200A2031302031312020312020302020202020200A2031312031322020312020302020202020200A2031322031332020312020302020202020200A2031332031342020322020302020202020200A2031342020362020312020302020202020200A2020312031352020312020302020202020200A2020322031362020312020302020202020200A2020342031372020312020302020202020200A2020392031382020312020302020202020200A2031332031392020312020302020202020200A2020382032302020312020312020202020200A2031322032312020312020312020202020200A2020382032322020312020362020202020200A2031322032332020312020362020202020200A2032322032342020312020302020202020200A2032322032352020312020302020202020200A2031342032362020312020302020202020200A2020332032372020312020302020202020200A2031302032382020312020302020202020200A4D202053545920203120202031205355500A4D2020534C4220203120202031202020310A4D202053414C20202031202031202032360A4D202053424C20202031202031202032360A4D2020534D5420202031204D650A4D2020534256202020312032362020202D372E3732333920202020382E303837340A4D202053545920203120202032205355500A4D2020534C4220203120202032202020320A4D202053414C20202032202031202032370A4D202053424C20202032202031202032370A4D2020534D5420202032204D650A4D2020534256202020322032372020202D372E3732333220202020362E353633330A4D202053545920203120202033205355500A4D2020534C4220203120202033202020330A4D202053414C20202033202031202032380A4D202053424C20202033202031202032380A4D2020534D5420202033204D650A4D2020534256202020332032382020202D372E3632303820202020382E313232350A4D2020454E44
Contributor: EGUCHI S, FAC. OF SCIENCE, HIROSHIMA UNIV.
InstType: EI
InstName: HITACHI RMU-6L
IoniMethod: _ENERGY 70 eV
IonPolarity: pos
Date: 2010-10-09 19:48:36+02:00
Num Peaks: 120
40 45 41 943 42 134 43 999 44 109 45 178 46 68 51 5 53 302 54 72 
55 983 56 19 57 408 58 75 59 54 60 9 65 94 66 49 67 298 68 17 
69 592 70 145 71 226 72 4 73 64 77 291 78 72 79 34 80 122 81 489 
82 209 83 34 84 175 85 105 87 38 91 30 92 90 93 526 94 102 95 24 
96 124 97 394 98 113 99 5 103 45 105 302 106 80 107 29 108 106 109 228 
110 61 111 14 112 41 113 36 115 62 117 8 119 243 120 75 121 234 122 14 
123 208 124 54 125 80 126 5 127 35 128 39 129 36 131 8 133 146 134 56 
135 309 136 16 137 73 138 38 139 45 141 3 145 90 147 113 148 45 149 10 
150 35 151 45 152 38 153 3 157 31 159 59 161 253 162 5 163 38 164 79 
165 52 171 3 175 73 176 25 177 67 179 6 187 30 188 34 189 119 190 14 
191 86 192 25 203 48 204 7 205 38 206 20 217 57 218 2 219 23 227 50 
228 10 245 7 246 18 270 20 271 10 273 3 274 11 288 196 289 44 290 8 
