Name: MassBank: JP010021
MW: 134
Formula: C6H14O3
Synonym: MassBank: JP010021
Synonym: 3-METHYLPENTANE-1,3,5-TRIOL
Structure: 310A32320A332D4D455448594C50454E54414E452D312C332C352D5452494F4C2E6D6F6C0A20204368656D447261773033323031303137323032440A2020392020382020302020302020302020302020302020302020302020303939392056323030300A20202020312E343834322020202D302E3731343520202020302E303030302043202020302020302020302020302020302020302020302020302020302020302020302020300A20202020302E363539322020202D302E3731343520202020302E303030302043202020302020302020302020302020302020302020302020302020302020302020302020300A20202020302E3234363720202020302E3030303020202020302E303030302043202020302020302020302020302020302020302020302020302020302020302020302020300A2020202D302E343637382020202D302E3431323520202020302E303030302043202020302020302020302020302020302020302020302020302020302020302020302020300A2020202D312E313832322020202D302E3030303020202020302E303030302043202020302020302020302020302020302020302020302020302020302020302020302020300A20202020312E3839363720202020302E3030303020202020302E30303030204F202020302020302020302020302020302020302020302020302020302020302020302020300A2020202D302E3136353820202020302E3731343520202020302E30303030204F202020302020302020302020302020302020302020302020302020302020302020302020300A2020202D312E383936372020202D302E3431323520202020302E30303030204F202020302020302020302020302020302020302020302020302020302020302020302020300A20202020302E3936313220202020302E3431323520202020302E303030302043202020302020302020302020302020302020302020302020302020302020302020302020300A2020312020322020312020302020202020200A2020322020332020312020302020202020200A2020332020342020312020302020202020200A2020342020352020312020302020202020200A2020312020362020312020302020202020200A2020332020372020312020302020202020200A2020352020382020312020302020202020200A2020332020392020312020302020202020200A4D2020454E44
Contributor: KURARAY CO., LTD.
InstType: EI
InstName: JEOL JMS-D-300
IoniMethod: _ENERGY 70 eV
IonPolarity: pos
Date: 2010-10-09 19:48:36+02:00
Num Peaks: 39
27 39 28 15 29 64 31 14 39 40 41 159 42 36 43 999 44 48 45 155 
53 37 54 1 55 69 56 32 57 25 58 3 59 32 61 70 67 23 68 4 
69 53 70 42 71 418 72 2 73 81 79 15 81 29 83 4 86 14 89 817 
90 26 101 6 112 25 113 18 119 23 140 3 141 45 142 18 157 17 
