Name: 2-FLUORENYLMETHYL BENZOATE
MW: 300
Formula: C21H16O2
Synonym: MassBank: JP011129
Synonym: 2-FLUORENYLMETHYL BENZOATE
Structure: 322D464C554F52454E594C4D455448594C2042454E5A4F4154452E6D6F6C0A20204368656D447261773031303331303133313432440A2032332032362020302020302020302020302020302020302020302020303939392056323030300A20202020322E3030353420202020312E3630353720202020302E303030302043202020302020302020302020302020302020302020302020302020302020302020302020300A20202020312E3138303420202020312E3630353720202020302E303030302043202020302020302020302020302020302020302020302020302020302020302020302020300A20202020302E3932353420202020302E3832313120202020302E303030302043202020302020302020302020302020302020302020302020302020302020302020302020300A20202020312E3539323920202020302E3333363220202020302E303030302043202020302020302020302020302020302020302020302020302020302020302020302020300A20202020322E3236303320202020302E3832313120202020302E303030302043202020302020302020302020302020302020302020302020302020302020302020302020300A20202020302E3632383320202020322E3231383820202020302E303030302043202020302020302020302020302020302020302020302020302020302020302020302020300A2020202D302E3137383620202020322E3034373320202020302E303030302043202020302020302020302020302020302020302020302020302020302020302020302020300A2020202D302E3433333620202020312E3236323720202020302E303030302043202020302020302020302020302020302020302020302020302020302020302020302020300A20202020302E3131383520202020302E3634393620202020302E303030302043202020302020302020302020302020302020302020302020302020302020302020302020300A20202020332E3036373320202020302E3634393620202020302E303030302043202020302020302020302020302020302020302020302020302020302020302020302020300A20202020332E3631393320202020312E3236323720202020302E303030302043202020302020302020302020302020302020302020302020302020302020302020302020300A20202020332E3336343420202020322E3034373320202020302E303030302043202020302020302020302020302020302020302020302020302020302020302020302020300A20202020322E3535373420202020322E3231383820202020302E303030302043202020302020302020302020302020302020302020302020302020302020302020302020300A2020202D312E3234303520202020312E3039313220202020302E303030302043202020302020302020302020302020302020302020302020302020302020302020302020300A2020202D312E3439353520202020302E3330363520202020302E30303030204F202020302020302020302020302020302020302020302020302020302020302020302020300A2020202D322E3330323520202020302E3133353020202020302E303030302043202020302020302020302020302020302020302020302020302020302020302020302020300A2020202D322E353537342020202D302E3634393620202020302E303030302043202020302020302020302020302020302020302020302020302020302020302020302020300A2020202D322E3835343520202020302E3734383120202020302E30303030204F202020302020302020302020302020302020302020302020302020302020302020302020300A2020202D332E333634342020202D302E3832313120202020302E303030302043202020302020302020302020302020302020302020302020302020302020302020302020300A2020202D332E363139332020202D312E3630353820202020302E303030302043202020302020302020302020302020302020302020302020302020302020302020302020300A2020202D332E303637332020202D322E3231383820202020302E303030302043202020302020302020302020302020302020302020302020302020302020302020302020300A2020202D322E323630332020202D322E3034373320202020302E303030302043202020302020302020302020302020302020302020302020302020302020302020302020300A2020202D322E303035342020202D312E3236323720202020302E303030302043202020302020302020302020302020302020302020302020302020302020302020302020300A2020312020322020312020302020202020200A2020322020332020322020302020202020200A2020332020342020312020302020202020200A2020342020352020312020302020202020200A2020352020312020322020302020202020200A2020322020362020312020302020202020200A2020362020372020322020302020202020200A2020372020382020312020302020202020200A2020382020392020322020302020202020200A2020392020332020312020302020202020200A2020352031302020312020302020202020200A2031302031312020322020302020202020200A2031312031322020312020302020202020200A2031322031332020322020302020202020200A2031332020312020312020302020202020200A2020382031342020312020302020202020200A2031342031352020312020302020202020200A2031352031362020312020302020202020200A2031362031372020312020302020202020200A2031362031382020322020302020202020200A2031372031392020322020302020202020200A2031392032302020312020302020202020200A2032302032312020322020302020202020200A2032312032322020312020302020202020200A2032322032332020322020302020202020200A2032332031372020312020302020202020200A4D2020454E44
Contributor: SAWADA M, THE INST. OF SCIENTIFIC AND INDUSTRIALRESEARCH OSAKA UNIV.
InstType: EI
InstName: JEOL JMS-DX-300
IoniMethod: _ENERGY 70 eV
IonPolarity: pos
Date: 2010-10-09 19:48:36+02:00
Num Peaks: 56
27 29 29 58 39 42 40 89 41 36 43 38 44 193 45 16 50 69 51 218 
52 22 55 24 57 27 63 33 65 16 69 22 71 13 74 27 75 29 76 49 
77 504 78 62 87 15 88 16 89 33 105 776 106 84 113 15 115 44 122 44 
126 13 127 14 128 22 139 53 141 22 149 18 150 42 151 64 152 169 153 24 
163 71 164 64 165 378 166 129 167 136 168 16 176 113 177 113 178 989 179 999 
180 171 181 13 194 60 195 33 300 762 301 22 
