Name: 4-CHLORO-4-METHYLPERHYDROPYRAN
MW: 134
Formula: C6H11ClO
Synonym: MassBank: JP010020
Synonym: 4-CHLORO-4-METHYLPERHYDROPYRAN
Structure: 310A32310A342D43484C4F524F2D342D4D455448594C504552485944524F505952414E2E6D6F6C0A20204368656D447261773033323531303039323932440A2020382020382020302020302020302020302020302020302020302020303939392056323030300A2020202D302E3732383520202020302E3731343520202020302E303030302043202020302020302020302020302020302020302020302020302020302020302020302020300A20202020302E3039363520202020302E3731343520202020302E303030302043202020302020302020302020302020302020302020302020302020302020302020302020300A20202020302E3530393020202020302E3030303020202020302E303030302043202020302020302020302020302020302020302020302020302020302020302020302020300A20202020302E303936352020202D302E3731343520202020302E303030302043202020302020302020302020302020302020302020302020302020302020302020302020300A2020202D302E373238352020202D302E3731343520202020302E303030302043202020302020302020302020302020302020302020302020302020302020302020302020300A2020202D312E3134313020202020302E3030303020202020302E30303030204F202020302020302020302020302020302020302020302020302020302020302020302020300A20202020312E3134313020202020302E3533303320202020302E303030302043202020302020302020302020302020302020302020302020302020302020302020302020300A20202020312E313431302020202D302E3533303320202020302E3030303020436C2020302020302020302020302020302020302020302020302020302020302020302020300A2020312020322020312020302020202020200A2020322020332020312020302020202020200A2020332020342020312020302020202020200A2020342020352020312020302020202020200A2020352020362020312020302020202020200A2020312020362020312020302020202020200A2020332020372020312020302020202020200A2020332020382020312020302020202020200A4D2020454E44
Contributor: KURARAY CO., LTD.
InstType: EI
InstName: JEOL JMS-D-300
IoniMethod: _ENERGY 70 eV
IonPolarity: pos
Date: 2010-10-09 19:48:36+02:00
Num Peaks: 51
26 21 27 197 28 51 29 15 30 15 31 34 36 13 38 2 39 253 40 106 
41 825 42 10 43 229 44 32 45 13 49 3 50 18 51 44 52 16 53 25 
54 29 55 434 56 40 57 4 58 13 61 10 63 16 65 2 67 218 68 234 
69 771 70 12 71 23 75 13 76 95 77 1 78 25 79 110 81 74 83 999 
84 56 89 71 91 24 97 5 98 627 99 197 104 40 106 1 134 149 135 11 
136 44 
