Name: MassBank: JP010076
MW: 388
Formula: C24H36O4
Synonym: MassBank: JP010076
Synonym: 4,5-DEHYDRO-6-HYDROXY-3-OXO-CHOLANIC ACID
Structure: 303833325F342C352D4445485944524F2D362D485944524F58592D332D4F584F2D43484F4C414E494320414349442E6D6F6C0A20204368656D447261773130323031303138303632440A2033322033352020302020302020302020302020302020302020302020303939392056323030300A2020202D322E383138362020202D302E3936313320202020302E303030302043202020302020302020302020302020302020302020302020302020302020302020302020300A2020202D322E383138362020202D312E3738363320202020302E303030302043202020302020302020302020302020302020302020302020302020302020302020302020300A2020202D322E313034312020202D322E3139383820202020302E303030302043202020302020302020302020302020302020302020302020302020302020302020302020300A2020202D312E333839362020202D312E3738363320202020302E303030302043202020302020302020302020302020302020302020302020302020302020302020302020300A2020202D312E333839362020202D302E3936313320202020302E303030302043202020302020302020302020302020302020302020302020302020302020302020302020300A2020202D322E313034312020202D302E3534383820202020302E303030302043202020302020302020302020302020302020302020302020302020302020302020302020300A2020202D302E363735322020202D322E3139383820202020302E303030302043202020302020302020302020302020302020302020302020302020302020302020302020300A20202020302E303339332020202D312E3738363320202020302E303030302043202020302020302020302020302020302020302020302020302020302020302020302020300A20202020302E303339332020202D302E3936313320202020302E303030302043202020302020302020302020302020302020302020302020302020302020302020302020300A2020202D302E363735322020202D302E3534383820202020302E303030302043202020302020302020302020302020302020302020302020302020302020302020302020300A20202020302E373533382020202D302E3534383820202020302E303030302043202020302020302020302020302020302020302020302020302020302020302020302020300A20202020302E3735333820202020302E3237363220202020302E303030302043202020302020302020302020302020302020302020302020302020302020302020302020300A20202020302E3033393320202020302E3638383720202020302E303030302043202020302020302020302020302020302020302020302020302020302020302020302020300A2020202D302E3637353220202020302E3237363220202020302E303030302043202020302020302020302020302020302020302020302020302020302020302020302020300A20202020312E353338342020202D302E3830333720202020302E303030302043202020302020302020302020302020302020302020302020302020302020302020302020300A20202020322E303233332020202D302E3133363320202020302E303030302043202020302020302020302020302020302020302020302020302020302020302020302020300A20202020312E3533383420202020302E3533313120202020302E303030302043202020302020302020302020302020302020302020302020302020302020302020302020300A2020202D332E353330392020202D322E3139383820202020302E30303030204F202020302020302020302020302020302020302020302020302020302020302020302020300A2020202D302E363734352020202D332E3032333820202020302E30303030204F202020302020302020302020302020302020302020302020302020302020302020302020300A2020202D312E333839362020202D302E3133363320202020302E303030302043202020302020302020302020302020302020302020302020302020302020302020302020300A20202020312E3739333320202020312E3331353820202020302E303030302043202020302020302020302020302020302020302020302020302020302020302020302020300A20202020312E3030383720202020312E3537303720202020302E303030302043202020302020302020302020302020302020302020302020302020302020302020302020300A20202020322E3034393520202020322E3039393920202020302E303030302048202020302020302020302020302020302020302020302020302020302020302020302020300A20202020332E3533303920202020332E3032333820202020302E30303030204F202020302020302020302020302020302020302020302020302020302020302020302020300A20202020322E3934373620202020322E3434303420202020302E303030302043202020302020302020302020302020302020302020302020302020302020302020302020300A20202020332E3136313120202020312E3634333520202020302E303030302043202020302020302020302020302020302020302020302020302020302020302020302020300A20202020322E3537373720202020312E3036303220202020302E303030302043202020302020302020302020302020302020302020302020302020302020302020302020300A20202020322E3135303720202020322E3635343020202020302E30303030204F202020302020302020302020302020302020302020302020302020302020302020302020300A20202020302E373433322020202D312E3339313620202020302E303030302048202020302020302020302020302020302020302020302020302020302020302020302020300A20202020302E3834303020202020312E3039363720202020302E303030302043202020302020302020302020302020302020302020302020302020302020302020302020300A2020202D302E373139392020202D312E3337323620202020302E303030302048202020302020302020302020302020302020302020302020302020302020302020302020300A2020202D302E303334342020202D302E3330353020202020302E303030302048202020302020302020302020302020302020302020302020302020302020302020302020300A2020312020322020312020302020202020200A2020322020332020312020302020202020200A2020332020342020322020302020202020200A2020342020352020312020302020202020200A2020352020362020312020302020202020200A2020362020312020312020302020202020200A2020342020372020312020302020202020200A2020372020382020312020302020202020200A2020382020392020312020302020202020200A2020392031302020312020302020202020200A2031302020352020312020302020202020200A2020392031312020312020302020202020200A2031312031322020312020302020202020200A2031322031332020312020302020202020200A2031332031342020312020302020202020200A2031342031302020312020302020202020200A2031312031352020312020302020202020200A2031352031362020312020302020202020200A2031362031372020312020302020202020200A2031372031322020312020302020202020200A2020322031382020322020302020202020200A2020372031392020312020302020202020200A2020352032302020312020312020202020200A2031372032312020312020302020202020200A2032312032322020312020302020202020200A2032312032332020312020312020202020200A2032312032372020312020302020202020200A2032342032352020312020302020202020200A2032352032362020312020302020202020200A2032362032372020312020302020202020200A2032352032382020322020302020202020200A2020392032392020312020312020202020200A2031322033302020312020312020202020200A2031302033312020312020362020202020200A2031312033322020312020362020202020200A4D2020454E44
Contributor: KURARAY CO., LTD.
InstType: EI
InstName: JEOL JMS-D-300
IoniMethod: _ENERGY 70 eV
IonPolarity: pos
Date: 2010-10-09 19:48:36+02:00
Num Peaks: 185
29 35 39 20 41 144 43 6 45 26 53 52 55 314 57 2 59 26 60 18 
65 35 67 17 68 18 69 72 71 9 77 10 78 26 79 176 80 19 81 24 
82 28 83 74 85 33 91 21 92 40 93 210 94 40 95 31 96 27 97 40 
99 21 101 4 103 32 104 32 105 173 106 4 107 220 108 49 109 198 110 2 
111 16 115 67 116 35 117 10 118 49 119 152 120 39 121 16 122 191 123 213 
124 999 125 11 127 45 128 64 129 76 130 4 131 153 132 74 133 211 134 7 
135 168 136 399 137 86 138 2 139 10 141 45 142 32 143 9 144 34 145 160 
146 56 147 14 148 58 149 50 150 27 151 3 152 75 153 40 155 53 156 3 
157 75 158 31 159 132 160 12 161 299 162 117 163 67 164 2 165 30 167 20 
169 37 170 2 171 65 172 40 173 159 174 23 175 261 176 90 177 41 179 2 
181 51 183 41 184 19 185 6 186 25 187 83 188 32 189 3 191 10 193 20 
194 29 195 7 196 14 197 34 198 34 199 6 200 35 201 50 202 11 203 1 
207 38 208 17 209 48 211 4 212 18 213 51 214 35 215 4 217 27 219 19 
221 9 224 1 225 35 226 18 227 101 228 5 229 76 230 18 231 11 233 2 
234 19 235 303 236 53 237 2 241 28 242 35 243 16 244 1 245 19 246 13 
247 44 249 1 251 27 253 19 255 13 260 1 267 28 268 25 269 233 270 5 
271 27 304 19 313 19 319 2 326 36 327 22 328 18 332 13 333 33 337 34 
342 59 343 2 344 10 352 37 353 22 355 8 356 25 360 41 369 8 370 71 
371 193 372 48 373 16 388 8 389 18 
