Name: MassBank: JP010631
MW: 290
Formula: C20H34O
Synonym: MassBank: JP010631
Synonym: (1S,2R,3E,7E,11E)-2-HYDROXYCEMBRA-3,7,11-TRIENE
Synonym: MUKULOL
Structure: 2831532C32522C33452C37452C313145292D322D485944524F585943454D4252412D332C372C31312D545249454E452E6D6F6C0A20204368656D447261773130313930393134333232440A2032362032362020302020302020302020302020302020302020302020303939392056323030300A2020202D312E3539343620202020302E3732373720202020302E303030302043202020302020302020302020302020302020302020302020302020302020302020302020300A2020202D312E353934362020202D302E3039373320202020302E303030302043202020302020302020302020302020302020302020302020302020302020302020302020300A2020202D312E303131332020202D302E3638303720202020302E303030302043202020302020302020302020302020302020302020302020302020302020302020302020300A2020202D302E313836332020202D302E3638303720202020302E303030302043202020302020302020302020302020302020302020302020302020302020302020302020300A20202020302E333937312020202D302E3039373320202020302E303030302043202020302020302020302020302020302020302020302020302020302020302020302020300A20202020302E3339373120202020302E3732373720202020302E303030302043202020302020302020302020302020302020302020302020302020302020302020302020300A2020202D302E3138363320202020312E3331313120202020302E303030302043202020302020302020302020302020302020302020302020302020302020302020302020300A2020202D312E3031313320202020312E3331313120202020302E303030302043202020302020302020302020302020302020302020302020302020302020302020302020300A20202020302E393830342020202D302E3638303720202020302E303030302043202020302020302020302020302020302020302020302020302020302020302020302020300A20202020312E383035342020202D302E3638303720202020302E303030302043202020302020302020302020302020302020302020302020302020302020302020302020300A20202020322E333838382020202D302E3039373320202020302E303030302043202020302020302020302020302020302020302020302020302020302020302020302020300A20202020322E3338383820202020302E3732373720202020302E303030302043202020302020302020302020302020302020302020302020302020302020302020302020300A20202020312E3830353420202020312E3331313120202020302E303030302043202020302020302020302020302020302020302020302020302020302020302020302020300A20202020302E3938303420202020312E3331313120202020302E303030302043202020302020302020302020302020302020302020302020302020302020302020302020300A20202020302E3637373220202020322E3036363920202020302E303030302048202020302020302020302020302020302020302020302020302020302020302020302020300A20202020312E3539383220202020302E3130383820202020302E303030302048202020302020302020302020302020302020302020302020302020302020302020302020300A2020202D322E3334373820202020312E3033353120202020302E303030302048202020302020302020302020302020302020302020302020302020302020302020302020300A2020202D322E333838382020202D302E3331383020202020302E303030302048202020302020302020302020302020302020302020302020302020302020302020302020300A2020202D302E373935382020202D312E3438333220202020302E303030302043202020302020302020302020302020302020302020302020302020302020302020302020300A2020202D312E393932382020202D302E3832313820202020302E30303030204F202020302020302020302020302020302020302020302020302020302020302020302020300A2020202D312E343136392020202D312E3430353120202020302E303030302048202020302020302020302020302020302020302020302020302020302020302020302020300A20202020302E303031322020202D312E3639363320202020302E303030302043202020302020302020302020302020302020302020302020302020302020302020302020300A2020202D312E333738382020202D322E3036363920202020302E303030302043202020302020302020302020302020302020302020302020302020302020302020302020300A20202020312E3539303820202020302E3531343620202020302E303030302043202020302020302020302020302020302020302020302020302020302020302020302020300A2020202D302E3539383820202020302E3539373120202020302E303030302043202020302020302020302020302020302020302020302020302020302020302020302020300A20202020302E363633352020202D312E3434323120202020302E303030302043202020302020302020302020302020302020302020302020302020302020302020302020300A2020312020322020312020302020202020200A2020322020332020312020302020202020200A2020332020342020312020302020202020200A2020342020352020312020302020202020200A2020362020372020312020302020202020200A2020372020382020312020302020202020200A2020382020312020322020302020202020200A2020352020392020312020302020202020200A2020392031302020322020302020202020200A2031302031312020312020302020202020200A2031312031322020312020302020202020200A2031322031332020312020302020202020200A2031332031342020322020302020202020200A2031342020362020312020302020202020200A2031342031352020312020302020202020200A2031302031362020312020302020202020200A2020312031372020312020302020202020200A2020322031382020312020312020202020200A2020332031392020312020312020202020200A2020322032302020312020362020202020200A2020332032312020312020362020202020200A2031392032322020312020302020202020200A2031392032332020312020302020202020200A2031332032342020312020302020202020200A2020382032352020312020302020202020200A2020392032362020312020302020202020200A4D202053545920203120202031205355500A4D2020534C4220203120202031202020310A4D202053414C20202031202031202032340A4D202053424C20202031202031202032340A4D2020534D5420202031204D650A4D2020534256202020312032342020202D372E3032343020202020362E393533390A4D202053545920203120202032205355500A4D2020534C4220203120202032202020320A4D202053414C20202032202031202032350A4D202053424C20202032202031202032350A4D2020534D5420202032204D650A4D2020534256202020322032352020202D362E3339363920202020372E303336340A4D202053545920203120202033205355500A4D2020534C4220203120202033202020330A4D202053414C20202033202031202032360A4D202053424C20202033202031202032360A4D2020534D5420202033204D650A4D2020534256202020332032362020202D372E3132363320202020362E393839300A4D2020454E44
Contributor: EGUCHI S, FAC. OF SCIENCE, HIROSHIMA UNIV.
InstType: EI
InstName: HITACHI RMU-6L
IoniMethod: _ENERGY 70 eV
IonPolarity: pos
Date: 2010-10-09 19:48:36+02:00
Num Peaks: 117
41 683 42 98 43 366 44 1 45 12 53 260 54 49 55 56 56 146 57 280 
58 24 59 2 65 61 66 49 67 427 68 60 69 732 70 98 71 159 72 1 
77 122 78 37 79 232 80 11 81 939 82 244 83 366 84 999 85 134 91 146 
92 73 93 35 94 171 95 476 96 159 97 16 98 30 99 24 105 109 106 5 
107 256 108 122 109 317 110 7 111 61 119 85 120 49 121 26 122 195 123 488 
124 85 125 4 126 12 127 12 131 37 132 1 133 73 134 61 135 171 136 28 
137 195 138 61 139 37 140 5 141 12 145 24 146 37 147 7 148 85 149 171 
150 61 151 6 152 18 153 24 159 49 160 2 161 98 162 49 163 85 164 6 
165 24 166 24 167 12 173 2 175 24 176 24 177 61 178 2 179 24 187 37 
188 12 189 6 190 24 191 49 192 24 193 1 215 12 216 12 217 37 218 1 
219 6 220 12 229 98 230 2 231 12 247 49 248 12 257 5 258 6 272 122 
273 37 274 1 275 37 276 12 290 110 291 4 292 12 
