Name: CIS-ORTHO-METHOXYCINNAMIC ACID
MW: 178
Formula: C10H10O3
Synonym: MassBank: JP010447
Synonym: CIS-ORTHO-METHOXYCINNAMIC ACID
Structure: 4349532D4F5254484F2D4D4554484F585943494E4E414D494320414349442E6D6F6C0A20204368656D447261773039313331303134303032440A2031332031332020302020302020302020302020302020302020302020303939392056323030300A2020202D312E3432383920202020312E3033313220202020302E303030302043202020302020302020302020302020302020302020302020302020302020302020302020300A2020202D302E3731343520202020312E3434333820202020302E303030302043202020302020302020302020302020302020302020302020302020302020302020302020300A20202020302E3030303020202020312E3033313320202020302E303030302043202020302020302020302020302020302020302020302020302020302020302020302020300A20202020302E3030303020202020302E3230363220202020302E303030302043202020302020302020302020302020302020302020302020302020302020302020302020300A20202020302E373134352020202D302E3230363320202020302E303030302043202020302020302020302020302020302020302020302020302020302020302020302020300A20202020302E373134352020202D312E3033313320202020302E303030302043202020302020302020302020302020302020302020302020302020302020302020302020300A2020202D302E303030302020202D312E3434333820202020302E303030302043202020302020302020302020302020302020302020302020302020302020302020302020300A2020202D302E373134352020202D312E3033313320202020302E303030302043202020302020302020302020302020302020302020302020302020302020302020302020300A2020202D302E373134352020202D302E3230363220202020302E303030302043202020302020302020302020302020302020302020302020302020302020302020302020300A2020202D312E3432383920202020302E3230363220202020302E30303030204F202020302020302020302020302020302020302020302020302020302020302020302020300A2020202D322E3134333420202020312E3434333720202020302E30303030204F202020302020302020302020302020302020302020302020302020302020302020302020300A20202020312E3432383920202020302E3230363320202020302E30303030204F202020302020302020302020302020302020302020302020302020302020302020302020300A20202020322E313433342020202D302E3230363220202020302E303030302043202020302020302020302020302020302020302020302020302020302020302020302020300A2020312020322020312020302020202020200A2020322020332020322020302020202020200A2020332020342020312020302020202020200A2020342020352020312020302020202020200A2020352020362020322020302020202020200A2020362020372020312020302020202020200A2020372020382020322020302020202020200A2020382020392020312020302020202020200A2020342020392020322020302020202020200A2020312031302020322020302020202020200A2020312031312020312020302020202020200A2031322031332020312020302020202020200A2020352031322020312020302020202020200A4D2020454E44
Contributor: TAJIMA S, GUNMA COLLEGE OF TECHNOLOGY
InstType: EI
InstName: HITACHI M-80A
IoniMethod: _ENERGY 70 eV
IonPolarity: pos
Date: 2010-10-09 19:48:36+02:00
Num Peaks: 62
15 88 26 14 27 241 29 32 37 12 38 32 39 110 40 10 41 18 43 112 
44 11 45 71 50 49 51 151 52 311 53 97 55 19 61 15 62 49 63 145 
64 43 65 87 66 11 74 29 75 38 76 21 77 144 78 63 79 67 85 14 
89 125 90 86 91 401 92 40 94 48 101 14 102 29 103 114 104 28 105 89 
106 13 107 27 115 13 118 261 119 169 120 28 121 15 131 146 132 71 133 35 
135 12 146 67 147 623 148 63 160 10 161 138 162 19 163 17 177 17 178 999 
179 147 180 16 
