Name: 3-METHOXYACETOPHENONE (D3)
MW: 150
Formula: C9H10O2
Synonym: MassBank: JP011804
Synonym: 3-METHOXYACETOPHENONE (D3)
Structure: 332D4D4554484F5859414345544F5048454E4F4E4520284433292E6D6F6C0A20204368656D447261773032323231303233313032440A2031342031342020302020302020302020302020302020302020302020303939392056323030300A2020202D312E3438343220202020302E3631383820202020302E303030302043202020302020302020302020302020302020302020302020302020302020302020302020300A2020202D312E343834322020202D302E3230363220202020302E303030302043202020302020302020302020302020302020302020302020302020302020302020302020300A2020202D302E373639372020202D302E3631383820202020302E303030302043202020302020302020302020302020302020302020302020302020302020302020302020300A2020202D302E303535332020202D302E3230363220202020302E303030302043202020302020302020302020302020302020302020302020302020302020302020302020300A2020202D302E3035353320202020302E3631383820202020302E303030302043202020302020302020302020302020302020302020302020302020302020302020302020300A2020202D302E3736393720202020312E3033313320202020302E303030302043202020302020302020302020302020302020302020302020302020302020302020302020300A2020202D302E3736393720202020312E3835363320202020302E303030302043202020302020302020302020302020302020302020302020302020302020302020302020300A2020202D302E3035353320202020322E3236383720202020302E303030302043202020302020302020302020302020302020302020302020302020302020302020302020300A2020202D312E3438343220202020322E3236383720202020302E30303030204F202020302020302020302020302020302020302020302020302020302020302020302020300A20202020302E363539322020202D302E3631383820202020302E30303030204F202020302020302020302020302020302020302020302020302020302020302020302020300A20202020302E363539322020202D312E3434333820202020302E303030302043202020302020302020302020302020302020302020302020302020302020302020302020300A20202020302E363539322020202D322E3236383720202020302E303030302048202020312020302020302020302020302020302020302020302020302020302020302020300A20202020312E343834322020202D312E3434333820202020302E303030302048202020312020302020302020302020302020302020302020302020302020302020302020300A2020202D302E313635382020202D312E3434333820202020302E303030302048202020312020302020302020302020302020302020302020302020302020302020302020300A2020312020322020322020302020202020200A2020322020332020312020302020202020200A2020332020342020322020302020202020200A2020342020352020312020302020202020200A2020352020362020322020302020202020200A2020362020312020312020302020202020200A2020362020372020312020302020202020200A2020372020382020312020302020202020200A2020372020392020322020302020202020200A2020342031302020312020302020202020200A2031302031312020312020302020202020200A2031312031322020312020302020202020200A2031312031332020312020302020202020200A2031312031342020312020302020202020200A4D202049534F2020332020313220202032202031332020203220203134202020320A4D2020454E44
Contributor: TAJIMA S, GUNMA COLLEGE OF TECHNOLOGY
InstType: EI
InstName: HITACHI M-80A
IoniMethod: _ENERGY 70 eV
IonPolarity: pos
Date: 2010-10-09 19:48:36+02:00
Num Peaks: 46
15 59 18 95 26 12 27 18 29 19 30 28 37 28 38 112 39 100 40 14 
42 57 43 460 44 12 49 13 50 134 51 108 52 62 53 29 61 33 62 100 
63 376 64 334 65 74 66 16 73 13 74 69 75 44 76 58 77 72 78 402 
79 115 80 58 81 13 82 34 89 13 91 15 92 487 93 47 110 460 111 44 
120 17 124 14 138 999 139 96 153 456 154 44 
