Name: MassBank: JP011290
MW: 228
Formula: C12H20O4
Synonym: MassBank: JP011290
Synonym: CIS-1,2-CYCLOHEXANEDICARBOXYLIC ACID DIETHYL ESTER
Synonym: DIETHYL CIS-1,2-CYCLOHEXANEDICARBOXYLATE
Structure: 4349532D312C322D4359434C4F484558414E454449434152424F58594C49432041434944204449455448594C2045535445522E6D6F6C0A20204368656D447261773039303831303039333032440A2031382031382020302020302020302020302020302020302020302020303939392056323030300A20202020302E3439323320202020302E3339353920202020302E303030302043202020302020302020302020302020302020302020302020302020302020302020302020300A20202020302E3930343820202020312E3131303420202020302E303030302043202020302020302020302020302020302020302020302020302020302020302020302020300A20202020312E3732393820202020312E3131303420202020302E303030302043202020302020302020302020302020302020302020302020302020302020302020302020300A20202020322E3134323320202020302E3339353920202020302E303030302043202020302020302020302020302020302020302020302020302020302020302020302020300A20202020312E373239382020202D302E3331383520202020302E303030302043202020302020302020302020302020302020302020302020302020302020302020302020300A20202020302E393034382020202D302E3331383520202020302E303030302043202020302020302020302020302020302020302020302020302020302020302020302020300A2020202D302E313339372020202D302E3133343420202020302E303030302043202020302020302020302020302020302020302020302020302020302020302020302020300A2020202D302E3931353020202020302E3134353620202020302E30303030204F202020302020302020302020302020302020302020302020302020302020302020302020300A20202020302E303033352020202D302E3934383420202020302E30303030204F202020302020302020302020302020302020302020302020302020302020302020302020300A2020202D302E3130333120202020312E3437373220202020302E303030302043202020302020302020302020302020302020302020302020302020302020302020302020300A2020202D302E3234363320202020322E3238393620202020302E30303030204F202020302020302020302020302020302020302020302020302020302020302020302020300A2020202D302E3733353020202020302E3934353820202020302E30303030204F202020302020302020302020302020302020302020302020302020302020302020302020300A2020202D302E363238342020202D312E3437373120202020302E303030302043202020302020302020302020302020302020302020302020302020302020302020302020300A2020202D302E343835322020202D322E3238393620202020302E303030302043202020302020302020302020302020302020302020302020302020302020302020302020300A2020202D312E3531303320202020312E3232393120202020302E303030302043202020302020302020302020302020302020302020302020302020302020302020302020300A2020202D322E3134323320202020302E3639383820202020302E303030302043202020302020302020302020302020302020302020302020302020302020302020302020300A20202020312E3034383820202020312E3932313120202020302E303030302048202020302020302020302020302020302020302020302020302020302020302020302020300A2020202D302E3133373020202020302E3932353720202020302E303030302048202020302020302020302020302020302020302020302020302020302020302020302020300A2020312020322020312020302020202020200A2020322020332020312020302020202020200A2020332020342020312020302020202020200A2020342020352020312020302020202020200A2020352020362020312020302020202020200A2020312020362020312020302020202020200A2020372020382020322020302020202020200A2020372020392020312020302020202020200A2020312020372020312020362020202020200A2031302031312020322020302020202020200A2031302031322020312020302020202020200A2020322031302020312020362020202020200A2031332031342020312020302020202020200A2020392031332020312020302020202020200A2031352031362020312020302020202020200A2031322031352020312020302020202020200A2020322031372020312020312020202020200A2020312031382020312020312020202020200A4D2020454E44
Contributor: TAJIMA S, GUNMA COLLEGE OF TECHNOLOGY
InstType: EI
InstName: HITACHI M-80A
IoniMethod: _ENERGY 70 eV
IonPolarity: pos
Date: 2010-10-09 19:48:36+02:00
Num Peaks: 59
30 25 31 79 38 14 39 197 40 71 41 316 42 30 43 219 45 59 51 32 
52 35 53 197 54 225 55 134 56 13 57 31 58 18 65 30 66 52 67 325 
68 47 69 29 70 13 71 11 73 35 77 60 78 13 79 164 80 297 81 999 
82 184 83 42 85 15 86 35 88 34 95 11 97 31 99 37 100 15 101 20 
108 224 109 174 110 30 113 11 114 15 115 17 125 71 126 39 127 43 128 26 
136 25 140 24 154 407 155 97 156 31 182 145 183 317 184 35 228 29 
