Name: MassBank: JP010272
MW: 423
Formula: C26H33NO4
Synonym: MassBank: JP010272
Synonym: CIS-5-(6-(1,3-DIOXAN-2-YL)HEXYL)-TRANS-4-FORMYL-2,REF.-3-DIPHENYLISOXAZOLIDINE
Synonym: (3S,4S,5R)-4-FORMYL-2,3-DIPHENYL-5-(6-(1,3-DI0XAN-2-YL)HEXYL)ISOXAZOLIDINE
Structure: 2833532C34532C3552292D342D464F524D594C2D322C332D44495048454E594C2D352D28362D28312C332D44493058414E2D322D594C29484558594C2949534F58415A4F4C4944494E452E6D6F6C0A20204368656D447261773130323130393130353032440A2033342033372020302020302020302020302020302020302020302020303939392056323030300A20202020312E343835392020202D302E3330353020202020302E30303030204F202020302020302020302020302020302020302020302020302020302020302020302020300A20202020322E333130392020202D302E3330353020202020302E30303030204E202020302020302020302020302020302020302020302020302020302020302020302020300A20202020322E3536353920202020302E3437393720202020302E303030302043202020302020302020302020302020302020302020302020302020302020302020302020300A20202020312E3839383420202020302E3936343620202020302E303030302043202020302020302020302020302020302020302020302020302020302020302020302020300A20202020312E3233313020202020302E3437393720202020302E303030302043202020302020302020302020302020302020302020302020302020302020302020302020300A20202020322E373935382020202D302E3937323420202020302E303030302043202020302020302020302020302020302020302020302020302020302020302020302020300A20202020302E3430363020202020302E3437393720202020302E303030302043202020302020302020302020302020302020302020302020302020302020302020302020300A20202020332E3238303320202020302E3839323220202020302E303030302048202020302020302020302020302020302020302020302020302020302020302020302020300A20202020322E3438313820202020312E3534373920202020302E303030302048202020302020302020302020302020302020302020302020302020302020302020302020300A20202020302E3634373620202020312E3036333020202020302E303030302048202020302020302020302020302020302020302020302020302020302020302020302020300A20202020312E3438353920202020312E3637393020202020302E303030302043202020302020302020302020302020302020302020302020302020302020302020302020300A20202020332E3336323720202020302E3236363120202020302E303030302043202020302020302020302020302020302020302020302020302020302020302020302020300A20202020322E343630332020202D312E3732363120202020302E303030302043202020302020302020302020302020302020302020302020302020302020302020302020300A20202020322E393435322020202D322E3339333520202020302E303030302043202020302020302020302020302020302020302020302020302020302020302020302020300A20202020332E373635372020202D322E3330373320202020302E303030302043202020302020302020302020302020302020302020302020302020302020302020302020300A20202020342E313031322020202D312E3535333620202020302E303030302043202020302020302020302020302020302020302020302020302020302020302020302020300A20202020332E363136332020202D302E3838363220202020302E303030302043202020302020302020302020302020302020302020302020302020302020302020302020300A20202020332E353736332020202D302E3533303820202020302E303030302043202020302020302020302020302020302020302020302020302020302020302020302020300A20202020342E333733322020202D302E3734343320202020302E303030302043202020302020302020302020302020302020302020302020302020302020302020302020300A20202020342E393536352020202D302E3136303920202020302E303030302043202020302020302020302020302020302020302020302020302020302020302020302020300A20202020342E3734333020202020302E3633363020202020302E303030302043202020302020302020302020302020302020302020302020302020302020302020302020300A20202020332E3934363120202020302E3834393520202020302E303030302043202020302020302020302020302020302020302020302020302020302020302020302020300A20202020312E3037333420202020322E3339333520202020302E30303030204F202020302020302020302020302020302020302020302020302020302020302020302020300A2020202D302E303036352020202D302E3233343820202020302E303030302043202020302020302020302020302020302020302020302020302020302020302020302020300A2020202D302E383331352020202D302E3233343820202020302E303030302043202020302020302020302020302020302020302020302020302020302020302020302020300A2020202D312E323434302020202D302E3934393320202020302E303030302043202020302020302020302020302020302020302020302020302020302020302020302020300A2020202D322E303639302020202D302E3934393320202020302E303030302043202020302020302020302020302020302020302020302020302020302020302020302020300A2020202D322E343831352020202D312E3636333820202020302E303030302043202020302020302020302020302020302020302020302020302020302020302020302020300A2020202D332E333036352020202D312E3636333820202020302E303030302043202020302020302020302020302020302020302020302020302020302020302020302020300A2020202D332E373139302020202D302E3934393320202020302E30303030204F202020302020302020302020302020302020302020302020302020302020302020302020300A2020202D342E353434302020202D302E3934393320202020302E303030302043202020302020302020302020302020302020302020302020302020302020302020302020300A2020202D342E393536352020202D312E3636333820202020302E303030302043202020302020302020302020302020302020302020302020302020302020302020302020300A2020202D342E353434302020202D322E3337383220202020302E303030302043202020302020302020302020302020302020302020302020302020302020302020302020300A2020202D332E373139302020202D322E3337383220202020302E30303030204F202020302020302020302020302020302020302020302020302020302020302020302020300A2020312020322020312020302020202020200A2020322020332020312020302020202020200A2020332020342020312020302020202020200A2020342020352020312020302020202020200A2020352020312020312020302020202020200A2020322020362020312020302020202020200A2020352020372020312020362020202020200A2020332020382020312020362020202020200A2020342020392020312020362020202020200A2020352031302020312020312020202020200A2020342031312020312020312020202020200A2020332031322020312020312020202020200A2020362031332020322020302020202020200A2031332031342020312020302020202020200A2031342031352020322020302020202020200A2031352031362020312020302020202020200A2031362031372020322020302020202020200A2031372020362020312020302020202020200A2031322031382020322020302020202020200A2031382031392020312020302020202020200A2031392032302020322020302020202020200A2032302032312020312020302020202020200A2032312032322020322020302020202020200A2032322031322020312020302020202020200A2031312032332020322020302020202020200A2020372032342020312020302020202020200A2032342032352020312020302020202020200A2032352032362020312020302020202020200A2032362032372020312020302020202020200A2032372032382020312020302020202020200A2032382032392020312020302020202020200A2032392033302020312020302020202020200A2033302033312020312020302020202020200A2033312033322020312020302020202020200A2033322033332020312020302020202020200A2033332033342020312020302020202020200A2033342032392020312020302020202020200A4D2020454E44
Contributor: KANEMASA S, INST. OF ADVANCED MATERIAL STUDY KYUSHU UNIV.
InstType: EI
InstName: JEOL JMS-01-SG-2
IoniMethod: _ENERGY 75 eV
IonPolarity: pos
Date: 2010-10-09 19:48:36+02:00
Num Peaks: 25
42 89 52 49 59 80 77 198 87 999 88 47 91 655 92 65 93 69 104 67 
105 109 117 56 180 127 181 103 182 201 196 126 197 121 198 174 199 49 206 45 
224 117 225 48 423 893 424 272 425 48 
