Name: MassBank: JP010185
MW: 429
Formula: C27H27NO4
Synonym: MassBank: JP010185
Synonym: DIMETHYL 1-(TRIPHENYLMETHYL)PYRROLIDINE-3,4-DICARBOXYLATE (3,4-TRANS)
Structure: 303834365F44494D455448594C20312D285452495048454E594C4D455448594C29505952524F4C4944494E452D332C342D4449434152424F58594C4154452028332C342D5452414E53292E6D6F6C0A20204368656D447261773130323031303138313332440A2033322033352020302020302020302020302020302020302020302020303939392056323030300A2020202D302E3238373920202020302E3135303720202020302E30303030204E202020302020302020302020302020302020302020302020302020302020302020302020300A2020202D302E323838332020202D302E3637343320202020302E303030302043202020302020302020302020302020302020302020302020302020302020302020302020300A20202020302E343936332020202D302E3932393220202020302E303030302043202020302020302020302020302020302020302020302020302020302020302020302020300A20202020302E393831332020202D302E3236313820202020302E303030302043202020302020302020302020302020302020302020302020302020302020302020302020300A20202020302E3439363320202020302E3430353720202020302E303030302043202020302020302020302020302020302020302020302020302020302020302020302020300A20202020312E383036332020202D302E3236313820202020302E303030302043202020302020302020302020302020302020302020302020302020302020302020302020300A20202020302E373531332020202D312E3731333820202020302E303030302043202020302020302020302020302020302020302020302020302020302020302020302020300A20202020322E323139332020202D302E3937373120202020302E30303030204F202020302020302020302020302020302020302020302020302020302020302020302020300A20202020322E3231393320202020302E3435323220202020302E30303030204F202020302020302020302020302020302020302020302020302020302020302020302020300A20202020332E3034333820202020302E3435323720202020302E303030302043202020302020302020302020302020302020302020302020302020302020302020302020300A20202020312E353439312020202D312E3932373820202020302E30303030204F202020302020302020302020302020302020302020302020302020302020302020302020300A20202020302E313637392020202D322E3239373220202020302E303030302043202020302020302020302020302020302020302020302020302020302020302020302020300A20202020312E373631372020202D322E3732343220202020302E303030302043202020302020302020302020302020302020302020302020302020302020302020302020300A2020202D302E3935353320202020302E3633353820202020302E303030302043202020302020302020302020302020302020302020302020302020302020302020302020300A2020202D312E343430332020202D302E3033313620202020302E303030302043202020302020302020302020302020302020302020302020302020302020302020302020300A2020202D312E3632323720202020312E3132303820202020302E303030302043202020302020302020302020302020302020302020302020302020302020302020302020300A2020202D302E3437303320202020312E3330333120202020302E303030302043202020302020302020302020302020302020302020302020302020302020302020302020300A20202020302E3335303220202020312E3231363820202020302E303030302043202020302020302020302020302020302020302020302020302020302020302020302020300A20202020302E3833353220202020312E3838343120202020302E303030302043202020302020302020302020302020302020302020302020302020302020302020302020300A20202020302E3439393820202020322E3633373920202020302E303030302043202020302020302020302020302020302020302020302020302020302020302020302020300A2020202D302E3332303720202020322E3732343220202020302E303030302043202020302020302020302020302020302020302020302020302020302020302020302020300A2020202D302E3830353720202020322E3035363920202020302E303030302043202020302020302020302020302020302020302020302020302020302020302020302020300A2020202D312E3533363320202020312E3934313320202020302E303030302043202020302020302020302020302020302020302020302020302020302020302020302020300A2020202D322E3230333720202020322E3432363320202020302E303030302043202020302020302020302020302020302020302020302020302020302020302020302020300A2020202D322E3935373420202020322E3039303820202020302E303030302043202020302020302020302020302020302020302020302020302020302020302020302020300A2020202D332E3034333820202020312E3237303420202020302E303030302043202020302020302020302020302020302020302020302020302020302020302020302020300A2020202D322E3337363420202020302E3738353320202020302E303030302043202020302020302020302020302020302020302020302020302020302020302020302020300A2020202D322E3236303820202020302E3035343820202020302E303030302043202020302020302020302020302020302020302020302020302020302020302020302020300A2020202D322E373435382020202D302E3631323620202020302E303030302043202020302020302020302020302020302020302020302020302020302020302020302020300A2020202D322E343130342020202D312E3336363320202020302E303030302043202020302020302020302020302020302020302020302020302020302020302020302020300A2020202D312E353839392020202D312E3435323720202020302E303030302043202020302020302020302020302020302020302020302020302020302020302020302020300A2020202D312E313034392020202D302E3738353320202020302E303030302043202020302020302020302020302020302020302020302020302020302020302020302020300A2020312020322020312020302020202020200A2020322020332020312020302020202020200A2020332020342020312020302020202020200A2020342020352020312020302020202020200A2020352020312020312020302020202020200A2020342020362020312020312020202020200A2020332020372020312020362020202020200A2020362020382020322020302020202020200A2020362020392020312020302020202020200A2020392031302020312020302020202020200A2020372031312020312020302020202020200A2020372031322020322020302020202020200A2031312031332020312020302020202020200A2020312031342020312020302020202020200A2031342031352020312020302020202020200A2031342031362020312020302020202020200A2031342031372020312020302020202020200A2031372031382020322020302020202020200A2031382031392020312020302020202020200A2031392032302020322020302020202020200A2032302032312020312020302020202020200A2032312032322020322020302020202020200A2032322031372020312020302020202020200A2031362032332020322020302020202020200A2032332032342020312020302020202020200A2032342032352020322020302020202020200A2032352032362020312020302020202020200A2032362032372020322020302020202020200A2032372031362020312020302020202020200A2031352032382020322020302020202020200A2032382032392020312020302020202020200A2032392033302020322020302020202020200A2033302033312020312020302020202020200A2033312033322020322020302020202020200A2033322031352020312020302020202020200A4D2020454E44
Contributor: KANEMASA S, INST. OF ADVANCED MATERIAL STUDY KYUSHU UNIV.
InstType: EI
InstName: JEOL JMS-01-SG-2
IoniMethod: _ENERGY 40 eV
IonPolarity: pos
Date: 2010-10-09 19:48:36+02:00
Num Peaks: 36
42 15 44 14 55 14 59 146 67 16 68 18 77 91 78 30 82 14 87 11 
91 91 96 11 105 20 115 11 118 22 126 48 139 11 154 66 155 16 165 372 
166 57 167 62 183 25 186 11 196 54 215 20 216 11 228 27 241 47 242 54 
243 999 244 206 245 19 352 70 353 14 429 14 
