Name: MassBank: JP010156
MW: 264
Formula: C17H28O2
Synonym: MassBank: JP010156
Synonym: 3,7,11-TRIMETHYL-(2,6Z,10Z)-DODECATRIENE-1-CARBOXYLIC ACID ETHYL ESTER
Structure: 332C372C31312D5452494D455448594C2D28322C365A2C31305A292D444F44454341545249454E452D312D434152424F58594C4943204143494420455448594C2045535445522E6D6F6C0A20204368656D447261773032323231303033313132440A2031392031382020302020302020302020302020302020302020302020303939392056323030300A20202020322E3236383820202020312E3037313720202020302E303030302043202020302020302020302020302020302020302020302020302020302020302020302020300A20202020312E3835363220202020302E3335373220202020302E303030302043202020302020302020302020302020302020302020302020302020302020302020302020300A20202020312E3033313320202020302E3335373220202020302E303030302043202020302020302020302020302020302020302020302020302020302020302020302020300A20202020302E363138372020202D302E3335373220202020302E303030302043202020302020302020302020302020302020302020302020302020302020302020302020300A2020202D302E323036322020202D302E3335373220202020302E303030302043202020302020302020302020302020302020302020302020302020302020302020302020300A2020202D302E363138372020202D312E3037313720202020302E303030302043202020302020302020302020302020302020302020302020302020302020302020302020300A2020202D312E343433372020202D312E3037313720202020302E303030302043202020302020302020302020302020302020302020302020302020302020302020302020300A2020202D312E383536332020202D302E3335373220202020302E303030302043202020302020302020302020302020302020302020302020302020302020302020302020300A2020202D322E363831322020202D302E3335373220202020302E303030302043202020302020302020302020302020302020302020302020302020302020302020302020300A2020202D332E3039333720202020302E3335373220202020302E303030302043202020302020302020302020302020302020302020302020302020302020302020302020300A2020202D332E3931383720202020302E3335373220202020302E303030302043202020302020302020302020302020302020302020302020302020302020302020302020300A2020202D342E3333313220202020312E3037313720202020302E303030302043202020302020302020302020302020302020302020302020302020302020302020302020300A2020202D342E333331332020202D302E3335373220202020302E303030302043202020302020302020302020302020302020302020302020302020302020302020302020300A2020202D312E383536322020202D312E3738363220202020302E303030302043202020302020302020302020302020302020302020302020302020302020302020302020300A20202020302E3631383720202020312E3037313720202020302E303030302043202020302020302020302020302020302020302020302020302020302020302020302020300A20202020332E3039333820202020312E3037313720202020302E30303030204F202020302020302020302020302020302020302020302020302020302020302020302020300A20202020312E3835363320202020312E3738363220202020302E30303030204F202020302020302020302020302020302020302020302020302020302020302020302020300A20202020332E3530363320202020312E3738363220202020302E303030302043202020302020302020302020302020302020302020302020302020302020302020302020300A20202020342E3333313320202020312E3738363220202020302E303030302043202020302020302020302020302020302020302020302020302020302020302020302020300A2020312020322020312020302020202020200A2020322020332020322020302020202020200A2020332020342020312020302020202020200A2020342020352020312020302020202020200A2020352020362020312020302020202020200A2020362020372020322020302020202020200A2020372020382020312020302020202020200A2020382020392020312020302020202020200A2020392031302020312020302020202020200A2031302031312020322020302020202020200A2031312031322020312020302020202020200A2031312031332020312020302020202020200A2020372031342020312020302020202020200A2020332031352020312020302020202020200A2020312031362020312020302020202020200A2020312031372020322020302020202020200A2031362031382020312020302020202020200A2031382031392020312020302020202020200A4D2020454E44
Contributor: KURARAY CO., LTD.
InstType: EI
InstName: JEOL JMS-D-300
IoniMethod: _ENERGY 70 eV
IonPolarity: pos
Date: 2010-10-09 19:48:36+02:00
Num Peaks: 74
27 60 28 20 29 80 39 8 41 500 42 30 43 100 53 10 54 40 55 110 
57 30 65 2 67 130 68 80 69 999 70 6 71 20 77 50 79 60 80 3 
81 480 82 210 83 90 85 4 91 70 93 130 94 20 95 15 96 20 97 20 
99 20 100 17 101 20 105 50 107 80 108 3 109 350 110 40 111 60 113 7 
119 20 120 20 121 380 122 7 123 130 124 20 125 20 128 48 129 40 135 50 
136 70 137 19 138 20 139 60 141 60 142 6 147 130 148 40 149 320 150 6 
151 80 153 30 161 20 163 2 175 60 176 30 190 30 191 5 195 20 218 20 
219 30 221 16 222 20 264 130 
