Name: HEXAFLUOROACETONE
MW: 165
Formula: C3F6O
Synonym: MassBank: JP011286
Synonym: HEXAFLUOROACETONE
Synonym: PERFLUOROACETONE
Structure: 48455841464C554F524F414345544F4E452E6D6F6C0A20204368656D447261773038313131303230313832440A2031302020392020302020302020302020302020302020302020302020303939392056323030300A20202020302E3236313520202020302E3731343520202020302E303030302043202020302020302020302020302020302020302020302020302020302020302020302020300A2020202D302E313531302020202D302E3030303020202020302E303030302043202020302020302020302020302020302020302020302020302020302020302020302020300A2020202D302E393736302020202D302E3030303020202020302E30303030204F202020302020302020302020302020302020302020302020302020302020302020302020300A20202020302E323631352020202D302E3731343520202020302E303030302043202020302020302020302020302020302020302020302020302020302020302020302020300A2020202D302E3435333020202020312E3132373020202020302E303030302046202020302020302020302020302020302020302020302020302020302020302020302020300A20202020302E3637343020202020312E3432383920202020302E303030302046202020302020302020302020302020302020302020302020302020302020302020302020300A20202020302E3937363020202020302E3330323020202020302E303030302046202020302020302020302020302020302020302020302020302020302020302020302020300A20202020302E393736302020202D302E3330323020202020302E303030302046202020302020302020302020302020302020302020302020302020302020302020302020300A20202020302E363734302020202D312E3432383920202020302E303030302046202020302020302020302020302020302020302020302020302020302020302020302020300A2020202D302E343533302020202D312E3132373020202020302E303030302046202020302020302020302020302020302020302020302020302020302020302020302020300A2020312020322020312020302020202020200A2020322020332020322020302020202020200A2020322020342020312020302020202020200A2020312020352020312020302020202020200A2020312020362020312020302020202020200A2020312020372020312020302020202020200A2020342020382020312020302020202020200A2020342020392020312020302020202020200A2020342031302020312020302020202020200A4D2020454E44
Contributor: TAJIMA S, GUNMA COLLEGE OF TECHNOLOGY
InstType: EI
InstName: HITACHI M-80A
IoniMethod: _ENERGY 70 eV
IonPolarity: pos
Date: 2010-10-09 19:48:36+02:00
Num Peaks: 15
31 338 40 13 43 16 47 14 50 429 62 11 69 999 70 18 74 10 78 64 
93 18 97 194 100 13 119 14 147 120 
