Name: 2-AMINO-6-ETHOXYBENZOTHIAZOLE
MW: 194
Formula: C9H10N2OS
Synonym: MassBank: JP012063
Synonym: 2-AMINO-6-ETHOXYBENZOTHIAZOLE
Structure: 322D414D494E4F2D362D4554484F585942454E5A4F544849415A4F4C452E6D6F6C0A20204368656D447261773132323130393232323432440A2031332031342020302020302020302020302020302020302020302020303939392056323030300A2020202D312E3532333520202020302E3636373420202020302E303030302053202020302020302020302020302020302020302020302020302020302020302020302020300A2020202D322E303038342020202D302E3030303020202020302E303030302043202020302020302020302020302020302020302020302020302020302020302020302020300A2020202D312E353233352020202D302E3636373420202020302E30303030204E202020302020302020302020302020302020302020302020302020302020302020302020300A2020202D302E373338392020202D302E3431323520202020302E303030302043202020302020302020302020302020302020302020302020302020302020302020302020300A2020202D302E3733383920202020302E3431323520202020302E303030302043202020302020302020302020302020302020302020302020302020302020302020302020300A2020202D302E303234342020202D302E3832353020202020302E303030302043202020302020302020302020302020302020302020302020302020302020302020302020300A20202020302E363930302020202D302E3431323520202020302E303030302043202020302020302020302020302020302020302020302020302020302020302020302020300A20202020302E3639303020202020302E3431323520202020302E303030302043202020302020302020302020302020302020302020302020302020302020302020302020300A2020202D302E3032343420202020302E3832353020202020302E303030302043202020302020302020302020302020302020302020302020302020302020302020302020300A20202020312E3430343520202020302E3832353020202020302E30303030204F202020302020302020302020302020302020302020302020302020302020302020302020300A20202020322E3131393020202020302E3431323520202020302E303030302043202020302020302020302020302020302020302020302020302020302020302020302020300A20202020322E3833333420202020302E3832353020202020302E303030302043202020302020302020302020302020302020302020302020302020302020302020302020300A2020202D322E383333342020202D302E3030303020202020302E30303030204E202020302020302020302020302020302020302020302020302020302020302020302020300A2020312020322020312020302020202020200A2020322020332020322020302020202020200A2020332020342020312020302020202020200A2020342020352020312020302020202020200A2020312020352020312020302020202020200A2020362020372020312020302020202020200A2020372020382020322020302020202020200A2020382020392020312020302020202020200A2020352020392020322020302020202020200A2020342020362020322020302020202020200A2031312031322020312020302020202020200A2031302031312020312020302020202020200A2020382031302020312020302020202020200A2020322031332020312020302020202020200A4D2020454E44
Contributor: SUMITA Y, KYOTO COLLEGE OF PHARMACY
InstType: EI
InstName: HITACHI M-80
IoniMethod: _ENERGY 20 eV
IonPolarity: pos
Date: 2010-10-09 19:48:36+02:00
Num Peaks: 28
29 19 52 12 69 15 78 15 79 14 80 30 83 11 95 26 96 22 105 12 
106 26 110 104 111 42 112 77 121 27 122 31 124 11 137 137 138 121 139 161 
140 17 165 961 166 665 167 104 168 34 194 999 195 128 196 55 
