Name: LYCORINE
MW: 287
Formula: C16H17NO4
Synonym: MassBank: JP010368
Synonym: LYCORINE
Synonym: 3,12-DIDEHYDRO-9,10-(METHYLENEBIS(OXY))GALANTHAN-1,2-DIOL
Structure: 4C59434F52494E452E6D6F6C0A20204368656D447261773032323131303137343932440A2032362033302020302020302020302020302020302020302020302020303939392056323030300A2020202D322E3238333520202020322E3136313120202020302E303030302043202020302020302020302020302020302020302020302020302020302020302020302020300A2020202D322E3138373220202020312E3334323920202020302E30303030204F202020302020302020302020302020302020302020302020302020302020302020302020300A2020202D312E3338333620202020312E3138343520202020302E303030302043202020302020302020302020302020302020302020302020302020302020302020302020300A2020202D302E3937313720202020312E3839373820202020302E303030302043202020302020302020302020302020302020302020302020302020302020302020302020300A2020202D312E3535373120202020322E3438333220202020302E30303030204F202020302020302020302020302020302020302020302020302020302020302020302020300A2020202D302E3937323620202020302E3437323720202020302E303030302043202020302020302020302020302020302020302020302020302020302020302020302020300A2020202D302E3135303420202020302E3437323720202020302E303030302043202020302020302020302020302020302020302020302020302020302020302020302020300A20202020302E3236353320202020312E3139323720202020302E303030302043202020302020302020302020302020302020302020302020302020302020302020302020300A2020202D302E3134363920202020312E3930363620202020302E303030302043202020302020302020302020302020302020302020302020302020302020302020302020300A20202020302E323535342020202D302E3233303220202020302E303030302043202020302020302020302020302020302020302020302020302020302020302020302020300A20202020312E303437322020202D302E3233303220202020302E303030302043202020302020302020302020302020302020302020302020302020302020302020302020300A20202020312E3439393220202020302E3435373120202020302E30303030204E202020302020302020302020302020302020302020302020302020302020302020302020300A20202020312E3038353520202020312E3137333620202020302E303030302043202020302020302020302020302020302020302020302020302020302020302020302020300A2020202D302E313630342020202D302E3935303520202020302E303030302043202020302020302020302020302020302020302020302020302020302020302020302020300A20202020302E333132362020202D312E3635383220202020302E303030302043202020302020302020302020302020302020302020302020302020302020302020302020300A20202020312E313337322020202D312E3630393220202020302E303030302043202020302020302020302020302020302020302020302020302020302020302020302020300A20202020312E343938362020202D302E3836363220202020302E303030302043202020302020302020302020302020302020302020302020302020302020302020302020300A20202020322E3238333520202020302E3231313520202020302E303030302043202020302020302020302020302020302020302020302020302020302020302020302020300A20202020322E323833352020202D302E3631353520202020302E303030302043202020302020302020302020302020302020302020302020302020302020302020302020300A20202020312E353935342020202D322E3239353320202020302E303030302048202020302020302020302020302020302020302020302020302020302020302020302020300A20202020302E363334372020202D302E3934343720202020302E303030302048202020302020302020302020302020302020302020302020302020302020302020302020300A2020202D302E383734392020202D312E3336333020202020302E30303030204F202020302020302020302020302020302020302020302020302020302020302020302020300A2020202D302E343031382020202D322E3037303720202020302E303030302048202020302020302020302020302020302020302020302020302020302020302020302020300A2020202D302E353639362020202D302E3233303220202020302E303030302048202020302020302020302020302020302020302020302020302020302020302020302020300A2020202D302E393537332020202D302E3733373020202020302E303030302048202020302020302020302020302020302020302020302020302020302020302020302020300A20202020302E333132362020202D322E3438333220202020302E30303030204F202020302020302020302020302020302020302020302020302020302020302020302020300A2020312020322020312020302020202020200A2020322020332020312020302020202020200A2020332020342020322020302020202020200A2020342020352020312020302020202020200A2020352020312020312020302020202020200A2020332020362020312020302020202020200A2020362020372020322020302020202020200A2020372020382020312020302020202020200A2020382020392020322020302020202020200A2020392020342020312020302020202020200A2020372031302020312020302020202020200A2031302031312020312020302020202020200A2031312031322020312020302020202020200A2031322031332020312020302020202020200A2031332020382020312020302020202020200A2031302031342020312020302020202020200A2031342031352020312020302020202020200A2031352031362020312020302020202020200A2031362031372020322020302020202020200A2031372031312020312020302020202020200A2031322031382020312020302020202020200A2031372031392020312020302020202020200A2031382031392020312020302020202020200A2031362032302020312020302020202020200A2031312032312020312020312020202020200A2031342032322020312020312020202020200A2031352032332020312020312020202020200A2031302032342020312020362020202020200A2031342032352020312020362020202020200A2031352032362020312020362020202020200A4D2020454E44
Contributor: HISAHIRO HAGIWARA, CHEMICAL RESEARCH INSTITUTE OF NON-AQUEOUSSOLUTIONS TOHOKU UNIV.
InstType: EI
InstName: JEOL JMS-DX-300
IoniMethod: _ENERGY 70 eV
IonPolarity: pos
Date: 2010-10-09 19:48:36+02:00
Num Peaks: 22
65 56 82 58 89 52 91 6 96 68 111 132 119 83 135 51 147 131 226 999 
227 921 228 161 240 57 250 147 252 67 256 71 268 282 269 86 270 93 286 291 
287 465 288 86 
