Name: MassBank: JP012003
MW: 100
Formula: C5H12Si
Synonym: MassBank: JP012003
Synonym: 1,1-DIMETHYLSILACYCLOBUTANE
Structure: 310A31370A312C312D44494D455448594C53494C414359434C4F425554414E452E6D6F6C0A20204368656D447261773130323330393131303132440A2020362020362020302020302020302020302020302020302020302020303939392056323030300A20202020302E303030302020202D302E3030303020202020302E303030302053692020302020302020302020302020302020302020302020302020302020302020302020300A20202020302E303030302020202D302E3832353020202020302E303030302043202020302020302020302020302020302020302020302020302020302020302020302020300A2020202D302E383235302020202D302E3832353020202020302E303030302043202020302020302020302020302020302020302020302020302020302020302020302020300A2020202D302E383235302020202D302E3030303020202020302E303030302043202020302020302020302020302020302020302020302020302020302020302020302020300A20202020302E3030303020202020302E3832353020202020302E303030302043202020302020302020302020302020302020302020302020302020302020302020302020300A20202020302E383235302020202D302E3030303020202020302E303030302043202020302020302020302020302020302020302020302020302020302020302020302020300A2020312020322020312020302020202020200A2020322020332020312020302020202020200A2020332020342020312020302020202020200A2020312020342020312020302020202020200A2020312020352020312020362020202020200A2020312020362020312020312020202020200A4D2020454E44
Contributor: YAMAMOTO M, DEP. CHEMISTRY, FAC. SCIENCE, NARA WOMEN'S UNIV.
InstType: EI
InstName: HITACHI RMU-6M
IoniMethod: _ENERGY 20 eV
IonPolarity: pos
Date: 2010-10-09 19:48:36+02:00
Num Peaks: 17
43 59 44 202 45 28 46 14 57 29 58 26 59 116 60 14 70 40 71 41 
72 999 73 97 74 41 85 72 100 211 101 29 102 10 
