Name: MassBank: JP012083
MW: 240
Formula: C15H28O2
Synonym: MassBank: JP012083
Synonym: 2ALPHA-HYDROXY-7BETA-(2-HYDROXY-1-METHYLETHYL)-1BETA,(4A)BETA-DIMETHYL-(8A)BETA-DECAHYDRONAPHTHALENE
Structure: 32414C5048412D485944524F58592D37424554412D28322D485944524F58592D312D4D455448594C455448594C292D31424554412C28344129424554412D44494D455448594C2D28384129424554412D44454341485944524F4E4150485448414C454E452E6D6F6C0A20204368656D447261773032323131303137323532440A2032312032322020302020302020302020302020302020302020302020303939392056323030300A2020202D302E3933373820202020302E3232303320202020302E303030302043202020302020302020302020302020302020302020302020302020302020302020302020300A2020202D302E393337382020202D302E3630343720202020302E303030302043202020302020302020302020302020302020302020302020302020302020302020302020300A2020202D302E323233332020202D312E3031373220202020302E303030302043202020302020302020302020302020302020302020302020302020302020302020302020300A20202020302E343931322020202D302E3630343720202020302E303030302043202020302020302020302020302020302020302020302020302020302020302020302020300A20202020302E3439313220202020302E3232303320202020302E303030302043202020302020302020302020302020302020302020302020302020302020302020302020300A2020202D302E3232333320202020302E3633323820202020302E303030302043202020302020302020302020302020302020302020302020302020302020302020302020300A20202020312E323035362020202D312E3031373220202020302E303030302043202020302020302020302020302020302020302020302020302020302020302020302020300A20202020312E393230312020202D302E3630343720202020302E303030302043202020302020302020302020302020302020302020302020302020302020302020302020300A20202020312E3932303120202020302E3232303320202020302E303030302043202020302020302020302020302020302020302020302020302020302020302020302020300A20202020312E3230353620202020302E3633323820202020302E303030302043202020302020302020302020302020302020302020302020302020302020302020302020300A20202020302E343931322020202D312E3432393720202020302E303030302043202020302020302020302020302020302020302020302020302020302020302020302020300A20202020302E3439313220202020312E3034353320202020302E303030302048202020302020302020302020302020302020302020302020302020302020302020302020300A20202020302E3939323120202020312E3432393720202020302E303030302043202020302020302020302020302020302020302020302020302020302020302020302020300A20202020322E3734353120202020302E3232303320202020302E303030302048202020302020302020302020302020302020302020302020302020302020302020302020300A2020202D312E3733343720202020302E3030363820202020302E303030302043202020302020302020302020302020302020302020302020302020302020302020302020300A2020202D312E3135313320202020312E3031373220202020302E303030302048202020302020302020302020302020302020302020302020302020302020302020302020300A20202020312E3738393020202020312E3231363220202020302E303030302048202020302020302020302020302020302020302020302020302020302020302020302020300A20202020322E3333323620202020302E3933343820202020302E30303030204F202020302020302020302020302020302020302020302020302020302020302020302020300A2020202D312E393438322020202D302E3739303120202020302E303030302043202020302020302020302020302020302020302020302020302020302020302020302020300A2020202D322E3331383020202020302E3539303120202020302E303030302043202020302020302020302020302020302020302020302020302020302020302020302020300A2020202D322E373435312020202D312E3030333620202020302E30303030204F202020302020302020302020302020302020302020302020302020302020302020302020300A2020312020322020312020302020202020200A2020322020332020312020302020202020200A2020332020342020312020302020202020200A2020342020352020312020302020202020200A2020352020362020312020302020202020200A2020362020312020312020302020202020200A2020342020372020312020302020202020200A2020372020382020312020302020202020200A2020382020392020312020302020202020200A2020392031302020312020302020202020200A2031302020352020312020302020202020200A2020342031312020312020312020202020200A2020352031322020312020312020202020200A2031302031332020312020312020202020200A2020392031342020312020312020202020200A2020312031352020312020312020202020200A2020312031362020312020362020202020200A2031302031372020312020362020202020200A2020392031382020312020362020202020200A2031352031392020312020302020202020200A2031352032302020312020302020202020200A2031392032312020312020302020202020200A4D2020454E44
Contributor: HISAHIRO HAGIWARA, INSTITUTE FOR CHEMICAL REACTION SCIENCE TOHOKU UNIV.
InstType: EI
InstName: JEOL JMS-DX-300
IoniMethod: _ENERGY 70 eV
IonPolarity: pos
Date: 2010-10-09 19:48:36+02:00
Num Peaks: 30
41 170 55 225 67 170 69 141 79 112 81 422 83 95 93 225 95 310 105 93 
107 294 108 109 109 450 121 204 122 113 123 184 133 99 135 177 147 110 149 164 
161 97 162 124 163 999 164 188 189 169 191 131 193 133 204 112 207 311 222 328 
