Name: 4-PYRIDINONE
MW: 95
Formula: C5H5NO
Synonym: MassBank: JP011162
Synonym: 4-PYRIDINONE
Structure: 310A31390A342D5059524944494E4F4E452E6D6F6C0A20204368656D447261773034323231303231303732440A2020372020372020302020302020302020302020302020302020302020303939392056323030300A20202020302E383235302020202D302E3731343520202020302E303030302043202020302020302020302020302020302020302020302020302020302020302020302020300A2020202D302E303030302020202D302E3731343520202020302E303030302043202020302020302020302020302020302020302020302020302020302020302020302020300A2020202D302E3431323520202020302E3030303020202020302E303030302043202020302020302020302020302020302020302020302020302020302020302020302020300A2020202D302E3030303020202020302E3731343520202020302E303030302043202020302020302020302020302020302020302020302020302020302020302020302020300A20202020302E3832353020202020302E3731343520202020302E303030302043202020302020302020302020302020302020302020302020302020302020302020302020300A20202020312E323337352020202D302E3030303020202020302E30303030204E202020302020302020302020302020302020302020302020302020302020302020302020300A2020202D312E3233373520202020302E3030303020202020302E30303030204F202020302020302020302020302020302020302020302020302020302020302020302020300A2020312020322020322020302020202020200A2020322020332020312020302020202020200A2020332020342020312020302020202020200A2020342020352020312020302020202020200A2020352020362020322020302020202020200A2020312020362020312020302020202020200A2020332020372020322020302020202020200A4D2020454E44
Contributor: SAWADA M, THE INST. OF SCIENTIFIC AND INDUSTRIALRESEARCH OSAKA UNIV.
InstType: EI
InstName: JEOL JMS-DX-300
IoniMethod: _ENERGY 70 eV
IonPolarity: pos
Date: 2010-10-09 19:48:36+02:00
Num Peaks: 31
25 13 26 75 27 52 29 68 37 52 38 95 39 272 40 210 41 245 42 74 
43 27 44 79 48 11 49 22 50 70 51 68 52 43 53 70 54 16 55 71 
64 10 65 10 66 60 67 245 68 237 69 30 76 18 78 10 94 47 95 999 
96 68 
