Name: BETA-HYDROXY-4-METHOXYBENZENEPROPANENITRILE
CAS: 51241-27-1
MW: 177
Formula: C10H11NO2
Synonym: MassBank: JP010586
Synonym: BETA-HYDROXY-4-METHOXYBENZENEPROPANENITRILE
Structure: 424554412D485944524F58592D342D4D4554484F585942454E5A454E4550524F50414E454E495452494C452E6D6F6C0A20204368656D447261773039303531303132333932440A2031332031332020302020302020302020302020302020302020302020303939392056323030300A2020202D302E303030302020202D302E3030303020202020302E303030302043202020302020302020302020302020302020302020302020302020302020302020302020300A20202020302E3431323520202020302E3731343520202020302E303030302043202020302020302020302020302020302020302020302020302020302020302020302020300A20202020312E3233373520202020302E3731343520202020302E303030302043202020302020302020302020302020302020302020302020302020302020302020302020300A20202020312E363530302020202D302E3030303020202020302E303030302043202020302020302020302020302020302020302020302020302020302020302020302020300A20202020312E323337352020202D302E3731343520202020302E303030302043202020302020302020302020302020302020302020302020302020302020302020302020300A20202020302E343132352020202D302E3731343520202020302E303030302043202020302020302020302020302020302020302020302020302020302020302020302020300A2020202D322E303632352020202D302E3731343520202020302E303030302043202020302020302020302020302020302020302020302020302020302020302020302020300A2020202D312E323337352020202D302E3731343520202020302E303030302043202020302020302020302020302020302020302020302020302020302020302020302020300A2020202D302E383235302020202D302E3030303020202020302E303030302043202020302020302020302020302020302020302020302020302020302020302020302020300A2020202D322E383837352020202D302E3731343520202020302E30303030204E202020302020302020302020302020302020302020302020302020302020302020302020300A20202020322E343735302020202D302E3030303020202020302E30303030204F202020302020302020302020302020302020302020302020302020302020302020302020300A20202020322E3838373520202020302E3731343520202020302E303030302043202020302020302020302020302020302020302020302020302020302020302020302020300A2020202D312E3233373520202020302E3731343520202020302E30303030204F202020302020302020302020302020302020302020302020302020302020302020302020300A2020312020322020312020302020202020200A2020322020332020322020302020202020200A2020332020342020312020302020202020200A2020342020352020322020302020202020200A2020352020362020312020302020202020200A2020312020362020322020302020202020200A2020372020382020312020302020202020200A2020382020392020312020302020202020200A2020372031302020332020302020202020200A2020312020392020312020302020202020200A2031312031322020312020302020202020200A2020342031312020312020302020202020200A2020392031332020312020302020202020200A4D2020454E44
Contributor: NARA WOMEN'S UNIVERSITY
InstType: EI
InstName: HITACHI M-80
IoniMethod: _ENERGY 70 eV
IonPolarity: pos
Date: 2010-10-09 19:48:36+02:00
Num Peaks: 40
15 41 18 22 27 15 28 55 29 26 32 13 38 20 39 75 40 39 41 41 
43 11 50 29 51 51 52 13 53 14 62 14 63 47 64 33 65 64 66 72 
68 11 76 11 77 208 78 33 79 29 89 11 91 14 92 39 93 11 94 171 
95 11 107 17 109 200 110 13 122 12 135 55 136 14 137 999 138 74 177 89 
