Name: 1-TRIDEUTEROMETHYL-4-(5-METHOXYCARBONYLHEXANOYL)PIPERAZINE
MW: 256
Formula: C13H24N2O3
Synonym: MassBank: JP010148
Synonym: 1-TRIDEUTEROMETHYL-4-(5-METHOXYCARBONYLHEXANOYL)PIPERAZINE
Structure: 312D5452494445555445524F4D455448594C2D342D28352D4D4554484F5859434152424F4E594C484558414E4F594C295049504552415A494E452E6D6F6C0A20204368656D447261773131323230393232353332440A2032312032312020302020302020302020302020302020302020302020303939392056323030300A2020202D302E343637382020202D322E3530303620202020302E30303030204E202020302020302020302020302020302020302020302020302020302020302020302020300A2020202D302E383830332020202D312E3738363220202020302E303030302043202020302020302020302020302020302020302020302020302020302020302020302020300A2020202D302E343637382020202D312E3037313720202020302E303030302043202020302020302020302020302020302020302020302020302020302020302020302020300A20202020302E333537322020202D312E3037313720202020302E30303030204E202020302020302020302020302020302020302020302020302020302020302020302020300A20202020302E373639372020202D312E3738363220202020302E303030302043202020302020302020302020302020302020302020302020302020302020302020302020300A20202020302E333537322020202D322E3530303620202020302E303030302043202020302020302020302020302020302020302020302020302020302020302020302020300A20202020302E373639372020202D302E3335373220202020302E303030302043202020302020302020302020302020302020302020302020302020302020302020302020300A20202020302E3335373220202020302E3335373220202020302E303030302043202020302020302020302020302020302020302020302020302020302020302020302020300A20202020302E3736393720202020312E3037313720202020302E303030302043202020302020302020302020302020302020302020302020302020302020302020302020300A20202020302E3335373220202020312E3738363220202020302E303030302043202020302020302020302020302020302020302020302020302020302020302020302020300A20202020302E3736393720202020322E3530303620202020302E303030302043202020302020302020302020302020302020302020302020302020302020302020302020300A20202020312E3539343720202020322E3530303620202020302E303030302043202020302020302020302020302020302020302020302020302020302020302020302020300A20202020312E353934372020202D302E3335373220202020302E30303030204F202020302020302020302020302020302020302020302020302020302020302020302020300A20202020302E3335373220202020332E3231353120202020302E303030302043202020302020302020302020302020302020302020302020302020302020302020302020300A2020202D302E3436373820202020332E3231353120202020302E30303030204F202020302020302020302020302020302020302020302020302020302020302020302020300A20202020302E3736393720202020332E3932393620202020302E30303030204F202020302020302020302020302020302020302020302020302020302020302020302020300A20202020312E3539343720202020332E3932393620202020302E303030302043202020302020302020302020302020302020302020302020302020302020302020302020300A2020202D302E383830332020202D332E3231353120202020302E303030302043202020302020302020302020302020302020302020302020302020302020302020302020300A2020202D302E313635382020202D332E3632373620202020302E303030302048202020312020302020302020302020302020302020302020302020302020302020302020300A2020202D312E323932382020202D332E3932393620202020302E303030302048202020312020302020302020302020302020302020302020302020302020302020302020300A2020202D312E353934372020202D322E3830323620202020302E303030302048202020312020302020302020302020302020302020302020302020302020302020302020300A2020312020322020312020302020202020200A2020322020332020312020302020202020200A2020332020342020312020302020202020200A2020342020352020312020302020202020200A2020352020362020312020302020202020200A2020312020362020312020302020202020200A2020372020382020312020302020202020200A2020382020392020312020302020202020200A2020392031302020312020302020202020200A2031302031312020312020302020202020200A2031312031322020312020302020202020200A2020372031332020322020302020202020200A2031342031352020322020302020202020200A2031362031372020312020302020202020200A2031342031362020312020302020202020200A2031312031342020312020302020202020200A2020342020372020312020302020202020200A2031382031392020312020302020202020200A2031382032302020312020302020202020200A2031382032312020312020302020202020200A2020312031382020312020302020202020200A4D202049534F2020332020313920202032202032302020203220203231202020320A4D2020454E44
Contributor: KURARAY CO., LTD.
InstType: EI
InstName: JEOL JMS-D-300
IoniMethod: _ENERGY 70 eV
IonPolarity: pos
Date: 2010-10-09 19:48:36+02:00
Num Peaks: 44
28 70 41 70 42 50 43 4 44 40 45 80 46 90 47 6 55 70 56 120 
57 80 58 5 59 40 60 60 61 320 69 8 70 50 72 220 73 999 74 11 
85 430 86 60 87 40 97 5 99 40 100 40 101 80 102 45 103 60 104 130 
112 60 126 11 129 50 130 40 149 30 157 8 158 40 172 80 199 40 200 11 
201 40 228 170 259 120 260 30 
