Name: MassBank: JP011944
MW: 324
Formula: C20H28Si2
Synonym: MassBank: JP011944
Synonym: 2,3,5,6-BENZO-1,1,4,4-TETRAETHYL-1,4-DISILACYCLOHEXA-2,5-DIENE
Structure: 322C332C352C362D42454E5A4F2D312C312C342C342D5445545241455448594C2D312C342D444953494C414359434C4F484558412D322C352D4449454E452E6D6F6C0A20204368656D447261773132323030393037353732440A2032322032342020302020302020302020302020302020302020302020303939392056323030300A2020202D302E3731343520202020302E3431323520202020302E303030302043202020302020302020302020302020302020302020302020302020302020302020302020300A2020202D302E373134352020202D302E3431323520202020302E303030302043202020302020302020302020302020302020302020302020302020302020302020302020300A20202020302E303030302020202D302E3832353020202020302E303030302053692020302020302020302020302020302020302020302020302020302020302020302020300A20202020302E373134352020202D302E3431323520202020302E303030302043202020302020302020302020302020302020302020302020302020302020302020302020300A20202020302E3731343520202020302E3431323520202020302E303030302043202020302020302020302020302020302020302020302020302020302020302020302020300A20202020302E3030303020202020302E3832353020202020302E303030302053692020302020302020302020302020302020302020302020302020302020302020302020300A2020202D312E3432383920202020302E3832353020202020302E303030302043202020302020302020302020302020302020302020302020302020302020302020302020300A2020202D322E3134333420202020302E3431323520202020302E303030302043202020302020302020302020302020302020302020302020302020302020302020302020300A2020202D322E313433342020202D302E3431323520202020302E303030302043202020302020302020302020302020302020302020302020302020302020302020302020300A2020202D312E343238392020202D302E3832353020202020302E303030302043202020302020302020302020302020302020302020302020302020302020302020302020300A20202020312E343238392020202D302E3832353020202020302E303030302043202020302020302020302020302020302020302020302020302020302020302020302020300A20202020322E313433342020202D302E3431323520202020302E303030302043202020302020302020302020302020302020302020302020302020302020302020302020300A20202020322E3134333420202020302E3431323520202020302E303030302043202020302020302020302020302020302020302020302020302020302020302020302020300A20202020312E3432383920202020302E3832353020202020302E303030302043202020302020302020302020302020302020302020302020302020302020302020302020300A2020202D302E3533303320202020312E3435373020202020302E303030302043202020302020302020302020302020302020302020302020302020302020302020302020300A20202020302E353330332020202D312E3435373020202020302E303030302043202020302020302020302020302020302020302020302020302020302020302020302020300A20202020302E3533303320202020312E3435373020202020302E303030302043202020302020302020302020302020302020302020302020302020302020302020302020300A2020202D302E353330332020202D312E3435373020202020302E303030302043202020302020302020302020302020302020302020302020302020302020302020302020300A2020202D312E3334323820202020312E3331333720202020302E303030302043202020302020302020302020302020302020302020302020302020302020302020302020300A20202020312E3334323820202020312E3331333720202020302E303030302043202020302020302020302020302020302020302020302020302020302020302020302020300A20202020312E333432382020202D312E3331333720202020302E303030302043202020302020302020302020302020302020302020302020302020302020302020302020300A2020202D312E333432382020202D312E3331333720202020302E303030302043202020302020302020302020302020302020302020302020302020302020302020302020300A2020312020322020322020302020202020200A2020322020332020312020302020202020200A2020332020342020312020302020202020200A2020342020352020322020302020202020200A2020352020362020312020302020202020200A2020362020312020312020302020202020200A2020312020372020312020302020202020200A2020372020382020322020302020202020200A2020382020392020312020302020202020200A2020392031302020322020302020202020200A2031302020322020312020302020202020200A2020342031312020312020302020202020200A2031312031322020322020302020202020200A2031322031332020312020302020202020200A2031332031342020322020302020202020200A2031342020352020312020302020202020200A2020362031352020312020312020202020200A2020332031362020312020312020202020200A2020362031372020312020362020202020200A2020332031382020312020362020202020200A2031352031392020312020302020202020200A2031372032302020312020302020202020200A2031362032312020312020302020202020200A2031382032322020312020302020202020200A4D2020454E44
Contributor: ISHIKAWA M, HIROSHIMA UNIV. FAC. TEQUNOLOGY
InstType: EI
InstName: SHIMADZU QP-1000
IoniMethod: _ENERGY 70 eV
IonPolarity: pos
Date: 2010-10-09 19:48:36+02:00
Num Peaks: 20
54 11 105 200 106 11 119 42 133 32 181 21 209 32 211 137 212 32 239 105 
240 21 267 242 268 63 269 21 295 999 296 305 297 105 298 11 324 40 325 11 
