Name: DIMETHYLBENZYLSILANE (1-D)
MW: 150
Formula: C9H14Si
Synonym: MassBank: JP011606
Synonym: DIMETHYLBENZYLSILANE (1-D)
Structure: 44494D455448594C42454E5A594C53494C414E452028312D44292E6D6F6C0A20204368656D447261773130313831303137323932440A2031312031312020302020302020302020302020302020302020302020303939392056323030300A2020202D312E303731372020202D302E3236313520202020302E303030302053692020302020302020302020302020302020302020302020302020302020302020302020300A2020202D312E343834322020202D302E3937363020202020302E303030302048202020312020302020302020302020302020302020302020302020302020302020302020300A2020202D302E333537322020202D302E3637343020202020302E303030302043202020302020302020302020302020302020302020302020302020302020302020302020300A20202020302E333537322020202D302E3236313520202020302E303030302043202020302020302020302020302020302020302020302020302020302020302020302020300A20202020302E3335373220202020302E3536333520202020302E303030302043202020302020302020302020302020302020302020302020302020302020302020302020300A20202020312E3037313720202020302E3937363020202020302E303030302043202020302020302020302020302020302020302020302020302020302020302020302020300A20202020312E3738363220202020302E3536333520202020302E303030302043202020302020302020302020302020302020302020302020302020302020302020302020300A20202020312E373836322020202D302E3236313520202020302E303030302043202020302020302020302020302020302020302020302020302020302020302020302020300A20202020312E303731372020202D302E3637343020202020302E303030302043202020302020302020302020302020302020302020302020302020302020302020302020300A2020202D312E3738363220202020302E3135313020202020302E303030302043202020302020302020302020302020302020302020302020302020302020302020302020300A2020202D302E3635393220202020302E3435333020202020302E303030302043202020302020302020302020302020302020302020302020302020302020302020302020300A2020312020322020312020302020202020200A2020332020342020312020302020202020200A2020342020352020312020302020202020200A2020352020362020322020302020202020200A2020362020372020312020302020202020200A2020372020382020322020302020202020200A2020382020392020312020302020202020200A2020342020392020322020302020202020200A2020312020332020312020302020202020200A2020312031302020312020302020202020200A2020312031312020312020302020202020200A4D202049534F20203120202032202020320A4D2020454E44
Contributor: YAMAMOTO M, DEP. CHEMISTRY, FAC. SCIENCE, NARA WOMEN'S UNIV.
InstType: EI
InstName: HITACHI RMU-6M
IoniMethod: _ENERGY 20 eV
IonPolarity: pos
Date: 2010-10-09 19:48:36+02:00
Num Peaks: 25
43 68 45 27 58 98 59 257 60 999 61 82 62 33 72 115 73 16 91 48 
92 11 107 22 108 31 121 25 122 11 134 14 135 23 136 314 137 48 138 16 
149 25 150 103 151 383 152 66 153 19 
