Name: 5-DEUTERIO-6-HYDRO-7-(HYDROXYDIMETHYLSILYL)-3-(PENTAMETHYLDISILANYL)-6-(TRIMETHYLSILYL)NAPHTHALENE
MW: 406
Formula: C20H38OSi4
Synonym: MassBank: JP011686
Synonym: 5-DEUTERIO-6-HYDRO-7-(HYDROXYDIMETHYLSILYL)-3-(PENTAMETHYLDISILANYL)-6-(TRIMETHYLSILYL)NAPHTHALENE
Structure: 352D444555544552494F2D362D485944524F2D372D28485944524F585944494D455448594C53494C594C292D332D2850454E54414D455448594C444953494C414E594C292D362D285452494D455448594C53494C594C294E4150485448414C454E452E6D6F6C0A20204368656D447261773034323331303035303832440A2032362032372020302020302020302020302020302020302020302020303939392056323030300A2020202D302E3431333420202020302E3931343720202020302E303030302043202020302020302020302020302020302020302020302020302020302020302020302020300A2020202D312E3132373820202020302E3530323220202020302E303030302043202020302020302020302020302020302020302020302020302020302020302020302020300A2020202D312E313237382020202D302E3332323820202020302E303030302043202020302020302020302020302020302020302020302020302020302020302020302020300A2020202D302E343133342020202D302E3733353320202020302E303030302043202020302020302020302020302020302020302020302020302020302020302020302020300A20202020302E333031312020202D302E3332323820202020302E303030302043202020302020302020302020302020302020302020302020302020302020302020302020300A20202020312E303135362020202D302E3733353320202020302E303030302043202020302020302020302020302020302020302020302020302020302020302020302020300A20202020312E373330312020202D302E3332323820202020302E303030302043202020302020302020302020302020302020302020302020302020302020302020302020300A20202020312E3733303120202020302E3530323220202020302E303030302043202020302020302020302020302020302020302020302020302020302020302020302020300A20202020312E3031353620202020302E3931343720202020302E303030302043202020302020302020302020302020302020302020302020302020302020302020302020300A20202020302E3330313120202020302E3530323220202020302E303030302043202020302020302020302020302020302020302020302020302020302020302020302020300A20202020322E353630322020202D312E3032303620202020302E303030302053692020302020302020302020302020302020302020302020302020302020302020302020300A20202020312E393736392020202D312E3630333920202020302E303030302043202020302020302020302020302020302020302020302020302020302020302020302020300A20202020332E313335312020202D312E3539353520202020302E303030302043202020302020302020302020302020302020302020302020302020302020302020302020300A20202020332E313833362020202D302E3438313920202020302E303030302043202020302020302020302020302020302020302020302020302020302020302020302020300A2020202D322E303536362020202D302E3835393120202020302E303030302053692020302020302020302020302020302020302020302020302020302020302020302020300A2020202D322E343639312020202D302E3134343620202020302E303030302053692020302020302020302020302020302020302020302020302020302020302020302020300A2020202D322E373731312020202D312E3237313620202020302E303030302043202020302020302020302020302020302020302020302020302020302020302020302020300A2020202D312E363434312020202D312E3537333620202020302E303030302043202020302020302020302020302020302020302020302020302020302020302020302020300A2020202D322E3838313620202020302E3536393920202020302E303030302043202020302020302020302020302020302020302020302020302020302020302020302020300A2020202D332E313833362020202D302E3535373120202020302E303030302043202020302020302020302020302020302020302020302020302020302020302020302020300A2020202D312E3735343720202020302E3236373920202020302E303030302043202020302020302020302020302020302020302020302020302020302020302020302020300A20202020322E3434343520202020302E3931343720202020302E303030302053692020302020302020302020302020302020302020302020302020302020302020302020300A20202020312E3939313220202020312E3630333920202020302E303030302043202020302020302020302020302020302020302020302020302020302020302020302020300A20202020322E3937343820202020302E3238323720202020302E303030302043202020302020302020302020302020302020302020302020302020302020302020302020300A20202020332E3130363320202020312E3430373320202020302E30303030204F202020302020302020302020302020302020302020302020302020302020302020302020300A20202020312E303135362020202D312E3536303320202020302E303030302048202020312020302020302020302020302020302020302020302020302020302020302020300A2020312020322020312020302020202020200A2020322020332020322020302020202020200A2020332020342020312020302020202020200A2020342020352020322020302020202020200A2020352020362020312020302020202020200A2020362020372020312020302020202020200A2020372020382020312020302020202020200A2020382020392020322020302020202020200A2020392031302020312020302020202020200A2020312031302020322020302020202020200A2020352031302020312020302020202020200A2031312031322020312020302020202020200A2031312031332020312020302020202020200A2031312031342020312020302020202020200A2020372031312020312020302020202020200A2031352031362020312020302020202020200A2031352031372020312020302020202020200A2031352031382020312020302020202020200A2031362031392020312020302020202020200A2031362032302020312020302020202020200A2031362032312020312020302020202020200A2020332031352020312020302020202020200A2032322032332020312020302020202020200A2032322032342020312020302020202020200A2032322032352020312020302020202020200A2020382032322020312020302020202020200A2020362032362020312020302020202020200A4D202049534F20203120203236202020320A4D2020454E44
Contributor: FAC. TECHNOLOGY, HIROSHIMA UNIV.
InstType: EI
InstName: SHIMADZU QP-1000
IoniMethod: _ENERGY 70 eV
IonPolarity: pos
Date: 2010-10-09 19:48:36+02:00
Num Peaks: 31
43 74 45 274 47 63 59 74 60 11 73 999 74 84 75 421 117 42 131 168 
132 32 133 147 134 32 147 116 148 11 170 11 184 11 185 32 186 147 187 32 
205 53 244 32 245 11 246 32 259 32 260 42 261 11 333 11 335 211 336 74 
393 32 
