Name: MassBank: JP011997
MW: 114
Formula: C6H14Si
Synonym: MassBank: JP011997
Synonym: DIMETHYLSILACYCLOPENTANE (1,1-D6)
Structure: 313134375F44494D455448594C53494C414359434C4F50454E54414E452028312C312D4436292E6D6F6C0A20204368656D447261773130323031303230343532440A2031332031332020302020302020302020302020302020302020302020303939392056323030300A2020202D302E393537322020202D302E3431353520202020302E303030302043202020302020302020302020302020302020302020302020302020302020302020302020300A2020202D302E383835332020202D312E3233373420202020302E303030302043202020302020302020302020302020302020302020302020302020302020302020302020300A2020202D302E303831352020202D312E3432333020202020302E303030302043202020302020302020302020302020302020302020302020302020302020302020302020300A20202020302E333433342020202D302E3731353820202020302E303030302043202020302020302020302020302020302020302020302020302020302020302020302020300A2020202D302E313934312020202D302E3039363320202020302E303030302053692020302020302020302020302020302020302020302020302020302020302020302020300A2020202D302E3738353820202020302E3738393620202020302E303030302043202020302020302020302020302020302020302020302020302020302020302020302020300A2020202D312E3434393220202020302E3239373220202020302E303030302048202020312020302020302020302020302020302020302020302020302020302020302020300A2020202D312E3332373520202020312E3432333020202020302E303030302048202020312020302020302020302020302020302020302020302020302020302020302020300A2020202D302E3230323520202020312E3337323920202020302E303030302048202020312020302020302020302020302020302020302020302020302020302020302020300A20202020302E3733343720202020302E3433393920202020302E303030302043202020302020302020302020302020302020302020302020302020302020302020302020300A20202020312E313437382020202D302E3237353520202020302E303030302048202020312020302020302020302020302020302020302020302020302020302020302020300A20202020312E3434393220202020302E3835323420202020302E303030302048202020312020302020302020302020302020302020302020302020302020302020302020300A20202020302E3332323820202020312E3135333420202020302E303030302048202020312020302020302020302020302020302020302020302020302020302020302020300A2020312020322020312020302020202020200A2020322020332020312020302020202020200A2020332020342020312020302020202020200A2020342020352020312020302020202020200A2020352020312020312020302020202020200A2020352031302020312020302020202020200A2020352020362020312020302020202020200A2020362020372020312020302020202020200A2020362020382020312020302020202020200A2020362020392020312020302020202020200A2031302031312020312020302020202020200A2031302031322020312020302020202020200A2031302031332020312020302020202020200A4D202049534F2020362020203720202032202020382020203220202039202020322020313120202032202031322020203220203133202020320A4D2020454E44
Contributor: YAMAMOTO M, DEP. CHEMISTRY, FAC. SCIENCE, NARA WOMEN'S UNIV.
InstType: EI
InstName: HITACHI RMU-6M
IoniMethod: _ENERGY 20 eV
IonPolarity: pos
Date: 2010-10-09 19:48:36+02:00
Num Peaks: 26
46 16 48 13 62 43 63 15 64 378 65 79 66 19 73 10 74 134 75 16 
76 13 78 31 82 18 91 43 92 999 93 96 94 39 100 56 101 11 102 328 
103 35 104 13 119 16 120 261 121 38 122 13 
