Name: ETHINYLESTRADIOL-3-TMS
MW: 368
Formula: C23H32O2Si
Synonym: MassBank: JP011661
Synonym: ETHINYLESTRADIOL-3-TMS
Structure: 313039385F455448494E594C455354524144494F4C2D332D544D532E6D6F6C0A20204368656D447261773130323031303230313532440A2032382033312020302020302020302020302020302020302020302020303939392056323030300A2020202D312E353034302020202D302E3737383320202020302E303030302043202020302020302020302020302020302020302020302020302020302020302020302020300A2020202D312E353034302020202D312E3630333320202020302E303030302043202020302020302020302020302020302020302020302020302020302020302020302020300A2020202D302E373839362020202D322E3031353820202020302E303030302043202020302020302020302020302020302020302020302020302020302020302020302020300A2020202D302E303735312020202D312E3630333320202020302E303030302043202020302020302020302020302020302020302020302020302020302020302020302020300A2020202D302E303735312020202D302E3737383320202020302E303030302043202020302020302020302020302020302020302020302020302020302020302020302020300A2020202D302E373839362020202D302E3336353820202020302E303030302043202020302020302020302020302020302020302020302020302020302020302020302020300A2020202D322E323137352020202D322E3031353820202020302E30303030204F202020302020302020302020302020302020302020302020302020302020302020302020300A2020202D322E393331392020202D312E3630333320202020302E303030302053692020302020302020302020302020302020302020302020302020302020302020302020300A2020202D332E333434342020202D322E3331373820202020302E303030302043202020302020302020302020302020302020302020302020302020302020302020302020300A2020202D332E363436342020202D312E3139303820202020302E303030302043202020302020302020302020302020302020302020302020302020302020302020302020300A2020202D322E353139342020202D302E3838383920202020302E303030302043202020302020302020302020302020302020302020302020302020302020302020302020300A20202020302E363339342020202D322E3031353820202020302E303030302043202020302020302020302020302020302020302020302020302020302020302020302020300A20202020312E333533382020202D312E3630333320202020302E303030302043202020302020302020302020302020302020302020302020302020302020302020302020300A20202020312E333533382020202D302E3737383320202020302E303030302043202020302020302020302020302020302020302020302020302020302020302020302020300A20202020302E363339342020202D302E3336353820202020302E303030302043202020302020302020302020302020302020302020302020302020302020302020302020300A20202020322E303638332020202D302E3336353820202020302E303030302043202020302020302020302020302020302020302020302020302020302020302020302020300A20202020322E3036383320202020302E3435393220202020302E303030302043202020302020302020302020302020302020302020302020302020302020302020302020300A20202020312E3335333820202020302E3837313720202020302E303030302043202020302020302020302020302020302020302020302020302020302020302020302020300A20202020302E3633393420202020302E3435393220202020302E303030302043202020302020302020302020302020302020302020302020302020302020302020302020300A20202020322E383532392020202D302E3632303820202020302E303030302043202020302020302020302020302020302020302020302020302020302020302020302020300A20202020332E3333373920202020302E3034363720202020302E303030302043202020302020302020302020302020302020302020302020302020302020302020302020300A20202020322E3835323920202020302E3731343120202020302E303030302043202020302020302020302020302020302020302020302020302020302020302020302020300A20202020332E3634363420202020302E3934303020202020302E30303030204F202020302020302020302020302020302020302020302020302020302020302020302020300A20202020312E3635373520202020312E3137343620202020302E303030302043202020302020302020302020302020302020302020302020302020302020302020302020300A20202020322E3631323520202020312E3530333320202020302E303030302043202020302020302020302020302020302020302020302020302020302020302020302020300A20202020322E3734333620202020322E3331373820202020302E303030302043202020302020302020302020302020302020302020302020302020302020302020302020300A20202020322E303531332020202D312E3231383920202020302E303030302048202020302020302020302020302020302020302020302020302020302020302020302020300A2020202D302E3034303020202020302E3130323320202020302E303030302048202020302020302020302020302020302020302020302020302020302020302020302020300A2020312020322020322020302020202020200A2020322020332020312020302020202020200A2020332020342020322020302020202020200A2020342020352020312020302020202020200A2020352020362020322020302020202020200A2020362020312020312020302020202020200A2020322020372020312020302020202020200A2020372020382020312020302020202020200A2020382020392020312020302020202020200A2020382031302020312020302020202020200A2020382031312020312020302020202020200A2020342031322020312020302020202020200A2031322031332020312020302020202020200A2031332031342020312020302020202020200A2031342031352020312020302020202020200A2031352020352020312020302020202020200A2031342031362020312020302020202020200A2031362031372020312020302020202020200A2031372031382020312020302020202020200A2031382031392020312020302020202020200A2031392031352020312020302020202020200A2031362032302020312020302020202020200A2032302032312020312020302020202020200A2032312032322020312020302020202020200A2032322031372020312020302020202020200A2032322032332020312020312020202020200A2031372032342020312020312020202020200A2032322032352020312020362020202020200A2032352032362020332020302020202020200A2031342032372020312020312020202020200A2031352032382020312020362020202020200A4D2020454E44
Contributor: YAMAMOTO M, DEP. CHEMISTRY, FAC. SCIENCE, NARA WOMEN'S UNIV.
InstType: EI
InstName: HITACHI M-80
IoniMethod: _ENERGY 20 eV
IonPolarity: pos
Date: 2010-10-09 19:48:36+02:00
Num Peaks: 99
32 103 40 16 68 12 73 86 81 11 93 13 95 12 97 16 105 15 107 16 
109 11 119 11 121 21 124 13 136 21 137 12 163 22 177 48 178 11 179 39 
180 25 189 14 192 47 193 30 194 14 201 13 203 38 204 13 205 138 206 34 
207 21 215 13 216 17 217 57 218 210 219 72 220 24 229 52 230 46 231 144 
232 249 233 63 234 17 242 27 243 41 244 144 245 66 246 23 255 14 256 14 
257 173 258 78 259 22 267 11 268 10 269 24 270 20 271 38 272 47 273 13 
281 19 282 21 283 48 284 33 285 999 286 283 287 95 288 16 296 11 297 15 
298 30 299 22 300 222 301 60 302 15 309 14 311 30 312 11 313 12 314 18 
322 12 325 11 327 42 328 13 340 24 341 20 342 469 343 136 344 39 350 24 
352 12 353 76 354 26 355 11 367 18 368 976 369 296 370 77 371 16 
