Name: 1-(2-HYDROXY-4-PHENYLMETHOXYPHENYL)ETHANONE
MW: 242
Formula: C15H14O3
Synonym: MassBank: JP012055
Synonym: 1-(2-HYDROXY-4-PHENYLMETHOXYPHENYL)ETHANONE
Synonym: 4'-BENZYLOXY-2'-HYDROXYACETOPHENONE
Structure: 312D28322D485944524F58592D342D5048454E594C4D4554484F58595048454E594C29455448414E4F4E452E6D6F6C0A20204368656D447261773131313730393137303032440A2031382031392020302020302020302020302020302020302020302020303939392056323030300A2020202D322E3838373520202020302E3030303020202020302E303030302043202020302020302020302020302020302020302020302020302020302020302020302020300A2020202D332E333030302020202D302E3731343520202020302E303030302043202020302020302020302020302020302020302020302020302020302020302020302020300A2020202D322E3036323520202020302E3030303020202020302E303030302043202020302020302020302020302020302020302020302020302020302020302020302020300A2020202D312E3635303020202020302E3731343520202020302E303030302043202020302020302020302020302020302020302020302020302020302020302020302020300A2020202D302E3832353020202020302E3731343520202020302E303030302043202020302020302020302020302020302020302020302020302020302020302020302020300A2020202D302E343132352020202D302E3030303020202020302E303030302043202020302020302020302020302020302020302020302020302020302020302020302020300A2020202D302E383235302020202D302E3731343520202020302E303030302043202020302020302020302020302020302020302020302020302020302020302020302020300A2020202D312E363530302020202D302E3731343520202020302E303030302043202020302020302020302020302020302020302020302020302020302020302020302020300A20202020302E343132352020202D302E3030303020202020302E30303030204F202020302020302020302020302020302020302020302020302020302020302020302020300A20202020302E383235302020202D302E3731343520202020302E303030302043202020302020302020302020302020302020302020302020302020302020302020302020300A20202020312E363530302020202D302E3731343520202020302E303030302043202020302020302020302020302020302020302020302020302020302020302020302020300A20202020322E3036323520202020302E3030303020202020302E303030302043202020302020302020302020302020302020302020302020302020302020302020302020300A20202020322E3838373520202020302E3030303020202020302E303030302043202020302020302020302020302020302020302020302020302020302020302020302020300A20202020332E333030302020202D302E3731343520202020302E303030302043202020302020302020302020302020302020302020302020302020302020302020302020300A20202020322E383837352020202D312E3432383920202020302E303030302043202020302020302020302020302020302020302020302020302020302020302020302020300A20202020322E303632352020202D312E3432383920202020302E303030302043202020302020302020302020302020302020302020302020302020302020302020302020300A2020202D322E3036323520202020312E3432383920202020302E30303030204F202020302020302020302020302020302020302020302020302020302020302020302020300A2020202D332E3330303020202020302E3731343520202020302E30303030204F202020302020302020302020302020302020302020302020302020302020302020302020300A2020312020322020312020302020202020200A2020332020342020312020302020202020200A2020342020352020322020302020202020200A2020352020362020312020302020202020200A2020362020372020322020302020202020200A2020372020382020312020302020202020200A2020332020382020322020302020202020200A2020392031302020312020302020202020200A2031312031322020312020302020202020200A2031322031332020322020302020202020200A2031332031342020312020302020202020200A2031342031352020322020302020202020200A2031352031362020312020302020202020200A2031312031362020322020302020202020200A2031302031312020312020302020202020200A2020362020392020312020302020202020200A2020342031372020312020302020202020200A2020312020332020312020302020202020200A2020312031382020322020302020202020200A4D2020454E44
Contributor: SUMITA Y, KYOTO COLLEGE OF PHARMACY
InstType: EI
InstName: HITACHI M-80
IoniMethod: _ENERGY 20 eV
IonPolarity: pos
Date: 2010-10-09 19:48:36+02:00
Num Peaks: 8
43 11 65 26 91 999 92 78 227 14 242 228 243 40 244 5 
