Name: MassBank: JP011762
MW: 370
Formula: C24H26Si2
Synonym: MassBank: JP011762
Synonym: 1,2,2,2-TETRAMETHYL-1,1-DI(2-NAPHTHYL)DISILANE
Structure: 312C322C322C322D54455452414D455448594C2D312C312D444928322D4E4150485448594C29444953494C414E452E6D6F6C0A20204368656D447261773130323330393131343132440A2032362032392020302020302020302020302020302020302020302020303939392056323030300A2020202D302E313233382020202D302E3131303520202020302E303030302053692020302020302020302020302020302020302020302020302020302020302020302020300A2020202D302E3132333820202020302E3731343520202020302E303030302053692020302020302020302020302020302020302020302020302020302020302020302020300A2020202D302E313233382020202D302E3933353520202020302E303030302043202020302020302020302020302020302020302020302020302020302020302020302020300A20202020312E3336313320202020302E3630333920202020302E303030302043202020302020302020302020302020302020302020302020302020302020302020302020300A20202020302E393438372020202D302E3131303520202020302E303030302043202020302020302020302020302020302020302020302020302020302020302020302020300A20202020312E333631332020202D302E3832353020202020302E303030302043202020302020302020302020302020302020302020302020302020302020302020302020300A20202020322E313836322020202D302E3832353020202020302E303030302043202020302020302020302020302020302020302020302020302020302020302020302020300A20202020322E353938382020202D302E3131303520202020302E303030302043202020302020302020302020302020302020302020302020302020302020302020302020300A20202020332E343233372020202D302E3131303520202020302E303030302043202020302020302020302020302020302020302020302020302020302020302020302020300A20202020332E3833363320202020302E3630333920202020302E303030302043202020302020302020302020302020302020302020302020302020302020302020302020300A20202020332E3432333820202020312E3331383420202020302E303030302043202020302020302020302020302020302020302020302020302020302020302020302020300A20202020322E3539383720202020312E3331383420202020302E303030302043202020302020302020302020302020302020302020302020302020302020302020302020300A20202020322E3138363220202020302E3630333920202020302E303030302043202020302020302020302020302020302020302020302020302020302020302020302020300A2020202D302E3934383820202020302E3731343520202020302E303030302043202020302020302020302020302020302020302020302020302020302020302020302020300A20202020302E3730313220202020302E3731343520202020302E303030302043202020302020302020302020302020302020302020302020302020302020302020302020300A2020202D302E3132333820202020312E3533393520202020302E303030302043202020302020302020302020302020302020302020302020302020302020302020302020300A2020202D302E393438382020202D302E3131303520202020302E303030302043202020302020302020302020302020302020302020302020302020302020302020302020300A2020202D312E333631332020202D302E3832353020202020302E303030302043202020302020302020302020302020302020302020302020302020302020302020302020300A2020202D322E313836332020202D302E3832353020202020302E303030302043202020302020302020302020302020302020302020302020302020302020302020302020300A2020202D322E353938382020202D302E3131303520202020302E303030302043202020302020302020302020302020302020302020302020302020302020302020302020300A2020202D322E3138363320202020302E3630333920202020302E303030302043202020302020302020302020302020302020302020302020302020302020302020302020300A2020202D312E3336313320202020302E3630333920202020302E303030302043202020302020302020302020302020302020302020302020302020302020302020302020300A2020202D332E343233382020202D302E3131303520202020302E303030302043202020302020302020302020302020302020302020302020302020302020302020302020300A2020202D332E383336332020202D302E3832353020202020302E303030302043202020302020302020302020302020302020302020302020302020302020302020302020300A2020202D332E343233382020202D312E3533393520202020302E303030302043202020302020302020302020302020302020302020302020302020302020302020302020300A2020202D322E353938382020202D312E3533393520202020302E303030302043202020302020302020302020302020302020302020302020302020302020302020302020300A2020312020322020312020302020202020200A2020312020332020312020302020202020200A2020342020352020312020302020202020200A2020352020362020322020302020202020200A2020362020372020312020302020202020200A2020372020382020322020302020202020200A2020382020392020312020302020202020200A2020392031302020322020302020202020200A2031302031312020312020302020202020200A2031312031322020322020302020202020200A2031322031332020312020302020202020200A2020342031332020322020302020202020200A2020382031332020312020302020202020200A2020312020352020312020302020202020200A2020322031342020312020302020202020200A2020322031352020312020302020202020200A2020322031362020312020302020202020200A2020312031372020312020302020202020200A2031372031382020322020302020202020200A2031382031392020312020302020202020200A2031392032302020322020302020202020200A2032302032312020312020302020202020200A2032312032322020322020302020202020200A2032322031372020312020302020202020200A2032302032332020312020302020202020200A2032332032342020322020302020202020200A2032342032352020312020302020202020200A2032352032362020322020302020202020200A2032362031392020312020302020202020200A4D2020454E44
Contributor: FAC. TECHNOLOGY, HIROSHIMA UNIV.
InstType: EI
InstName: SHIMADZU QP-1000
IoniMethod: _ENERGY 70 eV
IonPolarity: pos
Date: 2010-10-09 19:48:36+02:00
Num Peaks: 71
40 20 41 14 43 237 45 199 46 13 50 11 51 12 53 93 55 18 57 22 
58 16 59 35 63 10 73 242 75 17 77 23 103 25 105 18 115 38 116 24 
117 13 119 10 127 12 128 25 129 97 130 16 131 20 141 29 142 11 143 30 
145 27 153 22 154 19 155 174 156 31 157 15 167 205 168 52 169 447 170 95 
171 30 181 22 183 37 184 14 185 490 186 92 187 23 227 90 228 24 229 11 
241 11 242 16 252 40 253 16 255 10 265 27 278 12 279 20 280 11 281 25 
182 12 295 24 296 14 297 999 298 271 299 69 300 13 355 18 370 225 371 85 
372 31 
