Name: 2-(1-CYCLOHEXENYL)-3-METHYL-3-BUTENYLTRIMETHYLSILANE
MW: 222
Formula: C14H26Si
Synonym: MassBank: JP010365
Synonym: 2-(1-CYCLOHEXENYL)-3-METHYL-3-BUTENYLTRIMETHYLSILANE
Structure: 322D28312D4359434C4F484558454E594C292D332D4D455448594C2D332D425554454E594C5452494D455448594C53494C414E452E6D6F6C0A20204368656D447261773132323130393035343632440A2031352031352020302020302020302020302020302020302020302020303939392056323030300A20202020302E3635393220202020312E3434333820202020302E303030302053692020302020302020302020302020302020302020302020302020302020302020302020300A20202020312E3438343220202020312E3434333820202020302E303030302043202020302020302020302020302020302020302020302020302020302020302020302020300A20202020302E3635393220202020322E3236383820202020302E303030302043202020302020302020302020302020302020302020302020302020302020302020302020300A2020202D302E3136353820202020312E3434333820202020302E303030302043202020302020302020302020302020302020302020302020302020302020302020302020300A20202020302E3635393220202020302E3631383820202020302E303030302043202020302020302020302020302020302020302020302020302020302020302020302020300A2020202D302E3035353320202020302E3230363220202020302E303030302043202020302020302020302020302020302020302020302020302020302020302020302020300A2020202D302E3736393720202020302E3631383820202020302E303030302043202020302020302020302020302020302020302020302020302020302020302020302020300A2020202D312E3438343220202020302E3230363320202020302E303030302043202020302020302020302020302020302020302020302020302020302020302020302020300A2020202D302E3736393720202020312E3434333720202020302E303030302043202020302020302020302020302020302020302020302020302020302020302020302020300A2020202D302E303535332020202D302E3631383720202020302E303030302043202020302020302020302020302020302020302020302020302020302020302020302020300A20202020302E363539322020202D312E3033313220202020302E303030302043202020302020302020302020302020302020302020302020302020302020302020302020300A20202020302E363539322020202D312E3835363220202020302E303030302043202020302020302020302020302020302020302020302020302020302020302020302020300A2020202D302E303535332020202D322E3236383820202020302E303030302043202020302020302020302020302020302020302020302020302020302020302020302020300A2020202D302E373639372020202D312E3835363320202020302E303030302043202020302020302020302020302020302020302020302020302020302020302020302020300A2020202D302E373639372020202D312E3033313220202020302E303030302043202020302020302020302020302020302020302020302020302020302020302020302020300A2020312020322020312020312020202020200A2020312020332020312020302020202020200A2020312020342020312020312020202020200A2020352020362020312020302020202020200A2020362020372020312020302020202020200A2020372020382020322020302020202020200A2020372020392020312020302020202020200A2031302031312020322020302020202020200A2031312031322020312020302020202020200A2031322031332020312020302020202020200A2031332031342020312020302020202020200A2031342031352020312020302020202020200A2031302031352020312020302020202020200A2020362031302020312020302020202020200A2020312020352020312020302020202020200A4D2020454E44
Contributor: HISAHIRO HAGIWARA, CHEMICAL RESEARCH INSTITUTE OF NON-AQUEOUSSOLUTIONS TOHOKU UNIV.
InstType: EI
InstName: JEOL JMS-DX-300
IoniMethod: _ENERGY 70 eV
IonPolarity: pos
Date: 2010-10-09 19:48:36+02:00
Num Peaks: 58
31 11 41 31 43 15 45 64 53 14 55 20 59 115 60 2 67 27 69 17 
72 11 73 999 74 94 75 45 77 22 79 46 80 11 81 36 82 18 83 14 
85 25 91 40 92 14 93 48 94 16 99 33 105 65 106 78 107 57 108 16 
109 21 111 1 113 10 119 43 120 18 122 15 123 19 125 21 131 19 133 135 
134 23 135 161 136 26 137 17 139 73 140 16 147 30 148 274 149 63 151 16 
165 27 179 24 181 28 207 120 208 28 222 230 223 54 224 17 
