Name: MassBank: JP011870
MW: 362
Formula: C21H22N2O2Si
Synonym: MassBank: JP011870
Synonym: (2AR,5AR,6S)-6-TRIMETHYLSILYL-3,5-DIOXO-2,4-DIPHENYL-3,4,5,6-TETRAHYDROPYRROLO(3,4-C)PYRROLE
Structure: 283241522C3541522C3653292D362D5452494D455448594C53494C594C2D332C352D44494F584F2D322C342D44495048454E594C2D332C342C352C362D5445545241485944524F505952524F4C4F28332C342D4329505952524F4C452E6D6F6C0A20204368656D447261773130323030393039303832440A2032392033322020302020302020302020302020302020302020302020303939392056323030300A2020202D312E373439322020202D302E3939383620202020302E303030302043202020302020302020302020302020302020302020302020302020302020302020302020300A2020202D302E393234322020202D302E3935333820202020302E303030302043202020302020302020302020302020302020302020302020302020302020302020302020300A2020202D302E363639332020202D302E3136393220202020302E303030302043202020302020302020302020302020302020302020302020302020302020302020302020300A2020202D312E3333383320202020302E3331353820202020302E303030302043202020302020302020302020302020302020302020302020302020302020302020302020300A2020202D322E303031372020202D302E3137303720202020302E30303030204E202020302020302020302020302020302020302020302020302020302020302020302020300A2020202D302E323538302020202D312E3433383720202020302E303030302043202020302020302020302020302020302020302020302020302020302020302020302020300A20202020302E343134302020202D302E3935333820202020302E30303030204E202020302020302020302020302020302020302020302020302020302020302020302020300A20202020302E313535372020202D302E3136393220202020302E303030302043202020302020302020302020302020302020302020302020302020302020302020302020300A2020202D312E3333383320202020312E3134303820202020302E303030302043202020302020302020302020302020302020302020302020302020302020302020302020300A20202020312E313938382020202D312E3230383320202020302E303030302043202020302020302020302020302020302020302020302020302020302020302020302020300A20202020302E3633393320202020302E3439393220202020302E30303030204F202020302020302020302020302020302020302020302020302020302020302020302020300A2020202D302E323538302020202D322E3236333720202020302E30303030204F202020302020302020302020302020302020302020302020302020302020302020302020300A2020202D322E353733362020202D302E3939383620202020302E303030302048202020302020302020302020302020302020302020302020302020302020302020302020300A2020202D302E3431343520202020302E3631353520202020302E303030302048202020302020302020302020302020302020302020302020302020302020302020302020300A2020202D312E303234382020202D312E3737323620202020302E303030302048202020302020302020302020302020302020302020302020302020302020302020302020300A2020202D312E393838362020202D322E3032383320202020302E303030302053692020302020302020302020302020302020302020302020302020302020302020302020300A2020202D322E333033382020202D322E3739303820202020302E303030302043202020302020302020302020302020302020302020302020302020302020302020302020300A2020202D312E323435382020202D322E3338373320202020302E303030302043202020302020302020302020302020302020302020302020302020302020302020302020300A2020202D322E373638302020202D312E3735383020202020302E303030302043202020302020302020302020302020302020302020302020302020302020302020302020300A2020202D302E3632363420202020312E3535353020202020302E303030302043202020302020302020302020302020302020302020302020302020302020302020302020300A2020202D302E3632353520202020322E3337383320202020302E303030302043202020302020302020302020302020302020302020302020302020302020302020302020300A2020202D312E3333393920202020322E3739303820202020302E303030302043202020302020302020302020302020302020302020302020302020302020302020302020300A2020202D322E3035343420202020322E3337383320202020302E303030302043202020302020302020302020302020302020302020302020302020302020302020302020300A2020202D322E3035343420202020312E3535333320202020302E303030302043202020302020302020302020302020302020302020302020302020302020302020302020300A20202020312E333731302020202D322E3031353120202020302E303030302043202020302020302020302020302020302020302020302020302020302020302020302020300A20202020322E313535302020202D322E3237303220202020302E303030302043202020302020302020302020302020302020302020302020302020302020302020302020300A20202020322E373638302020202D312E3731383220202020302E303030302043202020302020302020302020302020302020302020302020302020302020302020302020300A20202020322E353936352020202D302E3931313220202020302E303030302043202020302020302020302020302020302020302020302020302020302020302020302020300A20202020312E383131392020202D302E3635363320202020302E303030302043202020302020302020302020302020302020302020302020302020302020302020302020300A2020312020322020312020302020202020200A2020322020332020312020302020202020200A2020332020342020312020302020202020200A2020342020352020322020302020202020200A2020352020312020312020302020202020200A2020322020362020312020302020202020200A2020362020372020312020302020202020200A2020372020382020312020302020202020200A2020382020332020312020302020202020200A2020342020392020312020302020202020200A2020372031302020312020302020202020200A2020382031312020322020302020202020200A2020362031322020322020302020202020200A2020312031332020312020312020202020200A2020332031342020312020312020202020200A2020322031352020312020312020202020200A2020312031362020312020362020202020200A2031362031372020312020302020202020200A2031362031382020312020302020202020200A2031362031392020312020302020202020200A2020392032302020322020302020202020200A2032302032312020312020302020202020200A2032312032322020322020302020202020200A2032322032332020312020302020202020200A2032332032342020322020302020202020200A2032342020392020312020302020202020200A2031302032352020322020302020202020200A2032352032362020312020302020202020200A2032362032372020322020302020202020200A2032372032382020312020302020202020200A2032382032392020322020302020202020200A2032392031302020312020302020202020200A4D2020454E44
Contributor: YOSHIKI O, FAC, TECHNOLOGY, OSAKA UNIV.
InstType: EI
InstName: Unknown
IoniMethod: _ENERGY 70 eV
IonPolarity: pos
Date: 2010-10-09 19:48:36+02:00
Num Peaks: 40
51 66 52 34 63 37 64 31 67 53 68 36 73 999 74 91 75 84 77 145 
89 34 91 53 93 32 103 43 104 47 105 112 115 116 116 32 117 173 119 45 
130 142 131 116 142 70 143 42 200 72 214 96 215 138 216 32 242 110 278 121 
279 128 290 64 291 61 347 137 348 130 349 41 361 82 362 277 363 285 364 89 
