Name: MassBank: JP010719
MW: 180
Formula: C10H12O3
Synonym: MassBank: JP010719
Synonym: 2',3'-DIMETHOXYACETOPHENONE
Structure: 32272C33272D44494D4554484F5859414345544F5048454E4F4E452E6D6F6C0A20204368656D447261773132313930393031323532440A2031332031332020302020302020302020302020302020302020302020303939392056323030300A2020202D302E3335373220202020312E3434333720202020302E303030302043202020302020302020302020302020302020302020302020302020302020302020302020300A2020202D312E3037313720202020312E3835363220202020302E303030302043202020302020302020302020302020302020302020302020302020302020302020302020300A20202020302E3335373220202020312E3835363220202020302E30303030204F202020302020302020302020302020302020302020302020302020302020302020302020300A2020202D302E3335373220202020302E3631383720202020302E303030302043202020302020302020302020302020302020302020302020302020302020302020302020300A20202020302E3335373220202020302E3230363220202020302E303030302043202020302020302020302020302020302020302020302020302020302020302020302020300A20202020302E333537322020202D302E3631383720202020302E303030302043202020302020302020302020302020302020302020302020302020302020302020302020300A2020202D302E333537322020202D312E3033313320202020302E303030302043202020302020302020302020302020302020302020302020302020302020302020302020300A2020202D312E303731372020202D302E3631383820202020302E303030302043202020302020302020302020302020302020302020302020302020302020302020302020300A2020202D312E3037313720202020302E3230363220202020302E303030302043202020302020302020302020302020302020302020302020302020302020302020302020300A20202020312E303731372020202D312E3033313320202020302E30303030204F202020302020302020302020302020302020302020302020302020302020302020302020300A20202020312E303731372020202D312E3835363220202020302E303030302043202020302020302020302020302020302020302020302020302020302020302020302020300A20202020312E3037313720202020302E3631383720202020302E30303030204F202020302020302020302020302020302020302020302020302020302020302020302020300A20202020312E3037313720202020312E3434333820202020302E303030302043202020302020302020302020302020302020302020302020302020302020302020302020300A2020312020322020312020302020202020200A2020342020352020312020302020202020200A2020352020362020322020302020202020200A2020362020372020312020302020202020200A2020372020382020322020302020202020200A2020382020392020312020302020202020200A2020342020392020322020302020202020200A2020312020332020322020302020202020200A2020312020342020312020302020202020200A2031302031312020312020302020202020200A2020362031302020312020302020202020200A2031322031332020312020302020202020200A2020352031322020312020302020202020200A4D2020454E44
Contributor: SUMITA Y, KYOTO COLLEGE OF PHARMACY
InstType: EI
InstName: HITACHI M-80
IoniMethod: _ENERGY 20 eV
IonPolarity: pos
Date: 2010-10-09 19:48:36+02:00
Num Peaks: 33
43 130 77 120 78 14 79 22 91 22 92 34 94 12 95 12 105 37 107 54 
108 11 109 37 119 21 120 23 121 49 122 175 123 18 133 17 135 27 137 26 
147 18 149 13 150 50 151 35 161 14 162 48 163 39 165 999 166 96 167 12 
180 515 181 56 182 6 
