Name: MassBank: JP010113
MW: 232
Formula: C15H20O2
Synonym: MassBank: JP010113
Synonym: 2-ETHENYL-6-HYDROXY-2,5,7,8-TETRAMETHYL-3,4-DIHYDRO-2H-1-BENZOPYRAN
Structure: 322D455448454E594C2D362D485944524F58592D322C352C372C382D54455452414D455448594C2D332C342D4449485944524F2D32482D312D42454E5A4F505952414E2E6D6F6C0A20204368656D447261773031303331303132323632440A2031372031382020302020302020302020302020302020302020302020303939392056323030300A20202020312E313532362020202D302E3731343520202020302E303030302043202020302020302020302020302020302020302020302020302020302020302020302020300A20202020302E373430312020202D312E3432383920202020302E303030302043202020302020302020302020302020302020302020302020302020302020302020302020300A2020202D302E303834392020202D312E3432383920202020302E303030302043202020302020302020302020302020302020302020302020302020302020302020302020300A2020202D302E343937342020202D302E3731343520202020302E303030302043202020302020302020302020302020302020302020302020302020302020302020302020300A2020202D302E3038343920202020302E3030303020202020302E303030302043202020302020302020302020302020302020302020302020302020302020302020302020300A20202020302E3734303120202020302E3030303020202020302E30303030204F202020302020302020302020302020302020302020302020302020302020302020302020300A2020202D302E3439373420202020302E3731343520202020302E303030302043202020302020302020302020302020302020302020302020302020302020302020302020300A2020202D312E3332323420202020302E3731343520202020302E303030302043202020302020302020302020302020302020302020302020302020302020302020302020300A2020202D312E3733343920202020302E3030303020202020302E303030302043202020302020302020302020302020302020302020302020302020302020302020302020300A2020202D312E333232342020202D302E3731343520202020302E303030302043202020302020302020302020302020302020302020302020302020302020302020302020300A2020202D302E3038343920202020312E3432383920202020302E303030302043202020302020302020302020302020302020302020302020302020302020302020302020300A2020202D312E3733343920202020312E3432383920202020302E303030302043202020302020302020302020302020302020302020302020302020302020302020302020300A2020202D312E373334392020202D312E3432383920202020302E303030302043202020302020302020302020302020302020302020302020302020302020302020302020300A20202020312E373834362020202D302E3138343220202020302E303030302043202020302020302020302020302020302020302020302020302020302020302020302020300A2020202D322E3535393920202020302E3030303020202020302E30303030204F202020302020302020302020302020302020302020302020302020302020302020302020300A20202020312E373834362020202D312E3234343820202020302E303030302043202020302020302020302020302020302020302020302020302020302020302020302020300A20202020322E353539392020202D302E3936323620202020302E303030302043202020302020302020302020302020302020302020302020302020302020302020302020300A2020312020322020312020302020202020200A2020322020332020312020302020202020200A2020332020342020312020302020202020200A2020342020352020312020302020202020200A2020352020362020312020302020202020200A2020312020362020312020302020202020200A2020372020382020312020302020202020200A2020382020392020322020302020202020200A2020392031302020312020302020202020200A2020342031302020322020302020202020200A2020352020372020322020302020202020200A2020372031312020312020302020202020200A2020382031322020312020302020202020200A2031302031332020312020302020202020200A2020312031342020312020302020202020200A2020392031352020312020302020202020200A2031362031372020322020302020202020200A2020312031362020312020302020202020200A4D2020454E44
Contributor: KURARAY CO., LTD.
InstType: EI
InstName: JEOL JMS-D-300
IoniMethod: _ENERGY 70 eV
IonPolarity: pos
Date: 2010-10-09 19:48:36+02:00
Num Peaks: 82
27 38 29 19 39 57 41 14 43 190 51 38 52 19 53 11 54 19 55 57 
57 19 63 2 65 57 67 48 69 76 77 11 78 29 79 86 81 29 83 2 
91 171 92 19 93 57 94 11 95 38 96 19 102 19 103 3 105 76 106 19 
107 38 115 8 116 38 117 57 119 57 121 11 122 29 128 38 129 38 130 2 
131 76 132 19 133 67 134 2 135 57 136 838 137 162 138 13 139 38 140 19 
141 19 143 2 145 57 146 57 147 95 148 4 149 38 157 38 159 95 160 6 
161 257 162 76 163 19 164 44 165 114 171 57 173 48 174 10 175 305 176 143 
177 57 187 3 188 38 189 600 190 152 199 3 202 19 203 171 204 999 205 25 
217 114 232 514 
