Name: 3-(2-METHYL-1-TRIMETHYLSILYLMETHYL-2-PROPENYL)CYCLOHEXANONE
MW: 238
Formula: C14H26OSi
Synonym: MassBank: JP012095
Synonym: 3-(2-METHYL-1-TRIMETHYLSILYLMETHYL-2-PROPENYL)CYCLOHEXANONE
Structure: 332D28322D4D455448594C2D312D5452494D455448594C53494C594C4D455448594C2D322D50524F50454E594C294359434C4F484558414E4F4E452E6D6F6C0A20204368656D447261773032323231303039353132440A2031362031362020302020302020302020302020302020302020302020303939392056323030300A20202020312E383536322020202D302E3635393220202020302E303030302043202020302020302020302020302020302020302020302020302020302020302020302020300A20202020312E303331332020202D302E3635393220202020302E303030302043202020302020302020302020302020302020302020302020302020302020302020302020300A20202020302E3631383720202020302E3035353320202020302E303030302043202020302020302020302020302020302020302020302020302020302020302020302020300A20202020312E3033313220202020302E3736393720202020302E303030302043202020302020302020302020302020302020302020302020302020302020302020302020300A20202020312E3835363220202020302E3736393720202020302E303030302043202020302020302020302020302020302020302020302020302020302020302020302020300A20202020322E3236383720202020302E3035353320202020302E303030302043202020302020302020302020302020302020302020302020302020302020302020302020300A2020202D302E3230363320202020302E3035353320202020302E303030302043202020302020302020302020302020302020302020302020302020302020302020302020300A2020202D302E3631383820202020302E3736393720202020302E303030302043202020302020302020302020302020302020302020302020302020302020302020302020300A2020202D312E3434333820202020302E3736393720202020302E303030302043202020302020302020302020302020302020302020302020302020302020302020302020300A2020202D302E3230363320202020312E3438343220202020302E303030302043202020302020302020302020302020302020302020302020302020302020302020302020300A2020202D302E363138382020202D302E3635393220202020302E303030302043202020302020302020302020302020302020302020302020302020302020302020302020300A2020202D312E343433382020202D302E3635393220202020302E303030302053692020302020302020302020302020302020302020302020302020302020302020302020300A2020202D312E3434333820202020302E3136353820202020302E303030302043202020302020302020302020302020302020302020302020302020302020302020302020300A2020202D312E343433382020202D312E3438343220202020302E303030302043202020302020302020302020302020302020302020302020302020302020302020302020300A2020202D322E323638372020202D302E3635393220202020302E303030302043202020302020302020302020302020302020302020302020302020302020302020302020300A20202020322E323638372020202D312E3337333720202020302E30303030204F202020302020302020302020302020302020302020302020302020302020302020302020300A2020312020322020312020302020202020200A2020322020332020312020302020202020200A2020332020342020312020302020202020200A2020342020352020312020302020202020200A2020352020362020312020302020202020200A2020312020362020312020302020202020200A2020372020382020312020302020202020200A2020382020392020322020302020202020200A2020382031302020312020302020202020200A2031322031332020312020312020202020200A2031322031342020312020312020202020200A2031322031352020312020302020202020200A2031312031322020312020302020202020200A2020372031312020312020302020202020200A2020332020372020312020302020202020200A2020312031362020322020302020202020200A4D2020454E44
Contributor: HISAHIRO HAGIWARA, INSTITUTE FOR CHEMICAL REACTION SCIENCE TOHOKU UNIV.
InstType: EI
InstName: JEOL JMS-DX-300
IoniMethod: _ENERGY 70 eV
IonPolarity: pos
Date: 2010-10-09 19:48:36+02:00
Num Peaks: 36
39 30 41 47 42 27 43 235 44 45 45 52 55 15 58 84 59 54 67 24 
68 19 69 15 72 18 73 999 74 96 75 211 76 21 77 26 79 23 85 20 
91 16 105 16 111 21 127 47 141 234 142 69 143 20 147 18 155 93 156 17 
169 66 170 388 171 77 172 22 181 35 223 44 
