Name: MassBank: JP011773
MW: 110
Formula: C6H6O2
Synonym: MassBank: JP011773
Synonym: 1,3-DIHYDROXYBENZENE
Synonym: RESORCINOL
Structure: 310A32310A312C332D4449485944524F585942454E5A454E452E6D6F6C0A20204368656D447261773131313130393231333932440A2020382020382020302020302020302020302020302020302020302020303939392056323030300A20202020302E373134352020202D302E3431323520202020302E303030302043202020302020302020302020302020302020302020302020302020302020302020302020300A2020202D302E303030302020202D302E3832353020202020302E303030302043202020302020302020302020302020302020302020302020302020302020302020302020300A2020202D302E373134352020202D302E3431323520202020302E303030302043202020302020302020302020302020302020302020302020302020302020302020302020300A2020202D302E3731343520202020302E3431323520202020302E303030302043202020302020302020302020302020302020302020302020302020302020302020302020300A20202020302E3030303020202020302E3832353020202020302E303030302043202020302020302020302020302020302020302020302020302020302020302020302020300A20202020302E3731343520202020302E3431323520202020302E303030302043202020302020302020302020302020302020302020302020302020302020302020302020300A2020202D312E343238392020202D302E3832353020202020302E30303030204F202020302020302020302020302020302020302020302020302020302020302020302020300A20202020312E343238392020202D302E3832353020202020302E30303030204F202020302020302020302020302020302020302020302020302020302020302020302020300A2020312020322020312020302020202020200A2020322020332020322020302020202020200A2020332020342020312020302020202020200A2020342020352020322020302020202020200A2020352020362020312020302020202020200A2020312020362020322020302020202020200A2020332020372020312020302020202020200A2020312020382020312020302020202020200A4D2020454E44
Contributor: TAJIMA S, GUNMA COLLEGE OF TECHNOLOGY
InstType: EI
InstName: HITACHI M-80A
IoniMethod: _ENERGY 70 eV
IonPolarity: pos
Date: 2010-10-09 19:48:36+02:00
Num Peaks: 39
26 36 27 109 29 104 37 58 38 108 39 227 40 33 41 57 42 76 43 49 
49 28 50 90 51 109 52 70 53 299 54 110 55 160 56 11 61 47 62 73 
63 142 64 110 65 40 66 31 68 46 69 191 70 11 71 34 74 10 79 15 
81 418 82 303 83 17 92 19 95 36 109 42 110 999 111 121 112 13 
