Name: MassBank: JP010097
MW: 470
Formula: C27H38N2O5
Synonym: MassBank: JP010097
Synonym: 2-(3-(1-METHYLETHYLAMINO)-2-HYDROXYPROPYLOXYETHYL)-2,5,7,8-TETRAMETHYL-6-(3-PYRIDINECARBOXY)-3,4-DIHYDRO-2HBENZOPYRAN
Structure: 322D28332D28312D4D455448594C455448594C414D494E4F292D322D485944524F585950524F50594C4F5859455448594C292D322C352C372C382D54455452414D455448594C2D362D28332D5059524944494E45434152424F5859292D332C342D4449485944524F2D324842454E5A4F505952414E2E6D6F6C0A20204368656D447261773132323130393137343732440A2033342033362020302020302020302020302020302020302020302020303939392056323030300A2020202D302E373135302020202D322E3330353620202020302E303030302043202020302020302020302020302020302020302020302020302020302020302020302020300A2020202D302E303030352020202D322E3731383120202020302E303030302043202020302020302020302020302020302020302020302020302020302020302020302020300A20202020302E373133392020202D322E3330353620202020302E303030302043202020302020302020302020302020302020302020302020302020302020302020302020300A20202020302E373133392020202D312E3438303620202020302E303030302043202020302020302020302020302020302020302020302020302020302020302020302020300A2020202D302E303030352020202D312E3036383120202020302E303030302043202020302020302020302020302020302020302020302020302020302020302020302020300A2020202D302E373135302020202D312E3438303620202020302E303030302043202020302020302020302020302020302020302020302020302020302020302020302020300A20202020312E343238342020202D312E3036383120202020302E303030302043202020302020302020302020302020302020302020302020302020302020302020302020300A20202020312E343238342020202D302E3234333120202020302E303030302043202020302020302020302020302020302020302020302020302020302020302020302020300A20202020302E3731333920202020302E3136393420202020302E303030302043202020302020302020302020302020302020302020302020302020302020302020302020300A2020202D302E303030342020202D302E3234323820202020302E30303030204F202020302020302020302020302020302020302020302020302020302020302020302020300A2020202D312E343239352020202D312E3036383120202020302E303030302043202020302020302020302020302020302020302020302020302020302020302020302020300A2020202D312E343239352020202D322E3731383120202020302E303030302043202020302020302020302020302020302020302020302020302020302020302020302020300A20202020312E343238342020202D322E3731383120202020302E303030302043202020302020302020302020302020302020302020302020302020302020302020302020300A2020202D302E303030352020202D332E3534333120202020302E303030302043202020302020302020302020302020302020302020302020302020302020302020302020300A2020202D302E373135302020202D332E3935353620202020302E30303030204F202020302020302020302020302020302020302020302020302020302020302020302020300A20202020302E373133392020202D332E3935353620202020302E30303030204F202020302020302020302020302020302020302020302020302020302020302020302020300A20202020302E373133392020202D342E3738303620202020302E303030302043202020302020302020302020302020302020302020302020302020302020302020302020300A2020202D302E303030352020202D352E3139333120202020302E303030302043202020302020302020302020302020302020302020302020302020302020302020302020300A2020202D302E303030352020202D362E3031383120202020302E303030302043202020302020302020302020302020302020302020302020302020302020302020302020300A20202020302E373133392020202D362E3433303620202020302E303030302043202020302020302020302020302020302020302020302020302020302020302020302020300A20202020312E343239352020202D362E3031383120202020302E30303030204E202020302020302020302020302020302020302020302020302020302020302020302020300A20202020312E343238342020202D352E3139333120202020302E303030302043202020302020302020302020302020302020302020302020302020302020302020302020300A20202020302E3138333720202020302E3830313520202020302E303030302043202020302020302020302020302020302020302020302020302020302020302020302020300A20202020312E3234343320202020302E3830313420202020302E303030302043202020302020302020302020302020302020302020302020302020302020302020302020300A20202020302E3436363020202020312E3537363720202020302E303030302043202020302020302020302020302020302020302020302020302020302020302020302020300A2020202D302E3036343220202020322E3230383820202020302E30303030204F202020302020302020302020302020302020302020302020302020302020302020302020300A20202020302E3231383020202020322E3938343020202020302E303030302043202020302020302020302020302020302020302020302020302020302020302020302020300A2020202D302E3331323220202020332E3631363020202020302E303030302043202020302020302020302020302020302020302020302020302020302020302020302020300A2020202D302E3032393920202020342E3339313220202020302E303030302043202020302020302020302020302020302020302020302020302020302020302020302020300A2020202D312E3132343720202020332E3437323920202020302E30303030204F202020302020302020302020302020302020302020302020302020302020302020302020300A2020202D302E3536303120202020352E3032333320202020302E30303030204E202020302020302020302020302020302020302020302020302020302020302020302020300A2020202D302E3237373920202020352E3739383520202020302E303030302043202020302020302020302020302020302020302020302020302020302020302020302020300A2020202D302E3830383120202020362E3433303620202020302E303030302043202020302020302020302020302020302020302020302020302020302020302020302020300A20202020302E3533343620202020352E3934313720202020302E303030302043202020302020302020302020302020302020302020302020302020302020302020302020300A2020312020322020322020302020202020200A2020322020332020312020302020202020200A2020332020342020322020302020202020200A2020342020352020312020302020202020200A2020352020362020322020302020202020200A2020362020312020312020302020202020200A2020342020372020312020302020202020200A2020372020382020312020302020202020200A2020382020392020312020302020202020200A2020392031302020312020302020202020200A2031302020352020312020302020202020200A2020362031312020312020302020202020200A2020312031322020312020302020202020200A2020332031332020312020302020202020200A2020322031342020312020302020202020200A2031342031352020322020302020202020200A2031362031372020312020302020202020200A2031372031382020322020302020202020200A2031382031392020312020302020202020200A2031392032302020322020302020202020200A2032302032312020312020302020202020200A2032312032322020322020302020202020200A2032322031372020312020302020202020200A2020392032332020312020302020202020200A2020392032342020312020302020202020200A2032332032352020312020302020202020200A2032352032362020312020302020202020200A2032362032372020312020302020202020200A2032372032382020312020302020202020200A2032382032392020312020302020202020200A2032382033302020312020302020202020200A2032392033312020312020302020202020200A2033312033322020312020302020202020200A2033322033332020312020302020202020200A2033322033342020312020302020202020200A2031342031362020312020302020202020200A4D2020454E44
Contributor: KURARAY CO., LTD.
InstType: EI
InstName: JEOL JMS-D-300
IoniMethod: _ENERGY 70 eV
IonPolarity: pos
Date: 2010-10-09 19:48:36+02:00
Num Peaks: 109
27 18 28 49 29 14 30 140 39 12 41 91 42 20 43 124 44 22 51 35 
53 17 55 41 56 66 57 25 58 77 67 16 69 64 70 26 72 405 73 16 
74 14 77 16 78 211 79 109 80 18 81 44 84 17 91 24 93 34 98 94 
100 75 105 22 106 963 108 161 114 25 116 32 119 16 121 59 122 24 123 24 
124 56 130 18 135 55 136 54 137 26 138 16 144 132 145 18 149 25 151 15 
152 15 161 21 162 45 163 28 164 430 165 342 166 40 173 14 174 18 175 33 
176 29 177 174 178 33 179 81 180 19 184 20 187 18 188 21 189 88 190 42 
191 23 197 20 203 165 204 86 205 86 207 91 214 20 215 21 216 15 217 53 
219 20 221 305 222 45 231 278 232 608 233 153 234 18 237 25 239 223 240 35 
250 33 251 30 270 46 289 20 292 22 307 135 308 36 310 15 337 69 338 23 
354 29 355 17 364 14 398 24 452 23 455 23 470 999 471 320 472 60 
