Name: 3-(TRIMETHYLSILYL)METHYL-1-OCTEN-4-ONE
MW: 212
Formula: C12H24OSi
Synonym: MassBank: JP011388
Synonym: 3-(TRIMETHYLSILYL)METHYL-1-OCTEN-4-ONE
Structure: 332D285452494D455448594C53494C594C294D455448594C2D312D4F4354454E2D342D4F4E452E6D6F6C0A20204368656D447261773032323231303133323732440A2031342031332020302020302020302020302020302020302020302020303939392056323030300A2020202D322E353030362020202D302E3335373220202020302E303030302043202020302020302020302020302020302020302020302020302020302020302020302020300A2020202D312E373836312020202D302E3736393720202020302E303030302043202020302020302020302020302020302020302020302020302020302020302020302020300A2020202D312E303731372020202D302E3335373220202020302E303030302043202020302020302020302020302020302020302020302020302020302020302020302020300A2020202D302E333537322020202D302E3736393720202020302E303030302043202020302020302020302020302020302020302020302020302020302020302020302020300A20202020302E333537322020202D302E3335373220202020302E303030302043202020302020302020302020302020302020302020302020302020302020302020302020300A20202020312E303731362020202D302E3736393720202020302E303030302043202020302020302020302020302020302020302020302020302020302020302020302020300A20202020312E373836312020202D302E3335373220202020302E303030302043202020302020302020302020302020302020302020302020302020302020302020302020300A2020202D302E333537322020202D312E3539343720202020302E30303030204F202020302020302020302020302020302020302020302020302020302020302020302020300A2020202D312E3037313720202020302E3436373820202020302E303030302043202020302020302020302020302020302020302020302020302020302020302020302020300A2020202D302E3335373220202020302E3838303320202020302E303030302053692020302020302020302020302020302020302020302020302020302020302020302020300A20202020302E3335373220202020312E3239323820202020302E303030302043202020302020302020302020302020302020302020302020302020302020302020302020300A2020202D302E3736393720202020312E3539343720202020302E303030302043202020302020302020302020302020302020302020302020302020302020302020302020300A20202020302E3035353320202020302E3136353820202020302E303030302043202020302020302020302020302020302020302020302020302020302020302020302020300A20202020322E353030362020202D302E3736393720202020302E303030302043202020302020302020302020302020302020302020302020302020302020302020302020300A2020312020322020322020302020202020200A2020322020332020312020302020202020200A2020332020342020312020302020202020200A2020342020352020312020302020202020200A2020352020362020312020302020202020200A2020362020372020312020302020202020200A2020342020382020322020302020202020200A2020332020392020312020302020202020200A2020392031302020312020302020202020200A2031302031312020312020302020202020200A2031302031322020312020312020202020200A2031302031332020312020312020202020200A2020372031342020312020302020202020200A4D2020454E44
Contributor: HISAHIRO HAGIWARA, INSTITUTE FOR CHEMICAL REACTION SCIENCE TOHOKU UNIV.
InstType: EI
InstName: JEOL JMS-DX-300
IoniMethod: _ENERGY 70 eV
IonPolarity: pos
Date: 2010-10-09 19:48:36+02:00
Num Peaks: 51
39 21 41 84 43 55 44 25 45 117 47 16 53 13 55 27 57 221 58 31 
59 57 61 20 67 28 71 13 72 19 73 999 74 138 75 346 76 300 77 32 
79 17 81 31 83 11 85 216 86 15 93 13 95 13 97 34 99 11 101 18 
111 13 115 17 116 16 127 126 128 22 129 20 130 15 141 28 143 35 155 318 
156 56 157 34 170 69 171 13 183 152 184 28 185 11 197 187 198 37 199 11 
212 10 
