Name: MassBank: JP011353
MW: 118
Formula: C4H14Si2
Synonym: MassBank: JP011353
Synonym: 1,1,1,2-TETRAMETHYLDISILANE
Structure: 310A31360A312C312C312C322D54455452414D455448594C444953494C414E452E6D6F6C0A20204368656D447261773130323230393232343132440A2020362020352020302020302020302020302020302020302020302020303939392056323030300A2020202D302E333537322020202D302E3030303020202020302E303030302053692020302020302020302020302020302020302020302020302020302020302020302020300A20202020302E3335373220202020302E3431323520202020302E303030302053692020302020302020302020302020302020302020302020302020302020302020302020300A20202020312E3037313720202020302E3030303020202020302E303030302043202020302020302020302020302020302020302020302020302020302020302020302020300A20202020302E303535332020202D302E3731343520202020302E303030302043202020302020302020302020302020302020302020302020302020302020302020302020300A2020202D312E303731372020202D302E3431323520202020302E303030302043202020302020302020302020302020302020302020302020302020302020302020302020300A2020202D302E3736393720202020302E3731343520202020302E303030302043202020302020302020302020302020302020302020302020302020302020302020302020300A2020312020322020312020302020202020200A2020322020332020312020302020202020200A2020312020342020312020302020202020200A2020312020352020312020302020202020200A2020312020362020312020302020202020200A4D2020454E44
Contributor: YAMAMOTO M, DEP. CHEMISTRY, FAC. SCIENCE, NARA WOMEN'S UNIV.
InstType: EI
InstName: HITACHI RMU-6M
IoniMethod: _ENERGY 70 eV
IonPolarity: pos
Date: 2010-10-09 19:48:36+02:00
Num Peaks: 33
28 14 29 32 31 32 42 21 43 188 44 32 45 142 46 10 53 16 55 18 
57 15 58 15 59 83 69 33 70 13 71 13 72 16 73 999 74 92 75 39 
81 12 85 21 86 10 87 12 101 38 102 31 103 132 104 22 105 9 116 24 
117 32 118 96 119 17 
