Name: MassBank: JP010042
MW: 340
Formula: C21H24O4
Synonym: MassBank: JP010042
Synonym: 3,4-DIHYDRO-2,5,7,8-TRIMETHYL-2-BENZYLOXYCARBONYL-2H-1-BENZOPYRAN-6-OL
Synonym: 2-BENZYLOXYCARBONYL-6-HYDROXY-2,5,7,8-TETRAMETHYL-3,4-DIHYDRO-2H-1-BENZOPYRAN
Structure: 332C342D4449485944524F2D322C352C372C382D5452494D455448594C2D322D42454E5A594C4F5859434152424F4E594C2D32482D312D42454E5A4F505952414E2D362D4F4C2E6D6F6C0A20204368656D447261773132323130393232343932440A2032352032372020302020302020302020302020302020302020302020303939392056323030300A2020202D302E3436303820202020302E3838313620202020302E303030302043202020302020302020302020302020302020302020302020302020302020302020302020300A2020202D302E3034383320202020302E3136373220202020302E303030302043202020302020302020302020302020302020302020302020302020302020302020302020300A2020202D302E343630382020202D302E3534373320202020302E303030302043202020302020302020302020302020302020302020302020302020302020302020302020300A2020202D312E323835382020202D302E3534373320202020302E303030302043202020302020302020302020302020302020302020302020302020302020302020302020300A2020202D312E3639383420202020302E3136373220202020302E303030302043202020302020302020302020302020302020302020302020302020302020302020302020300A2020202D312E3238353820202020302E3838313620202020302E30303030204F202020302020302020302020302020302020302020302020302020302020302020302020300A2020202D322E3532333420202020302E3136373220202020302E303030302043202020302020302020302020302020302020302020302020302020302020302020302020300A2020202D322E393335392020202D302E3534373320202020302E303030302043202020302020302020302020302020302020302020302020302020302020302020302020300A2020202D322E353233332020202D312E3236313820202020302E303030302043202020302020302020302020302020302020302020302020302020302020302020302020300A2020202D312E363938332020202D312E3236313820202020302E303030302043202020302020302020302020302020302020302020302020302020302020302020302020300A2020202D322E3933353820202020302E3838313620202020302E303030302043202020302020302020302020302020302020302020302020302020302020302020302020300A2020202D332E373630382020202D302E3534373320202020302E303030302043202020302020302020302020302020302020302020302020302020302020302020302020300A2020202D312E323835382020202D312E3937363320202020302E303030302043202020302020302020302020302020302020302020302020302020302020302020302020300A2020202D302E3630343120202020312E3639343120202020302E303030302043202020302020302020302020302020302020302020302020302020302020302020302020300A2020202D322E393335382020202D312E3937363320202020302E30303030204F202020302020302020302020302020302020302020302020302020302020302020302020300A20202020302E3331343420202020312E3136333820202020302E303030302043202020302020302020302020302020302020302020302020302020302020302020302020300A20202020302E3435373720202020312E3937363320202020302E30303030204F202020302020302020302020302020302020302020302020302020302020302020302020300A20202020302E3934363420202020302E3633333520202020302E30303030204F202020302020302020302020302020302020302020302020302020302020302020302020300A20202020312E3732313620202020302E3931353720202020302E303030302043202020302020302020302020302020302020302020302020302020302020302020302020300A20202020322E3335333620202020302E3338353420202020302E303030302043202020302020302020302020302020302020302020302020302020302020302020302020300A20202020322E323130342020202D302E3432373120202020302E303030302043202020302020302020302020302020302020302020302020302020302020302020302020300A20202020322E383432332020202D302E3935373420202020302E303030302043202020302020302020302020302020302020302020302020302020302020302020302020300A20202020332E363137362020202D302E3637353220202020302E303030302043202020302020302020302020302020302020302020302020302020302020302020302020300A20202020332E3736303820202020302E3133373220202020302E303030302043202020302020302020302020302020302020302020302020302020302020302020302020300A20202020332E3132383920202020302E3636373520202020302E303030302043202020302020302020302020302020302020302020302020302020302020302020302020300A2020312020322020312020302020202020200A2020322020332020312020302020202020200A2020332020342020312020302020202020200A2020342020352020312020302020202020200A2020352020362020312020302020202020200A2020312020362020312020302020202020200A2020372020382020312020302020202020200A2020382020392020322020302020202020200A2020392031302020312020302020202020200A2020342031302020322020302020202020200A2020352020372020322020302020202020200A2020372031312020312020302020202020200A2020382031322020312020302020202020200A2031302031332020312020302020202020200A2020312031342020312020302020202020200A2020392031352020312020302020202020200A2031362031372020322020302020202020200A2031392032302020312020302020202020200A2032302032312020312020302020202020200A2032312032322020322020302020202020200A2032322032332020312020302020202020200A2032332032342020322020302020202020200A2032342032352020312020302020202020200A2032302032352020322020302020202020200A2031382031392020312020302020202020200A2031362031382020312020302020202020200A2020312031362020312020302020202020200A4D2020454E44
Contributor: KURARAY CO., LTD.
InstType: EI
InstName: JEOL JMS-D-300
IoniMethod: _ENERGY 70 eV
IonPolarity: pos
Date: 2010-10-09 19:48:36+02:00
Num Peaks: 31
28 22 32 110 40 31 41 31 43 142 44 25 65 37 77 24 91 418 92 36 
105 25 121 32 135 16 136 15 149 30 164 163 165 34 175 30 189 42 190 52 
203 162 204 31 205 999 206 140 221 44 231 45 249 53 339 51 340 942 341 215 
342 30 
