Name: MassBank: JP011966
MW: 320
Formula: C18H32OSi2
Synonym: MassBank: JP011966
Synonym: 4,5-BENZO-2-OXA-1,1,3,3-TETRA(ISOPROPYL)-1,3-DISILACYCLO-4-PENTENE
Structure: 313134345F342C352D42454E5A4F2D322D4F58412D312C312C332C332D54455452412849534F50524F50594C292D312C332D444953494C414359434C4F2D342D50454E54454E452E6D6F6C0A20204368656D447261773130323031303230343332440A2032362032372020302020302020302020302020302020302020302020303939392056323030300A2020202D322E3231353920202020302E3032353520202020302E303030302043202020302020302020302020302020302020302020302020302020302020302020302020300A2020202D322E323135392020202D302E3739393520202020302E303030302043202020302020302020302020302020302020302020302020302020302020302020302020300A2020202D312E353031342020202D312E3231323020202020302E303030302043202020302020302020302020302020302020302020302020302020302020302020302020300A2020202D302E373836392020202D302E3739393520202020302E303030302043202020302020302020302020302020302020302020302020302020302020302020302020300A2020202D302E3738363920202020302E3032353520202020302E303030302043202020302020302020302020302020302020302020302020302020302020302020302020300A2020202D312E3530313420202020302E3433383020202020302E303030302043202020302020302020302020302020302020302020302020302020302020302020302020300A20202020302E303030342020202D312E3035353620202020302E303030302053692020302020302020302020302020302020302020302020302020302020302020302020300A20202020302E343832362020202D302E3338343620202020302E303030302043202020302020302020302020302020302020302020302020302020302020302020302020300A2020202D302E3030303520202020302E3237373320202020302E303030302053692020302020302020302020302020302020302020302020302020302020302020302020300A2020202D302E3333343520202020312E3033323020202020302E303030302043202020302020302020302020302020302020302020302020302020302020302020302020300A20202020302E3731343020202020302E3638393820202020302E303030302043202020302020302020302020302020302020302020302020302020302020302020302020300A2020202D312E3135343820202020312E3132303120202020302E303030302043202020302020302020302020302020302020302020302020302020302020302020302020300A20202020302E3731343020202020312E3531343620202020302E303030302043202020302020302020302020302020302020302020302020302020302020302020302020300A20202020322E3231323620202020312E3736323020202020302E303030302043202020302020302020302020302020302020302020302020302020302020302020302020300A20202020312E3830313220202020312E3034393420202020302E303030302043202020302020302020302020302020302020302020302020302020302020302020302020300A20202020322E3231353920202020302E3333313220202020302E303030302043202020302020302020302020302020302020302020302020302020302020302020302020300A20202020312E383032362020202D302E3338343620202020302E303030302043202020302020302020302020302020302020302020302020302020302020302020302020300A20202020312E3739393520202020322E3437373420202020302E303030302043202020302020302020302020302020302020302020302020302020302020302020302020300A2020202D302E333335332020202D312E3831303220202020302E303030302043202020302020302020302020302020302020302020302020302020302020302020302020300A20202020302E373134392020202D312E3436383120202020302E303030302043202020302020302020302020302020302020302020302020302020302020302020302020300A20202020302E373134392020202D322E3239323320202020302E303030302043202020302020302020302020302020302020302020302020302020302020302020302020300A2020202D312E313535372020202D312E3839363820202020302E303030302043202020302020302020302020302020302020302020302020302020302020302020302020300A20202020312E3432383620202020302E3237373220202020302E303030302043202020302020302020302020302020302020302020302020302020302020302020302020300A20202020302E3135323020202020312E3639383320202020302E303030302043202020302020302020302020302020302020302020302020302020302020302020302020300A20202020312E343330302020202D312E3035353220202020302E303030302043202020302020302020302020302020302020302020302020302020302020302020302020300A20202020302E313439392020202D322E3437373420202020302E303030302043202020302020302020302020302020302020302020302020302020302020302020302020300A2020312020322020322020302020202020200A2020322020332020312020302020202020200A2020332020342020322020302020202020200A2020342020352020312020302020202020200A2020352020362020322020302020202020200A2020362020312020312020302020202020200A2020342020372020312020302020202020200A2020372020382020312020302020202020200A2020382020392020312020302020202020200A2020392020352020312020302020202020200A2020392031302020312020302020202020200A2020392031312020312020302020202020200A2031302031322020312020302020202020200A2031312031332020312020302020202020200A2020382031372020312020302020202020200A2031342031352020312020302020202020200A2031352031362020312020302020202020200A2031362031372020312020302020202020200A2031342031382020312020302020202020200A2020372031392020312020302020202020200A2020372032302020312020302020202020200A2032302032312020312020302020202020200A2031392032322020312020302020202020200A2031312032332020312020302020202020200A2031302032342020312020302020202020200A2032302032352020312020302020202020200A2031392032362020312020302020202020200A4D2020454E44
Contributor: ISHIKAWA M, HIROSHIMA UNIV. FAC. TEQUNOLOGY
InstType: EI
InstName: SHIMADZU QP-1000
IoniMethod: _ENERGY 70 eV
IonPolarity: pos
Date: 2010-10-09 19:48:36+02:00
Num Peaks: 28
89 32 105 42 119 32 121 21 145 32 147 32 149 11 163 32 164 11 165 63 
179 158 180 32 191 11 193 147 194 21 207 200 208 32 209 11 235 284 236 63 
237 21 249 32 277 999 278 274 279 95 280 11 319 5 320 5 
