Name: 1-METHYLSILACYCLOHEXANE (1-D)
MW: 114
Formula: C6H14Si
Synonym: MassBank: JP011364
Synonym: 1-METHYLSILACYCLOHEXANE (1-D)
Structure: 310A32320A312D4D455448594C53494C414359434C4F484558414E452028312D44292E6D6F6C0A20204368656D447261773131323130393138333832440A2020382020382020302020302020302020302020302020302020302020303939392056323030300A20202020302E3030303020202020302E3530393020202020302E303030302053692020302020302020302020302020302020302020302020302020302020302020302020300A2020202D302E3731343520202020302E3039363520202020302E303030302043202020302020302020302020302020302020302020302020302020302020302020302020300A2020202D302E373134352020202D302E3732383520202020302E303030302043202020302020302020302020302020302020302020302020302020302020302020302020300A20202020302E303030302020202D312E3134313020202020302E303030302043202020302020302020302020302020302020302020302020302020302020302020302020300A20202020302E373134352020202D302E3732383520202020302E303030302043202020302020302020302020302020302020302020302020302020302020302020302020300A20202020302E3731343520202020302E3039363520202020302E303030302043202020302020302020302020302020302020302020302020302020302020302020302020300A20202020302E3533303320202020312E3134313020202020302E303030302048202020312020302020302020302020302020302020302020302020302020302020302020300A2020202D302E3533303320202020312E3134313020202020302E303030302043202020302020302020302020302020302020302020302020302020302020302020302020300A2020312020322020312020302020202020200A2020322020332020312020302020202020200A2020332020342020312020302020202020200A2020342020352020312020302020202020200A2020352020362020312020302020202020200A2020312020362020312020302020202020200A2020312020372020312020302020202020200A2020312020382020312020302020202020200A4D202049534F20203120202037202020320A4D2020454E44
Contributor: YAMAMOTO M, DEP. CHEMISTRY, FAC. SCIENCE, NARA WOMEN'S UNIV.
InstType: EI
InstName: HITACHI RMU-6M
IoniMethod: _ENERGY 70 eV
IonPolarity: pos
Date: 2010-10-09 19:48:36+02:00
Num Peaks: 58
26 7 27 52 28 64 29 51 30 19 31 26 32 19 38 7 39 54 40 15 
41 57 42 48 43 299 44 173 45 159 46 176 47 18 48 9 53 35 54 12 
55 46 56 26 57 43 58 312 59 535 60 109 61 23 65 6 66 12 67 34 
68 24 69 35 70 40 71 159 72 474 73 134 74 66 75 15 83 18 84 48 
85 180 86 165 87 999 88 100 89 39 96 7 97 40 98 91 99 21 100 279 
101 27 102 12 112 70 113 217 114 46 115 688 116 84 117 27 
