Name: 4-CHLOROPHENYLMETHYLCARBINOL
MW: 156
Formula: C8H9ClO
Synonym: MassBank: JP011314
Synonym: 4-CHLOROPHENYLMETHYLCARBINOL
Synonym: 4-CHLORO-ALPHA-ETHYL ALCOHOL
Structure: 342D43484C4F524F5048454E594C4D455448594C43415242494E4F4C2E6D6F6C0A20204368656D447261773033323531303130353532440A2031302031302020302020302020302020302020302020302020302020303939392056323030300A20202020302E3731343520202020312E3835363320202020302E303030302043202020302020302020302020302020302020302020302020302020302020302020302020300A2020202D302E3030303020202020312E3434333720202020302E303030302043202020302020302020302020302020302020302020302020302020302020302020302020300A2020202D302E3030303020202020302E3631383820202020302E303030302043202020302020302020302020302020302020302020302020302020302020302020302020300A20202020302E3731343520202020302E3230363220202020302E303030302043202020302020302020302020302020302020302020302020302020302020302020302020300A20202020302E373134352020202D302E3631383820202020302E303030302043202020302020302020302020302020302020302020302020302020302020302020302020300A2020202D302E303030302020202D312E3033313320202020302E303030302043202020302020302020302020302020302020302020302020302020302020302020302020300A2020202D302E373134352020202D302E3631383820202020302E303030302043202020302020302020302020302020302020302020302020302020302020302020302020300A2020202D302E3731343520202020302E3230363220202020302E303030302043202020302020302020302020302020302020302020302020302020302020302020302020300A2020202D302E303030302020202D312E3835363320202020302E3030303020436C2020302020302020302020302020302020302020302020302020302020302020302020300A2020202D302E3731343520202020312E3835363220202020302E30303030204F202020302020302020302020302020302020302020302020302020302020302020302020300A2020332020342020312020302020202020200A2020342020352020322020302020202020200A2020352020362020312020302020202020200A2020362020372020322020302020202020200A2020372020382020312020302020202020200A2020332020382020322020302020202020200A2020322020332020312020302020202020200A2020362020392020312020302020202020200A2020312020322020312020302020202020200A2020322031302020312020302020202020200A4D2020454E44
Contributor: YAMAMOTO M, DEP. CHEMISTRY, FAC. SCIENCE, NARA WOMEN'S UNIV.
InstType: EI
InstName: HITACHI M-2500
IoniMethod: _ENERGY 70 eV
IonPolarity: pos
Date: 2010-10-09 19:48:36+02:00
Num Peaks: 58
15 35 26 10 27 48 29 61 37 15 38 31 39 61 43 396 44 14 45 54 
49 17 50 181 51 238 52 39 53 12 61 22 62 38 63 69 65 31 70 11 
73 38 74 114 75 231 76 66 77 999 78 132 79 15 84 12 85 31 86 15 
87 17 89 32 91 56 99 12 101 25 102 37 103 83 104 15 105 49 106 30 
111 109 112 111 113 350 114 54 115 99 121 119 122 11 125 11 138 19 139 96 
140 19 141 871 142 71 144 21 155 16 156 287 157 32 158 90 
