Name: MassBank: JP012074
MW: 200
Formula: C11H20O3
Synonym: MassBank: JP012074
Synonym: 7,7-DIETHOXY-5-HEPTYN-4-OL
Structure: 372C372D44494554484F58592D352D48455054594E2D342D4F4C2E6D6F6C0A20204368656D447261773035323031303136323032440A2031342031332020302020302020302020302020302020302020302020303939392056323030300A20202020322E3036323520202020322E3134333420202020302E303030302043202020302020302020302020302020302020302020302020302020302020302020302020300A20202020312E3233373520202020322E3134333420202020302E303030302043202020302020302020302020302020302020302020302020302020302020302020302020300A20202020302E3832353020202020312E3432383920202020302E303030302043202020302020302020302020302020302020302020302020302020302020302020302020300A20202020312E3233373520202020302E3731343520202020302E303030302043202020302020302020302020302020302020302020302020302020302020302020302020300A20202020302E383235302020202D302E3030303020202020302E303030302043202020302020302020302020302020302020302020302020302020302020302020302020300A20202020302E343132352020202D302E3731343520202020302E303030302043202020302020302020302020302020302020302020302020302020302020302020302020300A20202020302E303030302020202D312E3432383920202020302E303030302043202020302020302020302020302020302020302020302020302020302020302020302020300A20202020322E3036323520202020302E3731343520202020302E30303030204F202020302020302020302020302020302020302020302020302020302020302020302020300A20202020302E343132352020202D322E3134333420202020302E30303030204F202020302020302020302020302020302020302020302020302020302020302020302020300A20202020312E323337352020202D322E3134333420202020302E303030302043202020302020302020302020302020302020302020302020302020302020302020302020300A20202020312E363530302020202D312E3432383920202020302E303030302043202020302020302020302020302020302020302020302020302020302020302020302020300A2020202D302E383235302020202D312E3432383920202020302E30303030204F202020302020302020302020302020302020302020302020302020302020302020302020300A2020202D312E323337352020202D302E3731343520202020302E303030302043202020302020302020302020302020302020302020302020302020302020302020302020300A2020202D322E303632352020202D302E3731343520202020302E303030302043202020302020302020302020302020302020302020302020302020302020302020302020300A2020312020322020312020302020202020200A2020322020332020312020302020202020200A2020332020342020312020302020202020200A2020342020352020312020302020202020200A2020352020362020332020302020202020200A2020362020372020312020302020202020200A2020342020382020312020302020202020200A2031302031312020312020302020202020200A2020392031302020312020302020202020200A2020372020392020312020302020202020200A2031332031342020312020302020202020200A2031322031332020312020302020202020200A2020372031322020312020302020202020200A4D2020454E44
Contributor: SUMITA Y, KYOTO COLLEGE OF PHARMACY
InstType: EI
InstName: HITACHI M-80
IoniMethod: _ENERGY 20 eV
IonPolarity: pos
Date: 2010-10-09 19:48:36+02:00
Num Peaks: 40
27 13 29 88 41 57 43 116 45 15 47 37 53 31 55 114 56 19 57 801 
58 29 67 30 69 24 71 88 73 18 75 31 79 41 81 200 82 16 83 104 
84 62 85 136 89 21 97 27 99 107 101 24 103 41 107 14 109 48 111 127 
112 29 125 33 127 59 129 12 153 35 155 999 156 103 157 10 199 27 200 3 
