Name: CHLORPYRIFOS
MW: 348
Formula: C9H11Cl3NO3PS
Synonym: MassBank: JP010744
Synonym: CHLORPYRIFOS
Synonym: O,O-DIETHYL O-3,5,6-TRICHLORO-2-PYRIDYL PHOSPHOROTHIOATE
Structure: 43484C4F5250595249464F532E6D6F6C0A20204368656D447261773039303731303035303132440A2031382031382020302020302020302020302020302020302020302020303939392056323030300A20202020312E303331322020202D302E3731343520202020302E303030302050202020302020302020302020302020302020302020302020302020302020302020302020300A20202020312E373435372020202D302E3330323020202020302E30303030204F202020302020302020302020302020302020302020302020302020302020302020302020300A20202020312E343433372020202D312E3432383920202020302E30303030204F202020302020302020302020302020302020302020302020302020302020302020302020300A20202020302E3631383720202020302E3030303020202020302E30303030204F202020302020302020302020302020302020302020302020302020302020302020302020300A20202020302E333136382020202D312E3132373020202020302E303030302053202020302020302020302020302020302020302020302020302020302020302020302020300A2020202D302E3230363320202020302E3030303020202020302E303030302043202020302020302020302020302020302020302020302020302020302020302020302020300A2020202D302E363138382020202D302E3731343520202020302E303030302043202020302020302020302020302020302020302020302020302020302020302020302020300A2020202D312E343433382020202D302E3731343520202020302E303030302043202020302020302020302020302020302020302020302020302020302020302020302020300A2020202D312E3835363320202020302E3030303020202020302E303030302043202020302020302020302020302020302020302020302020302020302020302020302020300A2020202D312E3434333820202020302E3731343520202020302E303030302043202020302020302020302020302020302020302020302020302020302020302020302020300A2020202D302E3631383820202020302E3731343520202020302E30303030204E202020302020302020302020302020302020302020302020302020302020302020302020300A2020202D312E3835363320202020312E3432383920202020302E3030303020436C2020302020302020302020302020302020302020302020302020302020302020302020300A2020202D322E3638313320202020302E3030303020202020302E3030303020436C2020302020302020302020302020302020302020302020302020302020302020302020300A2020202D302E323036332020202D312E3432383920202020302E3030303020436C2020302020302020302020302020302020302020302020302020302020302020302020300A20202020312E3734353720202020302E3532333020202020302E303030302043202020302020302020302020302020302020302020302020302020302020302020302020300A20202020322E3436303220202020302E3933353520202020302E303030302043202020302020302020302020302020302020302020302020302020302020302020302020300A20202020322E323638372020202D312E3432383920202020302E303030302043202020302020302020302020302020302020302020302020302020302020302020302020300A20202020322E363831332020202D302E3731343520202020302E303030302043202020302020302020302020302020302020302020302020302020302020302020302020300A2020312020322020312020302020202020200A2020312020332020312020302020202020200A2020312020342020312020302020202020200A2020312020352020322020302020202020200A2020362020372020312020302020202020200A2020372020382020322020302020202020200A2020382020392020312020302020202020200A2020392031302020322020302020202020200A2031302031312020312020302020202020200A2020362031312020322020302020202020200A2031302031322020312020302020202020200A2020392031332020312020302020202020200A2020372031342020312020302020202020200A2020342020362020312020302020202020200A2031352031362020312020302020202020200A2020322031352020312020302020202020200A2031372031382020312020302020202020200A2020332031372020312020302020202020200A4D2020454E44
Contributor: HASHIMOTO K, KYOTO COLLEGE OF PHARMACY
InstType: EI
InstName: HITACHI M-80
IoniMethod: _ENERGY 20 eV
IonPolarity: pos
Date: 2010-10-09 19:48:36+02:00
Num Peaks: 94
29 56 45 25 57 13 65 57 81 34 91 10 93 55 97 687 98 13 99 35 
107 10 109 151 114 42 115 13 121 43 125 336 126 12 127 15 134 18 136 13 
137 17 141 13 142 50 149 13 153 67 161 14 162 14 163 11 164 12 169 75 
171 71 173 21 178 12 180 12 182 10 190 10 194 11 197 999 198 115 199 939 
200 104 201 308 202 33 203 35 207 56 208 336 209 96 210 326 211 56 212 112 
213 202 214 31 215 197 216 16 217 68 224 16 225 12 226 16 241 18 243 17 
244 75 246 66 248 22 257 17 258 328 259 39 260 236 261 23 262 55 276 48 
278 47 280 18 285 20 286 286 287 40 288 231 289 22 290 74 292 17 304 31 
306 32 308 12 314 745 315 93 316 535 317 60 318 124 319 14 320 12 349 63 
350 11 351 64 352 12 353 26 
