Name: 4-METHYLSTYRENE OXIDE
MW: 134
Formula: C9H10O
Synonym: MassBank: JP011497
Synonym: 4-METHYLSTYRENE OXIDE
Structure: 342D4D455448594C53545952454E45204F584944452E6D6F6C0A20204368656D447261773034323231303136323432440A2031302031312020302020302020302020302020302020302020302020303939392056323030300A20202020322E303037322020202D302E3431323520202020302E303030302043202020302020302020302020302020302020302020302020302020302020302020302020300A20202020312E3239323820202020302E3030303020202020302E303030302043202020302020302020302020302020302020302020302020302020302020302020302020300A20202020302E3436373820202020302E3030303020202020302E303030302043202020302020302020302020302020302020302020302020302020302020302020302020300A20202020302E303535332020202D302E3731343520202020302E303030302043202020302020302020302020302020302020302020302020302020302020302020302020300A2020202D302E373639372020202D302E3731343520202020302E303030302043202020302020302020302020302020302020302020302020302020302020302020302020300A2020202D312E3138323220202020302E3030303020202020302E303030302043202020302020302020302020302020302020302020302020302020302020302020302020300A2020202D302E3736393720202020302E3731343520202020302E303030302043202020302020302020302020302020302020302020302020302020302020302020302020300A20202020302E3035353320202020302E3731343520202020302E303030302043202020302020302020302020302020302020302020302020302020302020302020302020300A2020202D322E3030373220202020302E3030303020202020302E303030302043202020302020302020302020302020302020302020302020302020302020302020302020300A20202020322E3030373220202020302E3431323520202020302E30303030204F202020302020302020302020302020302020302020302020302020302020302020302020300A2020312020322020312020302020202020200A2020322020332020312020302020202020200A2020332020342020312020302020202020200A2020342020352020322020302020202020200A2020352020362020312020302020202020200A2020362020372020322020302020202020200A2020372020382020312020302020202020200A2020332020382020322020302020202020200A2020362020392020312020302020202020200A2020312031302020312020302020202020200A2020322031302020312020302020202020200A4D2020454E44
Contributor: FUJISE Y, HAMAMATSU UNIV. SCHOOL OF MEDICINE
InstType: EI
InstName: JEOL JMS-DX-300
IoniMethod: _ENERGY 70 eV
IonPolarity: pos
Date: 2010-10-09 19:48:36+02:00
Num Peaks: 46
37 26 38 94 39 519 40 42 41 62 42 13 43 12 49 12 50 247 51 489 
52 184 53 126 54 11 61 28 62 111 63 347 64 65 65 261 66 32 74 67 
75 70 76 89 77 619 78 999 79 264 80 15 86 18 87 24 89 134 90 38 
91 599 92 50 101 11 102 120 103 661 104 396 105 465 106 72 115 27 117 33 
118 29 119 899 120 86 133 84 134 266 135 33 
