Name: MassBank: JP011752
MW: 561
Formula: C22H20Br2S2Si2
Synonym: MassBank: JP011752
Synonym: 1,2-DI(5-(2-BROMOTHIENYL))-1,2-DIMETHYLDIPHENYLDISILANE
Structure: 312C322D444928352D28322D42524F4D4F544849454E594C29292D312C322D44494D455448594C44495048454E594C444953494C414E452E6D6F6C0A20204368656D447261773131303330393232343332440A2033322033352020302020302020302020302020302020302020302020303939392056323030300A2020202D302E3533363320202020302E3132343620202020302E303030302053692020302020302020302020302020302020302020302020302020302020302020302020300A20202020302E3533363220202020302E3132343620202020302E303030302053692020302020302020302020302020302020302020302020302020302020302020302020300A20202020312E3336313220202020302E3132343620202020302E303030302043202020302020302020302020302020302020302020302020302020302020302020302020300A2020202D312E3336313320202020302E3132343620202020302E303030302043202020302020302020302020302020302020302020302020302020302020302020302020300A2020202D302E353336332020202D302E3934373920202020302E303030302043202020302020302020302020302020302020302020302020302020302020302020302020300A2020202D302E3533363320202020302E3934393620202020302E303030302043202020302020302020302020302020302020302020302020302020302020302020302020300A20202020302E3533363220202020302E3934393620202020302E303030302043202020302020302020302020302020302020302020302020302020302020302020302020300A20202020302E353336322020202D302E3730303420202020302E303030302043202020302020302020302020302020302020302020302020302020302020302020302020300A20202020312E373733372020202D302E3538393920202020302E303030302043202020302020302020302020302020302020302020302020302020302020302020302020300A20202020322E353938382020202D302E3538393920202020302E303030302043202020302020302020302020302020302020302020302020302020302020302020302020300A20202020332E3031313220202020302E3132343620202020302E303030302043202020302020302020302020302020302020302020302020302020302020302020302020300A20202020322E3539383720202020302E3833393020202020302E303030302043202020302020302020302020302020302020302020302020302020302020302020302020300A20202020312E3737333720202020302E3833393020202020302E303030302043202020302020302020302020302020302020302020302020302020302020302020302020300A2020202D312E373733372020202D302E3538393920202020302E303030302043202020302020302020302020302020302020302020302020302020302020302020302020300A2020202D322E353938372020202D302E3538393920202020302E303030302043202020302020302020302020302020302020302020302020302020302020302020302020300A2020202D332E3031313220202020302E3132343620202020302E303030302043202020302020302020302020302020302020302020302020302020302020302020302020300A2020202D322E3539383720202020302E3833393020202020302E303030302043202020302020302020302020302020302020302020302020302020302020302020302020300A2020202D312E3737333720202020302E3833393020202020302E303030302043202020302020302020302020302020302020302020302020302020302020302020302020300A20202020312E3230353220202020312E3433333620202020302E303030302053202020302020302020302020302020302020302020302020302020302020302020302020300A20202020302E3934393120202020322E3231393120202020302E303030302043202020302020302020302020302020302020302020302020302020302020302020302020300A20202020302E3132343120202020322E3231393120202020302E303030302043202020302020302020302020302020302020302020302020302020302020302020302020300A2020202D302E3133303820202020312E3433343520202020302E303030302043202020302020302020302020302020302020302020302020302020302020302020302020300A20202020302E313331322020202D312E3433323920202020302E303030302043202020302020302020302020302020302020302020302020302020302020302020302020300A2020202D302E313233372020202D322E3231373520202020302E303030302043202020302020302020302020302020302020302020302020302020302020302020302020300A2020202D302E393438372020202D322E3231373520202020302E303030302043202020302020302020302020302020302020302020302020302020302020302020302020300A2020202D312E323032342020202D312E3433343220202020302E303030302053202020302020302020302020302020302020302020302020302020302020302020302020300A2020202D312E343333392020202D322E3838353420202020302E303030302042722020302020302020302020302020302020302020302020302020302020302020302020300A20202020302E333631362020202D322E3838363320202020302E303030302048202020302020302020302020302020302020302020302020302020302020302020302020300A20202020302E393136312020202D312E3137383920202020302E303030302048202020302020302020302020302020302020302020302020302020302020302020302020300A2020202D302E3931343120202020312E3137383520202020302E303030302048202020302020302020302020302020302020302020302020302020302020302020302020300A2020202D302E3336303420202020322E3838363220202020302E303030302048202020302020302020302020302020302020302020302020302020302020302020302020300A20202020312E3433343820202020322E3838363320202020302E303030302042722020302020302020302020302020302020302020302020302020302020302020302020300A2020312020322020312020302020202020200A2020322020332020312020302020202020200A2020312020342020312020302020202020200A2020312020352020312020302020202020200A2020312020362020312020302020202020200A2020322020372020312020302020202020200A2020322020382020312020302020202020200A2020332020392020322020302020202020200A2020392031302020312020302020202020200A2031302031312020322020302020202020200A2031312031322020312020302020202020200A2031322031332020322020302020202020200A2031332020332020312020302020202020200A2020342031342020322020302020202020200A2031342031352020312020302020202020200A2031352031362020322020302020202020200A2031362031372020312020302020202020200A2031372031382020322020302020202020200A2031382020342020312020302020202020200A2020372031392020312020302020202020200A2031392032302020312020302020202020200A2032302032312020322020302020202020200A2032312032322020312020302020202020200A2032322020372020322020302020202020200A2020352032332020322020302020202020200A2032332032342020312020302020202020200A2032342032352020322020302020202020200A2032352032362020312020302020202020200A2032362020352020312020302020202020200A2032352032372020312020302020202020200A2032342032382020312020302020202020200A2032332032392020312020302020202020200A2032322033302020312020302020202020200A2032312033312020312020302020202020200A2032302033322020312020302020202020200A4D2020454E44
Contributor: FAC. TECHNOLOGY, HIROSHIMA UNIV.
InstType: EI
InstName: SHIMADZU QP-1000
IoniMethod: _ENERGY 70 eV
IonPolarity: pos
Date: 2010-10-09 19:48:36+02:00
Num Peaks: 95
51 52 52 69 53 141 54 461 56 54 58 54 63 62 64 62 65 90 66 83 
67 97 69 72 75 225 77 288 78 82 79 172 80 71 81 65 82 115 85 83 
91 728 92 71 93 193 101 57 102 101 103 84 105 746 106 95 107 376 109 378 
115 183 117 60 119 349 120 70 121 59 125 52 126 67 127 155 129 82 135 148 
137 82 139 54 141 75 143 111 145 682 146 110 147 55 151 60 158 54 161 61 
177 100 179 58 181 90 187 198 189 52 197 342 198 74 199 913 200 125 201 999 
202 507 203 145 279 60 281 730 282 144 283 769 284 139 285 79 326 63 328 67 
363 110 365 127 410 168 412 335 413 79 414 183 483 688 484 289 485 811 486 279 
487 191 547 285 548 273 549 637 550 604 551 451 552 369 553 130 554 63 562 109 
563 119 564 239 565 247 566 194 567 148 
