Name: 2-PYRROLIDINONE
MW: 85
Formula: C4H7NO
Synonym: MassBank: JP010403
Synonym: 2-PYRROLIDINONE
Synonym: 2-PYRROLIDONE
Structure: 310A31370A322D505952524F4C4944494E4F4E452E6D6F6C0A20204368656D447261773032323131303135323132440A2020362020362020302020302020302020302020302020302020302020303939392056323030300A20202020302E323632372020202D302E3636373420202020302E30303030204E202020302020302020302020302020302020302020302020302020302020302020302020300A2020202D302E323232332020202D302E3030303020202020302E303030302043202020302020302020302020302020302020302020302020302020302020302020302020300A20202020302E3236323720202020302E3636373420202020302E303030302043202020302020302020302020302020302020302020302020302020302020302020302020300A20202020312E3034373320202020302E3431323520202020302E303030302043202020302020302020302020302020302020302020302020302020302020302020302020300A20202020312E303437332020202D302E3431323520202020302E303030302043202020302020302020302020302020302020302020302020302020302020302020302020300A2020202D312E303437332020202D302E3030303020202020302E30303030204F202020302020302020302020302020302020302020302020302020302020302020302020300A2020312020322020312020302020202020200A2020322020332020312020302020202020200A2020332020342020312020302020202020200A2020342020352020312020302020202020200A2020312020352020312020302020202020200A2020322020362020322020302020202020200A4D2020454E44
Contributor: MASS SPECTROSCOPY SOC. OF JAPAN (MSSJ)
InstType: EI
InstName: HITACHI RMU-6M
IoniMethod: _ENERGY 20 eV
IonPolarity: pos
Date: 2010-10-09 19:48:36+02:00
Num Peaks: 30
39 26 40 57 41 490 42 71 43 613 44 111 45 113 46 2 54 28 55 237 
56 289 57 34 58 203 59 77 60 216 67 7 68 52 69 201 70 207 71 22 
72 52 73 98 74 31 81 7 82 67 83 119 84 247 85 999 86 62 87 41 
