Name: 4-NITROBENZYL BROMIDE
CAS: 100-11-8
MW: 214
Formula: C7H6BrNO2
Synonym: MassBank: JP011659
Synonym: 4-NITROBENZYL BROMIDE
Synonym: ALPHA-BROMO-4-NITROTOLUENE
Structure: 342D4E4954524F42454E5A594C2042524F4D4944452E6D6F6C0A20204368656D447261773034323231303137313132440A2031312031312020302020302020302020302020302020302020302020303939392056323030300A20202020312E363530302020202D302E3030303020202020302E303030302043202020302020302020302020302020302020302020302020302020302020302020302020300A20202020302E383235302020202D302E3030303020202020302E303030302043202020302020302020302020302020302020302020302020302020302020302020302020300A20202020302E343132352020202D302E3731343520202020302E303030302043202020302020302020302020302020302020302020302020302020302020302020302020300A2020202D302E343132352020202D302E3731343520202020302E303030302043202020302020302020302020302020302020302020302020302020302020302020302020300A2020202D302E3832353020202020302E3030303020202020302E303030302043202020302020302020302020302020302020302020302020302020302020302020302020300A2020202D302E3431323520202020302E3731343520202020302E303030302043202020302020302020302020302020302020302020302020302020302020302020302020300A20202020302E3431323520202020302E3731343520202020302E303030302043202020302020302020302020302020302020302020302020302020302020302020302020300A2020202D312E3635303020202020302E3030303020202020302E30303030204E202020302020332020302020302020302020302020302020302020302020302020302020300A2020202D322E303632352020202D302E3731343520202020302E30303030204F202020302020302020302020302020302020302020302020302020302020302020302020300A2020202D322E3036323520202020302E3731343520202020302E30303030204F202020302020352020302020302020302020302020302020302020302020302020302020300A20202020322E3036323520202020302E3731343520202020302E303030302042722020302020302020302020302020302020302020302020302020302020302020302020300A2020312020322020312020302020202020200A2020322020332020312020302020202020200A2020332020342020322020302020202020200A2020342020352020312020302020202020200A2020352020362020322020302020202020200A2020362020372020312020302020202020200A2020322020372020322020302020202020200A2020382020392020322020302020202020200A2020382031302020312020302020202020200A2020352020382020312020302020202020200A2020312031312020312020302020202020200A4D202043484720203220202038202020312020313020202D310A4D2020454E44
Contributor: YAMAMOTO M, DEP. CHEMISTRY, FAC. SCIENCE, NARA WOMEN'S UNIV.
InstType: EI
InstName: HITACHI M-2500
IoniMethod: _ENERGY 70 eV
IonPolarity: pos
Date: 2010-10-09 19:48:36+02:00
Num Peaks: 28
30 166 38 23 39 57 40 11 50 37 51 52 52 19 61 14 62 47 63 128 
64 50 77 18 78 299 79 18 86 12 87 11 89 227 90 255 91 19 106 159 
107 12 120 15 136 999 137 82 169 11 215 80 216 10 217 78 
