Name: MassBank: JP010318
MW: 172
Formula: C8H12O4
Synonym: MassBank: JP010318
Synonym: CIS-1,2-CYCLOHEXANEDICARBOXYLIC ACID
Structure: 4349532D312C322D4359434C4F484558414E454449434152424F58594C494320414349442E6D6F6C0A20204368656D447261773039303831303039323832440A2031342031342020302020302020302020302020302020302020302020303939392056323030300A2020202D302E3039353720202020302E3736393720202020302E303030302043202020302020302020302020302020302020302020302020302020302020302020302020300A2020202D302E303935372020202D302E3035353320202020302E303030302043202020302020302020302020302020302020302020302020302020302020302020302020300A20202020302E363138382020202D302E3436373820202020302E303030302043202020302020302020302020302020302020302020302020302020302020302020302020300A20202020312E333333322020202D302E3035353320202020302E303030302043202020302020302020302020302020302020302020302020302020302020302020302020300A20202020312E3333333220202020302E3736393720202020302E303030302043202020302020302020302020302020302020302020302020302020302020302020302020300A20202020302E3631383820202020312E3138323220202020302E303030302043202020302020302020302020302020302020302020302020302020302020302020302020300A2020202D302E3530383220202020312E3438343220202020302E303030302048202020302020302020302020302020302020302020302020302020302020302020302020300A2020202D302E393230372020202D302E3035353320202020302E303030302048202020302020302020302020302020302020302020302020302020302020302020302020300A2020202D302E3932303720202020302E3736393720202020302E303030302043202020302020302020302020302020302020302020302020302020302020302020302020300A2020202D302E353038322020202D302E3736393720202020302E303030302043202020302020302020302020302020302020302020302020302020302020302020302020300A2020202D312E3333333220202020302E3035353320202020302E30303030204F202020302020302020302020302020302020302020302020302020302020302020302020300A2020202D312E3333333220202020312E3438343220202020302E30303030204F202020302020302020302020302020302020302020302020302020302020302020302020300A2020202D302E303935372020202D312E3438343220202020302E30303030204F202020302020302020302020302020302020302020302020302020302020302020302020300A2020202D312E333333322020202D302E3736393720202020302E30303030204F202020302020302020302020302020302020302020302020302020302020302020302020300A2020312020322020312020302020202020200A2020322020332020312020302020202020200A2020332020342020312020302020202020200A2020342020352020312020302020202020200A2020352020362020312020302020202020200A2020362020312020312020302020202020200A2020312020372020312020312020202020200A2020322020382020312020312020202020200A2020312020392020312020362020202020200A2020322031302020312020362020202020200A2020392031312020312020302020202020200A2020392031322020322020302020202020200A2031302031332020312020302020202020200A2031302031342020322020302020202020200A4D2020454E44
Contributor: TAJIMA S, GUNMA COLLEGE OF TECHNOLOGY
InstType: EI
InstName: HITACHI M-80A
IoniMethod: _ENERGY 70 eV
IonPolarity: pos
Date: 2010-10-09 19:48:36+02:00
Num Peaks: 72
15 41 17 12 18 51 19 14 26 54 27 400 29 148 31 32 38 35 39 449 
40 70 41 502 42 54 43 184 44 12 45 385 46 17 47 19 50 38 51 89 
52 52 53 223 54 377 55 199 56 39 57 44 58 11 60 31 61 12 63 14 
65 39 66 115 67 548 68 142 69 50 70 24 71 24 72 10 73 123 77 78 
78 19 79 179 80 360 81 999 82 351 83 39 84 19 85 23 86 61 87 47 
94 25 95 37 97 97 98 24 99 112 100 38 107 10 108 385 109 67 110 13 
111 43 112 45 113 11 117 11 125 21 126 685 127 70 128 58 136 19 154 123 
155 92 173 18 
