Name: ISODIOTIGENIN TRIACETATE
MW: 574
Formula: C33H50O8
Synonym: MassBank: JP011082
Synonym: ISODIOTIGENIN TRIACETATE
Structure: 313030365F49534F44494F544947454E494E20545249414345544154452E6D6F6C0A20204368656D447261773130323031303139343332440A2034372035322020302020302020302020302020302020302020302020303939392056323030300A2020202D322E373432352020202D302E3032393620202020302E303030302043202020302020302020302020302020302020302020302020302020302020302020302020300A2020202D322E373432372020202D302E3835343620202020302E303030302043202020302020302020302020302020302020302020302020302020302020302020302020300A2020202D322E303238342020202D312E3236373420202020302E303030302043202020302020302020302020302020302020302020302020302020302020302020302020300A2020202D312E333133392020202D302E3835343920202020302E303030302043202020302020302020302020302020302020302020302020302020302020302020302020300A2020202D312E333133322020202D302E3032393920202020302E303030302043202020302020302020302020302020302020302020302020302020302020302020302020300A2020202D322E3032383120202020302E3338323620202020302E303030302043202020302020302020302020302020302020302020302020302020302020302020302020300A2020202D302E353939322020202D312E3236373420202020302E303030302043202020302020302020302020302020302020302020302020302020302020302020302020300A20202020302E313135332020202D302E3835343920202020302E303030302043202020302020302020302020302020302020302020302020302020302020302020302020300A20202020302E313135312020202D302E3033303220202020302E303030302043202020302020302020302020302020302020302020302020302020302020302020302020300A2020202D302E3539393020202020302E3338333020202020302E303030302043202020302020302020302020302020302020302020302020302020302020302020302020300A20202020302E3832393820202020302E3338323620202020302E303030302043202020302020302020302020302020302020302020302020302020302020302020302020300A20202020302E3832393820202020312E3230373620202020302E303030302043202020302020302020302020302020302020302020302020302020302020302020302020300A20202020302E3131353320202020312E3632303120202020302E303030302043202020302020302020302020302020302020302020302020302020302020302020302020300A2020202D302E3539393220202020312E3230373620202020302E303030302043202020302020302020302020302020302020302020302020302020302020302020302020300A20202020312E3631343420202020302E3132373720202020302E303030302043202020302020302020302020302020302020302020302020302020302020302020302020300A20202020322E3039393320202020302E3739353120202020302E303030302043202020302020302020302020302020302020302020302020302020302020302020302020300A20202020312E3631343420202020312E3436323620202020302E303030302043202020302020302020302020302020302020302020302020302020302020302020302020300A20202020322E3838343520202020312E3034393320202020302E30303030204F202020302020302020302020302020302020302020302020302020302020302020302020300A20202020322E3838333920202020312E3837353120202020302E303030302043202020302020302020302020302020302020302020302020302020302020302020302020300A20202020322E3039393520202020322E3133303520202020302E303030302043202020302020302020302020302020302020302020302020302020302020302020302020300A20202020332E3633383320202020312E3533383720202020302E30303030204F202020302020302020302020302020302020302020302020302020302020302020302020300A20202020342E3330353020202020322E3032343520202020302E303030302043202020302020302020302020302020302020302020302020302020302020302020302020300A20202020342E3231383820202020322E3834343920202020302E303030302043202020302020302020302020302020302020302020302020302020302020302020302020300A20202020332E3436353120202020332E3138303520202020302E303030302043202020302020302020302020302020302020302020302020302020302020302020302020300A20202020322E3739373720202020322E3639353620202020302E303030302043202020302020302020302020302020302020302020302020302020302020302020302020300A20202020342E3838363220202020332E3332393920202020302E303030302043202020302020302020302020302020302020302020302020302020302020302020302020300A20202020312E3834353020202020322E3931353320202020302E303030302043202020302020302020302020302020302020302020302020302020302020302020302020300A20202020312E3134343820202020322E3432363820202020302E303030302048202020302020302020302020302020302020302020302020302020302020302020302020300A20202020322E3538333420202020302E3132373120202020302E303030302048202020302020302020302020302020302020302020302020302020302020302020302020300A20202020302E393738332020202D302E3432383920202020302E303030302048202020302020302020302020302020302020302020302020302020302020302020302020300A20202020302E3737323720202020322E3033303720202020302E303030302043202020302020302020302020302020302020302020302020302020302020302020302020300A20202020302E343930322020202D302E3736353020202020302E303030302048202020302020302020302020302020302020302020302020302020302020302020302020300A2020202D312E3338363920202020302E3739313920202020302E303030302043202020302020302020302020302020302020302020302020302020302020302020302020300A2020202D312E333133392020202D312E3637393920202020302E303030302048202020302020302020302020302020302020302020302020302020302020302020302020300A2020202D312E3030363620202020312E3130303320202020302E303030302048202020302020302020302020302020302020302020302020302020302020302020302020300A2020202D322E303238342020202D322E3039323420202020302E30303030204F202020302020302020302020302020302020302020302020302020302020302020302020300A2020202D322E373433312020202D322E3530353020202020302E303030302043202020302020302020302020302020302020302020302020302020302020302020302020300A2020202D332E343537362020202D322E3039323420202020302E30303030204F202020302020302020302020302020302020302020302020302020302020302020302020300A2020202D322E373433312020202D332E3332393920202020302E303030302043202020302020302020302020302020302020302020302020302020302020302020302020300A2020202D332E343537322020202D312E3236373120202020302E30303030204F202020302020302020302020302020302020302020302020302020302020302020302020300A2020202D342E313731392020202D302E3835343520202020302E303030302043202020302020302020302020302020302020302020302020302020302020302020302020300A2020202D342E383836322020202D312E3236373020202020302E303030302043202020302020302020302020302020302020302020302020302020302020302020302020300A2020202D342E313731392020202D302E3032393420202020302E30303030204F202020302020302020302020302020302020302020302020302020302020302020302020300A2020202D332E3435363920202020302E3338323920202020302E30303030204F202020302020302020302020302020302020302020302020302020302020302020302020300A2020202D332E3435363920202020312E3230383120202020302E303030302043202020302020302020302020302020302020302020302020302020302020302020302020300A2020202D342E3137313320202020312E3632303520202020302E303030302043202020302020302020302020302020302020302020302020302020302020302020302020300A2020202D322E3734323420202020312E3632303720202020302E30303030204F202020302020302020302020302020302020302020302020302020302020302020302020300A2020312020322020312020302020202020200A2020322020332020312020302020202020200A2020332020342020312020302020202020200A2020342020352020312020302020202020200A2020352020362020312020302020202020200A2020362020312020312020302020202020200A2020342020372020312020302020202020200A2020372020382020312020302020202020200A2020382020392020312020302020202020200A2020392031302020312020302020202020200A2031302020352020312020302020202020200A2020392031312020312020302020202020200A2031312031322020312020302020202020200A2031322031332020312020302020202020200A2031332031342020312020302020202020200A2031342031302020312020302020202020200A2031312031352020312020302020202020200A2031352031362020312020302020202020200A2031362031372020312020302020202020200A2031372031322020312020302020202020200A2031362031382020312020302020202020200A2031382031392020312020302020202020200A2031392032302020312020302020202020200A2032302031372020312020302020202020200A2031392032312020312020362020202020200A2032312032322020312020302020202020200A2032322032332020312020302020202020200A2032332032342020312020302020202020200A2032342032352020312020302020202020200A2031392032352020312020312020202020200A2032332032362020312020312020202020200A2032302032372020312020362020202020200A2031372032382020312020362020202020200A2031362032392020312020362020202020200A2031312033302020312020362020202020200A2031322033312020312020312020202020200A2020392033322020312020312020202020200A2020352033332020312020312020202020200A2020342033342020312020312020202020200A2031302033352020312020362020202020200A2020332033362020312020312020202020200A2033362033372020312020302020202020200A2033372033382020322020302020202020200A2033372033392020312020302020202020200A2020322034302020312020362020202020200A2034302034312020312020302020202020200A2034312034322020312020302020202020200A2034312034332020322020302020202020200A2020312034342020312020312020202020200A2034342034352020312020302020202020200A2034352034362020312020302020202020200A2034352034372020322020302020202020200A4D2020454E44
Contributor: YAMAMOTO M, DEP. CHEMISTRY, FAC. SCIENCE, NARA WOMEN'S UNIV.
InstType: EI
InstName: HITACHI M-80
IoniMethod: _ENERGY 70 eV
IonPolarity: pos
Date: 2010-10-09 19:48:36+02:00
Num Peaks: 105
18 13 28 93 29 13 41 43 42 22 43 430 44 13 55 54 56 12 57 19 
67 30 68 112 70 16 71 15 79 29 81 49 83 21 85 13 91 28 93 51 
94 11 95 54 96 11 99 10 103 11 105 46 106 12 107 52 108 21 109 49 
110 11 111 11 115 62 117 11 119 32 120 12 121 54 122 26 123 19 125 29 
126 34 131 24 133 28 135 19 138 39 139 999 140 171 141 24 143 19 145 27 
147 30 149 16 155 12 157 22 159 25 161 23 163 12 167 21 168 34 169 16 
170 10 171 14 172 15 173 17 175 14 185 11 189 10 197 11 199 13 201 14 
211 12 212 10 213 13 227 10 229 16 251 25 265 17 269 32 280 53 281 20 
283 11 297 11 298 22 311 11 325 15 329 10 340 65 341 28 342 17 343 16 
400 118 401 36 431 148 432 41 445 61 446 17 460 43 461 15 475 11 502 67 
503 22 505 12 515 16 574 93 575 32 
