Name: MassBank: JP011747
MW: 338
Formula: C16H34Si4
Synonym: MassBank: JP011747
Synonym: 1,3-BIS(PENTAMETYLDISILANYL)BENZENE
Structure: 312C332D4249532850454E54414D4554594C444953494C414E594C2942454E5A454E452E6D6F6C0A20204368656D447261773131313130393230343832440A2032302032302020302020302020302020302020302020302020302020303939392056323030300A2020202D312E3733303920202020302E3135313020202020302E303030302043202020302020302020302020302020302020302020302020302020302020302020302020300A2020202D312E373330392020202D302E3637343020202020302E303030302043202020302020302020302020302020302020302020302020302020302020302020302020300A2020202D312E303136342020202D312E3038363520202020302E303030302043202020302020302020302020302020302020302020302020302020302020302020302020300A2020202D302E333032302020202D302E3637343020202020302E303030302043202020302020302020302020302020302020302020302020302020302020302020302020300A2020202D302E3330323020202020302E3135313020202020302E303030302043202020302020302020302020302020302020302020302020302020302020302020302020300A2020202D312E3031363420202020302E3536333520202020302E303030302043202020302020302020302020302020302020302020302020302020302020302020302020300A2020202D312E3031363420202020312E3338383520202020302E303030302053692020302020302020302020302020302020302020302020302020302020302020302020300A20202020302E343132352020202D312E3038363520202020302E303030302053692020302020302020302020302020302020302020302020302020302020302020302020300A2020202D312E3031363420202020322E3231333520202020302E303030302043202020302020302020302020302020302020302020302020302020302020302020302020300A2020202D312E3834313420202020312E3338383520202020302E303030302043202020302020302020302020302020302020302020302020302020302020302020302020300A2020202D302E3139313420202020312E3338383520202020302E303030302053692020302020302020302020302020302020302020302020302020302020302020302020300A2020202D302E3139313420202020322E3231333520202020302E303030302043202020302020302020302020302020302020302020302020302020302020302020302020300A20202020302E3633333620202020312E3338383520202020302E303030302043202020302020302020302020302020302020302020302020302020302020302020302020300A2020202D302E3139313420202020302E3536333520202020302E303030302043202020302020302020302020302020302020302020302020302020302020302020302020300A20202020312E313237302020202D312E3439393020202020302E303030302053692020302020302020302020302020302020302020302020302020302020302020302020300A20202020302E383235302020202D302E3337323020202020302E303030302043202020302020302020302020302020302020302020302020302020302020302020302020300A20202020302E303030302020202D312E3830313020202020302E303030302043202020302020302020302020302020302020302020302020302020302020302020302020300A20202020312E353339352020202D302E3738343520202020302E303030302043202020302020302020302020302020302020302020302020302020302020302020302020300A20202020312E383431342020202D312E3931313520202020302E303030302043202020302020302020302020302020302020302020302020302020302020302020302020300A20202020302E373134352020202D322E3231333520202020302E303030302043202020302020302020302020302020302020302020302020302020302020302020302020300A2020312020322020322020302020202020200A2020322020332020312020302020202020200A2020332020342020322020302020202020200A2020342020352020312020302020202020200A2020352020362020322020302020202020200A2020362020312020312020302020202020200A2020362020372020312020302020202020200A2020342020382020312020302020202020200A2020372020392020312020302020202020200A2020372031302020312020302020202020200A2020372031312020312020302020202020200A2031312031322020312020302020202020200A2031312031332020312020302020202020200A2031312031342020312020302020202020200A2020382031352020312020302020202020200A2020382031362020312020302020202020200A2020382031372020312020302020202020200A2031352031382020312020302020202020200A2031352031392020312020302020202020200A2031352032302020312020302020202020200A4D2020454E44
Contributor: FAC. TECHNOLOGY, HIROSHIMA UNIV.
InstType: EI
InstName: SHIMADZU QP-1000
IoniMethod: _ENERGY 20 eV
IonPolarity: pos
Date: 2010-10-09 19:48:36+02:00
Num Peaks: 24
73 313 74 25 75 12 116 999 117 137 118 68 131 72 132 12 177 215 178 45 
179 17 191 30 192 11 207 182 208 37 209 15 235 15 250 10 265 63 266 21 
323 10 338 59 339 24 340 11 
