Name: MassBank: JP011900
CAS: 97-00-7
MW: 201
Formula: C6H3ClN2O4
Synonym: MassBank: JP011900
Synonym: 1-CHLORO-2,4-DINITROBENZENE
Synonym: 2,4-DINITROCHLOROBENZENE
Structure: 312D43484C4F524F2D322C342D44494E4954524F42454E5A454E452E6D6F6C0A20204368656D447261773131313830393030343132440A2031332031332020302020302020302020302020302020302020302020303939392056323030300A20202020302E373134352020202D302E3832353020202020302E303030302043202020302020302020302020302020302020302020302020302020302020302020302020300A20202020302E3731343520202020302E3030303020202020302E303030302043202020302020302020302020302020302020302020302020302020302020302020302020300A2020202D302E3030303020202020302E3431323520202020302E303030302043202020302020302020302020302020302020302020302020302020302020302020302020300A2020202D302E3731343520202020302E3030303020202020302E303030302043202020302020302020302020302020302020302020302020302020302020302020302020300A2020202D302E373134352020202D302E3832353020202020302E303030302043202020302020302020302020302020302020302020302020302020302020302020302020300A20202020302E303030302020202D312E3233373520202020302E303030302043202020302020302020302020302020302020302020302020302020302020302020302020300A2020202D312E3432383920202020302E3431323520202020302E30303030204E202020302020332020302020302020302020302020302020302020302020302020302020300A2020202D312E3432383920202020312E3233373520202020302E30303030204F202020302020302020302020302020302020302020302020302020302020302020302020300A2020202D322E3134333420202020302E3030303020202020302E30303030204F202020302020352020302020302020302020302020302020302020302020302020302020300A20202020312E3432383920202020302E3431323520202020302E30303030204E202020302020332020302020302020302020302020302020302020302020302020302020300A20202020312E3432383920202020312E3233373520202020302E30303030204F202020302020302020302020302020302020302020302020302020302020302020302020300A20202020322E3134333420202020302E3030303020202020302E30303030204F202020302020352020302020302020302020302020302020302020302020302020302020300A20202020312E343238392020202D312E3233373520202020302E3030303020436C2020302020302020302020302020302020302020302020302020302020302020302020300A2020312020322020312020302020202020200A2020322020332020322020302020202020200A2020332020342020312020302020202020200A2020342020352020322020302020202020200A2020352020362020312020302020202020200A2020312020362020322020302020202020200A2020372020382020322020302020202020200A2020372020392020312020302020202020200A2020342020372020312020302020202020200A2031302031312020322020302020202020200A2031302031322020312020302020202020200A2020322031302020312020302020202020200A2020312031332020312020302020202020200A4D202043484720203420202037202020312020203920202D3120203130202020312020313220202D310A4D2020454E44
Contributor: YAMAMOTO M, DEP. CHEMISTRY, FAC. SCIENCE, NARA WOMEN'S UNIV.
InstType: EI
InstName: HITACHI M-2500
IoniMethod: _ENERGY 70 eV
IonPolarity: pos
Date: 2010-10-09 19:48:36+02:00
Num Peaks: 54
30 762 37 44 38 41 46 46 49 25 50 96 51 25 52 11 53 22 60 14 
61 49 62 68 63 279 64 30 72 22 73 101 74 445 75 635 76 100 79 52 
84 129 85 33 86 61 87 23 88 17 89 20 91 12 97 16 98 62 99 13 
100 20 107 116 108 23 109 322 110 508 111 145 112 162 113 21 126 154 127 28 
128 53 140 11 141 13 156 81 158 25 172 105 173 10 174 35 186 38 188 12 
202 999 203 78 204 342 205 24 
