Name: MassBank: JP011212
MW: 182
Formula: C9H10O4
Synonym: MassBank: JP011212
Synonym: 2,3-DIMETHOXYBENZOIC ACID
Structure: 322C332D44494D4554484F585942454E5A4F494320414349442E6D6F6C0A20204368656D447261773132323030393131333232440A2031332031332020302020302020302020302020302020302020302020303939392056323030300A20202020312E3434333720202020302E3335373220202020302E303030302043202020302020302020302020302020302020302020302020302020302020302020302020300A20202020302E3631383720202020302E3335373220202020302E303030302043202020302020302020302020302020302020302020302020302020302020302020302020300A20202020302E323036322020202D302E3335373220202020302E303030302043202020302020302020302020302020302020302020302020302020302020302020302020300A2020202D302E363138382020202D302E3335373220202020302E303030302043202020302020302020302020302020302020302020302020302020302020302020302020300A2020202D312E3033313320202020302E3335373220202020302E303030302043202020302020302020302020302020302020302020302020302020302020302020302020300A2020202D302E3631383820202020312E3037313720202020302E303030302043202020302020302020302020302020302020302020302020302020302020302020302020300A20202020302E3230363220202020312E3037313720202020302E303030302043202020302020302020302020302020302020302020302020302020302020302020302020300A20202020312E3835363320202020312E3037313720202020302E30303030204F202020302020302020302020302020302020302020302020302020302020302020302020300A20202020312E383536332020202D302E3335373220202020302E30303030204F202020302020302020302020302020302020302020302020302020302020302020302020300A2020202D312E303331332020202D312E3037313720202020302E30303030204F202020302020302020302020302020302020302020302020302020302020302020302020300A2020202D312E383536332020202D312E3037313720202020302E303030302043202020302020302020302020302020302020302020302020302020302020302020302020300A20202020302E363138372020202D312E3037313720202020302E30303030204F202020302020302020302020302020302020302020302020302020302020302020302020300A20202020312E343433382020202D312E3037313720202020302E303030302043202020302020302020302020302020302020302020302020302020302020302020302020300A2020312020322020312020302020202020200A2020322020332020312020302020202020200A2020332020342020322020302020202020200A2020342020352020312020302020202020200A2020352020362020322020302020202020200A2020362020372020312020302020202020200A2020322020372020322020302020202020200A2020312020382020322020302020202020200A2020312020392020312020302020202020200A2031302031312020312020302020202020200A2020342031302020312020302020202020200A2031322031332020312020302020202020200A2020332031322020312020302020202020200A4D2020454E44
Contributor: MASS SPECTROSCOPY SOC. OF JAPAN (MSSJ)
InstType: EI
InstName: SHIMADZU QP-1000EX
IoniMethod: _ENERGY 20 eV
IonPolarity: pos
Date: 2010-10-09 19:48:36+02:00
Num Peaks: 61
39 30 40 14 41 37 43 15 51 42 52 32 53 24 55 45 59 20 65 173 
66 18 67 22 68 55 76 43 77 135 78 28 79 117 80 25 81 47 90 22 
91 36 92 42 93 40 94 64 95 25 96 34 104 26 105 79 106 21 107 745 
108 94 109 366 110 30 111 23 118 61 119 73 120 28 121 85 122 102 123 24 
132 27 133 23 134 13 135 240 136 58 137 305 138 28 139 24 149 382 150 45 
151 35 152 18 153 263 154 24 163 96 164 22 165 66 167 46 182 999 183 101 
184 13 
