Name: MassBank: JP011015
MW: 280
Formula: C13H12O7
Synonym: MassBank: JP011015
Synonym: 2,4,5-TRIACETOXYTROPONE
Structure: 322C342C352D545249414345544F585954524F504F4E452E6D6F6C0A20204368656D447261773132323030393133323432440A2032302032302020302020302020302020302020302020302020302020303939392056323030300A2020202D312E353933312020202D302E3938303920202020302E30303030204F202020302020302020302020302020302020302020302020302020302020302020302020300A2020202D302E383434302020202D302E3632383520202020302E303030302043202020302020302020302020302020302020302020302020302020302020302020302020300A2020202D302E323036302020202D312E3134373720202020302E303030302043202020302020302020302020302020302020302020302020302020302020302020302020300A20202020302E353939372020202D302E3937303120202020302E303030302043202020302020302020302020302020302020302020302020302020302020302020302020300A20202020302E393633322020202D302E3233323620202020302E303030302043202020302020302020302020302020302020302020302020302020302020302020302020300A20202020302E3631303820202020302E3531363420202020302E303030302043202020302020302020302020302020302020302020302020302020302020302020302020300A2020202D302E3139323120202020302E3730363020202020302E303030302043202020302020302020302020302020302020302020302020302020302020302020302020300A2020202D302E3834343020202020302E3139363520202020302E303030302043202020302020302020302020302020302020302020302020302020302020302020302020300A20202020312E373838322020202D302E3233323620202020302E30303030204F202020302020302020302020302020302020302020302020302020302020302020302020300A20202020322E323032302020202D302E3934393420202020302E303030302043202020302020302020302020302020302020302020302020302020302020302020302020300A20202020312E373836322020202D312E3636393720202020302E30303030204F202020302020302020302020302020302020302020302020302020302020302020302020300A20202020332E303230332020202D302E3934393420202020302E303030302043202020302020302020302020302020302020302020302020302020302020302020302020300A20202020312E3133303020202020312E3135373620202020302E30303030204F202020302020302020302020302020302020302020302020302020302020302020302020300A20202020312E3934343920202020312E3032383520202020302E303030302043202020302020302020302020302020302020302020302020302020302020302020302020300A20202020322E3234303520202020302E3235383320202020302E30303030204F202020302020302020302020302020302020302020302020302020302020302020302020300A20202020322E3436343120202020312E3636393720202020302E303030302043202020302020302020302020302020302020302020302020302020302020302020302020300A2020202D312E3538313520202020302E3536303020202020302E30303030204F202020302020302020302020302020302020302020302020302020302020302020302020300A2020202D322E3236363620202020302E3130303420202020302E303030302043202020302020302020302020302020302020302020302020302020302020302020302020300A2020202D332E3032303320202020302E3433353920202020302E30303030204F202020302020302020302020302020302020302020302020302020302020302020302020300A2020202D322E313830342020202D302E3732303120202020302E303030302043202020302020302020302020302020302020302020302020302020302020302020302020300A2020312020322020322020302020202020200A2020322020332020312020302020202020200A2020332020342020322020302020202020200A2020342020352020312020302020202020200A2020352020362020322020302020202020200A2020362020372020312020302020202020200A2020372020382020322020302020202020200A2020322020382020312020302020202020200A2031302031312020322020302020202020200A2031302031322020312020302020202020200A2020392031302020312020302020202020200A2020352020392020312020302020202020200A2031342031352020322020302020202020200A2031342031362020312020302020202020200A2031332031342020312020302020202020200A2020362031332020312020302020202020200A2031382031392020322020302020202020200A2031382032302020312020302020202020200A2031372031382020312020302020202020200A2020382031372020312020302020202020200A4D2020454E44
Contributor: TAKESHITA H, INST. OF ADVANCED MATERIAL STUDY KYUSHU UNIV.
InstType: EI
InstName: JEOL JMS-01-SG-2
IoniMethod: _ENERGY 75 eV
IonPolarity: pos
Date: 2010-10-09 19:48:36+02:00
Num Peaks: 32
39 12 40 26 42 15 43 64 45 34 50 14 51 30 52 39 53 42 54 43 
55 55 63 13 69 30 79 11 80 19 82 16 97 46 108 23 125 68 126 999 
127 65 137 11 154 36 155 12 196 420 197 370 198 40 238 234 239 423 240 52 
281 177 282 26 
