Name: DI-IODOMETHANE
CAS: 75-11-6
MW: 267
Formula: CH2I2
Synonym: MassBank: JP010331
Synonym: DI-IODOMETHANE
Structure: 310A31300A44492D494F444F4D455448414E452E6D6F6C0A20204368656D447261773039323131303134303432440A2020332020322020302020302020302020302020302020302020302020303939392056323030300A20202020302E3030303020202020302E3230363320202020302E303030302043202020302020302020302020302020302020302020302020302020302020302020302020300A20202020302E373134352020202D302E3230363320202020302E303030302049202020302020302020302020302020302020302020302020302020302020302020302020300A2020202D302E373134352020202D302E3230363320202020302E303030302049202020302020302020302020302020302020302020302020302020302020302020302020300A2020312020322020312020302020202020200A2020312020332020312020302020202020200A4D2020454E44
Contributor: TAJIMA S, GUNMA COLLEGE OF TECHNOLOGY
InstType: EI
InstName: HITACHI M-80A
IoniMethod: _ENERGY 70 eV
IonPolarity: pos
Date: 2010-10-09 19:48:36+02:00
Num Peaks: 15
12 21 13 48 14 90 127 693 128 26 134 14 139 89 140 90 141 896 142 11 
254 150 266 10 267 16 268 999 269 11 
