Name: MassBank: JP011373
MW: 398
Formula: C11H26Sn2
Synonym: MassBank: JP011373
Synonym: 2-METHYL-1,4-BIS(TRIMETHYLSTANNYL)-2-BUTENE
Structure: 322D4D455448594C2D312C342D424953285452494D455448594C5354414E4E594C292D322D425554454E452E6D6F6C0A20204368656D447261773031323231303032353032440A2031332031322020302020302020302020302020302020302020302020303939392056323030300A2020202D312E3037313720202020302E3236313520202020302E303030302043202020302020302020302020302020302020302020302020302020302020302020302020300A2020202D302E333537322020202D302E3135313020202020302E303030302043202020302020302020302020302020302020302020302020302020302020302020302020300A20202020302E3335373220202020302E3236313520202020302E303030302043202020302020302020302020302020302020302020302020302020302020302020302020300A20202020312E303731372020202D302E3135313020202020302E303030302043202020302020302020302020302020302020302020302020302020302020302020302020300A20202020312E3738363220202020302E3236313520202020302E3030303020536E2020302020302020302020302020302020302020302020302020302020302020302020300A20202020322E313938372020202D302E3435333020202020302E303030302043202020302020302020302020302020302020302020302020302020302020302020302020300A20202020312E3337333720202020302E3937363020202020302E303030302043202020302020302020302020302020302020302020302020302020302020302020302020300A20202020322E3530303620202020302E3637343020202020302E303030302043202020302020302020302020302020302020302020302020302020302020302020302020300A2020202D312E373836322020202D302E3135313020202020302E3030303020536E2020302020302020302020302020302020302020302020302020302020302020302020300A2020202D312E333733372020202D302E3836353520202020302E303030302043202020302020302020302020302020302020302020302020302020302020302020302020300A2020202D322E353030362020202D302E3536333520202020302E303030302043202020302020302020302020302020302020302020302020302020302020302020302020300A2020202D322E3139383720202020302E3536333520202020302E303030302043202020302020302020302020302020302020302020302020302020302020302020302020300A2020202D302E333537322020202D302E3937363020202020302E303030302043202020302020302020302020302020302020302020302020302020302020302020302020300A2020312020322020312020302020202020200A2020322020332020322020302020202020200A2020332020342020312020302020202020200A2020352020362020312020312020202020200A2020352020372020312020312020202020200A2020352020382020312020302020202020200A2020342020352020312020302020202020200A2020392031302020312020312020202020200A2020392031312020312020302020202020200A2020392031322020312020312020202020200A2020312020392020312020302020202020200A2020322031332020312020302020202020200A4D2020454E44
Contributor: HISAHIRO HAGIWARA, INSTITUTE FOR CHEMICAL REACTION SCIENCE TOHOKU UNIV.
InstType: EI
InstName: JEOL JMS-DX-300
IoniMethod: _ENERGY 70 eV
IonPolarity: pos
Date: 2010-10-09 19:48:36+02:00
Num Peaks: 94
39 21 41 45 43 52 53 28 55 19 57 12 58 33 65 11 67 58 68 34 
69 27 73 17 75 11 77 11 81 23 82 24 91 10 93 15 95 16 105 11 
116 13 117 16 118 25 119 23 120 36 121 22 131 84 132 52 133 147 134 59 
135 192 136 18 137 29 139 39 146 39 147 43 148 79 149 56 150 100 151 51 
152 18 154 20 155 12 157 44 159 31 160 16 161 450 162 270 163 745 164 320 
165 999 166 42 167 172 168 11 169 193 170 11 183 16 185 20 187 11 199 30 
200 18 201 48 202 20 203 55 205 10 207 13 215 16 216 15 217 22 218 15 
219 16 229 59 230 42 231 98 232 42 233 127 234 17 235 22 237 27 287 12 
311 22 312 13 313 23 315 18 326 14 328 15 330 13 392 12 393 11 394 25 
395 14 396 26 397 12 398 21 
