Name: MassBank: JP010353
MW: 240
Formula: C13H20O4
Synonym: MassBank: JP010353
Synonym: DIETHYL (E,E)-2,7-NONADIENOATE
Structure: 4449455448594C2028452C45292D322C372D4E4F4E414449454E4F4154452E6D6F6C0A20204368656D447261773039323131303139313132440A2031372031362020302020302020302020302020302020302020302020303939392056323030300A2020202D322E353030362020202D302E3431323520202020302E303030302043202020302020302020302020302020302020302020302020302020302020302020302020300A2020202D312E373836322020202D302E3832353020202020302E303030302043202020302020302020302020302020302020302020302020302020302020302020302020300A2020202D312E303731372020202D302E3431323520202020302E303030302043202020302020302020302020302020302020302020302020302020302020302020302020300A2020202D302E333537322020202D302E3832353020202020302E303030302043202020302020302020302020302020302020302020302020302020302020302020302020300A20202020302E333537322020202D302E3431323520202020302E303030302043202020302020302020302020302020302020302020302020302020302020302020302020300A20202020312E303731372020202D302E3832353020202020302E303030302043202020302020302020302020302020302020302020302020302020302020302020302020300A20202020312E373836322020202D302E3431323520202020302E303030302043202020302020302020302020302020302020302020302020302020302020302020302020300A20202020322E353030362020202D302E3832353020202020302E303030302043202020302020302020302020302020302020302020302020302020302020302020302020300A20202020332E323135312020202D302E3431323520202020302E303030302043202020302020302020302020302020302020302020302020302020302020302020302020300A2020202D322E3530303620202020302E3431323520202020302E30303030204F202020302020302020302020302020302020302020302020302020302020302020302020300A2020202D332E323135312020202D302E3832353020202020302E30303030204F202020302020302020302020302020302020302020302020302020302020302020302020300A20202020332E393239362020202D302E3832353020202020302E30303030204F202020302020302020302020302020302020302020302020302020302020302020302020300A20202020332E3231353120202020302E3431323520202020302E30303030204F202020302020302020302020302020302020302020302020302020302020302020302020300A2020202D332E393239362020202D302E3431323520202020302E303030302043202020302020302020302020302020302020302020302020302020302020302020302020300A2020202D342E363434312020202D302E3832353020202020302E303030302043202020302020302020302020302020302020302020302020302020302020302020302020300A20202020332E3932393620202020302E3832353020202020302E303030302043202020302020302020302020302020302020302020302020302020302020302020302020300A20202020342E3634343120202020302E3431323520202020302E303030302043202020302020302020302020302020302020302020302020302020302020302020302020300A2020312020322020312020302020202020200A2020322020332020322020302020202020200A2020332020342020312020302020202020200A2020342020352020312020302020202020200A2020352020362020312020302020202020200A2020362020372020312020302020202020200A2020372020382020322020302020202020200A2020382020392020312020302020202020200A2020312031302020322020302020202020200A2020312031312020312020302020202020200A2020392031322020322020302020202020200A2020392031332020312020302020202020200A2031342031352020312020302020202020200A2031312031342020312020302020202020200A2031362031372020312020302020202020200A2031332031362020312020302020202020200A4D2020454E44
Contributor: HISAHIRO HAGIWARA, CHEMICAL RESEARCH INSTITUTE OF NON-AQUEOUSSOLUTIONS TOHOKU UNIV.
InstType: EI
InstName: JEOL JMS-DX-300
IoniMethod: _ENERGY 70 eV
IonPolarity: pos
Date: 2010-10-09 19:48:36+02:00
Num Peaks: 81
26 63 27 433 29 999 30 35 31 38 39 354 40 112 41 290 42 91 43 219 
45 101 51 39 52 33 53 413 54 131 55 405 57 154 60 92 61 113 65 94 
66 138 67 279 68 474 69 81 70 85 71 98 73 95 75 213 77 99 78 63 
79 304 80 125 81 886 82 160 83 42 84 55 85 134 86 221 88 205 91 13 
92 253 93 734 94 229 95 98 97 172 98 350 99 321 101 44 107 181 108 48 
111 82 112 7 114 107 115 42 119 37 120 195 121 377 122 101 123 43 126 13 
127 143 137 81 138 253 139 209 140 110 148 260 149 245 150 47 152 74 153 41 
165 42 166 585 167 340 168 65 194 205 195 876 196 133 197 82 240 141 241 225 
242 36 
