Name: 4-AMINOPHENYL DISULFIDE
CAS: 722-27-0
MW: 248
Formula: C12H12N2S2
Synonym: MassBank: JP011103
Synonym: 4-AMINOPHENYL DISULFIDE
Synonym: 4,4'-DITHIODIANILINE
Structure: 342D414D494E4F5048454E594C20444953554C464944452E6D6F6C0A20204368656D447261773033323531303035323432440A2031362031372020302020302020302020302020302020302020302020303939392056323030300A2020202D302E3230363320202020302E3335373220202020302E303030302053202020302020302020302020302020302020302020302020302020302020302020302020300A20202020302E323036332020202D302E3335373220202020302E303030302053202020302020302020302020302020302020302020302020302020302020302020302020300A2020202D312E3033313320202020302E3335373220202020302E303030302043202020302020302020302020302020302020302020302020302020302020302020302020300A2020202D312E343433382020202D302E3335373220202020302E303030302043202020302020302020302020302020302020302020302020302020302020302020302020300A2020202D322E323638372020202D302E3335373220202020302E303030302043202020302020302020302020302020302020302020302020302020302020302020302020300A2020202D322E3638313320202020302E3335373220202020302E303030302043202020302020302020302020302020302020302020302020302020302020302020302020300A2020202D322E3236383820202020312E3037313720202020302E303030302043202020302020302020302020302020302020302020302020302020302020302020302020300A2020202D312E3434333820202020312E3037313720202020302E303030302043202020302020302020302020302020302020302020302020302020302020302020302020300A2020202D332E3530363320202020302E3335373220202020302E30303030204E202020302020302020302020302020302020302020302020302020302020302020302020300A20202020312E303331332020202D302E3335373220202020302E303030302043202020302020302020302020302020302020302020302020302020302020302020302020300A20202020312E3434333820202020302E3335373220202020302E303030302043202020302020302020302020302020302020302020302020302020302020302020302020300A20202020322E3236383720202020302E3335373220202020302E303030302043202020302020302020302020302020302020302020302020302020302020302020302020300A20202020322E363831332020202D302E3335373220202020302E303030302043202020302020302020302020302020302020302020302020302020302020302020302020300A20202020322E323638382020202D312E3037313720202020302E303030302043202020302020302020302020302020302020302020302020302020302020302020302020300A20202020312E343433382020202D312E3037313720202020302E303030302043202020302020302020302020302020302020302020302020302020302020302020302020300A20202020332E353036332020202D302E3335373220202020302E30303030204E202020302020302020302020302020302020302020302020302020302020302020302020300A2020312020322020312020302020202020200A2020332020342020312020302020202020200A2020342020352020322020302020202020200A2020352020362020312020302020202020200A2020362020372020322020302020202020200A2020372020382020312020302020202020200A2020332020382020322020302020202020200A2020362020392020312020302020202020200A2020312020332020312020302020202020200A2031302031312020312020302020202020200A2031312031322020322020302020202020200A2031322031332020312020302020202020200A2031332031342020322020302020202020200A2031342031352020312020302020202020200A2031302031352020322020302020202020200A2031332031362020312020302020202020200A2020322031302020312020302020202020200A4D2020454E44
Contributor: YAMAMOTO M, DEP. CHEMISTRY, FAC. SCIENCE, NARA WOMEN'S UNIV.
InstType: EI
InstName: HITACHI M-80
IoniMethod: _ENERGY 70 eV
IonPolarity: pos
Date: 2010-10-09 19:48:36+02:00
Num Peaks: 24
28 30 39 18 45 18 52 15 53 39 54 17 63 16 65 21 69 17 70 14 
80 271 81 29 91 15 93 24 96 16 97 57 123 30 124 999 125 310 126 64 
127 16 248 424 249 66 250 42 
