Name: MassBank: JP012070
MW: 223
Formula: C9H9BrN2
Synonym: MassBank: JP012070
Synonym: 3-BROMO-5-(3,4-DIHYDRO-2H-PYRROL-5-YL)PYRIDINE
Structure: 332D42524F4D4F2D352D28332C342D4449485944524F2D32482D505952524F4C2D352D594C295059524944494E452E6D6F6C0A20204368656D447261773032323231303134323132440A2031322031332020302020302020302020302020302020302020302020303939392056323030300A2020202D312E3837323320202020302E3335373220202020302E303030302043202020302020302020302020302020302020302020302020302020302020302020302020300A2020202D312E343539382020202D302E3335373220202020302E303030302043202020302020302020302020302020302020302020302020302020302020302020302020300A2020202D302E363334382020202D302E3335373220202020302E303030302043202020302020302020302020302020302020302020302020302020302020302020302020300A2020202D302E3232323320202020302E3335373220202020302E303030302043202020302020302020302020302020302020302020302020302020302020302020302020300A2020202D302E3633343820202020312E3037313720202020302E303030302043202020302020302020302020302020302020302020302020302020302020302020302020300A2020202D312E3435393820202020312E3037313720202020302E30303030204E202020302020302020302020302020302020302020302020302020302020302020302020300A20202020312E3038373720202020312E3032343720202020302E30303030204E202020302020302020302020302020302020302020302020302020302020302020302020300A20202020312E3837323320202020302E3736393720202020302E303030302043202020302020302020302020302020302020302020302020302020302020302020302020300A20202020312E383732332020202D302E3035353320202020302E303030302043202020302020302020302020302020302020302020302020302020302020302020302020300A20202020312E303837372020202D302E3331303220202020302E303030302043202020302020302020302020302020302020302020302020302020302020302020302020300A20202020302E3630323720202020302E3335373220202020302E303030302043202020302020302020302020302020302020302020302020302020302020302020302020300A2020202D312E383732332020202D312E3037313720202020302E303030302042722020302020302020302020302020302020302020302020302020302020302020302020300A2020312020322020312020302020202020200A2020322020332020322020302020202020200A2020332020342020312020302020202020200A2020342020352020322020302020202020200A2020352020362020312020302020202020200A2020312020362020322020302020202020200A2020372020382020312020302020202020200A2020382020392020312020302020202020200A2020392031302020312020302020202020200A2031302031312020312020302020202020200A2020372031312020322020302020202020200A2020342031312020312020302020202020200A2020322031322020312020302020202020200A4D2020454E44
Contributor: SUMITA Y, KYOTO COLLEGE OF PHARMACY
InstType: EI
InstName: HITACHI M-80
IoniMethod: _ENERGY 20 eV
IonPolarity: pos
Date: 2010-10-09 19:48:36+02:00
Num Peaks: 50
27 22 28 17 39 53 40 49 41 257 42 482 43 22 63 70 64 24 65 25 
67 12 68 132 76 68 77 29 89 46 90 189 91 39 103 108 104 27 116 50 
117 191 118 80 129 13 131 12 143 27 144 58 145 114 146 14 152 27 156 108 
157 10 158 107 179 16 180 27 182 55 183 156 184 67 185 151 186 12 195 11 
196 982 197 94 198 974 199 87 209 10 223 653 224 999 225 718 226 955 227 108 
