Name: MassBank: JP010122
MW: 240
Formula: C12H13ClO3
Synonym: MassBank: JP010122
Synonym: 2-CARBOXYMETHYL-6-CHLORO-2-METHYL-3,4-DIHYDRO-2H-1-BENZOPYRAN
Structure: 322D434152424F58594D455448594C2D362D43484C4F524F2D322D4D455448594C2D332C342D4449485944524F2D32482D312D42454E5A4F505952414E2E6D6F6C0A20204368656D447261773031303331303130323432440A2031362031372020302020302020302020302020302020302020302020303939392056323030300A20202020302E383336362020202D302E3335373220202020302E303030302043202020302020302020302020302020302020302020302020302020302020302020302020300A20202020302E343234312020202D312E3037313720202020302E303030302043202020302020302020302020302020302020302020302020302020302020302020302020300A2020202D302E343030392020202D312E3037313720202020302E303030302043202020302020302020302020302020302020302020302020302020302020302020302020300A2020202D302E383133342020202D302E3335373220202020302E303030302043202020302020302020302020302020302020302020302020302020302020302020302020300A2020202D302E3430303920202020302E3335373220202020302E303030302043202020302020302020302020302020302020302020302020302020302020302020302020300A20202020302E3432343120202020302E3335373220202020302E30303030204F202020302020302020302020302020302020302020302020302020302020302020302020300A2020202D302E3831333420202020312E3037313720202020302E303030302043202020302020302020302020302020302020302020302020302020302020302020302020300A2020202D312E3633383420202020312E3037313720202020302E303030302043202020302020302020302020302020302020302020302020302020302020302020302020300A2020202D322E3035303920202020302E3335373220202020302E303030302043202020302020302020302020302020302020302020302020302020302020302020302020300A2020202D312E363338342020202D302E3335373220202020302E303030302043202020302020302020302020302020302020302020302020302020302020302020302020300A20202020312E343638362020202D302E3838373520202020302E303030302043202020302020302020302020302020302020302020302020302020302020302020302020300A2020202D322E3837353920202020302E3335373220202020302E3030303020436C2020302020302020302020302020302020302020302020302020302020302020302020300A20202020312E3436383620202020302E3137333120202020302E303030302043202020302020302020302020302020302020302020302020302020302020302020302020300A20202020322E323433392020202D302E3130393120202020302E303030302043202020302020302020302020302020302020302020302020302020302020302020302020300A20202020322E3837353920202020302E3432313220202020302E30303030204F202020302020302020302020302020302020302020302020302020302020302020302020300A20202020322E333837312020202D302E3932313620202020302E30303030204F202020302020302020302020302020302020302020302020302020302020302020302020300A2020312020322020312020302020202020200A2020322020332020312020302020202020200A2020332020342020312020302020202020200A2020342020352020312020302020202020200A2020352020362020312020302020202020200A2020312020362020312020302020202020200A2020372020382020312020302020202020200A2020382020392020322020302020202020200A2020392031302020312020302020202020200A2020342031302020322020302020202020200A2020352020372020322020302020202020200A2020312031312020312020302020202020200A2020392031322020312020302020202020200A2031342031352020322020302020202020200A2031342031362020312020302020202020200A2031332031342020312020302020202020200A2020312031332020312020302020202020200A4D2020454E44
Contributor: KURARAY CO., LTD.
InstType: EI
InstName: JEOL JMS-D-300
IoniMethod: _ENERGY 70 eV
IonPolarity: pos
Date: 2010-10-09 19:48:36+02:00
Num Peaks: 87
27 50 28 20 29 40 39 9 41 80 43 110 45 40 50 3 51 110 52 20 
53 40 55 6 63 60 65 40 71 20 72 2 73 30 75 60 76 20 77 28 
78 50 79 20 82 110 89 5 91 60 99 60 100 20 101 3 102 30 103 20 
105 20 111 2 112 110 113 40 114 40 115 8 116 20 117 20 125 80 127 5 
128 60 129 20 130 20 131 5 140 80 141 999 142 110 143 32 144 80 145 110 
146 9 152 40 153 60 154 40 155 3 158 20 159 320 160 50 165 23 166 30 
167 80 168 20 177 6 178 20 179 190 180 130 181 28 182 60 183 80 187 90 
193 6 194 120 195 40 196 40 204 3 205 20 207 170 208 20 209 7 222 430 
223 60 224 150 225 2 240 650 241 90 242 220 243 20 
