Name: ORTHO-METHOXYACETOPHENONE
MW: 150
Formula: C9H10O2
Synonym: MassBank: JP011770
Synonym: ORTHO-METHOXYACETOPHENONE
Synonym: ORTHO-ACETYLANISOLE
Structure: 4F5254484F2D41434554594C414E49534F4C452E6D6F6C0A20204368656D447261773038313231303033333132440A2031312031312020302020302020302020302020302020302020302020303939392056323030300A2020202D302E3230363320202020312E3432383920202020302E303030302043202020302020302020302020302020302020302020302020302020302020302020302020300A20202020302E3230363320202020302E3731343520202020302E30303030204F202020302020302020302020302020302020302020302020302020302020302020302020300A2020202D302E323036322020202D302E3030303020202020302E303030302043202020302020302020302020302020302020302020302020302020302020302020302020300A20202020302E323036332020202D302E3731343520202020302E303030302043202020302020302020302020302020302020302020302020302020302020302020302020300A2020202D302E323036322020202D312E3432383920202020302E303030302043202020302020302020302020302020302020302020302020302020302020302020302020300A2020202D312E303331322020202D312E3432383920202020302E303030302043202020302020302020302020302020302020302020302020302020302020302020302020300A2020202D312E343433382020202D302E3731343520202020302E303030302043202020302020302020302020302020302020302020302020302020302020302020302020300A2020202D312E3033313320202020302E3030303020202020302E303030302043202020302020302020302020302020302020302020302020302020302020302020302020300A20202020312E303331332020202D302E3731343520202020302E303030302043202020302020302020302020302020302020302020302020302020302020302020302020300A20202020312E3434333820202020302E3030303020202020302E30303030204F202020302020302020302020302020302020302020302020302020302020302020302020300A20202020312E343433382020202D312E3432383920202020302E303030302043202020302020302020302020302020302020302020302020302020302020302020302020300A2020312020322020312020302020202020200A2020322020332020312020302020202020200A2020332020342020312020302020202020200A2020342020352020322020302020202020200A2020352020362020312020302020202020200A2020362020372020322020302020202020200A2020372020382020312020302020202020200A2020332020382020322020302020202020200A2020392031302020322020302020202020200A2020392031312020312020302020202020200A2020342020392020312020302020202020200A4D2020454E44
Contributor: TAJIMA S, GUNMA COLLEGE OF TECHNOLOGY
InstType: EI
InstName: HITACHI M-80A
IoniMethod: _ENERGY 70 eV
IonPolarity: pos
Date: 2010-10-09 19:48:36+02:00
Num Peaks: 38
27 16 29 25 31 15 37 11 38 35 39 51 42 17 43 183 50 69 51 99 
52 28 53 25 58 10 61 12 62 31 63 109 64 82 65 54 74 26 75 21 
76 39 77 371 78 95 79 44 89 14 91 34 92 207 93 25 104 11 105 35 
107 20 120 49 121 55 133 15 135 999 136 89 150 175 151 12 
