Name: (1R)-N-(2-HYDROXY-1-PHENYLETHYL)PROPANAMIDE
MW: 193
Formula: C11H15NO2
Synonym: MassBank: JP010508
Synonym: (1R)-N-(2-HYDROXY-1-PHENYLETHYL)PROPANAMIDE
Structure: 283152292D4E2D28322D485944524F58592D312D5048454E594C455448594C2950524F50414E414D4944452E6D6F6C0A20204368656D447261773130313930393132333632440A2031352031352020302020302020302020302020302020302020302020303939392056323030300A2020202D312E333835392020202D302E3733333520202020302E303030302043202020302020302020302020302020302020302020302020302020302020302020302020300A2020202D312E333835392020202D312E3535383520202020302E303030302043202020302020302020302020302020302020302020302020302020302020302020302020300A2020202D302E363731342020202D312E3937313020202020302E303030302043202020302020302020302020302020302020302020302020302020302020302020302020300A20202020302E303433312020202D312E3535383520202020302E303030302043202020302020302020302020302020302020302020302020302020302020302020302020300A20202020302E303433312020202D302E3733333520202020302E303030302043202020302020302020302020302020302020302020302020302020302020302020302020300A2020202D302E363731342020202D302E3332313020202020302E303030302043202020302020302020302020302020302020302020302020302020302020302020302020300A2020202D302E3637313420202020302E3530343020202020302E303030302043202020302020302020302020302020302020302020302020302020302020302020302020300A20202020302E3134313120202020302E3336303720202020302E30303030204E202020302020302020302020302020302020302020302020302020302020302020302020300A2020202D312E3438333820202020302E3336303720202020302E303030302048202020302020302020302020302020302020302020302020302020302020302020302020300A20202020302E3637313420202020302E3939323720202020302E303030302043202020302020302020302020302020302020302020302020302020302020302020302020300A20202020312E3438333820202020302E3834393420202020302E30303030204F202020302020302020302020302020302020302020302020302020302020302020302020300A20202020302E3637373620202020312E3937313020202020302E303030302043202020302020302020302020302020302020302020302020302020302020302020302020300A20202020312E3339323120202020312E3535383520202020302E303030302043202020302020302020302020302020302020302020302020302020302020302020302020300A2020202D302E3636333920202020312E3438313120202020302E303030302043202020302020302020302020302020302020302020302020302020302020302020302020300A20202020302E3035303620202020312E3036383620202020302E30303030204F202020302020302020302020302020302020302020302020302020302020302020302020300A2020312020322020322020302020202020200A2020322020332020312020302020202020200A2020332020342020322020302020202020200A2020342020352020312020302020202020200A2020352020362020322020302020202020200A2020362020312020312020302020202020200A2020362020372020312020302020202020200A2020372020382020312020312020202020200A2020372020392020312020312020202020200A2020382031302020312020302020202020200A2031302031312020322020302020202020200A2031302031322020312020302020202020200A2031322031332020312020302020202020200A2020372031342020312020302020202020200A2031342031352020312020302020202020200A4D202053545920203120202031205355500A4D2020534C4220203120202031202020310A4D202053414C2020203120203220203132202031330A4D202053424C20202031202031202031320A4D2020534D5420202031204348324348330A4D2020534256202020312031322020202D382E3039303220202020362E303631310A4D202053545920203120202032205355500A4D2020534C4220203120202032202020320A4D202053414C2020203220203220203134202031350A4D202053424C20202032202031202031340A4D2020534D5420202032204348324F480A4D2020534256202020322031342020202D382E3038383920202020362E303539390A4D2020454E44
Contributor: TSUNODA T, FACULTY OF PHARMACEUTICAL SCIENCES, TOKUSHIMA BUNRI UNIV.
InstType: EI
InstName: SHIMADZU LKB-9000B
IoniMethod: _ENERGY 70 eV
IonPolarity: pos
Date: 2010-10-09 19:48:36+02:00
Num Peaks: 16
28 136 29 135 57 149 77 113 79 89 91 78 103 52 104 110 106 999 107 89 
119 72 162 304 163 133 175 59 194 4 195 1 
