Name: MassBank: JP011841
MW: 351
Formula: C21H21NO4
Synonym: MassBank: JP011841
Synonym: 3,4-BIS(METHOXYCARBONYL)-1-METHYL-2,5-DIPHENYL-3-PYRROLINE
Structure: 332C342D424953284D4554484F5859434152424F4E594C292D312D4D455448594C2D322C352D44495048454E594C2D332D505952524F4C494E452E6D6F6C0A20204368656D447261773032323131303232303632440A2032362032382020302020302020302020302020302020302020302020303939392056323030300A20202020302E303433342020202D302E3739373320202020302E30303030204E202020302020302020302020302020302020302020302020302020302020302020302020300A2020202D302E343431352020202D302E3132393820202020302E303030302043202020302020302020302020302020302020302020302020302020302020302020302020300A20202020302E3034333420202020302E3533373620202020302E303030302043202020302020302020302020302020302020302020302020302020302020302020302020300A20202020302E3832383020202020302E3238323720202020302E303030302043202020302020302020302020302020302020302020302020302020302020302020302020300A20202020302E383238302020202D302E3534323320202020302E303030302043202020302020302020302020302020302020302020302020302020302020302020302020300A20202020312E343935342020202D312E3032373220202020302E303030302043202020302020302020302020302020302020302020302020302020302020302020302020300A20202020322E323439312020202D302E3639313720202020302E303030302043202020302020302020302020302020302020302020302020302020302020302020302020300A20202020322E393136352020202D312E3137363620202020302E303030302043202020302020302020302020302020302020302020302020302020302020302020302020300A20202020322E383330332020202D312E3939373120202020302E303030302043202020302020302020302020302020302020302020302020302020302020302020302020300A20202020322E303736362020202D322E3333323720202020302E303030302043202020302020302020302020302020302020302020302020302020302020302020302020300A20202020312E343039322020202D312E3834373720202020302E303030302043202020302020302020302020302020302020302020302020302020302020302020302020300A2020202D312E323636352020202D302E3132393820202020302E303030302043202020302020302020302020302020302020302020302020302020302020302020302020300A2020202D312E363739302020202D302E3834343320202020302E303030302043202020302020302020302020302020302020302020302020302020302020302020302020300A2020202D322E353034302020202D302E3834343320202020302E303030302043202020302020302020302020302020302020302020302020302020302020302020302020300A2020202D322E393136352020202D302E3132393820202020302E303030302043202020302020302020302020302020302020302020302020302020302020302020302020300A2020202D322E3530343020202020302E3538343620202020302E303030302043202020302020302020302020302020302020302020302020302020302020302020302020300A2020202D312E3637393020202020302E3538343620202020302E303030302043202020302020302020302020302020302020302020302020302020302020302020302020300A2020202D302E323131362020202D312E3538313920202020302E303030302043202020302020302020302020302020302020302020302020302020302020302020302020300A20202020312E3439353420202020302E3736373620202020302E303030302043202020302020302020302020302020302020302020302020302020302020302020302020300A20202020322E3234393120202020302E3433323020202020302E30303030204F202020302020302020302020302020302020302020302020302020302020302020302020300A20202020312E3430393220202020312E3538383120202020302E30303030204F202020302020302020302020302020302020302020302020302020302020302020302020300A20202020322E3037363620202020322E3037333020202020302E303030302043202020302020302020302020302020302020302020302020302020302020302020302020300A2020202D302E3231313620202020312E3332323220202020302E303030302043202020302020302020302020302020302020302020302020302020302020302020302020300A20202020302E3337313820202020312E3930353620202020302E30303030204F202020302020302020302020302020302020302020302020302020302020302020302020300A2020202D312E3030383520202020312E3533353820202020302E30303030204F202020302020302020302020302020302020302020302020302020302020302020302020300A2020202D312E3232323020202020322E3333323720202020302E303030302043202020302020302020302020302020302020302020302020302020302020302020302020300A2020312020322020312020302020202020200A2020322020332020312020302020202020200A2020332020342020322020302020202020200A2020342020352020312020302020202020200A2020312020352020312020302020202020200A2020362020372020312020302020202020200A2020372020382020322020302020202020200A2020382020392020312020302020202020200A2020392031302020322020302020202020200A2031302031312020312020302020202020200A2020362031312020322020302020202020200A2020352020362020312020302020202020200A2031322031332020312020302020202020200A2031332031342020322020302020202020200A2031342031352020312020302020202020200A2031352031362020322020302020202020200A2031362031372020312020302020202020200A2031322031372020322020302020202020200A2020322031322020312020302020202020200A2020312031382020312020302020202020200A2031392032302020322020302020202020200A2032312032322020312020302020202020200A2031392032312020312020302020202020200A2020342031392020312020302020202020200A2032332032342020322020302020202020200A2032352032362020312020302020202020200A2032332032352020312020302020202020200A2020332032332020312020302020202020200A4D2020454E44
Contributor: YOSHIKI O, FAC, TECHNOLOGY, OSAKA UNIV.
InstType: EI
InstName: Unknown
IoniMethod: _ENERGY 70 eV
IonPolarity: pos
Date: 2010-10-09 19:48:36+02:00
Num Peaks: 155
50 25 51 105 52 21 53 18 55 16 56 12 57 22 59 173 62 11 63 47 
64 13 65 76 66 10 70 11 71 14 73 25 74 13 75 30 76 40 77 234 
78 44 87 13 88 29 89 61 90 26 91 573 92 47 94 14 95 12 100 10 
101 36 102 71 103 47 104 31 105 57 106 11 108 15 109 16 113 40 114 87 
115 196 116 57 117 26 118 246 119 26 120 24 121 30 126 13 127 63 128 73 
129 70 130 41 131 22 136 16 140 20 141 15 142 33 143 32 144 28 145 15 
149 45 150 10 152 10 154 31 155 32 156 38 157 41 158 39 159 23 160 18 
165 18 166 24 167 21 168 18 169 15 170 124 171 112 172 19 173 17 176 12 
177 11 179 17 180 15 182 13 183 15 184 368 185 324 186 50 189 35 190 22 
191 64 192 53 194 10 198 210 199 186 200 30 201 17 202 68 203 62 204 33 
205 23 208 13 212 51 213 43 214 19 215 184 216 48 217 51 218 25 219 24 
228 14 230 152 231 56 232 88 233 176 234 152 235 38 242 999 243 180 244 147 
245 17 246 23 247 15 248 12 258 20 259 13 260 405 261 347 262 183 263 150 
264 29 273 71 274 874 275 776 276 34 277 30 288 47 289 45 290 13 291 35 
292 489 293 426 294 107 316 13 318 292 319 249 320 178 321 36 322 17 323 16 
349 167 350 192 351 150 352 178 353 46 
