Name: MassBank: JP011496
MW: 134
Formula: C9H10O
Synonym: MassBank: JP011496
Synonym: 1,2-EPOXY-3-PHENYL-PROPANE
Structure: 312C322D45504F58592D332D5048454E594C2D50524F50414E452E6D6F6C0A20204368656D447261773131313030393135343232440A2031302031312020302020302020302020302020302020302020302020303939392056323030300A20202020312E343238392020202D302E3330323020202020302E303030302043202020302020302020302020302020302020302020302020302020302020302020302020300A20202020312E3031363420202020302E3431323520202020302E303030302043202020302020302020302020302020302020302020302020302020302020302020302020300A20202020302E3330323020202020302E3832353020202020302E303030302043202020302020302020302020302020302020302020302020302020302020302020302020300A2020202D302E3431323520202020302E3431323520202020302E303030302043202020302020302020302020302020302020302020302020302020302020302020302020300A2020202D302E343132352020202D302E3431323520202020302E303030302043202020302020302020302020302020302020302020302020302020302020302020302020300A2020202D312E313237302020202D302E3832353020202020302E303030302043202020302020302020302020302020302020302020302020302020302020302020302020300A2020202D312E383431342020202D302E3431323520202020302E303030302043202020302020302020302020302020302020302020302020302020302020302020302020300A2020202D312E3834313420202020302E3431323520202020302E303030302043202020302020302020302020302020302020302020302020302020302020302020302020300A2020202D312E3132373020202020302E3832353020202020302E303030302043202020302020302020302020302020302020302020302020302020302020302020302020300A20202020312E3834313420202020302E3431323520202020302E30303030204F202020302020302020302020302020302020302020302020302020302020302020302020300A2020312020322020312020302020202020200A2020322020332020312020302020202020200A2020342020352020312020302020202020200A2020352020362020322020302020202020200A2020362020372020312020302020202020200A2020372020382020322020302020202020200A2020382020392020312020302020202020200A2020342020392020322020302020202020200A2020332020342020312020302020202020200A2020312031302020312020302020202020200A2020322031302020312020302020202020200A4D2020454E44
Contributor: FUJISE Y, HAMAMATSU UNIV. SCHOOL OF MEDICINE
InstType: EI
InstName: JEOL JMS-DX-300
IoniMethod: _ENERGY 70 eV
IonPolarity: pos
Date: 2010-10-09 19:48:36+02:00
Num Peaks: 42
37 22 38 75 39 467 40 33 41 101 42 27 43 64 49 11 50 244 51 564 
52 174 53 49 55 28 61 15 62 71 63 236 64 52 65 446 74 68 75 62 
76 76 77 522 78 753 79 169 87 13 89 100 90 45 91 999 92 179 102 95 
103 477 104 838 105 533 106 76 115 52 116 39 117 45 118 14 119 46 133 40 
134 432 135 43 
