Name: 4-(4-FLUOROBENZOYL)-3-PHENYL-5-ISOXAZOLONE
MW: 283
Formula: C16H10FNO3
Synonym: MassBank: JP012120
Synonym: 4-(4-FLUOROBENZOYL)-3-PHENYL-5-ISOXAZOLONE
Structure: 342D28342D464C554F524F42454E5A4F594C292D332D5048454E594C2D352D49534F58415A4F4C4F4E452E6D6F6C0A20204368656D447261773033323431303038303032440A2032312032332020302020302020302020302020302020302020302020303939392056323030300A2020202D302E383831362020202D312E3634393420202020302E30303030204F202020302020302020302020302020302020302020302020302020302020302020302020300A2020202D312E353733352020202D312E3230303020202020302E30303030204E202020302020302020302020302020302020302020302020302020302020302020302020300A2020202D312E333630302020202D302E3430333120202020302E303030302043202020302020302020302020302020302020302020302020302020302020302020302020300A2020202D302E353336312020202D302E3336303020202020302E303030302043202020302020302020302020302020302020302020302020302020302020302020302020300A2020202D302E323430352020202D312E3133303220202020302E303030302043202020302020302020302020302020302020302020302020302020302020302020302020300A20202020302E353536342020202D312E3334333720202020302E30303030204F202020302020302020302020302020302020302020302020302020302020302020302020300A2020202D312E3837393220202020302E3233383020202020302E303030302043202020302020302020302020302020302020302020302020302020302020302020302020300A2020202D322E3639343020202020302E3130383920202020302E303030302043202020302020302020302020302020302020302020302020302020302020302020302020300A2020202D332E3231333220202020302E3735303120202020302E303030302043202020302020302020302020302020302020302020302020302020302020302020302020300A2020202D322E3931373620202020312E3532303320202020302E303030302043202020302020302020302020302020302020302020302020302020302020302020302020300A2020202D322E3130323720202020312E3634393420202020302E303030302043202020302020302020302020302020302020302020302020302020302020302020302020300A2020202D312E3538333520202020312E3030383220202020302E303030302043202020302020302020302020302020302020302020302020302020302020302020302020300A2020202D302E3038363820202020302E3333313920202020302E303030302043202020302020302020302020302020302020302020302020302020302020302020302020300A20202020302E3733383220202020302E3333313920202020302E303030302043202020302020302020302020302020302020302020302020302020302020302020302020300A20202020312E313530372020202D302E3338323520202020302E303030302043202020302020302020302020302020302020302020302020302020302020302020302020300A20202020312E393735372020202D302E3338323520202020302E303030302043202020302020302020302020302020302020302020302020302020302020302020302020300A20202020322E3338383220202020302E3333313920202020302E303030302043202020302020302020302020302020302020302020302020302020302020302020302020300A20202020312E3937353720202020312E3034363420202020302E303030302043202020302020302020302020302020302020302020302020302020302020302020302020300A20202020312E3135303720202020312E3034363420202020302E303030302043202020302020302020302020302020302020302020302020302020302020302020302020300A2020202D302E3439393320202020312E3034363420202020302E30303030204F202020302020302020302020302020302020302020302020302020302020302020302020300A20202020332E3231333220202020302E3333313920202020302E303030302046202020302020302020302020302020302020302020302020302020302020302020302020300A2020312020322020312020302020202020200A2020322020332020322020302020202020200A2020332020342020312020302020202020200A2020342020352020312020302020202020200A2020312020352020312020302020202020200A2020352020362020322020302020202020200A2020372020382020312020302020202020200A2020382020392020322020302020202020200A2020392031302020312020302020202020200A2031302031312020322020302020202020200A2031312031322020312020302020202020200A2020372031322020322020302020202020200A2020332020372020312020302020202020200A2031332031342020312020302020202020200A2031342031352020312020302020202020200A2031352031362020322020302020202020200A2031362031372020312020302020202020200A2031372031382020322020302020202020200A2031382031392020312020302020202020200A2031342031392020322020302020202020200A2031332032302020322020302020202020200A2031372032312020312020302020202020200A2020342031332020312020302020202020200A4D2020454E44
Contributor: HISAHIRO HAGIWARA, INSTITUTE FOR CHEMICAL REACTION SCIENCE TOHOKU UNIV.
InstType: EI
InstName: JEOL JMS-DX-300
IoniMethod: _ENERGY 70 eV
IonPolarity: pos
Date: 2010-10-09 19:48:36+02:00
Num Peaks: 28
39 21 50 33 51 56 52 16 62 10 63 34 69 17 74 18 75 101 76 51 
77 57 89 47 90 11 94 26 95 479 96 73 102 128 103 54 104 16 105 12 
116 59 122 14 123 999 124 333 132 10 140 14 144 17 283 56 
