Name: MassBank: JP010013
MW: 126
Formula: C8H14O
Synonym: MassBank: JP010013
Synonym: 5-ETHOXY-3-METHYL-1,3-PENTADIENE
Synonym: 2,4-PENTADIENE-3-METHYL-1-ETHOXY
Structure: 310A32320A352D4554484F58592D332D4D455448594C2D312C332D50454E54414449454E452E6D6F6C0A20204368656D447261773132323030393139343032440A2020392020382020302020302020302020302020302020302020302020303939392056323030300A2020202D322E353030362020202D302E3230363220202020302E303030302043202020302020302020302020302020302020302020302020302020302020302020302020300A2020202D312E373836322020202D302E3631383820202020302E303030302043202020302020302020302020302020302020302020302020302020302020302020302020300A2020202D312E303731372020202D302E3230363220202020302E303030302043202020302020302020302020302020302020302020302020302020302020302020302020300A2020202D302E333537322020202D302E3631383820202020302E303030302043202020302020302020302020302020302020302020302020302020302020302020302020300A20202020302E333537322020202D302E3230363220202020302E303030302043202020302020302020302020302020302020302020302020302020302020302020302020300A2020202D312E3037313720202020302E3631383820202020302E303030302043202020302020302020302020302020302020302020302020302020302020302020302020300A20202020312E303731372020202D302E3631383820202020302E30303030204F202020302020302020302020302020302020302020302020302020302020302020302020300A20202020312E373836322020202D302E3230363220202020302E303030302043202020302020302020302020302020302020302020302020302020302020302020302020300A20202020322E353030362020202D302E3631383720202020302E303030302043202020302020302020302020302020302020302020302020302020302020302020302020300A2020312020322020322020302020202020200A2020322020332020312020302020202020200A2020332020342020322020302020202020200A2020342020352020312020302020202020200A2020332020362020312020302020202020200A2020382020392020312020302020202020200A2020372020382020312020302020202020200A2020352020372020312020302020202020200A4D2020454E44
Contributor: KURARAY CO., LTD.
InstType: EI
InstName: JEOL JMS-D-300
IoniMethod: _ENERGY 70 eV
IonPolarity: pos
Date: 2010-10-09 19:48:36+02:00
Num Peaks: 29
27 89 28 13 29 34 39 10 40 21 41 139 42 31 43 15 44 11 45 540 
46 11 50 1 51 26 53 96 54 78 55 9 56 10 57 12 65 35 66 3 
67 999 68 59 72 10 77 3 79 83 80 19 81 184 82 73 83 55 
