Name: TRIETHYL ORTHOACETATE
CAS: 78-39-7
MW: 162
Formula: C8H18O3
Synonym: MassBank: JP011324
Synonym: TRIETHYL ORTHOACETATE
Synonym: 1,1,1-TRIETHOXYETHANE
Structure: 312C312C312D5452494554484F5859455448414E452E6D6F6C0A20204368656D447261773038313031303134323032440A2031312031302020302020302020302020302020302020302020302020303939392056323030300A20202020302E323436372020202D302E3436373820202020302E303030302043202020302020302020302020302020302020302020302020302020302020302020302020300A2020202D302E3136353820202020302E3234363720202020302E303030302043202020302020302020302020302020302020302020302020302020302020302020302020300A20202020302E393631322020202D302E3035353320202020302E30303030204F202020302020302020302020302020302020302020302020302020302020302020302020300A20202020302E3936313220202020302E3736393720202020302E303030302043202020302020302020302020302020302020302020302020302020302020302020302020300A20202020302E3234363720202020312E3138323220202020302E303030302043202020302020302020302020302020302020302020302020302020302020302020302020300A20202020302E363539322020202D312E3138323220202020302E30303030204F202020302020302020302020302020302020302020302020302020302020302020302020300A20202020312E343834322020202D312E3138323220202020302E303030302043202020302020302020302020302020302020302020302020302020302020302020302020300A20202020312E383936372020202D302E3436373820202020302E303030302043202020302020302020302020302020302020302020302020302020302020302020302020300A2020202D302E343637382020202D302E3838303320202020302E30303030204F202020302020302020302020302020302020302020302020302020302020302020302020300A2020202D312E313832322020202D302E3436373820202020302E303030302043202020302020302020302020302020302020302020302020302020302020302020302020300A2020202D312E383936372020202D302E3838303320202020302E303030302043202020302020302020302020302020302020302020302020302020302020302020302020300A2020312020322020312020302020202020200A2020342020352020312020302020202020200A2020332020342020312020302020202020200A2020312020332020312020302020202020200A2020372020382020312020302020202020200A2020362020372020312020302020202020200A2020312020362020312020302020202020200A2031302031312020312020302020202020200A2020392031302020312020302020202020200A2020312020392020312020302020202020200A4D2020454E44
Contributor: YAMAMOTO M, DEP. CHEMISTRY, FAC. SCIENCE, NARA WOMEN'S UNIV.
InstType: EI
InstName: HITACHI M-2500
IoniMethod: _ENERGY 70 eV
IonPolarity: pos
Date: 2010-10-09 19:48:36+02:00
Num Peaks: 32
13 27 14 98 15 266 17 43 18 133 19 31 25 24 26 153 27 476 28 114 
29 440 30 64 31 837 32 19 39 10 41 30 42 371 43 999 44 43 45 478 
46 130 60 283 61 174 70 64 72 11 73 39 87 16 88 34 89 46 105 11 
116 105 117 24 
