Name: MassBank: JP010417
MW: 215
Formula: C8H14ClN5
Synonym: MassBank: JP010417
Synonym: 6-CHLORO-N-ETHYL-N'-(1-METHYLETHYL)-1,3,5-TRIAZINE-2,4-DIAMINE
Synonym: ATRAZINE
Structure: 362D43484C4F524F2D4E2D455448594C2D4E272D28312D4D455448594C455448594C292D312C332C352D545249415A494E452D322C342D4449414D494E452E6D6F6C0A20204368656D447261773035313731303133313832440A2031342031342020302020302020302020302020302020302020302020303939392056323030300A20202020312E3233373520202020302E3335373220202020302E30303030204E202020302020302020302020302020302020302020302020302020302020302020302020300A20202020302E383235302020202D302E3335373220202020302E303030302043202020302020302020302020302020302020302020302020302020302020302020302020300A20202020302E303030302020202D302E3335373220202020302E30303030204E202020302020302020302020302020302020302020302020302020302020302020302020300A2020202D302E3431323520202020302E3335373220202020302E303030302043202020302020302020302020302020302020302020302020302020302020302020302020300A2020202D302E3030303020202020312E3037313720202020302E30303030204E202020302020302020302020302020302020302020302020302020302020302020302020300A20202020302E3832353020202020312E3037313720202020302E303030302043202020302020302020302020302020302020302020302020302020302020302020302020300A20202020312E323337352020202D312E3037313720202020302E30303030204E202020302020302020302020302020302020302020302020302020302020302020302020300A2020202D312E3233373520202020302E3335373220202020302E30303030204E202020302020302020302020302020302020302020302020302020302020302020302020300A2020202D312E363530302020202D302E3335373220202020302E303030302043202020302020302020302020302020302020302020302020302020302020302020302020300A2020202D312E323337352020202D312E3037313720202020302E303030302043202020302020302020302020302020302020302020302020302020302020302020302020300A2020202D322E343735302020202D302E3335373220202020302E303030302043202020302020302020302020302020302020302020302020302020302020302020302020300A20202020322E303632352020202D312E3037313720202020302E303030302043202020302020302020302020302020302020302020302020302020302020302020302020300A20202020322E343735302020202D312E3738363220202020302E303030302043202020302020302020302020302020302020302020302020302020302020302020302020300A20202020312E3233373520202020312E3738363220202020302E3030303020436C2020302020302020302020302020302020302020302020302020302020302020302020300A2020312020322020312020302020202020200A2020322020332020322020302020202020200A2020332020342020312020302020202020200A2020342020352020322020302020202020200A2020352020362020312020302020202020200A2020312020362020322020302020202020200A2020322020372020312020302020202020200A2020342020382020312020302020202020200A2020392031302020312020302020202020200A2020392031312020312020302020202020200A2020382020392020312020302020202020200A2031322031332020312020302020202020200A2020372031322020312020302020202020200A2020362031342020312020302020202020200A4D2020454E44
Contributor: UOEH
InstType: EI
InstName: JEOL JMS-DX-303
IoniMethod: _ENERGY 70 eV
IonPolarity: pos
Date: 2010-10-09 19:48:36+02:00
Num Peaks: 74
39 16 41 54 42 70 43 184 53 16 55 36 57 15 58 379 59 13 62 34 
64 12 67 12 68 172 69 120 70 13 71 124 79 17 81 10 83 25 87 26 
90 10 91 31 92 206 93 79 94 57 95 21 96 76 97 17 99 12 100 32 
101 14 104 77 105 53 106 24 107 22 110 37 121 11 122 105 123 31 129 19 
130 44 131 22 132 122 133 13 134 38 136 21 137 18 138 95 145 70 147 25 
152 17 157 19 158 111 159 22 160 36 164 16 172 144 173 295 174 67 175 95 
180 18 184 12 186 24 187 39 198 21 200 999 201 102 202 311 203 31 214 62 
215 627 216 83 217 194 218 29 
