Name: MassBank: JP011964
MW: 278
Formula: C16H30Si2
Synonym: MassBank: JP011964
Synonym: 1,2-DIETHYL-1,2-DIMETHYLPROPYL(PARA-TOLYL)DISILANE
Structure: 312C322D4449455448594C2D312C322D44494D455448594C50524F50594C28504152412D544F4C594C29444953494C414E452E6D6F6C0A20204368656D447261773131303330393233323032440A2031382031382020302020302020302020302020302020302020302020303939392056323030300A2020202D302E3431323520202020312E3037313720202020302E303030302053692020302020302020302020302020302020302020302020302020302020302020302020300A20202020302E3431323520202020312E3037313720202020302E303030302053692020302020302020302020302020302020302020302020302020302020302020302020300A2020202D302E3832353020202020302E3335373220202020302E303030302043202020302020302020302020302020302020302020302020302020302020302020302020300A2020202D302E3832353020202020312E3738363220202020302E303030302043202020302020302020302020302020302020302020302020302020302020302020302020300A20202020302E3832353020202020312E3738363220202020302E303030302043202020302020302020302020302020302020302020302020302020302020302020302020300A20202020302E3832353020202020302E3335373220202020302E303030302043202020302020302020302020302020302020302020302020302020302020302020302020300A20202020302E343132352020202D302E3335373220202020302E303030302043202020302020302020302020302020302020302020302020302020302020302020302020300A20202020312E3635303020202020302E3335373220202020302E303030302043202020302020302020302020302020302020302020302020302020302020302020302020300A20202020322E3036323520202020312E3037313720202020302E303030302043202020302020302020302020302020302020302020302020302020302020302020302020300A20202020322E303632352020202D302E3335373220202020302E303030302043202020302020302020302020302020302020302020302020302020302020302020302020300A2020202D312E3635303020202020302E3335373220202020302E303030302043202020302020302020302020302020302020302020302020302020302020302020302020300A2020202D322E303632352020202D302E3335373220202020302E303030302043202020302020302020302020302020302020302020302020302020302020302020302020300A2020202D312E363530302020202D312E3037313720202020302E303030302043202020302020302020302020302020302020302020302020302020302020302020302020300A2020202D302E383235302020202D312E3037313720202020302E303030302043202020302020302020302020302020302020302020302020302020302020302020302020300A2020202D302E343132352020202D302E3335373220202020302E303030302043202020302020302020302020302020302020302020302020302020302020302020302020300A2020202D322E303632352020202D312E3738363220202020302E303030302043202020302020302020302020302020302020302020302020302020302020302020302020300A2020202D312E3635303020202020312E3738363220202020302E303030302043202020302020302020302020302020302020302020302020302020302020302020302020300A20202020312E3635303020202020312E3738363220202020302E303030302043202020302020302020302020302020302020302020302020302020302020302020302020300A2020312020322020312020302020202020200A2020312020332020312020302020202020200A2020312020342020312020302020202020200A2020322020352020312020302020202020200A2020322020362020312020302020202020200A2020362020372020312020302020202020200A2020362020382020312020302020202020200A2020382020392020312020302020202020200A2020382031302020312020302020202020200A2020332031312020322020302020202020200A2031312031322020312020302020202020200A2031322031332020322020302020202020200A2031332031342020312020302020202020200A2031342031352020322020302020202020200A2031352020332020312020302020202020200A2031332031362020312020302020202020200A2020342031372020312020302020202020200A2020352031382020312020302020202020200A4D2020454E44
Contributor: ISHIKAWA M, HIROSHIMA UNIV. FAC. TEQUNOLOGY
InstType: EI
InstName: SHIMADZU QP-1000
IoniMethod: _ENERGY 70 eV
IonPolarity: pos
Date: 2010-10-09 19:48:36+02:00
Num Peaks: 51
51 21 53 221 54 21 55 158 56 32 57 137 58 158 59 789 60 42 61 11 
65 11 67 53 69 74 70 21 71 74 72 126 73 999 74 74 75 32 79 11 
81 11 83 11 85 32 86 21 87 95 88 11 91 21 93 32 95 11 105 21 
107 32 114 11 115 63 119 95 120 11 121 32 133 11 135 453 136 53 137 11 
148 11 149 42 163 183 164 32 165 11 177 11 179 59 180 11 191 15 207 32 
278 36 
