Name: 2-METHYL-4-NITROANILINE
CAS: 99-52-5
MW: 152
Formula: C7H8N2O2
Synonym: MassBank: JP011906
Synonym: 2-METHYL-4-NITROANILINE
Synonym: 4-NITRO-O-TOLUIDINE
Structure: 322D4D455448594C2D342D4E4954524F414E494C494E452E6D6F6C0A20204368656D447261773031323231303036353532440A2031312031312020302020302020302020302020302020302020302020303939392056323030300A2020202D302E333537322020202D312E3835363320202020302E30303030204E202020302020302020302020302020302020302020302020302020302020302020302020300A2020202D302E333537322020202D312E3033313320202020302E303030302043202020302020302020302020302020302020302020302020302020302020302020302020300A20202020302E333537322020202D302E3631383820202020302E303030302043202020302020302020302020302020302020302020302020302020302020302020302020300A20202020302E3335373220202020302E3230363220202020302E303030302043202020302020302020302020302020302020302020302020302020302020302020302020300A2020202D302E3335373220202020302E3631383820202020302E303030302043202020302020302020302020302020302020302020302020302020302020302020302020300A2020202D312E3037313720202020302E3230363220202020302E303030302043202020302020302020302020302020302020302020302020302020302020302020302020300A2020202D312E303731372020202D302E3631383820202020302E303030302043202020302020302020302020302020302020302020302020302020302020302020302020300A2020202D302E3335373220202020312E3434333720202020302E30303030204E202020302020332020302020302020302020302020302020302020302020302020302020300A2020202D312E3037313720202020312E3835363320202020302E30303030204F202020302020302020302020302020302020302020302020302020302020302020302020300A20202020302E3335373220202020312E3835363320202020302E30303030204F202020302020352020302020302020302020302020302020302020302020302020302020300A20202020312E303731372020202D312E3033313320202020302E303030302043202020302020302020302020302020302020302020302020302020302020302020302020300A2020312020322020312020302020202020200A2020322020332020312020302020202020200A2020332020342020322020302020202020200A2020342020352020312020302020202020200A2020352020362020322020302020202020200A2020362020372020312020302020202020200A2020322020372020322020302020202020200A2020382020392020322020302020202020200A2020382031302020312020302020202020200A2020352020382020312020302020202020200A2020332031312020312020302020202020200A4D202043484720203220202038202020312020313020202D310A4D2020454E44
Contributor: YAMAMOTO M, DEP. CHEMISTRY, FAC. SCIENCE, NARA WOMEN'S UNIV.
InstType: EI
InstName: HITACHI M-2500
IoniMethod: _ENERGY 70 eV
IonPolarity: pos
Date: 2010-10-09 19:48:36+02:00
Num Peaks: 49
17 48 18 157 27 42 28 90 29 11 30 46 37 14 38 38 39 117 40 18 
41 47 42 39 46 21 50 68 51 141 52 122 53 98 54 55 55 12 61 10 
62 27 63 69 64 25 65 64 66 61 67 37 74 24 75 26 76 33 77 572 
78 157 79 467 80 69 89 21 91 20 92 10 93 64 94 165 95 13 104 128 
105 66 106 656 107 75 121 11 122 45 135 11 136 12 152 999 153 88 
