Name: MassBank: JP011945
MW: 276
Formula: C16H28Si2
Synonym: MassBank: JP011945
Synonym: 5,6-BENZO-1,1,4,4-TETRAETHYL-1,4-DISILACYCLOHEX-5-ENE
Structure: 352C362D42454E5A4F2D312C312C342C342D5445545241455448594C2D312C342D444953494C414359434C4F4845582D352D454E452E6D6F6C0A20204368656D447261773034323331303032323732440A2031382031392020302020302020302020302020302020302020302020303939392056323030300A2020202D312E3432383920202020302E3431323520202020302E303030302043202020302020302020302020302020302020302020302020302020302020302020302020300A2020202D312E343238392020202D302E3431323520202020302E303030302043202020302020302020302020302020302020302020302020302020302020302020302020300A2020202D302E373134352020202D302E3832353020202020302E303030302053692020302020302020302020302020302020302020302020302020302020302020302020300A20202020302E303030302020202D302E3431323520202020302E303030302043202020302020302020302020302020302020302020302020302020302020302020302020300A20202020302E3030303020202020302E3431323520202020302E303030302043202020302020302020302020302020302020302020302020302020302020302020302020300A2020202D302E3731343520202020302E3832353020202020302E303030302053692020302020302020302020302020302020302020302020302020302020302020302020300A20202020302E373134352020202D302E3832353020202020302E303030302043202020302020302020302020302020302020302020302020302020302020302020302020300A20202020312E343238392020202D302E3431323520202020302E303030302043202020302020302020302020302020302020302020302020302020302020302020302020300A20202020312E3432383920202020302E3431323520202020302E303030302043202020302020302020302020302020302020302020302020302020302020302020302020300A20202020302E3731343520202020302E3832353020202020302E303030302043202020302020302020302020302020302020302020302020302020302020302020302020300A2020202D312E3132373020202020312E3533393520202020302E303030302043202020302020302020302020302020302020302020302020302020302020302020302020300A2020202D302E333032302020202D312E3533393520202020302E303030302043202020302020302020302020302020302020302020302020302020302020302020302020300A2020202D302E3133313120202020312E3430383420202020302E303030302043202020302020302020302020302020302020302020302020302020302020302020302020300A2020202D312E323937382020202D312E3430383420202020302E303030302043202020302020302020302020302020302020302020302020302020302020302020302020300A2020202D302E3731343520202020322E3235333920202020302E303030302043202020302020302020302020302020302020302020302020302020302020302020302020300A2020202D302E3334343620202020322E3230353320202020302E303030302043202020302020302020302020302020302020302020302020302020302020302020302020300A2020202D312E303834332020202D322E3230353320202020302E303030302043202020302020302020302020302020302020302020302020302020302020302020302020300A2020202D302E373134352020202D322E3235333920202020302E303030302043202020302020302020302020302020302020302020302020302020302020302020302020300A2020312020322020312020302020202020200A2020322020332020312020302020202020200A2020332020342020312020302020202020200A2020342020352020322020302020202020200A2020352020362020312020302020202020200A2020362020312020312020302020202020200A2020342020372020312020302020202020200A2020372020382020322020302020202020200A2020382020392020312020302020202020200A2020392031302020322020302020202020200A2031302020352020312020302020202020200A2020362031312020312020312020202020200A2020332031322020312020312020202020200A2020362031332020312020362020202020200A2020332031342020312020362020202020200A2031312031352020312020302020202020200A2031332031362020312020302020202020200A2031342031372020312020302020202020200A2031322031382020312020302020202020200A4D2020454E44
Contributor: ISHIKAWA M, HIROSHIMA UNIV. FAC. TEQUNOLOGY
InstType: EI
InstName: SHIMADZU QP-1000
IoniMethod: _ENERGY 70 eV
IonPolarity: pos
Date: 2010-10-09 19:48:36+02:00
Num Peaks: 66
53 84 54 11 55 95 56 21 57 221 58 84 59 600 60 32 61 11 67 21 
68 32 69 11 79 21 80 32 81 432 82 53 87 63 95 263 96 116 97 21 
104 11 105 95 107 42 108 32 109 158 110 42 119 11 130 21 131 158 132 42 
133 84 134 32 135 84 136 21 145 21 147 32 149 42 158 32 159 158 160 53 
161 95 162 53 163 158 164 32 177 21 189 42 190 32 191 284 192 63 193 11 
217 11 218 21 219 632 220 147 221 147 222 42 245 21 246 53 248 999 249 305 
250 11 251 32 274 11 275 42 276 95 277 32 
