Name: MassBank: JP011002
MW: 289
Formula: C14H11NO6
Synonym: MassBank: JP011002
Synonym: REL-(1R,5R,11R)-3-(4-NITROPHENYL)-HYDROXYMETHYL-6,7-DIOXABICYCLO(3.2.2)NONA-3,8-DIEN-2-ONE
Structure: 303630395F52454C2D2831522C35522C313152292D332D28342D4E4954524F5048454E594C292D485944524F58594D455448594C2D362C372D44494F584142494359434C4F28332E322E32294E4F4E412D332C382D4449454E2D322D4F4E452E6D6F6C0A20204368656D447261773038323031303037303332440A2032322032342020302020302020302020302020302020302020302020303939392056323030300A20202020322E303532322020202D302E3632353420202020302E303030302043202020302020302020302020302020302020302020302020302020302020302020302020300A20202020312E313531372020202D302E3833343220202020302E303030302043202020302020302020302020302020302020302020302020302020302020302020302020300A20202020302E343935342020202D302E3137373920202020302E303030302043202020302020302020302020302020302020302020302020302020302020302020302020300A20202020302E3734303720202020302E3732323720202020302E303030302043202020302020302020302020302020302020302020302020302020302020302020302020300A20202020312E3633323320202020302E3937353420202020302E303030302043202020302020302020302020302020302020302020302020302020302020302020302020300A20202020312E3034383920202020302E3339323120202020302E30303030204F202020302020302020302020302020302020302020302020302020302020302020302020300A20202020312E323534382020202D302E3430343320202020302E30303030204F202020302020302020302020302020302020302020302020302020302020302020302020300A20202020322E363335362020202D302E3034323020202020302E303030302043202020302020302020302020302020302020302020302020302020302020302020302020300A20202020322E3432393720202020302E3735343320202020302E303030302043202020302020302020302020302020302020302020302020302020302020302020302020300A20202020302E393137342020202D312E3633303820202020302E30303030204F202020302020302020302020302020302020302020302020302020302020302020302020300A2020202D302E323936362020202D302E3337393520202020302E303030302043202020302020302020302020302020302020302020302020302020302020302020302020300A2020202D302E353137372020202D312E3137363920202020302E303030302043202020302020302020302020302020302020302020302020302020302020302020302020300A2020202D312E333134302020202D312E3338323820202020302E303030302043202020302020302020302020302020302020302020302020302020302020302020302020300A2020202D312E383937342020202D302E3739393420202020302E303030302043202020302020302020302020302020302020302020302020302020302020302020302020300A2020202D312E363736322020202D302E3030323020202020302E303030302043202020302020302020302020302020302020302020302020302020302020302020302020300A2020202D302E3837393920202020302E3230333920202020302E303030302043202020302020302020302020302020302020302020302020302020302020302020302020300A2020202D322E363931372020202D312E3030333320202020302E30303030204E202020302020332020302020302020302020302020302020302020302020302020302020300A2020202D322E393231312020202D312E3739383420202020302E30303030204F202020302020302020302020302020302020302020302020302020302020302020302020300A2020202D332E323735302020202D302E3431393920202020302E30303030204F202020302020352020302020302020302020302020302020302020302020302020302020300A20202020322E343633332020202D312E3333373520202020302E303030302043202020302020302020302020302020302020302020302020302020302020302020302020300A20202020332E323735302020202D312E3333373520202020302E30303030204F202020302020302020302020302020302020302020302020302020302020302020302020300A20202020312E3633323320202020312E3739383420202020302E303030302048202020302020302020302020302020302020302020302020302020302020302020302020300A2020312020322020312020302020202020200A2020322020332020312020302020202020200A2020332020342020322020302020202020200A2020342020352020312020302020202020200A2020352020362020312020302020202020200A2020362020372020312020302020202020200A2020382020392020322020302020202020200A2020312020372020312020302020202020200A2020312020382020312020302020202020200A2020352020392020312020302020202020200A2020322031302020322020302020202020200A2031312031322020312020302020202020200A2031322031332020322020302020202020200A2031332031342020312020302020202020200A2031342031352020322020302020202020200A2031352031362020312020302020202020200A2031312031362020322020302020202020200A2031372031382020322020302020202020200A2031372031392020312020302020202020200A2031342031372020312020302020202020200A2020332031312020312020302020202020200A2032302032312020312020302020202020200A2020312032302020312020362020202020200A2020352032322020312020362020202020200A4D202043484720203220203137202020312020313920202D310A4D2020454E44
Contributor: TAKESHITA H, INST. OF ADVANCED MATERIAL STUDY KYUSHU UNIV.
InstType: EI
InstName: JEOL JMS-01-SG-2
IoniMethod: _ENERGY 75 eV
IonPolarity: pos
Date: 2010-10-09 19:48:36+02:00
Num Peaks: 43
30 542 39 818 50 509 51 908 52 371 53 677 55 679 63 418 65 288 66 392 
68 330 75 242 76 475 77 999 78 599 81 272 94 484 105 343 106 295 115 314 
152 188 153 82 154 38 157 36 159 44 160 59 165 59 168 103 169 84 170 40 
180 36 196 98 197 74 214 33 243 40 244 15 245 17 254 15 260 15 261 11 
271 24 273 20 289 33 
