Name: MassBank: JP011037
MW: 223
Formula: C11H13NO4
Synonym: MassBank: JP011037
Synonym: 4-N-HYDROXYIMINOMETHYL-2,5-DIMETHOXY-6-METHYLTROPONE
Structure: 342D4E2D485944524F5859494D494E4F4D455448594C2D322C352D44494D4554484F58592D362D4D455448594C54524F504F4E452E6D6F6C0A20204368656D447261773034323231303137303732440A2031362031362020302020302020302020302020302020302020302020303939392056323030300A2020202D302E383039392020202D312E3131393020202020302E303030302043202020302020302020302020302020302020302020302020302020302020302020302020300A2020202D302E383039392020202D302E3239343020202020302E303030302043202020302020302020302020302020302020302020302020302020302020302020302020300A2020202D302E3136343920202020302E3232303420202020302E303030302043202020302020302020302020302020302020302020302020302020302020302020302020300A20202020302E3633393420202020302E3033363820202020302E303030302043202020302020302020302020302020302020302020302020302020302020302020302020300A20202020302E393937342020202D302E3730363520202020302E303030302043202020302020302020302020302020302020302020302020302020302020302020302020300A20202020302E363339342020202D312E3434393820202020302E303030302043202020302020302020302020302020302020302020302020302020302020302020302020300A2020202D302E313634392020202D312E3633333420202020302E303030302043202020302020302020302020302020302020302020302020302020302020302020302020300A2020202D312E353533322020202D312E3437363920202020302E30303030204F202020302020302020302020302020302020302020302020302020302020302020302020300A20202020312E313533382020202D322E3039343820202020302E303030302043202020302020302020302020302020302020302020302020302020302020302020302020300A20202020312E383232342020202D302E3730363520202020302E30303030204F202020302020302020302020302020302020302020302020302020302020302020302020300A20202020322E3233343920202020302E3030383020202020302E303030302043202020302020302020302020302020302020302020302020302020302020302020302020300A2020202D312E3535333220202020302E3036343020202020302E30303030204F202020302020302020302020302020302020302020302020302020302020302020302020300A2020202D322E323334392020202D302E3430303820202020302E303030302043202020302020302020302020302020302020302020302020302020302020302020302020300A20202020312E3135333820202020302E3638313820202020302E303030302043202020302020302020302020302020302020302020302020302020302020302020302020300A20202020302E3835323420202020312E3434393820202020302E30303030204E202020302020302020302020302020302020302020302020302020302020302020302020300A20202020312E3336363820202020322E3039343820202020302E30303030204F202020302020302020302020302020302020302020302020302020302020302020302020300A2020312020322020312020302020202020200A2020322020332020322020302020202020200A2020332020342020312020302020202020200A2020342020352020322020302020202020200A2020352020362020312020302020202020200A2020362020372020322020302020202020200A2020312020372020312020302020202020200A2020312020382020322020302020202020200A2020362020392020312020302020202020200A2031302031312020312020302020202020200A2020352031302020312020302020202020200A2031322031332020312020302020202020200A2020322031322020312020302020202020200A2031352031362020312020302020202020200A2031342031352020322020302020202020200A2020342031342020312020302020202020200A4D2020454E44
Contributor: TAKESHITA H, INST. OF ADVANCED MATERIAL STUDY KYUSHU UNIV.
InstType: EI
InstName: JEOL JMS-01-SG-2
IoniMethod: _ENERGY 75 eV
IonPolarity: pos
Date: 2010-10-09 19:48:36+02:00
Num Peaks: 59
38 199 39 999 40 245 41 169 43 239 50 256 51 460 52 299 53 754 63 326 
64 199 65 568 66 195 67 196 68 170 76 169 77 565 78 329 79 253 91 384 
92 316 93 357 105 341 106 227 107 171 120 486 121 289 133 539 134 287 135 394 
136 171 147 176 148 471 149 191 150 132 151 73 152 88 153 92 160 102 161 119 
162 352 163 967 164 214 165 91 176 224 177 86 178 298 179 61 180 504 181 67 
190 99 191 119 192 252 194 66 206 938 207 133 208 61 223 457 224 109 
