Name: 5-BENZOYL-3-PHENYLOXAZOLIDINE
MW: 253
Formula: C16H15NO2
Synonym: MassBank: JP010180
Synonym: 5-BENZOYL-3-PHENYLOXAZOLIDINE
Structure: 352D42454E5A4F594C2D332D5048454E594C4F58415A4F4C4944494E452E6D6F6C0A20204368656D447261773034323331303034323232440A2031392032312020302020302020302020302020302020302020302020303939392056323030300A2020202D302E303433342020202D312E3431313620202020302E30303030204F202020302020302020302020302020302020302020302020302020302020302020302020300A2020202D302E383238302020202D312E3135363720202020302E303030302043202020302020302020302020302020302020302020302020302020302020302020302020300A2020202D302E383238302020202D302E3333313720202020302E30303030204E202020302020302020302020302020302020302020302020302020302020302020302020300A2020202D302E303433342020202D302E3037363720202020302E303030302043202020302020302020302020302020302020302020302020302020302020302020302020300A20202020302E343431352020202D302E3734343220202020302E303030302043202020302020302020302020302020302020302020302020302020302020302020302020300A2020202D312E3439353420202020302E3135333220202020302E303030302043202020302020302020302020302020302020302020302020302020302020302020302020300A2020202D322E323439312020202D302E3138323320202020302E303030302043202020302020302020302020302020302020302020302020302020302020302020302020300A2020202D322E3931363520202020302E3330323620202020302E303030302043202020302020302020302020302020302020302020302020302020302020302020302020300A2020202D322E3833303320202020312E3132333120202020302E303030302043202020302020302020302020302020302020302020302020302020302020302020302020300A2020202D322E3037363620202020312E3435383620202020302E303030302043202020302020302020302020302020302020302020302020302020302020302020302020300A2020202D312E3430393220202020302E3937333720202020302E303030302043202020302020302020302020302020302020302020302020302020302020302020302020300A20202020312E323636352020202D302E3734343220202020302E303030302043202020302020302020302020302020302020302020302020302020302020302020302020300A20202020312E363739302020202D302E3032393720202020302E303030302043202020302020302020302020302020302020302020302020302020302020302020302020300A20202020312E3236363520202020302E3638343820202020302E303030302043202020302020302020302020302020302020302020302020302020302020302020302020300A20202020312E3637393020202020312E3339393220202020302E303030302043202020302020302020302020302020302020302020302020302020302020302020302020300A20202020322E3530343020202020312E3339393220202020302E303030302043202020302020302020302020302020302020302020302020302020302020302020302020300A20202020322E3931363520202020302E3638343820202020302E303030302043202020302020302020302020302020302020302020302020302020302020302020302020300A20202020322E353034302020202D302E3032393720202020302E303030302043202020302020302020302020302020302020302020302020302020302020302020302020300A20202020312E363739302020202D312E3435383620202020302E30303030204F202020302020302020302020302020302020302020302020302020302020302020302020300A2020312020322020312020302020202020200A2020322020332020312020302020202020200A2020332020342020312020302020202020200A2020342020352020312020302020202020200A2020312020352020312020302020202020200A2020362020372020312020302020202020200A2020372020382020322020302020202020200A2020382020392020312020302020202020200A2020392031302020322020302020202020200A2031302031312020312020302020202020200A2020362031312020322020302020202020200A2020332020362020312020302020202020200A2031322031332020312020302020202020200A2031332031342020312020302020202020200A2031342031352020322020302020202020200A2031352031362020312020302020202020200A2031362031372020322020302020202020200A2031372031382020312020302020202020200A2031332031382020322020302020202020200A2031322031392020322020302020202020200A2020352031322020312020302020202020200A4D2020454E44
Contributor: KANEMASA S, INST. OF ADVANCED MATERIAL STUDY KYUSHU UNIV.
InstType: EI
InstName: JEOL JMS-01-SG-2
IoniMethod: _ENERGY 75 eV
IonPolarity: pos
Date: 2010-10-09 19:48:36+02:00
Num Peaks: 32
39 101 41 73 43 757 44 77 50 103 51 252 57 99 58 288 65 104 66 127 
77 772 78 113 91 285 92 68 93 261 104 151 105 999 106 400 107 64 119 104 
120 342 121 556 122 490 135 64 149 305 150 93 163 123 222 233 224 107 253 394 
254 79 223 88 
