Name: PREDNISOLONE
MW: 360
Formula: C21H28O5
Synonym: MassBank: JP010057
Synonym: PREDNISOLONE
Synonym: 11,17,21-TRIHYDROXYPREGNA-1,4-DIENE-3,20-DIONE
Structure: 505245444E49534F4C4F4E452E6D6F6C0A20204368656D447261773132313030393136353832440A2033332033362020302020302020302020302020302020302020302020303939392056323030300A2020202D312E3831383520202020302E3131323320202020302E303030302043202020302020302020302020302020302020302020302020302020302020302020302020300A2020202D322E353333302020202D302E3330303220202020302E303030302043202020302020302020302020302020302020302020302020302020302020302020302020300A2020202D322E353333302020202D312E3132353220202020302E303030302043202020302020302020302020302020302020302020302020302020302020302020302020300A2020202D332E323437352020202D312E3533373720202020302E30303030204F202020302020302020302020302020302020302020302020302020302020302020302020300A2020202D312E383138352020202D312E3533373720202020302E303030302043202020302020302020302020302020302020302020302020302020302020302020302020300A2020202D312E313034312020202D312E3132353220202020302E303030302043202020302020302020302020302020302020302020302020302020302020302020302020300A2020202D302E333839362020202D312E3533373720202020302E303030302043202020302020302020302020302020302020302020302020302020302020302020302020300A20202020302E333234392020202D312E3132353220202020302E303030302043202020302020302020302020302020302020302020302020302020302020302020302020300A20202020302E333234392020202D302E3330303220202020302E303030302043202020302020302020302020302020302020302020302020302020302020302020302020300A20202020312E3033393320202020302E3131323320202020302E303030302043202020302020302020302020302020302020302020302020302020302020302020302020300A20202020312E383234302020202D302E3134323720202020302E303030302043202020302020302020302020302020302020302020302020302020302020302020302020300A20202020322E3330383920202020302E3532343820202020302E303030302043202020302020302020302020302020302020302020302020302020302020302020302020300A20202020312E3832343020202020312E3139323220202020302E303030302043202020302020302020302020302020302020302020302020302020302020302020302020300A20202020322E3537313720202020312E3534303920202020302E303030302043202020302020302020302020302020302020302020302020302020302020302020302020300A20202020322E3634333620202020322E3336323720202020302E30303030204F202020302020302020302020302020302020302020302020302020302020302020302020300A20202020332E3234373520202020312E3036373720202020302E303030302043202020302020302020302020302020302020302020302020302020302020302020302020300A20202020332E3137353620202020302E3234353820202020302E30303030204F202020302020302020302020302020302020302020302020302020302020302020302020300A20202020312E3438383420202020312E3934353920202020302E30303030204F202020302020302020302020302020302020302020302020302020302020302020302020300A20202020312E3033393320202020302E3933373320202020302E303030302043202020302020302020302020302020302020302020302020302020302020302020302020300A20202020312E3033393320202020312E3736323320202020302E303030302043202020302020302020302020302020302020302020302020302020302020302020302020300A20202020302E3332343920202020312E3334393820202020302E303030302043202020302020302020302020302020302020302020302020302020302020302020302020300A2020202D302E3338393620202020302E3933373320202020302E303030302043202020302020302020302020302020302020302020302020302020302020302020302020300A2020202D312E3130343120202020312E3334393820202020302E30303030204F202020302020302020302020302020302020302020302020302020302020302020302020300A2020202D302E3338393620202020302E3131323320202020302E303030302043202020302020302020302020302020302020302020302020302020302020302020302020300A2020202D312E313034312020202D302E3330303220202020302E303030302043202020302020302020302020302020302020302020302020302020302020302020302020300A2020202D302E363931362020202D312E3031343720202020302E303030302043202020302020302020302020302020302020302020302020302020302020302020302020300A2020202D312E3130343120202020302E3532343820202020302E303030302048202020302020302020302020302020302020302020302020302020302020302020302020300A20202020302E373337342020202D312E3031343720202020302E303030302048202020302020302020302020302020302020302020302020302020302020302020302020300A20202020312E303339332020202D302E3731323720202020302E303030302048202020302020302020302020302020302020302020302020302020302020302020302020300A2020202D312E3831383520202020302E3933373320202020302E303030302048202020302020302020302020302020302020302020302020302020302020302020302020300A2020202D332E3234373520202020302E3131323320202020302E303030302048202020302020302020302020302020302020302020302020302020302020302020302020300A2020202D312E383138352020202D322E3336323720202020302E303030302048202020302020302020302020302020302020302020302020302020302020302020302020300A2020202D302E3630333120202020312E3733343220202020302E303030302048202020302020302020302020302020302020302020302020302020302020302020302020300A2020312020322020322020302020202020200A2020322020332020312020302020202020200A2020332020342020322020302020202020200A2020332020352020312020302020202020200A2020352020362020322020302020202020200A2020362020372020312020302020202020200A2020372020382020312020302020202020200A2020382020392020312020302020202020200A2020392031302020312020302020202020200A2031302031312020312020302020202020200A2031312031322020312020302020202020200A2031322031332020312020302020202020200A2031332031342020312020312020202020200A2031342031352020322020302020202020200A2031342031362020312020302020202020200A2031362031372020312020302020202020200A2031332031382020312020362020202020200A2031332031392020312020302020202020200A2031302031392020312020302020202020200A2031392032302020312020312020202020200A2031392032312020312020302020202020200A2032312032322020312020302020202020200A2032322032332020312020312020202020200A2032322032342020312020302020202020200A2020392032342020312020302020202020200A2032342032352020312020302020202020200A2020312032352020312020302020202020200A2020362032352020312020302020202020200A2032352032362020312020312020202020200A2032342032372020312020362020202020200A2020392032382020312020312020202020200A2031302032392020312020362020202020200A2020312033302020312020302020202020200A2020322033312020312020302020202020200A2020352033322020312020302020202020200A2032322033332020312020362020202020200A4D2020454E44
Contributor: KURARAY CO., LTD.
InstType: EI
InstName: JEOL JMS-D-300
IoniMethod: _ENERGY 70 eV
IonPolarity: pos
Date: 2010-10-09 19:48:36+02:00
Num Peaks: 95
28 47 29 45 30 15 31 4 39 15 41 73 42 13 43 9 53 26 55 72 
57 40 60 3 65 20 67 39 69 32 77 7 79 49 81 40 83 13 91 13 
92 18 93 52 94 12 95 6 97 30 103 14 105 64 106 1 107 106 108 24 
109 48 111 1 115 24 117 34 119 82 120 4 121 545 122 999 123 172 124 2 
128 17 129 20 131 31 132 2 133 66 134 89 135 141 136 5 137 23 143 20 
145 48 146 3 147 185 148 28 149 32 157 2 158 13 159 58 160 33 161 7 
163 16 165 31 171 49 172 2 173 43 175 17 177 12 179 3 185 21 186 14 
187 15 195 4 197 16 209 41 210 15 211 2 213 16 221 16 223 31 224 3 
225 104 226 27 227 16 238 2 239 47 240 58 241 16 265 5 266 15 267 21 
283 45 300 3 301 32 330 25 360 28 
