Name: ISOPROPYLDIMETHYLSILANE (D)
MW: 102
Formula: C5H14Si
Synonym: MassBank: JP011352
Synonym: ISOPROPYLDIMETHYLSILANE (D)
Structure: 310A31390A313035325F49534F50524F50594C44494D455448594C53494C414E45202844292E6D6F6C0A20204368656D447261773130323031303230303232440A2020372020362020302020302020302020302020302020302020302020303939392056323030300A20202020302E3230363220202020302E3330383220202020302E303030302053692020302020302020302020302020302020302020302020302020302020302020302020300A20202020312E3033313220202020302E3330383220202020302E303030302043202020302020302020302020302020302020302020302020302020302020302020302020300A2020202D302E3536393020202020302E3539303420202020302E303030302043202020302020302020302020302020302020302020302020302020302020302020302020300A2020202D302E323036332020202D302E3430363220202020302E303030302043202020302020302020302020302020302020302020302020302020302020302020302020300A20202020302E323036332020202D312E3132303720202020302E303030302043202020302020302020302020302020302020302020302020302020302020302020302020300A2020202D312E303331322020202D302E3430363220202020302E303030302043202020302020302020302020302020302020302020302020302020302020302020302020300A20202020302E3334393520202020312E3132303720202020302E303030302048202020312020302020302020302020302020302020302020302020302020302020302020300A2020312020322020312020302020202020200A2020312020332020312020302020202020200A2020342020352020312020302020202020200A2020342020362020312020302020202020200A2020312020342020312020302020202020200A2020312020372020312020302020202020200A4D202049534F20203120202037202020320A4D2020454E44
Contributor: YAMAMOTO M, DEP. CHEMISTRY, FAC. SCIENCE, NARA WOMEN'S UNIV.
InstType: EI
InstName: HITACHI RMU-6M
IoniMethod: _ENERGY 70 eV
IonPolarity: pos
Date: 2010-10-09 19:48:36+02:00
Num Peaks: 31
15 10 27 35 28 23 29 34 31 48 32 28 39 28 41 34 42 24 43 125 
44 55 45 42 46 55 53 17 55 18 56 11 57 17 58 293 59 218 60 999 
61 83 62 38 67 10 72 11 73 40 74 10 86 11 88 29 101 19 103 88 
104 11 
