Name: MassBank: JP010869
MW: 200
Formula: C12H24O2
Synonym: MassBank: JP010869
Synonym: PROPYL 3,5,5-TRIMETHYLHEXANOATE
Structure: 50524F50594C20332C352C352D5452494D455448594C484558414E4F4154452E6D6F6C0A20204368656D447261773038313231303036313032440A2031342031332020302020302020302020302020302020302020302020303939392056323030300A2020202D302E333537322020202D302E3035353320202020302E303030302043202020302020302020302020302020302020302020302020302020302020302020302020300A20202020302E333537322020202D302E3436373820202020302E303030302043202020302020302020302020302020302020302020302020302020302020302020302020300A20202020312E303731372020202D302E3035353320202020302E303030302043202020302020302020302020302020302020302020302020302020302020302020302020300A20202020312E373836322020202D302E3436373820202020302E303030302043202020302020302020302020302020302020302020302020302020302020302020302020300A20202020322E353030362020202D302E3035353320202020302E303030302043202020302020302020302020302020302020302020302020302020302020302020302020300A20202020322E393133312020202D302E3736393720202020302E303030302043202020302020302020302020302020302020302020302020302020302020302020302020300A2020202D302E3335373220202020302E3736393720202020302E30303030204F202020302020302020302020302020302020302020302020302020302020302020302020300A2020202D312E303731372020202D302E3436373820202020302E30303030204F202020302020302020302020302020302020302020302020302020302020302020302020300A20202020322E3038383120202020302E3635393220202020302E303030302043202020302020302020302020302020302020302020302020302020302020302020302020300A20202020332E3231353120202020302E3335373220202020302E303030302043202020302020302020302020302020302020302020302020302020302020302020302020300A20202020312E3037313720202020302E3736393720202020302E303030302043202020302020302020302020302020302020302020302020302020302020302020302020300A2020202D312E373836322020202D302E3035353320202020302E303030302043202020302020302020302020302020302020302020302020302020302020302020302020300A2020202D322E353030362020202D302E3436373820202020302E303030302043202020302020302020302020302020302020302020302020302020302020302020302020300A2020202D332E323135312020202D302E3035353320202020302E303030302043202020302020302020302020302020302020302020302020302020302020302020302020300A2020312020322020312020302020202020200A2020322020332020312020302020202020200A2020332020342020312020302020202020200A2020342020352020312020302020202020200A2020352020362020312020302020202020200A2020312020372020322020302020202020200A2020312020382020312020302020202020200A2020352020392020312020302020202020200A2020352031302020312020302020202020200A2020332031312020312020302020202020200A2031322031332020312020302020202020200A2031332031342020312020302020202020200A2020382031322020312020302020202020200A4D2020454E44
Contributor: SODA AROMATIC CO., LTD.
InstType: EI
InstName: HITACHI M-80B
IoniMethod: _ENERGY 70 eV
IonPolarity: pos
Date: 2010-10-09 19:48:36+02:00
Num Peaks: 40
15 16 27 183 29 215 31 31 39 124 41 600 42 146 43 417 45 22 53 27 
55 210 56 204 57 999 58 37 59 73 60 394 61 725 62 15 67 20 69 78 
71 70 73 13 81 10 83 500 84 34 87 50 97 54 98 15 101 113 102 524 
103 168 125 76 129 12 141 282 142 27 143 141 144 81 145 30 159 37 185 45 
