Name: MassBank: JP010061
MW: 362
Formula: C23H42OSi
Synonym: MassBank: JP010061
Synonym: 3,7,11,15-TETRAMETHYL-2,6,10,14-HEXADECATETRAENE-1-OL TRIMETHYLSILYL ETHER
Structure: 332C372C31312C31352D54455452414D455448594C2D322C362C31302C31342D48455841444543415445545241454E452D312D4F4C205452494D455448594C53494C594C2045544845522E6D6F6C0A20204368656D447261773032323231303032343032440A2032352032342020302020302020302020302020302020302020302020303939392056323030300A2020202D332E3537323420202020312E3239323820202020302E303030302043202020302020302020302020302020302020302020302020302020302020302020302020300A2020202D332E3537323420202020302E3436373820202020302E303030302043202020302020302020302020302020302020302020302020302020302020302020302020300A2020202D322E3835373920202020302E3035353320202020302E303030302043202020302020302020302020302020302020302020302020302020302020302020302020300A2020202D322E383537392020202D302E3736393720202020302E303030302043202020302020302020302020302020302020302020302020302020302020302020302020300A2020202D322E313433342020202D312E3138323220202020302E303030302043202020302020302020302020302020302020302020302020302020302020302020302020300A2020202D312E343238392020202D302E3736393720202020302E303030302043202020302020302020302020302020302020302020302020302020302020302020302020300A2020202D302E373134352020202D312E3138323220202020302E303030302043202020302020302020302020302020302020302020302020302020302020302020302020300A20202020302E303030302020202D302E3736393720202020302E303030302043202020302020302020302020302020302020302020302020302020302020302020302020300A20202020302E373134352020202D312E3138323220202020302E303030302043202020302020302020302020302020302020302020302020302020302020302020302020300A20202020312E343238392020202D302E3736393720202020302E303030302043202020302020302020302020302020302020302020302020302020302020302020302020300A20202020322E313433342020202D312E3138323220202020302E303030302043202020302020302020302020302020302020302020302020302020302020302020302020300A20202020322E383537392020202D302E3736393720202020302E303030302043202020302020302020302020302020302020302020302020302020302020302020302020300A20202020332E353732342020202D312E3138323220202020302E303030302043202020302020302020302020302020302020302020302020302020302020302020302020300A20202020342E323836382020202D302E3736393720202020302E303030302043202020302020302020302020302020302020302020302020302020302020302020302020300A20202020352E303031332020202D312E3138323220202020302E303030302043202020302020302020302020302020302020302020302020302020302020302020302020300A20202020352E373135382020202D302E3736393720202020302E303030302043202020302020302020302020302020302020302020302020302020302020302020302020300A2020202D342E3238363820202020312E3730353320202020302E30303030204F202020302020302020302020302020302020302020302020302020302020302020302020300A20202020352E303031332020202D322E3030373220202020302E303030302043202020302020302020302020302020302020302020302020302020302020302020302020300A20202020322E313433342020202D322E3030373220202020302E303030302043202020302020302020302020302020302020302020302020302020302020302020302020300A2020202D302E373134352020202D322E3030373220202020302E303030302043202020302020302020302020302020302020302020302020302020302020302020302020300A2020202D322E3134333420202020302E3436373820202020302E303030302043202020302020302020302020302020302020302020302020302020302020302020302020300A2020202D352E3030313320202020312E3239323820202020302E303030302053692020302020302020302020302020302020302020302020302020302020302020302020300A2020202D342E3538383820202020302E3537383320202020302E303030302043202020302020302020302020302020302020302020302020302020302020302020302020300A2020202D352E3731353820202020302E3838303320202020302E303030302043202020302020302020302020302020302020302020302020302020302020302020302020300A2020202D352E3431333820202020322E3030373220202020302E303030302043202020302020302020302020302020302020302020302020302020302020302020302020300A2020312020322020312020302020202020200A2020322020332020322020302020202020200A2020332020342020312020302020202020200A2020342020352020312020302020202020200A2020352020362020312020302020202020200A2020362020372020322020302020202020200A2020372020382020312020302020202020200A2020382020392020312020302020202020200A2020392031302020312020302020202020200A2031302031312020322020302020202020200A2031312031322020312020302020202020200A2031322031332020312020302020202020200A2031332031342020312020302020202020200A2031342031352020322020302020202020200A2031352031362020312020302020202020200A2020312031372020312020302020202020200A2031352031382020312020302020202020200A2031312031392020312020302020202020200A2020372032302020312020302020202020200A2020332032312020312020302020202020200A2032322032332020312020302020202020200A2032322032342020312020302020202020200A2032322032352020312020302020202020200A2031372032322020312020302020202020200A4D2020454E44
Contributor: KURARAY CO., LTD.
InstType: EI
InstName: JEOL JMS-D-300
IoniMethod: _ENERGY 70 eV
IonPolarity: pos
Date: 2010-10-09 19:48:36+02:00
Num Peaks: 69
29 43 32 19 39 25 41 27 43 50 45 35 53 50 55 14 57 34 67 101 
68 114 69 999 70 66 73 465 74 42 75 30 76 21 77 53 79 74 80 11 
81 455 82 65 83 32 91 4 92 27 93 284 94 49 95 17 96 19 97 16 
103 66 105 7 107 175 108 32 109 150 119 8 120 32 121 131 122 66 123 9 
132 14 133 62 134 42 135 17 136 90 137 86 143 108 144 1 145 15 147 48 
148 29 149 3 155 15 156 115 157 41 159 1 161 51 169 70 177 14 181 2 
187 13 189 14 191 14 203 6 209 19 229 36 272 28 293 2 362 15 
