Name: N-BROMOSUCCINIMIDE
MW: 176
Formula: C4H4BrNO2
Synonym: MassBank: JP010448
Synonym: N-BROMOSUCCINIMIDE
Structure: 310A32310A4E2D42524F4D4F53554343494E494D4944452E6D6F6C0A20204368656D447261773038313231303031353332440A2020382020382020302020302020302020302020302020302020302020303939392056323030300A20202020302E3236323720202020302E3636373420202020302E303030302043202020302020302020302020302020302020302020302020302020302020302020302020300A20202020302E3030373720202020312E3435323120202020302E30303030204F202020302020302020302020302020302020302020302020302020302020302020302020300A20202020312E3034373320202020302E3431323520202020302E303030302043202020302020302020302020302020302020302020302020302020302020302020302020300A20202020312E303437332020202D302E3431323520202020302E303030302043202020302020302020302020302020302020302020302020302020302020302020302020300A20202020302E323632372020202D302E3636373420202020302E303030302043202020302020302020302020302020302020302020302020302020302020302020302020300A20202020302E303037372020202D312E3435323120202020302E30303030204F202020302020302020302020302020302020302020302020302020302020302020302020300A2020202D302E3232323320202020302E3030303020202020302E30303030204E202020302020302020302020302020302020302020302020302020302020302020302020300A2020202D312E3034373320202020302E3030303020202020302E303030302042722020302020302020302020302020302020302020302020302020302020302020302020300A2020312020322020322020302020202020200A2020312020332020312020302020202020200A2020332020342020312020302020202020200A2020342020352020312020302020202020200A2020352020362020322020302020202020200A2020312020372020312020302020202020200A2020352020372020312020302020202020200A2020372020382020312020302020202020200A4D2020454E44
Contributor: TAJIMA S, GUNMA COLLEGE OF TECHNOLOGY
InstType: EI
InstName: HITACHI M-80A
IoniMethod: _ENERGY 70 eV
IonPolarity: pos
Date: 2010-10-09 19:48:36+02:00
Num Peaks: 50
25 14 26 138 27 258 28 767 29 41 30 11 38 10 39 13 40 16 41 19 
42 162 43 40 44 21 45 11 52 12 53 21 54 39 55 921 56 999 57 40 
70 364 71 15 72 16 73 11 74 20 79 48 80 78 81 46 82 13 98 203 
99 143 100 399 101 59 107 11 109 10 112 26 119 168 126 28 149 16 150 11 
151 17 152 10 154 51 160 27 162 14 177 670 178 551 179 707 180 558 181 28 
