Name: MassBank: JP010028
MW: 142
Formula: C9H18O
Synonym: MassBank: JP010028
Synonym: 2,6-DIMETHYL-5-HEPTEN-2-OL
Structure: 322C362D44494D455448594C2D352D48455054454E2D322D4F4C2E6D6F6C0A20204368656D447261773132323130393034333532440A2031302020392020302020302020302020302020302020302020302020303939392056323030300A2020202D312E303136342020202D302E3635393220202020302E303030302043202020302020302020302020302020302020302020302020302020302020302020302020300A2020202D312E3432383920202020302E3035353320202020302E303030302043202020302020302020302020302020302020302020302020302020302020302020302020300A2020202D302E3731343520202020302E3436373820202020302E303030302043202020302020302020302020302020302020302020302020302020302020302020302020300A20202020302E3030303020202020302E3035353320202020302E303030302043202020302020302020302020302020302020302020302020302020302020302020302020300A20202020302E3731343520202020302E3436373820202020302E303030302043202020302020302020302020302020302020302020302020302020302020302020302020300A20202020312E3432383920202020302E3035353320202020302E303030302043202020302020302020302020302020302020302020302020302020302020302020302020300A20202020322E3134333420202020302E3436373820202020302E303030302043202020302020302020302020302020302020302020302020302020302020302020302020300A2020202D322E313433342020202D302E3335373220202020302E30303030204F202020302020302020302020302020302020302020302020302020302020302020302020300A20202020312E343238392020202D302E3736393720202020302E303030302043202020302020302020302020302020302020302020302020302020302020302020302020300A2020202D312E3834313420202020302E3736393720202020302E303030302043202020302020302020302020302020302020302020302020302020302020302020302020300A2020312020322020312020302020202020200A2020322020332020312020302020202020200A2020332020342020312020302020202020200A2020342020352020312020302020202020200A2020352020362020322020302020202020200A2020362020372020312020302020202020200A2020322020382020312020302020202020200A2020362020392020312020302020202020200A2020322031302020312020302020202020200A4D2020454E44
Contributor: KURARAY CO., LTD.
InstType: EI
InstName: JEOL JMS-D-300
IoniMethod: _ENERGY 70 eV
IonPolarity: pos
Date: 2010-10-09 19:48:36+02:00
Num Peaks: 37
27 131 28 25 29 102 31 14 39 154 40 33 41 598 42 4 43 426 44 11 
45 13 51 1 53 69 54 11 55 169 56 14 57 34 58 28 59 999 60 3 
67 211 68 165 69 567 70 4 71 60 72 10 79 10 81 7 82 26 83 19 
84 17 95 4 109 774 110 65 124 338 125 3 127 17 
