Name: 2-TRIMETHYLSILYLTHIOPHENE
MW: 156
Formula: C7H12SSi
Synonym: MassBank: JP011684
Synonym: 2-TRIMETHYLSILYLTHIOPHENE
Structure: 310A32330A322D5452494D455448594C53494C594C5448494F5048454E452E6D6F6C0A20204368656D447261773032323131303136353732440A2020392020392020302020302020302020302020302020302020302020303939392056323030300A2020202D302E3139303220202020302E3030303020202020302E303030302043202020302020302020302020302020302020302020302020302020302020302020302020300A2020202D302E363735322020202D302E3636373420202020302E303030302043202020302020302020302020302020302020302020302020302020302020302020302020300A2020202D312E343539382020202D302E3431323520202020302E303030302043202020302020302020302020302020302020302020302020302020302020302020302020300A2020202D312E3435393820202020302E3431323520202020302E303030302043202020302020302020302020302020302020302020302020302020302020302020302020300A2020202D302E3637353220202020302E3636373420202020302E303030302053202020302020302020302020302020302020302020302020302020302020302020302020300A20202020302E3633343820202020302E3030303020202020302E303030302053692020302020302020302020302020302020302020302020302020302020302020302020300A20202020302E3633343820202020302E3832353020202020302E303030302043202020302020302020302020302020302020302020302020302020302020302020302020300A20202020312E3435393820202020302E3030303020202020302E303030302043202020302020302020302020302020302020302020302020302020302020302020302020300A20202020302E363334382020202D302E3832353020202020302E303030302043202020302020302020302020302020302020302020302020302020302020302020302020300A2020312020322020322020302020202020200A2020322020332020312020302020202020200A2020332020342020322020302020202020200A2020342020352020312020302020202020200A2020312020352020312020302020202020200A2020362020372020312020302020202020200A2020362020382020312020302020202020200A2020362020392020312020302020202020200A2020312020362020312020302020202020200A4D2020454E44
Contributor: FAC. TECHNOLOGY, HIROSHIMA UNIV.
InstType: EI
InstName: SHIMADZU QP-1000
IoniMethod: _ENERGY 70 eV
IonPolarity: pos
Date: 2010-10-09 19:48:36+02:00
Num Peaks: 41
51 218 53 310 55 155 57 70 58 85 59 85 61 56 63 42 65 127 66 120 
67 92 69 92 71 92 73 500 75 254 77 63 79 21 81 28 83 197 85 85 
86 14 87 14 91 42 95 21 97 155 98 14 99 14 101 42 109 14 111 92 
113 35 115 246 117 14 125 21 127 21 141 999 142 634 143 380 156 803 157 113 
158 70 
