Name: MassBank: JP011718
MW: 394
Formula: C26H26Si2
Synonym: MassBank: JP011718
Synonym: 1,2-DIMETHYLTETRAPHENYLDISILANE
Structure: 312C322D44494D455448594C54455452415048454E594C444953494C414E452E6D6F6C0A20204368656D447261773131303530393133313632440A2032382033312020302020302020302020302020302020302020302020303939392056323030300A20202020302E3533363220202020302E3132333720202020302E303030302053692020302020302020302020302020302020302020302020302020302020302020302020300A2020202D302E3533363320202020302E3132333720202020302E303030302053692020302020302020302020302020302020302020302020302020302020302020302020300A2020202D302E3533363320202020302E3934383720202020302E303030302043202020302020302020302020302020302020302020302020302020302020302020302020300A20202020302E353336322020202D302E3730313320202020302E303030302043202020302020302020302020302020302020302020302020302020302020302020302020300A20202020302E3533363220202020302E3934383720202020302E303030302043202020302020302020302020302020302020302020302020302020302020302020302020300A2020202D302E3137383220202020312E3336313320202020302E303030302043202020302020302020302020302020302020302020302020302020302020302020302020300A2020202D302E3137383220202020322E3138363220202020302E303030302043202020302020302020302020302020302020302020302020302020302020302020302020300A20202020302E3533363320202020322E3539383820202020302E303030302043202020302020302020302020302020302020302020302020302020302020302020302020300A20202020312E3235303720202020322E3138363320202020302E303030302043202020302020302020302020302020302020302020302020302020302020302020302020300A20202020312E3235303720202020312E3336313320202020302E303030302043202020302020302020302020302020302020302020302020302020302020302020302020300A20202020312E3336313220202020302E3132333720202020302E303030302043202020302020302020302020302020302020302020302020302020302020302020302020300A20202020312E3737333820202020302E3833383220202020302E303030302043202020302020302020302020302020302020302020302020302020302020302020302020300A20202020322E3539383720202020302E3833383220202020302E303030302043202020302020302020302020302020302020302020302020302020302020302020302020300A20202020332E3031313320202020302E3132333720202020302E303030302043202020302020302020302020302020302020302020302020302020302020302020302020300A20202020322E353938382020202D302E3539303720202020302E303030302043202020302020302020302020302020302020302020302020302020302020302020302020300A20202020312E373733372020202D302E3539303720202020302E303030302043202020302020302020302020302020302020302020302020302020302020302020302020300A2020202D302E353336332020202D302E3934383820202020302E303030302043202020302020302020302020302020302020302020302020302020302020302020302020300A20202020302E313738322020202D312E3336313320202020302E303030302043202020302020302020302020302020302020302020302020302020302020302020302020300A20202020302E313738322020202D322E3138363220202020302E303030302043202020302020302020302020302020302020302020302020302020302020302020302020300A2020202D302E353336332020202D322E3539383820202020302E303030302043202020302020302020302020302020302020302020302020302020302020302020302020300A2020202D312E323530372020202D322E3138363320202020302E303030302043202020302020302020302020302020302020302020302020302020302020302020302020300A2020202D312E323530372020202D312E3336313320202020302E303030302043202020302020302020302020302020302020302020302020302020302020302020302020300A2020202D312E3336313320202020302E3132333720202020302E303030302043202020302020302020302020302020302020302020302020302020302020302020302020300A2020202D312E373733382020202D302E3539303720202020302E303030302043202020302020302020302020302020302020302020302020302020302020302020302020300A2020202D322E353938372020202D302E3539303720202020302E303030302043202020302020302020302020302020302020302020302020302020302020302020302020300A2020202D332E3031313320202020302E3132333820202020302E303030302043202020302020302020302020302020302020302020302020302020302020302020302020300A2020202D322E3539383820202020302E3833383220202020302E303030302043202020302020302020302020302020302020302020302020302020302020302020302020300A2020202D312E3737333820202020302E3833383220202020302E303030302043202020302020302020302020302020302020302020302020302020302020302020302020300A2020312020322020312020302020202020200A2020322020332020312020302020202020200A2020312020342020312020302020202020200A2020352020362020312020302020202020200A2020362020372020322020302020202020200A2020372020382020312020302020202020200A2020382020392020322020302020202020200A2020392031302020312020302020202020200A2020352031302020322020302020202020200A2020312020352020312020302020202020200A2031312031322020312020302020202020200A2031322031332020322020302020202020200A2031332031342020312020302020202020200A2031342031352020322020302020202020200A2031352031362020312020302020202020200A2031312031362020322020302020202020200A2020312031312020312020302020202020200A2031372031382020312020302020202020200A2031382031392020322020302020202020200A2031392032302020312020302020202020200A2032302032312020322020302020202020200A2032312032322020312020302020202020200A2031372032322020322020302020202020200A2020322031372020312020302020202020200A2032332032342020312020302020202020200A2032342032352020322020302020202020200A2032352032362020312020302020202020200A2032362032372020322020302020202020200A2032372032382020312020302020202020200A2032332032382020322020302020202020200A2020322032332020312020302020202020200A4D2020454E44
Contributor: FAC. TECHNOLOGY, HIROSHIMA UNIV.
InstType: EI
InstName: Unknown
IoniMethod: _ENERGY 70 eV
IonPolarity: pos
Date: 2010-10-09 19:48:36+02:00
Num Peaks: 23
54 55 67 14 69 14 79 35 91 21 93 77 103 14 105 254 106 21 119 77 
155 14 165 42 180 14 181 70 182 14 195 70 196 14 197 999 198 106 199 42 
394 79 395 30 396 10 
