Name: BETA-SELINENE
MW: 204
Formula: C15H24
Synonym: MassBank: JP010675
Synonym: BETA-SELINENE
Structure: 424554412D53454C494E454E452E6D6F6C0A20204368656D447261773039303531303138303732440A2031372031382020302020302020302020302020302020302020302020303939392056323030300A2020202D302E3831303220202020302E3230363220202020302E303030302043202020302020302020302020302020302020302020302020302020302020302020302020300A2020202D302E383130322020202D302E3631383820202020302E303030302043202020302020302020302020302020302020302020302020302020302020302020302020300A2020202D302E303935372020202D312E3033313320202020302E303030302043202020302020302020302020302020302020302020302020302020302020302020302020300A20202020302E363138382020202D302E3631383820202020302E303030302043202020302020302020302020302020302020302020302020302020302020302020302020300A20202020302E3631383820202020302E3230363220202020302E303030302043202020302020302020302020302020302020302020302020302020302020302020302020300A2020202D302E3039353720202020302E3631383820202020302E303030302043202020302020302020302020302020302020302020302020302020302020302020302020300A20202020312E333333322020202D312E3033313320202020302E303030302043202020302020302020302020302020302020302020302020302020302020302020302020300A20202020322E303437372020202D302E3631383820202020302E303030302043202020302020302020302020302020302020302020302020302020302020302020302020300A20202020322E3034373720202020302E3230363220202020302E303030302043202020302020302020302020302020302020302020302020302020302020302020302020300A20202020312E3333333220202020302E3631383820202020302E303030302043202020302020302020302020302020302020302020302020302020302020302020302020300A20202020312E3333333220202020312E3434333820202020302E303030302043202020302020302020302020302020302020302020302020302020302020302020302020300A20202020302E3631383820202020312E3033313320202020302E303030302048202020302020302020302020302020302020302020302020302020302020302020302020300A2020202D312E3232323720202020302E3932303720202020302E303030302048202020302020302020302020302020302020302020302020302020302020302020302020300A2020202D312E3633353220202020302E3230363220202020302E303030302043202020302020302020302020302020302020302020302020302020302020302020302020300A20202020302E363138382020202D312E3434333820202020302E303030302043202020302020302020302020302020302020302020302020302020302020302020302020300A2020202D322E303437372020202D302E3530383220202020302E303030302043202020302020302020302020302020302020302020302020302020302020302020302020300A2020202D322E3034373720202020302E3932303720202020302E303030302043202020302020302020302020302020302020302020302020302020302020302020302020300A2020312020322020312020302020202020200A2020322020332020312020302020202020200A2020332020342020312020302020202020200A2020342020352020312020302020202020200A2020352020362020312020302020202020200A2020362020312020312020302020202020200A2020342020372020312020302020202020200A2020372020382020312020302020202020200A2020382020392020312020302020202020200A2020392031302020312020302020202020200A2031302020352020312020302020202020200A2031302031312020322020302020202020200A2020352031322020312020362020202020200A2020312031332020312020362020202020200A2020312031342020312020312020202020200A2020342031352020312020312020202020200A2031342031362020322020302020202020200A2031342031372020312020302020202020200A4D2020454E44
Contributor: EGUCHI S, FAC. OF SCIENCE, HIROSHIMA UNIV.
InstType: EI
InstName: HITACHI RMU-6L
IoniMethod: _ENERGY 70 eV
IonPolarity: pos
Date: 2010-10-09 19:48:36+02:00
Num Peaks: 74
41 999 42 95 43 235 44 6 51 115 52 75 53 405 54 8 55 590 56 80 
57 100 63 6 64 40 65 210 66 95 67 48 68 190 69 275 70 55 77 40 
78 120 79 525 80 210 81 64 82 200 83 95 91 610 92 17 93 760 94 240 
95 380 96 8 97 85 103 75 104 55 105 65 106 190 107 650 108 310 109 28 
110 70 115 85 116 55 117 11 118 70 119 360 120 160 121 41 122 220 123 180 
124 60 128 6 129 60 130 45 131 95 132 6 133 430 134 170 135 180 145 9 
146 80 147 300 148 160 149 12 150 60 161 410 162 170 163 7 175 185 176 80 
189 460 190 9 204 480 205 95 
