Name: MassBank: JP010052
MW: 354
Formula: C20H18S3
Synonym: MassBank: JP010052
Synonym: 1,1,2-TRIS(PHENYLTHIO)ETANE
Structure: 312C312C322D54524953285048454E594C5448494F294554414E452E6D6F6C0A20204368656D447261773130323330393031343332440A2032332032352020302020302020302020302020302020302020302020303939392056323030300A2020202D302E3431323520202020302E3731353320202020302E303030302043202020302020302020302020302020302020302020302020302020302020302020302020300A2020202D302E3832353720202020312E3432393320202020302E303030302053202020302020302020302020302020302020302020302020302020302020302020302020300A2020202D302E3832343320202020302E3030303420202020302E303030302053202020302020302020302020302020302020302020302020302020302020302020302020300A20202020302E3431323520202020302E3731363120202020302E303030302043202020302020302020302020302020302020302020302020302020302020302020302020300A20202020302E3832353720202020302E3030323020202020302E303030302053202020302020302020302020302020302020302020302020302020302020302020302020300A20202020312E3635303720202020302E3030323820202020302E303030302043202020302020302020302020302020302020302020302020302020302020302020302020300A2020202D302E343131312020202D302E3731333720202020302E303030302043202020302020302020302020302020302020302020302020302020302020302020302020300A2020202D312E3635303720202020312E3432383520202020302E303030302043202020302020302020302020302020302020302020302020302020302020302020302020300A2020202D322E3036333920202020322E3134323620202020302E303030302043202020302020302020302020302020302020302020302020302020302020302020302020300A2020202D322E3838383920202020322E3134313820202020302E303030302043202020302020302020302020302020302020302020302020302020302020302020302020300A2020202D332E3330303720202020312E3432373020202020302E303030302043202020302020302020302020302020302020302020302020302020302020302020302020300A2020202D322E3838373520202020302E3731323920202020302E303030302043202020302020302020302020302020302020302020302020302020302020302020302020300A2020202D322E3036323520202020302E3731333720202020302E303030302043202020302020302020302020302020302020302020302020302020302020302020302020300A2020202D302E383232392020202D312E3432383520202020302E303030302043202020302020302020302020302020302020302020302020302020302020302020302020300A2020202D302E343039382020202D322E3134323620202020302E303030302043202020302020302020302020302020302020302020302020302020302020302020302020300A20202020302E343135322020202D322E3134313820202020302E303030302043202020302020302020302020302020302020302020302020302020302020302020302020300A20202020302E383237312020202D312E3432373020202020302E303030302043202020302020302020302020302020302020302020302020302020302020302020302020300A20202020302E343133392020202D302E3731323920202020302E303030302043202020302020302020302020302020302020302020302020302020302020302020302020300A20202020322E303633392020202D302E3731313320202020302E303030302043202020302020302020302020302020302020302020302020302020302020302020302020300A20202020322E383838392020202D302E3731303520202020302E303030302043202020302020302020302020302020302020302020302020302020302020302020302020300A20202020332E3330303720202020302E3030343420202020302E303030302043202020302020302020302020302020302020302020302020302020302020302020302020300A20202020322E3838373520202020302E3731383420202020302E303030302043202020302020302020302020302020302020302020302020302020302020302020302020300A20202020322E3036323520202020302E3731373620202020302E303030302043202020302020302020302020302020302020302020302020302020302020302020302020300A2020312020322020312020302020202020200A2020312020332020312020302020202020200A2020312020342020312020302020202020200A2020342020352020312020302020202020200A2020352020362020312020302020202020200A2020332020372020312020302020202020200A2020322020382020312020302020202020200A2020382020392020322020302020202020200A2020392031302020312020302020202020200A2031302031312020322020302020202020200A2031312031322020312020302020202020200A2031322031332020322020302020202020200A2031332020382020312020302020202020200A2020372031342020322020302020202020200A2031342031352020312020302020202020200A2031352031362020322020302020202020200A2031362031372020312020302020202020200A2031372031382020322020302020202020200A2031382020372020312020302020202020200A2020362031392020322020302020202020200A2031392032302020312020302020202020200A2032302032312020322020302020202020200A2032312032322020312020302020202020200A2032322032332020322020302020202020200A2032332020362020312020302020202020200A4D2020454E44
Contributor: KURARAY CO., LTD.
InstType: EI
InstName: JEOL JMS-D-300
IoniMethod: _ENERGY 70 eV
IonPolarity: pos
Date: 2010-10-09 19:48:36+02:00
Num Peaks: 9
45 168 55 60 91 130 98 112 122 76 123 999 135 148 245 563 354 109 
