Name: TETRAPROPOXYMETHANE
MW: 248
Formula: C13H28O4
Synonym: MassBank: JP011772
Synonym: TETRAPROPOXYMETHANE
Structure: 544554524150524F504F58594D455448414E452E6D6F6C0A20204368656D447261773038313231303037333232440A2031372031362020302020302020302020302020302020302020302020303939392056323030300A20202020302E313635382020202D302E3435333020202020302E303030302043202020302020302020302020302020302020302020302020302020302020302020302020300A20202020302E3136353820202020302E3337323020202020302E30303030204F202020302020302020302020302020302020302020302020302020302020302020302020300A2020202D302E3534383720202020302E3738343520202020302E303030302043202020302020302020302020302020302020302020302020302020302020302020302020300A2020202D312E3236333120202020302E3337323020202020302E303030302043202020302020302020302020302020302020302020302020302020302020302020302020300A2020202D312E3937373620202020302E3738343520202020302E303030302043202020302020302020302020302020302020302020302020302020302020302020302020300A20202020302E393930382020202D302E3435333020202020302E30303030204F202020302020302020302020302020302020302020302020302020302020302020302020300A20202020312E3430333320202020302E3236313520202020302E303030302043202020302020302020302020302020302020302020302020302020302020302020302020300A20202020302E3939303820202020302E3937363020202020302E303030302043202020302020302020302020302020302020302020302020302020302020302020302020300A20202020312E3430333320202020312E3639303520202020302E303030302043202020302020302020302020302020302020302020302020302020302020302020302020300A20202020302E313635382020202D312E3237383020202020302E30303030204F202020302020302020302020302020302020302020302020302020302020302020302020300A20202020302E383830332020202D312E3639303520202020302E303030302043202020302020302020302020302020302020302020302020302020302020302020302020300A20202020312E353934372020202D312E3237383020202020302E303030302043202020302020302020302020302020302020302020302020302020302020302020302020300A20202020322E333039322020202D312E3639303520202020302E303030302043202020302020302020302020302020302020302020302020302020302020302020302020300A2020202D302E363539322020202D302E3435333020202020302E30303030204F202020302020302020302020302020302020302020302020302020302020302020302020300A2020202D312E303731372020202D312E3136373420202020302E303030302043202020302020302020302020302020302020302020302020302020302020302020302020300A2020202D312E383936372020202D312E3136373420202020302E303030302043202020302020302020302020302020302020302020302020302020302020302020302020300A2020202D322E333039322020202D302E3435333020202020302E303030302043202020302020302020302020302020302020302020302020302020302020302020302020300A2020332020342020312020302020202020200A2020342020352020312020302020202020200A2020322020332020312020302020202020200A2020312020322020312020302020202020200A2020372020382020312020302020202020200A2020382020392020312020302020202020200A2020362020372020312020302020202020200A2020312020362020312020302020202020200A2031312031322020312020302020202020200A2031322031332020312020302020202020200A2031302031312020312020302020202020200A2020312031302020312020302020202020200A2031352031362020312020302020202020200A2031362031372020312020302020202020200A2031342031352020312020302020202020200A2020312031342020312020302020202020200A4D2020454E44
Contributor: TAJIMA S, GUNMA COLLEGE OF TECHNOLOGY
InstType: EI
InstName: HITACHI M-80A
IoniMethod: _ENERGY 70 eV
IonPolarity: pos
Date: 2010-10-09 19:48:36+02:00
Num Peaks: 23
27 181 29 89 30 14 31 83 39 50 40 12 41 251 42 84 43 865 44 31 
59 76 61 12 63 889 64 12 76 27 104 13 105 670 106 31 147 245 148 19 
189 999 190 116 191 14 
