Name: 1-METHYL-SILACYCLOBUTANE (1-D)
MW: 86
Formula: C4H10Si
Synonym: MassBank: JP011591
Synonym: 1-METHYL-SILACYCLOBUTANE (1-D)
Structure: 310A31380A312D4D455448594C2D53494C414359434C4F425554414E452028312D44292E6D6F6C0A20204368656D447261773131323030393132303832440A2020362020362020302020302020302020302020302020302020302020303939392056323030300A20202020302E3030303020202020302E3030303020202020302E303030302053692020302020302020302020302020302020302020302020302020302020302020302020300A20202020302E303030302020202D302E3832353020202020302E303030302043202020302020302020302020302020302020302020302020302020302020302020302020300A2020202D302E383235302020202D302E3832353020202020302E303030302043202020302020302020302020302020302020302020302020302020302020302020302020300A2020202D302E383235302020202D302E3030303020202020302E303030302043202020302020302020302020302020302020302020302020302020302020302020302020300A20202020302E3030303020202020302E3832353020202020302E303030302043202020302020302020302020302020302020302020302020302020302020302020302020300A20202020302E3832353020202020302E3030303020202020302E303030302048202020312020302020302020302020302020302020302020302020302020302020302020300A2020312020322020312020302020202020200A2020322020332020312020302020202020200A2020332020342020312020302020202020200A2020312020342020312020302020202020200A2020312020352020312020302020202020200A2020312020362020312020302020202020200A4D202049534F20203120202036202020320A4D2020454E44
Contributor: YAMAMOTO M, DEP. CHEMISTRY, FAC. SCIENCE, NARA WOMEN'S UNIV.
InstType: EI
InstName: HITACHI RMU-6M
IoniMethod: _ENERGY 70 eV
IonPolarity: pos
Date: 2010-10-09 19:48:36+02:00
Num Peaks: 36
26 13 27 37 28 60 29 64 30 25 31 24 32 14 39 37 40 12 41 23 
42 71 43 464 44 355 45 82 46 108 47 17 53 39 54 15 55 30 56 23 
57 20 58 315 59 999 60 109 61 41 66 17 67 21 68 10 70 18 71 21 
72 48 80 15 86 18 87 295 88 28 89 12 
