Name: MassBank: JP010014
MW: 126
Formula: C8H14O
Synonym: MassBank: JP010014
Synonym: 2,7-OCTADIEN-1-OL
Structure: 310A32320A322C372D4F4354414449454E2D312D4F4C2E6D6F6C0A20204368656D447261773132323130393034353832440A2020392020382020302020302020302020302020302020302020302020303939392056323030300A2020202D322E3134333420202020302E3230363220202020302E303030302043202020302020302020302020302020302020302020302020302020302020302020302020300A2020202D312E343238392020202D302E3230363220202020302E303030302043202020302020302020302020302020302020302020302020302020302020302020302020300A2020202D302E3731343520202020302E3230363220202020302E303030302043202020302020302020302020302020302020302020302020302020302020302020302020300A20202020302E303030302020202D302E3230363220202020302E303030302043202020302020302020302020302020302020302020302020302020302020302020302020300A20202020302E3731343520202020302E3230363220202020302E303030302043202020302020302020302020302020302020302020302020302020302020302020302020300A20202020312E343238392020202D302E3230363220202020302E303030302043202020302020302020302020302020302020302020302020302020302020302020302020300A20202020322E3134333420202020302E3230363220202020302E303030302043202020302020302020302020302020302020302020302020302020302020302020302020300A20202020322E383537392020202D302E3230363220202020302E303030302043202020302020302020302020302020302020302020302020302020302020302020302020300A2020202D322E383537392020202D302E3230363220202020302E30303030204F202020302020302020302020302020302020302020302020302020302020302020302020300A2020312020322020312020302020202020200A2020322020332020322020302020202020200A2020332020342020312020302020202020200A2020342020352020312020302020202020200A2020352020362020312020302020202020200A2020362020372020312020302020202020200A2020372020382020322020302020202020200A2020312020392020312020302020202020200A4D2020454E44
Contributor: KURARAY CO., LTD.
InstType: EI
InstName: JEOL JMS-D-300
IoniMethod: _ENERGY 70 eV
IonPolarity: pos
Date: 2010-10-09 19:48:36+02:00
Num Peaks: 46
26 23 27 453 29 589 31 22 38 23 39 558 40 29 41 94 42 195 43 382 
44 104 45 3 50 23 51 58 52 29 53 24 54 782 55 999 56 244 57 80 
58 65 65 65 66 91 67 89 68 211 69 167 70 245 71 10 77 73 78 52 
79 412 80 26 81 129 82 238 83 347 84 34 85 31 91 49 93 361 94 4 
95 258 96 24 97 53 98 3 108 84 109 19 
