Name: DIETHYLIN
MW: 148
Formula: C7H16O3
Synonym: MassBank: JP011310
Synonym: DIETHYLIN
Synonym: GLYCEROL ALPHA,ALPHA-DIETHYL ESTER
Structure: 4449455448594C494E2E6D6F6C0A20204368656D447261773039323131303230333332440A2031302020392020302020302020302020302020302020302020302020303939392056323030300A20202020302E3030303020202020312E3635303020202020302E30303030204F202020302020302020302020302020302020302020302020302020302020302020302020300A20202020302E3030303020202020302E3832353020202020302E303030302043202020302020302020302020302020302020302020302020302020302020302020302020300A2020202D302E3731343520202020302E3431323520202020302E303030302043202020302020302020302020302020302020302020302020302020302020302020302020300A20202020302E3731343520202020302E3431323520202020302E303030302043202020302020302020302020302020302020302020302020302020302020302020302020300A2020202D302E373134352020202D302E3431323520202020302E30303030204F202020302020302020302020302020302020302020302020302020302020302020302020300A20202020302E373134352020202D302E3431323520202020302E30303030204F202020302020302020302020302020302020302020302020302020302020302020302020300A2020202D312E343238392020202D302E3832353020202020302E303030302043202020302020302020302020302020302020302020302020302020302020302020302020300A2020202D312E343238392020202D312E3635303020202020302E303030302043202020302020302020302020302020302020302020302020302020302020302020302020300A20202020312E343238392020202D302E3832353020202020302E303030302043202020302020302020302020302020302020302020302020302020302020302020302020300A20202020312E343238392020202D312E3635303020202020302E303030302043202020302020302020302020302020302020302020302020302020302020302020302020300A2020312020322020312020302020202020200A2020322020332020312020302020202020200A2020322020342020312020302020202020200A2020332020352020312020302020202020200A2020342020362020312020302020202020200A2020352020372020312020302020202020200A2020372020382020312020302020202020200A2020362020392020312020302020202020200A2020392031302020312020302020202020200A4D2020454E44
Contributor: YAMAMOTO M, DEP. CHEMISTRY, FAC. SCIENCE, NARA WOMEN'S UNIV.
InstType: EI
InstName: HITACHI M-2500
IoniMethod: _ENERGY 70 eV
IonPolarity: pos
Date: 2010-10-09 19:48:36+02:00
Num Peaks: 42
15 77 18 17 19 40 26 33 27 271 28 62 29 482 30 17 31 673 32 11 
33 14 39 24 41 57 42 51 43 464 44 231 45 280 47 36 55 17 56 14 
57 211 58 148 59 929 60 94 61 999 62 26 72 18 73 66 74 16 75 60 
85 107 86 451 87 50 88 55 89 334 90 21 101 37 102 53 103 41 105 15 
129 20 130 32 
