Name: MassBank: JP011937
MW: 302
Formula: C16H26Si3
Synonym: MassBank: JP011937
Synonym: 3,4-DIETHYNYL-1,1-DIMETHYL-2,5-BIS(TRIMETHYLSILYL)-1-SILACYCLOPENTA-2,5-DIENE
Structure: 332C342D4449455448594E594C2D312C312D44494D455448594C2D322C352D424953285452494D455448594C53494C594C292D312D53494C414359434C4F50454E54412D322C352D4449454E452E6D6F6C0A20204368656D447261773032323131303232323432440A2031392031392020302020302020302020302020302020302020302020303939392056323030300A2020202D302E3534353620202020302E3637323620202020302E303030302053692020302020302020302020302020302020302020302020302020302020302020302020300A20202020302E3237343920202020302E3735383920202020302E303030302043202020302020302020302020302020302020302020302020302020302020302020302020300A20202020302E3631303520202020302E3030353220202020302E303030302043202020302020302020302020302020302020302020302020302020302020302020302020300A2020202D302E303032362020202D302E3534363820202020302E303030302043202020302020302020302020302020302020302020302020302020302020302020302020300A2020202D302E373137312020202D302E3133343320202020302E303030302043202020302020302020302020302020302020302020302020302020302020302020302020300A2020202D312E343730382020202D302E3436393920202020302E303030302053692020302020302020302020302020302020302020302020302020302020302020302020300A2020202D312E3830363320202020302E3238333820202020302E303030302043202020302020302020302020302020302020302020302020302020302020302020302020300A2020202D312E313335322020202D312E3232333620202020302E303030302043202020302020302020302020302020302020302020302020302020302020302020302020300A2020202D322E323234342020202D302E3830353520202020302E303030302043202020302020302020302020302020302020302020302020302020302020302020302020300A20202020302E3638373420202020312E3437333320202020302E303030302053692020302020302020302020302020302020302020302020302020302020302020302020300A20202020312E3430313920202020312E3036303820202020302E303030302043202020302020302020302020302020302020302020302020302020302020302020302020300A2020202D302E3032373020202020312E3838353820202020302E303030302043202020302020302020302020302020302020302020302020302020302020302020302020300A20202020312E3039393920202020322E3138373820202020302E303030302043202020302020302020302020302020302020302020302020302020302020302020302020300A2020202D312E3336363020202020302E3735383920202020302E303030302043202020302020302020302020302020302020302020302020302020302020302020302020300A2020202D302E3534353620202020312E3439373620202020302E303030302043202020302020302020302020302020302020302020302020302020302020302020302020300A20202020302E303833362020202D312E3336373320202020302E303030302043202020302020302020302020302020302020302020302020302020302020302020302020300A20202020302E313639392020202D322E3138373820202020302E303030302043202020302020302020302020302020302020302020302020302020302020302020302020300A20202020312E343137352020202D302E3136363320202020302E303030302043202020302020302020302020302020302020302020302020302020302020302020302020300A20202020322E323234342020202D302E3333373920202020302E303030302043202020302020302020302020302020302020302020302020302020302020302020302020300A2020312020322020312020302020202020200A2020322020332020322020302020202020200A2020332020342020312020302020202020200A2020342020352020322020302020202020200A2020312020352020312020302020202020200A2020362020372020312020302020202020200A2020362020382020312020302020202020200A2020362020392020312020302020202020200A2020352020362020312020302020202020200A2031302031312020312020302020202020200A2031302031322020312020302020202020200A2031302031332020312020302020202020200A2020322031302020312020302020202020200A2020312031342020312020362020202020200A2020312031352020312020312020202020200A2031362031372020332020302020202020200A2020342031362020312020302020202020200A2031382031392020332020302020202020200A2020332031382020312020302020202020200A4D2020454E44
Contributor: ISHIKAWA M, HIROSHIMA UNIV. FAC. TEQUNOLOGY
InstType: EI
InstName: SHIMADZU QP-1000
IoniMethod: _ENERGY 70 eV
IonPolarity: pos
Date: 2010-10-09 19:48:36+02:00
Num Peaks: 28
54 74 56 68 58 11 59 32 60 95 67 53 69 37 73 999 74 74 75 32 
77 11 79 21 81 11 83 68 93 11 97 42 107 37 165 40 199 32 207 32 
213 40 227 28 228 27 229 42 287 242 288 75 289 40 302 65 
