Name: IODOETHANE
CAS: 75-03-6
MW: 155
Formula: C2H5I
Synonym: MassBank: JP010332
Synonym: IODOETHANE
Synonym: ETHYLIODIDE
Structure: 310A31300A455448594C20494F444944452E6D6F6C0A20204368656D447261773038313131303138323832440A2020332020322020302020302020302020302020302020302020302020303939392056323030300A20202020302E3030303020202020302E3230363320202020302E303030302043202020302020302020302020302020302020302020302020302020302020302020302020300A20202020302E373134352020202D302E3230363320202020302E303030302043202020302020302020302020302020302020302020302020302020302020302020302020300A2020202D302E373134352020202D302E3230363320202020302E303030302049202020302020302020302020302020302020302020302020302020302020302020302020300A2020312020322020312020302020202020200A2020312020332020312020302020202020200A4D2020454E44
Contributor: TAJIMA S, GUNMA COLLEGE OF TECHNOLOGY
InstType: EI
InstName: HITACHI M-80A
IoniMethod: _ENERGY 70 eV
IonPolarity: pos
Date: 2010-10-09 19:48:36+02:00
Num Peaks: 11
25 28 26 208 27 871 28 99 29 999 30 22 127 267 128 50 141 15 156 577 
157 14 
