Name: MassBank: JP010927
MW: 154
Formula: C10H18O
Synonym: MassBank: JP010927
Synonym: 4-METHOXY-2-METHYL-1,3-OCTADIENE
Structure: 342D4D4554484F58592D322D4D455448594C2D312C332D4F4354414449454E452E6D6F6C0A20204368656D447261773034323031303131323432440A2031312031302020302020302020302020302020302020302020302020303939392056323030300A2020202D302E3230363320202020312E3432383920202020302E303030302043202020302020302020302020302020302020302020302020302020302020302020302020300A2020202D302E3631383820202020302E3731343520202020302E303030302043202020302020302020302020302020302020302020302020302020302020302020302020300A2020202D302E323036332020202D302E3030303020202020302E303030302043202020302020302020302020302020302020302020302020302020302020302020302020300A2020202D302E363138382020202D302E3731343520202020302E303030302043202020302020302020302020302020302020302020302020302020302020302020302020300A2020202D302E323036322020202D312E3432383920202020302E303030302043202020302020302020302020302020302020302020302020302020302020302020302020300A20202020302E363138382020202D312E3432383920202020302E303030302043202020302020302020302020302020302020302020302020302020302020302020302020300A20202020312E303331332020202D302E3731343520202020302E303030302043202020302020302020302020302020302020302020302020302020302020302020302020300A20202020312E383536332020202D302E3731343520202020302E303030302043202020302020302020302020302020302020302020302020302020302020302020302020300A2020202D312E3434333820202020302E3731343520202020302E303030302043202020302020302020302020302020302020302020302020302020302020302020302020300A2020202D312E343433372020202D302E3731343520202020302E30303030204F202020302020302020302020302020302020302020302020302020302020302020302020300A2020202D312E383536332020202D312E3432383920202020302E303030302043202020302020302020302020302020302020302020302020302020302020302020302020300A2020312020322020322020302020202020200A2020322020332020312020302020202020200A2020332020342020322020302020202020200A2020342020352020312020302020202020200A2020352020362020312020302020202020200A2020362020372020312020302020202020200A2020372020382020312020302020202020200A2020322020392020312020302020202020200A2031302031312020312020302020202020200A2020342031302020312020302020202020200A4D2020454E44
Contributor: KURARAY CO., LTD.
InstType: EI
InstName: JEOL JMS-D-300
IoniMethod: _ENERGY 70 eV
IonPolarity: pos
Date: 2010-10-09 19:48:36+02:00
Num Peaks: 94
26 8 27 166 28 934 29 163 30 4 31 29 32 268 38 10 39 181 40 42 
41 366 42 43 43 176 44 10 45 263 50 17 51 37 52 22 53 148 54 33 
55 302 56 25 57 117 58 33 59 104 63 6 65 54 66 20 67 209 68 39 
69 133 70 10 71 57 72 52 73 23 74 13 75 21 77 300 78 38 79 255 
80 38 81 165 82 52 83 157 84 13 85 123 86 12 87 8 91 199 92 20 
93 414 94 44 95 142 96 39 97 281 98 55 99 40 101 39 102 10 103 10 
105 26 106 4 107 131 108 13 109 44 110 58 111 323 112 104 113 10 119 20 
120 8 121 20 122 21 123 52 124 14 125 999 126 97 127 7 129 78 133 323 
134 21 135 105 136 8 137 10 139 666 140 72 141 10 153 28 154 349 155 55 
162 4 163 12 177 8 178 7 
