Name: OXINDOLE
CAS: 59-48-3
MW: 133
Formula: C8H7NO
Synonym: MassBank: JP010401
Synonym: OXINDOLE
Synonym: 2-INDOLINONE
Structure: 4F58494E444F4C452E6D6F6C0A20204368656D447261773031323231303030303232440A2031302031312020302020302020302020302020302020302020302020303939392056323030300A2020202D302E3435313820202020302E3636373420202020302E30303030204E202020302020302020302020302020302020302020302020302020302020302020302020300A2020202D302E3933363720202020302E3030303020202020302E303030302043202020302020302020302020302020302020302020302020302020302020302020302020300A2020202D312E3736313720202020302E3030303020202020302E30303030204F202020302020302020302020302020302020302020302020302020302020302020302020300A2020202D302E343531382020202D302E3636373420202020302E303030302043202020302020302020302020302020302020302020302020302020302020302020302020300A20202020302E333332382020202D302E3431323520202020302E303030302043202020302020302020302020302020302020302020302020302020302020302020302020300A20202020312E303437332020202D302E3832353020202020302E303030302043202020302020302020302020302020302020302020302020302020302020302020302020300A20202020312E373631372020202D302E3431323520202020302E303030302043202020302020302020302020302020302020302020302020302020302020302020302020300A20202020312E3736313720202020302E3431323520202020302E303030302043202020302020302020302020302020302020302020302020302020302020302020302020300A20202020312E3034373320202020302E3832353020202020302E303030302043202020302020302020302020302020302020302020302020302020302020302020302020300A20202020302E3333323820202020302E3431323520202020302E303030302043202020302020302020302020302020302020302020302020302020302020302020302020300A2020312020322020312020302020202020200A2020322020332020322020302020202020200A2020322020342020312020302020202020200A2020342020352020312020302020202020200A2020352020362020312020302020202020200A2020362020372020322020302020202020200A2020372020382020312020302020202020200A2020382020392020322020302020202020200A2020392031302020312020302020202020200A2020312031302020312020302020202020200A2020352031302020322020302020202020200A4D2020454E44
Contributor: MASS SPECTROSCOPY SOC. OF JAPAN (MSSJ)
InstType: EI
InstName: HITACHI RMU-6M
IoniMethod: _ENERGY 20 eV
IonPolarity: pos
Date: 2010-10-09 19:48:36+02:00
Num Peaks: 48
41 60 42 60 43 190 44 8 45 30 52 20 55 80 56 8 57 100 58 80 
59 20 60 7 67 20 68 20 69 60 70 7 71 70 72 20 73 40 74 2 
77 40 78 210 79 20 81 3 82 20 83 40 84 40 85 6 89 20 95 30 
96 20 97 3 98 30 99 70 103 20 104 42 105 340 106 40 109 20 110 2 
111 20 112 20 113 20 131 4 132 40 133 999 134 110 135 20 
