Name: CIS-1-METHOXY-4-TRIMETHYLSILYLBUT-1-EN-3-YNE
MW: 154
Formula: C8H14OSi
Synonym: MassBank: JP011957
Synonym: CIS-1-METHOXY-4-TRIMETHYLSILYLBUT-1-EN-3-YNE
Structure: 4349532D312D4D4554484F58592D342D5452494D455448594C53494C594C4255542D312D454E2D332D594E452E6D6F6C0A20204368656D447261773039303831303039333332440A2031302020392020302020302020302020302020302020302020302020303939392056323030300A20202020312E343238392020202D302E3536333520202020302E303030302043202020302020302020302020302020302020302020302020302020302020302020302020300A20202020302E373134352020202D302E3937363020202020302E303030302043202020302020302020302020302020302020302020302020302020302020302020302020300A2020202D302E303030302020202D302E3536333520202020302E303030302043202020302020302020302020302020302020302020302020302020302020302020302020300A2020202D302E373134352020202D302E3135313020202020302E303030302043202020302020302020302020302020302020302020302020302020302020302020302020300A2020202D312E3432383920202020302E3236313520202020302E303030302053692020302020302020302020302020302020302020302020302020302020302020302020300A2020202D312E383431342020202D302E3435333020202020302E303030302043202020302020302020302020302020302020302020302020302020302020302020302020300A2020202D322E3134333420202020302E3637343020202020302E303030302043202020302020302020302020302020302020302020302020302020302020302020302020300A2020202D312E3031363420202020302E3937363020202020302E303030302043202020302020302020302020302020302020302020302020302020302020302020302020300A20202020312E3432383920202020302E3236313520202020302E30303030204F202020302020302020302020302020302020302020302020302020302020302020302020300A20202020322E3134333420202020302E3637343020202020302E303030302043202020302020302020302020302020302020302020302020302020302020302020302020300A2020312020322020322020302020202020200A2020322020332020312020302020202020200A2020332020342020332020302020202020200A2020352020362020312020312020202020200A2020352020372020312020302020202020200A2020352020382020312020312020202020200A2020342020352020312020302020202020200A2020392031302020312020302020202020200A2020312020392020312020302020202020200A4D2020454E44
Contributor: ISHIKAWA M, HIROSHIMA UNIV. FAC. TEQUNOLOGY
InstType: EI
InstName: SHIMADZU QP-1000
IoniMethod: _ENERGY 70 eV
IonPolarity: pos
Date: 2010-10-09 19:48:36+02:00
Num Peaks: 51
52 53 53 100 54 642 55 147 56 432 57 37 58 89 59 126 60 932 61 84 
62 211 63 21 64 95 65 395 66 184 67 316 68 53 69 253 70 179 71 116 
72 21 73 74 75 100 77 153 78 32 79 95 80 21 81 63 83 432 84 42 
85 174 87 21 89 32 93 32 94 11 95 74 97 32 98 11 99 32 107 21 
109 568 110 63 111 89 113 32 123 21 124 32 139 999 140 121 141 32 154 221 
155 21 
