Name: MassBank: JP010419
MW: 275
Formula: C17H25NO2
Synonym: MassBank: JP010419
Synonym: 4-METHYL-2,6-DI-TERT-BUTYLPHENYL-N-METHYLCARBAMATE
Synonym: MBPMC
Structure: 342D4D455448594C2D322C362D44492D544552542D425554594C5048454E594C2D4E2D4D455448594C43415242414D4154452E6D6F6C0A20204368656D447261773034323131303031303932440A2032302032302020302020302020302020302020302020302020302020303939392056323030300A20202020312E333631332020202D302E3731343520202020302E303030302043202020302020302020302020302020302020302020302020302020302020302020302020300A20202020302E393438372020202D302E3030303020202020302E30303030204F202020302020302020302020302020302020302020302020302020302020302020302020300A20202020302E393438372020202D312E3432383920202020302E30303030204F202020302020302020302020302020302020302020302020302020302020302020302020300A20202020322E313836322020202D302E3731343520202020302E30303030204E202020302020302020302020302020302020302020302020302020302020302020302020300A2020202D302E313233382020202D302E3030303020202020302E303030302043202020302020302020302020302020302020302020302020302020302020302020302020300A2020202D302E353336332020202D302E3731343520202020302E303030302043202020302020302020302020302020302020302020302020302020302020302020302020300A2020202D312E333631322020202D302E3731343520202020302E303030302043202020302020302020302020302020302020302020302020302020302020302020302020300A2020202D312E373733372020202D302E3030303020202020302E303030302043202020302020302020302020302020302020302020302020302020302020302020302020300A2020202D312E3336313320202020302E3731343520202020302E303030302043202020302020302020302020302020302020302020302020302020302020302020302020300A2020202D302E3533363320202020302E3731343520202020302E303030302043202020302020302020302020302020302020302020302020302020302020302020302020300A2020202D302E3132333820202020312E3432383920202020302E303030302043202020302020302020302020302020302020302020302020302020302020302020302020300A20202020302E3238383820202020322E3134333420202020302E303030302043202020302020302020302020302020302020302020302020302020302020302020302020300A20202020302E3539303720202020312E3031363420202020302E303030302043202020302020302020302020302020302020302020302020302020302020302020302020300A2020202D302E3833383220202020312E3834313420202020302E303030302043202020302020302020302020302020302020302020302020302020302020302020302020300A2020202D302E313233382020202D312E3432383920202020302E303030302043202020302020302020302020302020302020302020302020302020302020302020302020300A20202020302E353930372020202D312E3031363420202020302E303030302043202020302020302020302020302020302020302020302020302020302020302020302020300A20202020302E323838382020202D322E3134333420202020302E303030302043202020302020302020302020302020302020302020302020302020302020302020302020300A2020202D302E383338322020202D312E3834313420202020302E303030302043202020302020302020302020302020302020302020302020302020302020302020302020300A2020202D322E353938372020202D302E3030303020202020302E303030302043202020302020302020302020302020302020302020302020302020302020302020302020300A20202020322E353938372020202D302E3030303020202020302E303030302043202020302020302020302020302020302020302020302020302020302020302020302020300A2020312020322020312020302020202020200A2020312020332020322020302020202020200A2020312020342020312020302020202020200A2020352020362020312020302020202020200A2020362020372020322020302020202020200A2020372020382020312020302020202020200A2020382020392020322020302020202020200A2020392031302020312020302020202020200A2020352031302020322020302020202020200A2031312031322020312020302020202020200A2031312031342020312020302020202020200A2031312031332020312020302020202020200A2031302031312020312020302020202020200A2031352031362020312020302020202020200A2031352031382020312020302020202020200A2031352031372020312020302020202020200A2020362031352020312020302020202020200A2020382031392020312020302020202020200A2020322020352020312020302020202020200A2020342032302020312020302020202020200A4D2020454E44
Contributor: UOEH
InstType: EI
InstName: JEOL JMS-DX-303
IoniMethod: _ENERGY 70 eV
IonPolarity: pos
Date: 2010-10-09 19:48:36+02:00
Num Peaks: 28
41 35 55 27 57 102 58 27 77 10 91 24 105 34 115 18 119 24 121 23 
128 15 129 16 131 18 133 15 145 47 147 10 149 21 157 11 161 34 163 19 
177 39 189 41 205 999 206 169 207 15 220 672 221 121 222 11 
