Name: MassBank: JP010574
MW: 138
Formula: C7H10N2O
Synonym: MassBank: JP010574
Synonym: 4-METHOXY-1,2-PHENYLENEDIAMINE
Synonym: 3,4-DIAMINOANISOLE
Structure: 342D4D4554484F58592D312C322D5048454E594C454E454449414D494E452E6D6F6C0A20204368656D447261773032323131303232313732440A2031302031302020302020302020302020302020302020302020302020303939392056323030300A20202020312E3037313720202020302E3431323520202020302E303030302043202020302020302020302020302020302020302020302020302020302020302020302020300A20202020312E303731372020202D302E3431323520202020302E303030302043202020302020302020302020302020302020302020302020302020302020302020302020300A20202020302E333537322020202D302E3832353020202020302E303030302043202020302020302020302020302020302020302020302020302020302020302020302020300A2020202D302E333537322020202D302E3431323520202020302E303030302043202020302020302020302020302020302020302020302020302020302020302020302020300A2020202D302E3335373220202020302E3431323520202020302E303030302043202020302020302020302020302020302020302020302020302020302020302020302020300A20202020302E3335373220202020302E3832353020202020302E303030302043202020302020302020302020302020302020302020302020302020302020302020302020300A20202020312E3738363220202020302E3832353020202020302E30303030204E202020302020302020302020302020302020302020302020302020302020302020302020300A20202020312E373836322020202D302E3832353020202020302E30303030204E202020302020302020302020302020302020302020302020302020302020302020302020300A2020202D312E303731372020202D302E3832353020202020302E30303030204F202020302020302020302020302020302020302020302020302020302020302020302020300A2020202D312E373836322020202D302E3431323520202020302E303030302043202020302020302020302020302020302020302020302020302020302020302020302020300A2020312020322020312020302020202020200A2020322020332020322020302020202020200A2020332020342020312020302020202020200A2020342020352020322020302020202020200A2020352020362020312020302020202020200A2020312020362020322020302020202020200A2020312020372020312020302020202020200A2020322020382020312020302020202020200A2020392031302020312020302020202020200A2020342020392020312020302020202020200A4D2020454E44
Contributor: NARA WOMEN'S UNIVERSITY
InstType: EI
InstName: HITACHI M-80
IoniMethod: _ENERGY 70 eV
IonPolarity: pos
Date: 2010-10-09 19:48:36+02:00
Num Peaks: 37
14 11 15 77 18 20 27 19 28 151 29 20 32 13 38 14 39 37 40 26 
41 82 42 30 43 12 50 17 52 91 53 61 54 46 66 16 67 61 68 65 
69 19 76 11 78 84 79 20 80 37 81 10 94 35 95 508 96 65 106 12 
107 12 110 72 123 655 124 53 137 24 138 999 139 96 
