Name: MassBank: JP011894
MW: 279
Formula: C14H11Cl2NO
Synonym: MassBank: JP011894
Synonym: 2-METHYLAMINO-2',5-DICHLOROBENZOPHENONE
Structure: 322D4D455448594C414D494E4F2D32272C352D444943484C4F524F42454E5A4F5048454E4F4E452E6D6F6C0A20204368656D447261773031323231303037333332440A2031382031392020302020302020302020302020302020302020302020303939392056323030300A20202020302E303030302020202D302E3631383820202020302E303030302043202020302020302020302020302020302020302020302020302020302020302020302020300A2020202D302E373134352020202D302E3230363220202020302E303030302043202020302020302020302020302020302020302020302020302020302020302020302020300A2020202D312E343238392020202D302E3631383820202020302E303030302043202020302020302020302020302020302020302020302020302020302020302020302020300A2020202D322E313433342020202D302E3230363220202020302E303030302043202020302020302020302020302020302020302020302020302020302020302020302020300A2020202D322E3134333420202020302E3631383720202020302E303030302043202020302020302020302020302020302020302020302020302020302020302020302020300A2020202D312E3432383920202020312E3033313320202020302E303030302043202020302020302020302020302020302020302020302020302020302020302020302020300A2020202D302E3731343520202020302E3631383820202020302E303030302043202020302020302020302020302020302020302020302020302020302020302020302020300A20202020302E303030302020202D312E3434333820202020302E30303030204F202020302020302020302020302020302020302020302020302020302020302020302020300A20202020302E373134352020202D302E3230363220202020302E303030302043202020302020302020302020302020302020302020302020302020302020302020302020300A20202020302E3731343520202020302E3631383820202020302E303030302043202020302020302020302020302020302020302020302020302020302020302020302020300A20202020312E3432383920202020312E3033313320202020302E303030302043202020302020302020302020302020302020302020302020302020302020302020302020300A20202020322E3134333420202020302E3631383820202020302E303030302043202020302020302020302020302020302020302020302020302020302020302020302020300A20202020322E313433342020202D302E3230363220202020302E303030302043202020302020302020302020302020302020302020302020302020302020302020302020300A20202020312E343238392020202D302E3631383820202020302E303030302043202020302020302020302020302020302020302020302020302020302020302020302020300A2020202D312E3432383920202020312E3835363320202020302E3030303020436C2020302020302020302020302020302020302020302020302020302020302020302020300A2020202D302E3030303020202020312E3033313320202020302E3030303020436C2020302020302020302020302020302020302020302020302020302020302020302020300A2020202D312E343238392020202D312E3434333820202020302E30303030204E202020302020302020302020302020302020302020302020302020302020302020302020300A2020202D322E313433342020202D312E3835363320202020302E303030302043202020302020302020302020302020302020302020302020302020302020302020302020300A2020312020322020312020302020202020200A2020322020332020312020302020202020200A2020332020342020322020302020202020200A2020342020352020312020302020202020200A2020352020362020322020302020202020200A2020362020372020312020302020202020200A2020322020372020322020302020202020200A2020392031302020312020302020202020200A2031302031312020322020302020202020200A2031312031322020312020302020202020200A2031322031332020322020302020202020200A2031332031342020312020302020202020200A2020392031342020322020302020202020200A2020312020382020322020302020202020200A2020312020392020312020302020202020200A2020362031352020312020302020202020200A2031302031362020312020302020202020200A2031372031382020312020302020202020200A2020332031372020312020302020202020200A4D2020454E44
Contributor: YAMAMOTO M, DEP. CHEMISTRY, FAC. SCIENCE, NARA WOMEN'S UNIV.
InstType: EI
InstName: HITACHI M-2500
IoniMethod: _ENERGY 70 eV
IonPolarity: pos
Date: 2010-10-09 19:48:36+02:00
Num Peaks: 100
28 17 30 22 39 14 50 46 51 42 52 14 62 19 63 46 73 15 74 43 
75 167 76 52 77 104 78 20 85 17 87 14 89 21 90 26 91 13 98 17 
99 17 102 14 104 31 105 39 110 13 111 239 112 61 113 92 114 22 122 46 
123 20 124 11 125 96 126 19 127 31 132 10 133 54 138 45 139 174 140 80 
141 58 142 18 150 43 151 36 152 52 153 15 164 28 165 18 166 119 167 23 
168 176 169 19 170 45 179 14 180 44 181 29 186 14 190 11 191 14 199 30 
200 24 201 45 202 13 203 12 208 66 209 86 210 13 214 68 215 33 216 30 
217 12 226 34 227 143 228 50 229 395 230 67 231 121 232 17 235 21 237 14 
242 26 243 73 244 669 245 125 246 209 247 34 250 11 261 16 262 146 263 40 
264 102 265 22 266 13 278 121 279 999 280 233 281 675 282 118 283 113 284 17 
