Name: MassBank: JP011577
MW: 100
Formula: C5H12Si
Synonym: MassBank: JP011577
Synonym: SILACYCLOHEXANE (2,2,6,6-D4)
Structure: 53494C414359434C4F484558414E452028322C322C362C362D4434292E6D6F6C0A20204368656D447261773038313231303036343632440A2031302031302020302020302020302020302020302020302020302020303939392056323030300A20202020302E303030302020202D302E3634333620202020302E303030302053692020302020302020302020302020302020302020302020302020302020302020302020300A2020202D302E373134352020202D302E3233313120202020302E303030302043202020302020302020302020302020302020302020302020302020302020302020302020300A2020202D302E3731343520202020302E3539333920202020302E303030302043202020302020302020302020302020302020302020302020302020302020302020302020300A20202020302E3030303020202020312E3030363420202020302E303030302043202020302020302020302020302020302020302020302020302020302020302020302020300A20202020302E3731343520202020302E3539333920202020302E303030302043202020302020302020302020302020302020302020302020302020302020302020302020300A20202020302E373134352020202D302E3233313120202020302E303030302043202020302020302020302020302020302020302020302020302020302020302020302020300A20202020312E353236392020202D302E3038373920202020302E303030302048202020312020302020302020302020302020302020302020302020302020302020302020300A20202020302E393936362020202D312E3030363420202020302E303030302048202020312020302020302020302020302020302020302020302020302020302020302020300A2020202D302E393936362020202D312E3030363420202020302E303030302048202020312020302020302020302020302020302020302020302020302020302020302020300A2020202D312E353236392020202D302E3038373920202020302E303030302048202020312020302020302020302020302020302020302020302020302020302020302020300A2020312020322020312020302020202020200A2020322020332020312020302020202020200A2020332020342020312020302020202020200A2020342020352020312020302020202020200A2020352020362020312020302020202020200A2020312020362020312020302020202020200A2020362020372020312020302020202020200A2020362020382020312020302020202020200A2020322020392020312020302020202020200A2020322031302020312020302020202020200A4D202049534F20203420202037202020322020203820202032202020392020203220203130202020320A4D2020454E44
Contributor: YAMAMOTO M, DEP. CHEMISTRY, FAC. SCIENCE, NARA WOMEN'S UNIV.
InstType: EI
InstName: HITACHI RMU-6M
IoniMethod: _ENERGY 20 eV
IonPolarity: pos
Date: 2010-10-09 19:48:36+02:00
Num Peaks: 32
42 11 43 26 44 121 45 113 46 113 47 36 57 20 58 20 59 38 60 122 
61 92 62 35 71 26 72 93 73 215 74 999 75 243 76 263 77 28 78 13 
85 18 86 14 87 31 88 13 89 17 100 30 101 52 102 99 103 160 104 621 
105 89 106 30 
