Name: MassBank: JP011946
MW: 392
Formula: C28H28Si
Synonym: MassBank: JP011946
Synonym: 1-PHENYL-1-(PENTAMETHYLCYCLOPENTA-2,4-DIENYL)DIBENZOSILACYCLOPENTADIENE
Structure: 312D5048454E594C2D312D2850454E54414D455448594C4359434C4F50454E54412D322C342D4449454E594C29444942454E5A4F53494C414359434C4F50454E54414449454E452E6D6F6C0A20204368656D447261773131323230393232313332440A2032392033332020302020302020302020302020302020302020302020303939392056323030300A2020202D322E3633393520202020312E3231333820202020302E303030302043202020302020302020302020302020302020302020302020302020302020302020302020300A2020202D322E3633393520202020302E3338383820202020302E303030302043202020302020302020302020302020302020302020302020302020302020302020302020300A2020202D312E393235382020202D302E3032333220202020302E303030302043202020302020302020302020302020302020302020302020302020302020302020302020300A2020202D312E3231333120202020302E3338383220202020302E303030302043202020302020302020302020302020302020302020302020302020302020302020302020300A2020202D312E3231333120202020312E3231303020202020302E303030302043202020302020302020302020302020302020302020302020302020302020302020302020300A2020202D312E3932343820202020312E3632313020202020302E303030302043202020302020302020302020302020302020302020302020302020302020302020302020300A2020202D302E3430373420202020302E3131353520202020302E303030302053692020302020302020302020302020302020302020302020302020302020302020302020300A20202020302E3035393620202020302E3739343220202020302E303030302043202020302020302020302020302020302020302020302020302020302020302020302020300A2020202D302E3432343220202020312E3436323820202020302E303030302043202020302020302020302020302020302020302020302020302020302020302020302020300A20202020302E3837393720202020302E3837383320202020302E303030302043202020302020302020302020302020302020302020302020302020302020302020302020300A20202020312E3231373320202020312E3633313120202020302E303030302043202020302020302020302020302020302020302020302020302020302020302020302020300A20202020302E3733343120202020322E3239393820202020302E303030302043202020302020302020302020302020302020302020302020302020302020302020302020300A2020202D302E3038363620202020322E3231353720202020302E303030302043202020302020302020302020302020302020302020302020302020302020302020302020300A2020202D302E393433372020202D302E3831333320202020302E303030302043202020302020302020302020302020302020302020302020302020302020302020302020300A20202020302E353133332020202D302E3431363020202020302E303030302043202020302020302020302020302020302020302020302020302020302020302020302020300A2020202D312E373736312020202D302E3831333320202020302E303030302043202020302020302020302020302020302020302020302020302020302020302020302020300A2020202D322E323033362020202D312E3535333720202020302E303030302043202020302020302020302020302020302020302020302020302020302020302020302020300A2020202D312E373732392020202D322E3239393820202020302E303030302043202020302020302020302020302020302020302020302020302020302020302020302020300A2020202D302E393132332020202D322E3239393820202020302E303030302043202020302020302020302020302020302020302020302020302020302020302020302020300A2020202D302E343835312020202D312E3536303020202020302E303030302043202020302020302020302020302020302020302020302020302020302020302020302020300A20202020302E353939352020202D312E3233363520202020302E303030302043202020302020302020302020302020302020302020302020302020302020302020302020300A20202020312E343036352020202D312E3430383020202020302E303030302043202020302020302020302020302020302020302020302020302020302020302020302020300A20202020312E383139302020202D302E3639333620202020302E303030302043202020302020302020302020302020302020302020302020302020302020302020302020300A20202020312E323636392020202D302E3038303520202020302E303030302043202020302020302020302020302020302020302020302020302020302020302020302020300A20202020302E3531333320202020302E3430393020202020302E303030302043202020302020302020302020302020302020302020302020302020302020302020302020300A20202020312E3433383520202020302E3732363520202020302E303030302043202020302020302020302020302020302020302020302020302020302020302020302020300A20202020322E363339352020202D302E3630373320202020302E303030302043202020302020302020302020302020302020302020302020302020302020302020302020300A20202020312E373432302020202D322E3136313720202020302E303030302043202020302020302020302020302020302020302020302020302020302020302020302020300A2020202D302E303133362020202D312E3738383620202020302E303030302043202020302020302020302020302020302020302020302020302020302020302020302020300A2020312020322020322020302020202020200A2020322020332020312020302020202020200A2020332020342020322020302020202020200A2020342020352020312020302020202020200A2020352020362020322020302020202020200A2020362020312020312020302020202020200A2020342020372020312020302020202020200A2020372020382020312020302020202020200A2020382020392020322020302020202020200A2020392020352020312020302020202020200A2020382031302020312020302020202020200A2031302031312020322020302020202020200A2031312031322020312020302020202020200A2031322031332020322020302020202020200A2031332020392020312020302020202020200A2020372031342020312020302020202020200A2020372031352020312020302020202020200A2031342031362020322020302020202020200A2031362031372020312020302020202020200A2031372031382020322020302020202020200A2031382031392020312020302020202020200A2031392032302020322020302020202020200A2032302031342020312020302020202020200A2031352032312020312020302020202020200A2032312032322020322020302020202020200A2032322032332020312020302020202020200A2032332032342020322020302020202020200A2032342031352020312020302020202020200A2031352032352020312020302020202020200A2032342032362020312020302020202020200A2032332032372020312020302020202020200A2032322032382020312020302020202020200A2032312032392020312020302020202020200A4D2020454E44
Contributor: ISHIKAWA M, HIROSHIMA UNIV. FAC. TEQUNOLOGY
InstType: EI
InstName: SHIMADZU QP-1000
IoniMethod: _ENERGY 70 eV
IonPolarity: pos
Date: 2010-10-09 19:48:36+02:00
Num Peaks: 23
53 32 54 68 56 21 77 27 78 11 79 11 91 27 105 27 119 58 134 121 
135 21 229 21 254 21 255 84 256 53 257 999 258 242 259 58 334 47 390 26 
392 547 393 221 394 58 
