Name: THIAMINE HYDROCHLORIDE
CAS: 67-03-8
MW: 336
Formula: C12H18Cl2N4OS
Synonym: MassBank: JP011929
Synonym: THIAMINE HYDROCHLORIDE
Structure: 303430335F544849414D494E4520485944524F43484C4F524944452E6D6F6C0A20204368656D447261773038323031303032343732440A2031392031392020302020302020302020302020302020302020302020303939392056323030300A2020202D332E353031392020202D302E3937373620202020302E30303030204F202020302020302020302020302020302020302020302020302020302020302020302020300A20202020302E363434312020202D312E3434323620202020302E30303030204E202020302020302020302020302020302020302020302020302020302020302020302020300A20202020312E333538352020202D312E3033303120202020302E303030302043202020302020302020302020302020302020302020302020302020302020302020302020300A20202020312E333538352020202D302E3230353120202020302E303030302043202020302020302020302020302020302020302020302020302020302020302020302020300A20202020302E3634343120202020302E3230373320202020302E303030302043202020302020302020302020302020302020302020302020302020302020302020302020300A2020202D302E303730332020202D302E3230353120202020302E30303030204E202020302020332020302020302020302020302020302020302020302020302020302020300A2020202D302E313536362020202D312E3032353620202020302E303030302043202020302020302020302020302020302020302020302020302020302020302020302020300A2020202D302E393633352020202D312E3139373120202020302E303030302053202020302020302020302020302020302020302020302020302020302020302020302020300A2020202D312E333736302020202D302E3438323620202020302E303030302043202020302020302020302020302020302020302020302020302020302020302020302020300A2020202D322E313936352020202D302E3339363420202020302E303030302043202020302020302020302020302020302020302020302020302020302020302020302020300A2020202D322E363831342020202D312E3036333820202020302E303030302043202020302020302020302020302020302020302020302020302020302020302020302020300A2020202D302E3832343020202020302E3133303420202020302E303030302043202020302020302020302020302020302020302020302020302020302020302020302020300A2020202D302E3939353520202020302E3933373420202020302E303030302043202020302020302020302020302020302020302020302020302020302020302020302020300A20202020322E3037333020202020302E3230373320202020302E303030302043202020302020302020302020302020302020302020302020302020302020302020302020300A20202020322E373837352020202D302E3230353120202020302E30303030204E202020302020302020302020302020302020302020302020302020302020302020302020300A20202020322E373837352020202D312E3033303120202020302E303030302043202020302020302020302020302020302020302020302020302020302020302020302020300A20202020332E353031392020202D312E3434323620202020302E303030302043202020302020302020302020302020302020302020302020302020302020302020302020300A20202020322E303733302020202D312E3434323620202020302E30303030204E202020302020302020302020302020302020302020302020302020302020302020302020300A2020202D302E3135363720202020312E3434323620202020302E3030303020436C2020302020352020302020302020302020302020302020302020302020302020302020300A2020322020332020312020302020202020200A2020332020342020322020302020202020200A2020342020352020312020302020202020200A2020352020362020312020302020202020200A2020362020372020322020302020202020200A2020372020382020312020302020202020200A2020382020392020312020302020202020200A2020392031302020312020302020202020200A2031302031312020312020302020202020200A2020312031312020312020302020202020200A2020392031322020322020302020202020200A2020362031322020312020302020202020200A2031322031332020312020302020202020200A2020342031342020312020302020202020200A2031342031352020322020302020202020200A2031352031362020312020302020202020200A2031362031372020312020302020202020200A2031362031382020322020302020202020200A2020332031382020312020302020202020200A4D202043484720203220202036202020312020313920202D310A4D2020454E44
Contributor: YAMAMOTO M, DEP. CHEMISTRY, FAC. SCIENCE, NARA WOMEN'S UNIV.
InstType: EI
InstName: HITACHI M-2500
IoniMethod: _ENERGY 70 eV
IonPolarity: pos
Date: 2010-10-09 19:48:36+02:00
Num Peaks: 70
14 12 15 24 26 64 27 127 28 166 29 298 30 45 31 999 32 31 33 19 
35 36 36 70 37 24 38 39 39 112 40 32 41 59 42 88 43 74 44 19 
45 228 46 15 47 21 49 14 50 58 51 98 52 88 53 69 54 36 55 23 
57 19 58 93 59 107 60 12 61 12 63 15 68 12 69 66 70 24 71 47 
72 15 80 16 81 19 84 11 85 100 86 18 97 10 98 15 111 11 112 608 
113 268 114 54 115 20 122 127 123 18 124 11 125 20 126 13 138 31 142 10 
143 361 144 58 145 25 147 14 148 12 157 24 159 12 161 11 233 26 264 21 
