Name: STYRENE OXIDE
MW: 120
Formula: C8H8O
Synonym: MassBank: JP011498
Synonym: STYRENE OXIDE
Structure: 310A32340A53545952454E45204F584944452E6D6F6C0A20204368656D447261773038313231303036353532440A2020392031302020302020302020302020302020302020302020302020303939392056323030300A2020202D312E3539343720202020302E3431323520202020302E303030302043202020302020302020302020302020302020302020302020302020302020302020302020300A2020202D302E383830332020202D302E3030303020202020302E303030302043202020302020302020302020302020302020302020302020302020302020302020302020300A2020202D302E303535332020202D302E3030303020202020302E303030302043202020302020302020302020302020302020302020302020302020302020302020302020300A20202020302E3335373220202020302E3731343520202020302E303030302043202020302020302020302020302020302020302020302020302020302020302020302020300A20202020312E3138323220202020302E3731343520202020302E303030302043202020302020302020302020302020302020302020302020302020302020302020302020300A20202020312E353934372020202D302E3030303020202020302E303030302043202020302020302020302020302020302020302020302020302020302020302020302020300A20202020312E313832322020202D302E3731343520202020302E303030302043202020302020302020302020302020302020302020302020302020302020302020302020300A20202020302E333537322020202D302E3731343520202020302E303030302043202020302020302020302020302020302020302020302020302020302020302020302020300A2020202D312E353934372020202D302E3431323520202020302E30303030204F202020302020302020302020302020302020302020302020302020302020302020302020300A2020312020322020312020302020202020200A2020322020332020312020302020202020200A2020332020342020312020302020202020200A2020342020352020322020302020202020200A2020352020362020312020302020202020200A2020362020372020322020302020202020200A2020372020382020312020302020202020200A2020332020382020322020302020202020200A2020312020392020312020302020202020200A2020322020392020312020302020202020200A4D2020454E44
Contributor: FUJISE Y, HAMAMATSU UNIV. SCHOOL OF MEDICINE
InstType: EI
InstName: JEOL JMS-DX-300
IoniMethod: _ENERGY 70 eV
IonPolarity: pos
Date: 2010-10-09 19:48:36+02:00
Num Peaks: 53
38 31 39 157 40 22 41 43 42 14 43 158 44 14 45 30 50 107 51 320 
52 76 53 41 55 18 57 27 60 11 61 11 62 31 63 105 64 32 65 129 
66 13 69 13 71 14 73 14 74 34 75 28 76 43 77 828 78 256 79 866 
80 67 85 11 87 13 89 150 90 147 91 454 92 102 93 17 94 18 102 20 
103 171 104 672 105 667 106 70 107 999 108 118 115 13 118 19 119 100 120 291 
121 151 122 100 123 11 
