Name: MassBank: JP011585
MW: 114
Formula: C6H14Si
Synonym: MassBank: JP011585
Synonym: 1,1-DIMETHYLSILACYCLOPENTANE
Structure: 310A31390A312C312D44494D455448594C53494C414359434C4F50454E54414E452E6D6F6C0A20204368656D447261773130323330393131313332440A2020372020372020302020302020302020302020302020302020302020303939392056323030300A20202020302E3030343020202020302E3332373620202020302E303030302053692020302020302020302020302020302020302020302020302020302020302020302020300A20202020302E363637342020202D302E3136323720202020302E303030302043202020302020302020302020302020302020302020302020302020302020302020302020300A20202020302E343036312020202D302E3934353220202020302E303030302043202020302020302020302020302020302020302020302020302020302020302020302020300A2020202D302E343138392020202D302E3933383520202020302E303030302043202020302020302020302020302020302020302020302020302020302020302020302020300A2020202D302E363637342020202D302E3135313820202020302E303030302043202020302020302020302020302020302020302020302020302020302020302020302020300A2020202D302E3534333120202020302E3934353220202020302E303030302043202020302020302020302020302020302020302020302020302020302020302020302020300A20202020302E3536313020202020302E3933363220202020302E303030302043202020302020302020302020302020302020302020302020302020302020302020302020300A2020312020322020312020302020202020200A2020322020332020312020302020202020200A2020332020342020312020302020202020200A2020342020352020312020302020202020200A2020312020352020312020302020202020200A2020312020362020312020362020202020200A2020312020372020312020312020202020200A4D2020454E44
Contributor: YAMAMOTO M, DEP. CHEMISTRY, FAC. SCIENCE, NARA WOMEN'S UNIV.
InstType: EI
InstName: HITACHI RMU-6M
IoniMethod: _ENERGY 70 eV
IonPolarity: pos
Date: 2010-10-09 19:48:36+02:00
Num Peaks: 39
27 38 28 28 29 92 31 64 39 28 41 15 42 54 43 318 44 50 45 99 
53 39 54 10 55 70 56 17 57 35 58 615 59 340 60 41 61 12 67 14 
69 11 70 25 71 292 72 72 73 31 83 15 85 42 86 999 87 104 88 40 
95 14 97 108 98 16 99 486 100 56 101 19 114 232 115 26 116 9 
