Name: MassBank: JP010174
MW: 263
Formula: C14H17NO4
Synonym: MassBank: JP010174
Synonym: DIMETHYL 1-PHENYLPYRROLIDINE-3,4-DICARBOXYLATE (3,4-CIS)
Structure: 303834345F44494D455448594C20312D5048454E594C505952524F4C4944494E452D332C342D4449434152424F58594C4154452028332C342D434953292E6D6F6C0A20204368656D447261773130323031303138313232440A2031392032302020302020302020302020302020302020302020302020303939392056323030300A2020202D302E3632313720202020302E3534323320202020302E30303030204E202020302020302020302020302020302020302020302020302020302020302020302020300A2020202D302E363231382020202D302E3238323720202020302E303030302043202020302020302020302020302020302020302020302020302020302020302020302020300A20202020302E313632382020202D302E3533373620202020302E303030302043202020302020302020302020302020302020302020302020302020302020302020302020300A20202020302E3634373720202020302E3132393820202020302E303030302043202020302020302020302020302020302020302020302020302020302020302020302020300A20202020302E3136323820202020302E3739373220202020302E303030302043202020302020302020302020302020302020302020302020302020302020302020302020300A20202020312E3437323720202020302E3132393820202020302E303030302043202020302020302020302020302020302020302020302020302020302020302020302020300A20202020302E343137372020202D312E3332323320202020302E303030302043202020302020302020302020302020302020302020302020302020302020302020302020300A20202020312E383835322020202D302E3538343720202020302E30303030204F202020302020302020302020302020302020302020302020302020302020302020302020300A20202020312E3838353220202020302E3834343320202020302E30303030204F202020302020302020302020302020302020302020302020302020302020302020302020300A20202020322E3731303220202020302E3834343320202020302E303030302043202020302020302020302020302020302020302020302020302020302020302020302020300A20202020312E323134362020202D312E3533353820202020302E30303030204F202020302020302020302020302020302020302020302020302020302020302020302020300A2020202D302E313635362020202D312E3930353620202020302E303030302043202020302020302020302020302020302020302020302020302020302020302020302020300A20202020312E343238322020202D322E3333323720202020302E303030302043202020302020302020302020302020302020302020302020302020302020302020302020300A2020202D312E3238393120202020312E3032373220202020302E303030302043202020302020302020302020302020302020302020302020302020302020302020302020300A2020202D312E3230323820202020312E3834373720202020302E303030302043202020302020302020302020302020302020302020302020302020302020302020302020300A2020202D312E3837303320202020322E3333323720202020302E303030302043202020302020302020302020302020302020302020302020302020302020302020302020300A2020202D322E3632333920202020312E3939373220202020302E303030302043202020302020302020302020302020302020302020302020302020302020302020302020300A2020202D322E3731303220202020312E3137363720202020302E303030302043202020302020302020302020302020302020302020302020302020302020302020302020300A2020202D322E3034323820202020302E3639313720202020302E303030302043202020302020302020302020302020302020302020302020302020302020302020302020300A2020312020322020312020302020202020200A2020322020332020312020302020202020200A2020332020342020312020302020202020200A2020342020352020312020302020202020200A2020352020312020312020302020202020200A2020342020362020312020312020202020200A2020332020372020312020312020202020200A2020362020382020322020302020202020200A2020362020392020312020302020202020200A2020392031302020312020302020202020200A2020372031312020312020302020202020200A2020372031322020322020302020202020200A2031312031332020312020302020202020200A2020312031342020312020302020202020200A2031342031352020322020302020202020200A2031352031362020312020302020202020200A2031362031372020322020302020202020200A2031372031382020312020302020202020200A2031382031392020322020302020202020200A2031392031342020312020302020202020200A4D2020454E44
Contributor: KANEMASA S, INST. OF ADVANCED MATERIAL STUDY KYUSHU UNIV.
InstType: EI
InstName: JEOL JMS-01-SG-2
IoniMethod: _ENERGY 75 eV
IonPolarity: pos
Date: 2010-10-09 19:48:36+02:00
Num Peaks: 27
39 110 41 115 51 157 59 134 77 486 87 83 91 379 99 90 104 323 105 119 
106 176 115 86 117 182 118 90 119 180 127 69 143 117 144 999 145 556 146 80 
177 196 202 167 204 212 232 106 248 68 263 768 264 129 
