Name: MassBank: JP011569
MW: 100
Formula: C5H12Si
Synonym: MassBank: JP011569
Synonym: SILACYCLOHEXANE (1,1-D2)
Structure: 310A32320A53494C414359434C4F484558414E452028312C312D4432292E6D6F6C0A20204368656D447261773038313231303036343632440A2020382020382020302020302020302020302020302020302020302020303939392056323030300A20202020302E3530393020202020302E3030303020202020302E303030302053692020302020302020302020302020302020302020302020302020302020302020302020300A20202020302E303936352020202D302E3731343520202020302E303030302043202020302020302020302020302020302020302020302020302020302020302020302020300A2020202D302E373238352020202D302E3731343520202020302E303030302043202020302020302020302020302020302020302020302020302020302020302020302020300A2020202D312E3134313020202020302E3030303020202020302E303030302043202020302020302020302020302020302020302020302020302020302020302020302020300A2020202D302E3732383520202020302E3731343520202020302E303030302043202020302020302020302020302020302020302020302020302020302020302020302020300A20202020302E3039363520202020302E3731343520202020302E303030302043202020302020302020302020302020302020302020302020302020302020302020302020300A20202020312E3134313020202020302E3533303320202020302E303030302048202020312020302020302020302020302020302020302020302020302020302020302020300A20202020312E313431302020202D302E3533303320202020302E303030302048202020312020302020302020302020302020302020302020302020302020302020302020300A2020312020322020312020302020202020200A2020322020332020312020302020202020200A2020332020342020312020302020202020200A2020342020352020312020302020202020200A2020352020362020312020302020202020200A2020312020362020312020302020202020200A2020312020372020312020302020202020200A2020312020382020312020302020202020200A4D202049534F202032202020372020203220202038202020320A4D2020454E44
Contributor: YAMAMOTO M, DEP. CHEMISTRY, FAC. SCIENCE, NARA WOMEN'S UNIV.
InstType: EI
InstName: HITACHI RMU-6M
IoniMethod: _ENERGY 20 eV
IonPolarity: pos
Date: 2010-10-09 19:48:36+02:00
Num Peaks: 32
28 14 32 13 41 23 43 35 44 88 45 151 46 96 47 19 57 19 58 41 
59 81 60 50 61 72 70 36 71 66 72 178 73 392 74 999 75 99 76 43 
83 17 84 14 86 24 87 22 97 33 98 76 99 39 100 85 101 24 102 611 
103 69 104 27 
