Name: DIPHENYLDI(3-THIENYL)SILANE
MW: 348
Formula: C20H16S2Si
Synonym: MassBank: JP011719
Synonym: DIPHENYLDI(3-THIENYL)SILANE
Structure: 44495048454E594C444928332D544849454E594C2953494C414E452E6D6F6C0A20204368656D447261773130313831303137333032440A2032332032362020302020302020302020302020302020302020302020303939392056323030300A2020202D302E313930322020202D302E3139303220202020302E303030302053692020302020302020302020302020302020302020302020302020302020302020302020300A2020202D302E383537372020202D312E3530303220202020302E303030302043202020302020302020302020302020302020302020302020302020302020302020302020300A2020202D302E313930322020202D312E3031353220202020302E303030302043202020302020302020302020302020302020302020302020302020302020302020302020300A20202020302E343737322020202D312E3530303220202020302E303030302043202020302020302020302020302020302020302020302020302020302020302020302020300A20202020302E323232332020202D322E3238343820202020302E303030302043202020302020302020302020302020302020302020302020302020302020302020302020300A2020202D302E363032372020202D322E3238343820202020302E303030302053202020302020302020302020302020302020302020302020302020302020302020302020300A2020202D312E3530303220202020302E3437373220202020302E303030302043202020302020302020302020302020302020302020302020302020302020302020302020300A2020202D312E303135322020202D302E3139303220202020302E303030302043202020302020302020302020302020302020302020302020302020302020302020302020300A2020202D312E353030322020202D302E3835373720202020302E303030302043202020302020302020302020302020302020302020302020302020302020302020302020300A2020202D322E323834382020202D302E3630323720202020302E303030302043202020302020302020302020302020302020302020302020302020302020302020302020300A2020202D322E3238343820202020302E3232323320202020302E303030302053202020302020302020302020302020302020302020302020302020302020302020302020300A2020202D302E3139303220202020302E3633343820202020302E303030302043202020302020302020302020302020302020302020302020302020302020302020302020300A2020202D302E3930343720202020312E3034373320202020302E303030302043202020302020302020302020302020302020302020302020302020302020302020302020300A2020202D302E3930343720202020312E3837323320202020302E303030302043202020302020302020302020302020302020302020302020302020302020302020302020300A2020202D302E3139303220202020322E3238343820202020302E303030302043202020302020302020302020302020302020302020302020302020302020302020302020300A20202020302E3532343220202020312E3837323320202020302E303030302043202020302020302020302020302020302020302020302020302020302020302020302020300A20202020302E3532343220202020312E3034373320202020302E303030302043202020302020302020302020302020302020302020302020302020302020302020302020300A20202020302E363334382020202D302E3139303220202020302E303030302043202020302020302020302020302020302020302020302020302020302020302020302020300A20202020312E3034373320202020302E3532343220202020302E303030302043202020302020302020302020302020302020302020302020302020302020302020302020300A20202020312E3837323320202020302E3532343220202020302E303030302043202020302020302020302020302020302020302020302020302020302020302020302020300A20202020322E323834382020202D302E3139303220202020302E303030302043202020302020302020302020302020302020302020302020302020302020302020302020300A20202020312E383732332020202D302E3930343720202020302E303030302043202020302020302020302020302020302020302020302020302020302020302020302020300A20202020312E303437332020202D302E3930343720202020302E303030302043202020302020302020302020302020302020302020302020302020302020302020302020300A2020322020332020322020302020202020200A2020332020342020312020302020202020200A2020342020352020322020302020202020200A2020352020362020312020302020202020200A2020322020362020312020302020202020200A2020312020332020312020302020202020200A2020372020382020322020302020202020200A2020382020392020312020302020202020200A2020392031302020322020302020202020200A2031302031312020312020302020202020200A2020372031312020312020302020202020200A2020312020382020312020302020202020200A2031322031332020312020302020202020200A2031332031342020322020302020202020200A2031342031352020312020302020202020200A2031352031362020322020302020202020200A2031362031372020312020302020202020200A2031322031372020322020302020202020200A2020312031322020312020302020202020200A2031382031392020312020302020202020200A2031392032302020322020302020202020200A2032302032312020312020302020202020200A2032312032322020322020302020202020200A2032322032332020312020302020202020200A2031382032332020322020302020202020200A2020312031382020312020302020202020200A4D2020454E44
Contributor: FAC. TECHNOLOGY, HIROSHIMA UNIV.
InstType: EI
InstName: SHIMADZU QP-1000
IoniMethod: _ENERGY 70 eV
IonPolarity: pos
Date: 2010-10-09 19:48:36+02:00
Num Peaks: 86
50 28 51 254 52 21 53 155 55 14 57 14 63 14 75 14 76 14 77 282 
78 35 79 56 83 14 85 56 89 21 101 35 102 42 103 42 105 211 106 21 
111 92 115 28 117 14 126 21 127 141 128 85 129 28 132 42 133 21 134 35 
135 92 136 14 137 148 138 14 139 21 143 56 152 21 155 21 161 42 163 14 
165 21 167 21 173 42 178 28 179 14 180 21 181 56 186 21 187 99 188 70 
189 21 193 28 194 134 195 21 196 14 202 21 204 28 205 14 208 14 210 28 
211 42 213 28 226 14 233 21 237 21 239 21 245 21 263 42 264 28 265 211 
266 56 267 21 269 21 271 999 272 211 273 134 274 21 302 35 313 14 314 42 
315 106 316 28 348 951 349 282 350 148 351 28 
