Name: PHTHALIDE
MW: 134
Formula: C8H6O2
Synonym: MassBank: JP010781
Synonym: PHTHALIDE
Structure: 50485448414C4944452E6D6F6C0A20204368656D447261773038313231303035343432440A2031302031312020302020302020302020302020302020302020302020303939392056323030300A2020202D312E353335302020202D302E3638373120202020302E30303030204F202020302020302020302020302020302020302020302020302020302020302020302020300A2020202D302E393231392020202D302E3133353020202020302E303030302043202020302020302020302020302020302020302020302020302020302020302020302020300A2020202D312E3030383220202020302E3638353520202020302E30303030204F202020302020302020302020302020302020302020302020302020302020302020302020300A2020202D302E3235343520202020312E3032313020202020302E303030302043202020302020302020302020302020302020302020302020302020302020302020302020300A20202020302E3239373520202020302E3430373920202020302E303030302043202020302020302020302020302020302020302020302020302020302020302020302020300A20202020312E3132323520202020302E3430373920202020302E303030302043202020302020302020302020302020302020302020302020302020302020302020302020300A20202020312E353335302020202D302E3330363520202020302E303030302043202020302020302020302020302020302020302020302020302020302020302020302020300A20202020312E313232352020202D312E3032313020202020302E303030302043202020302020302020302020302020302020302020302020302020302020302020302020300A20202020302E323937352020202D312E3032313020202020302E303030302043202020302020302020302020302020302020302020302020302020302020302020302020300A2020202D302E313135302020202D302E3330363520202020302E303030302043202020302020302020302020302020302020302020302020302020302020302020302020300A2020312020322020322020302020202020200A2020322020332020312020302020202020200A2020332020342020312020302020202020200A2020342020352020312020302020202020200A2020352020362020312020302020202020200A2020362020372020322020302020202020200A2020372020382020312020302020202020200A2020382020392020322020302020202020200A2020392031302020312020302020202020200A2020322031302020312020302020202020200A2020352031302020322020302020202020200A4D2020454E44
Contributor: FUJISE Y, HAMAMATSU UNIV. SCHOOL OF MEDICINE
InstType: EI
InstName: JEOL JMS-D-300
IoniMethod: _ENERGY 70 eV
IonPolarity: pos
Date: 2010-10-09 19:48:36+02:00
Num Peaks: 21
440 12 490 11 500 96 510 121 520 30 610 11 620 19 630 32 660 32 740 35 
750 30 760 97 770 407 780 37 890 16 1040 29 1050 999 1060 80 1330 151 1340 443 
1350 40 
