Name: MassBank: JP010128
MW: 242
Formula: C15H30O2
Synonym: MassBank: JP010128
Synonym: 1,2-EPOXY-3,7,11-TRIMETHYLDODECANE-3-OL
Structure: 312C322D45504F58592D332C372C31312D5452494D455448594C444F444543414E452D332D4F4C2E6D6F6C0A20204368656D447261773131303530393133353632440A2031372031372020302020302020302020302020302020302020302020303939392056323030300A20202020322E3835373920202020302E3932303720202020302E30303030204F202020302020302020302020302020302020302020302020302020302020302020302020300A20202020322E3434353420202020302E3230363220202020302E303030302043202020302020302020302020302020302020302020302020302020302020302020302020300A20202020312E3733303920202020302E3631383820202020302E303030302043202020302020302020302020302020302020302020302020302020302020302020302020300A20202020312E3031363420202020302E3230363320202020302E303030302043202020302020302020302020302020302020302020302020302020302020302020302020300A20202020302E3330323020202020302E3631383820202020302E303030302043202020302020302020302020302020302020302020302020302020302020302020302020300A2020202D302E3431323520202020302E3230363320202020302E303030302043202020302020302020302020302020302020302020302020302020302020302020302020300A2020202D312E3132373020202020302E3631383820202020302E303030302043202020302020302020302020302020302020302020302020302020302020302020302020300A2020202D312E3834313420202020302E3230363320202020302E303030302043202020302020302020302020302020302020302020302020302020302020302020302020300A2020202D322E3535353920202020302E3631383820202020302E303030302043202020302020302020302020302020302020302020302020302020302020302020302020300A2020202D332E3237303420202020302E3230363320202020302E303030302043202020302020302020302020302020302020302020302020302020302020302020302020300A2020202D332E3938343920202020302E3631383820202020302E303030302043202020302020302020302020302020302020302020302020302020302020302020302020300A20202020332E313539392020202D302E3230363320202020302E303030302043202020302020302020302020302020302020302020302020302020302020302020302020300A2020202D332E323730342020202D302E3631383720202020302E303030302043202020302020302020302020302020302020302020302020302020302020302020302020300A2020202D302E343132352020202D302E3631383720202020302E303030302043202020302020302020302020302020302020302020302020302020302020302020302020300A20202020322E303332392020202D302E3530383220202020302E303030302043202020302020302020302020302020302020302020302020302020302020302020302020300A20202020332E353732342020202D302E3932303720202020302E303030302043202020302020302020302020302020302020302020302020302020302020302020302020300A20202020332E393834392020202D302E3230363320202020302E30303030204F202020302020302020302020302020302020302020302020302020302020302020302020300A2020312020322020312020302020202020200A2020322020332020312020302020202020200A2020332020342020312020302020202020200A2020342020352020312020302020202020200A2020352020362020312020302020202020200A2020362020372020312020302020202020200A2020372020382020312020302020202020200A2020382020392020312020302020202020200A2020392031302020312020302020202020200A2031302031312020312020302020202020200A2020322031322020312020302020202020200A2031302031332020312020302020202020200A2020362031342020312020302020202020200A2020322031352020312020302020202020200A2031322031362020312020302020202020200A2031362031372020312020302020202020200A2031372031322020312020302020202020200A4D2020454E44
Contributor: KURARAY CO., LTD.
InstType: EI
InstName: JEOL JMS-D-300
IoniMethod: _ENERGY 70 eV
IonPolarity: pos
Date: 2010-10-09 19:48:36+02:00
Num Peaks: 38
27 40 29 80 31 20 39 2 41 130 42 40 43 830 44 2 45 20 55 220 
56 70 57 21 58 60 59 40 67 30 68 4 69 340 70 70 71 170 72 2 
81 60 82 30 83 240 84 3 85 70 86 20 87 999 88 6 89 20 95 60 
97 140 99 3 109 40 111 120 125 90 139 2 199 110 200 20 
