Name: MassBank: JP011456
MW: 156
Formula: C10H20O
Synonym: MassBank: JP011456
Synonym: 1,2-EPOXY-DECANE
Structure: 312C322D45504F58592D444543414E452E6D6F6C0A20204368656D447261773131313030393135343432440A2031312031312020302020302020302020302020302020302020302020303939392056323030300A20202020322E3730363920202020302E3937363020202020302E303030302043202020302020302020302020302020302020302020302020302020302020302020302020300A20202020322E3239343420202020302E3236313520202020302E303030302043202020302020302020302020302020302020302020302020302020302020302020302020300A20202020322E323934342020202D302E3536333520202020302E303030302043202020302020302020302020302020302020302020302020302020302020302020302020300A20202020312E353739392020202D302E3937363020202020302E303030302043202020302020302020302020302020302020302020302020302020302020302020302020300A20202020302E383635352020202D302E3536333520202020302E303030302043202020302020302020302020302020302020302020302020302020302020302020302020300A20202020302E313531302020202D302E3937363020202020302E303030302043202020302020302020302020302020302020302020302020302020302020302020302020300A2020202D302E353633352020202D302E3536333520202020302E303030302043202020302020302020302020302020302020302020302020302020302020302020302020300A2020202D312E323738302020202D302E3937363020202020302E303030302043202020302020302020302020302020302020302020302020302020302020302020302020300A2020202D312E393932342020202D302E3536333520202020302E303030302043202020302020302020302020302020302020302020302020302020302020302020302020300A2020202D322E373036392020202D302E3937363020202020302E303030302043202020302020302020302020302020302020302020302020302020302020302020302020300A20202020312E3838313920202020302E3937363020202020302E30303030204F202020302020302020302020302020302020302020302020302020302020302020302020300A2020312020322020312020302020202020200A2020322020332020312020302020202020200A2020332020342020312020302020202020200A2020342020352020312020302020202020200A2020352020362020312020302020202020200A2020362020372020312020302020202020200A2020372020382020312020302020202020200A2020382020392020312020302020202020200A2020392031302020312020302020202020200A2020312031312020312020302020202020200A2020322031312020312020302020202020200A4D2020454E44
Contributor: FUJISE Y, HAMAMATSU UNIV. SCHOOL OF MEDICINE
InstType: EI
InstName: JEOL JMS-DX-300
IoniMethod: _ENERGY 70 eV
IonPolarity: pos
Date: 2010-10-09 19:48:36+02:00
Num Peaks: 55
38 19 39 603 40 130 41 936 42 686 43 930 44 106 45 184 51 26 52 16 
53 186 54 450 55 919 56 801 57 677 58 805 59 184 65 27 66 85 67 609 
68 780 69 757 70 462 71 999 72 148 73 18 77 19 79 47 80 30 81 561 
82 765 83 390 84 131 85 299 86 27 94 20 95 490 96 411 97 173 98 137 
99 73 100 14 109 110 110 79 111 15 113 130 114 11 124 65 125 13 126 18 
127 52 128 10 155 4 156 4 157 7 
