Name: MassBank: JP011692
MW: 450
Formula: C27H42Si3
Synonym: MassBank: JP011692
Synonym: 3,4-DIMETHYL-6-(2,5-DIMETHYLPHENYL)-6-PHENYL-1,1-BIS(TRIMETHYLSILYL)-1-SILACYCLOHEX-3-ENE
Structure: 332C342D44494D455448594C2D362D28322C352D44494D455448594C5048454E594C292D362D5048454E594C2D312C312D424953285452494D455448594C53494C594C292D312D53494C414359434C4F4845582D332D454E452E6D6F6C0A20204368656D447261773032323131303232353032440A2033302033322020302020302020302020302020302020302020302020303939392056323030300A2020202D312E343531342020202D302E3130383520202020302E303030302043202020302020302020302020302020302020302020302020302020302020302020302020300A2020202D312E333038312020202D302E3932313020202020302E303030302043202020302020302020302020302020302020302020302020302020302020302020302020300A2020202D302E353332392020202D312E3230333120202020302E303030302043202020302020302020302020302020302020302020302020302020302020302020302020300A20202020302E303939312020202D302E3637323820202020302E303030302043202020302020302020302020302020302020302020302020302020302020302020302020300A2020202D302E3034343220202020302E3133393620202020302E303030302043202020302020302020302020302020302020302020302020302020302020302020302020300A2020202D302E3831393420202020302E3432313820202020302E303030302053692020302020302020302020302020302020302020302020302020302020302020302020300A20202020302E363131382020202D302E3336363320202020302E303030302043202020302020302020302020302020302020302020302020302020302020302020302020300A2020202D312E393430312020202D312E3435313320202020302E303030302043202020302020302020302020302020302020302020302020302020302020302020302020300A2020202D302E333839362020202D322E3031353620202020302E303030302043202020302020302020302020302020302020302020302020302020302020302020302020300A20202020302E383235332020202D312E3136333220202020302E303030302043202020302020302020302020302020302020302020302020302020302020302020302020300A20202020312E363232322020202D312E3337363820202020302E303030302043202020302020302020302020302020302020302020302020302020302020302020302020300A20202020322E323035352020202D302E3739333420202020302E303030302043202020302020302020302020302020302020302020302020302020302020302020302020300A20202020312E3939323020202020302E3030333520202020302E303030302043202020302020302020302020302020302020302020302020302020302020302020302020300A20202020312E3139353120202020302E3231373020202020302E303030302043202020302020302020302020302020302020302020302020302020302020302020302020300A2020202D322E3031353720202020302E3937393620202020302E303030302053692020302020302020302020302020302020302020302020302020302020302020302020300A2020202D302E3639373620202020312E3139303120202020302E303030302053692020302020302020302020302020302020302020302020302020302020302020302020300A2020202D302E3433383120202020312E3937333220202020302E303030302043202020302020302020302020302020302020302020302020302020302020302020302020300A2020202D312E3433343920202020312E3536303420202020302E303030302043202020302020302020302020302020302020302020302020302020302020302020302020300A20202020302E3037373620202020302E3930383020202020302E303030302043202020302020302020302020302020302020302020302020302020302020302020302020300A2020202D322E3739383920202020312E3233393120202020302E303030302043202020302020302020302020302020302020302020302020302020302020302020302020300A2020202D322E3332303320202020302E3231323920202020302E303030302043202020302020302020302020302020302020302020302020302020302020302020302020300A2020202D312E3733383120202020322E3031353620202020302E303030302043202020302020302020302020302020302020302020302020302020302020302020302020300A20202020302E3632313720202020302E3533373420202020302E303030302043202020302020302020302020302020302020302020302020302020302020302020302020300A20202020312E3431383620202020302E3332333820202020302E303030302043202020302020302020302020302020302020302020302020302020302020302020302020300A20202020322E3030323020202020302E3930373220202020302E303030302043202020302020302020302020302020302020302020302020302020302020302020302020300A20202020312E3738383420202020312E3730343120202020302E303030302043202020302020302020302020302020302020302020302020302020302020302020302020300A20202020302E3939313520202020312E3931373620202020302E303030302043202020302020302020302020302020302020302020302020302020302020302020302020300A20202020302E3430383220202020312E3333343320202020302E303030302043202020302020302020302020302020302020302020302020302020302020302020302020300A20202020322E3739383920202020302E3639333720202020302E303030302043202020302020302020302020302020302020302020302020302020302020302020302020300A2020202D302E3338383720202020312E3534373820202020302E303030302043202020302020302020302020302020302020302020302020302020302020302020302020300A2020312020322020312020302020202020200A2020322020332020322020302020202020200A2020332020342020312020302020202020200A2020342020352020312020302020202020200A2020352020362020312020302020202020200A2020362020312020312020302020202020200A2020352020372020312020302020202020200A2020322020382020312020302020202020200A2020332020392020312020302020202020200A2020372031302020322020302020202020200A2031302031312020312020302020202020200A2031312031322020322020302020202020200A2031322031332020312020302020202020200A2031332031342020322020302020202020200A2031342020372020312020302020202020200A2020362031352020312020312020202020200A2020362031362020312020362020202020200A2031362031372020312020302020202020200A2031362031382020312020302020202020200A2031362031392020312020302020202020200A2031352032302020312020302020202020200A2031352032312020312020302020202020200A2031352032322020312020302020202020200A2020352032332020312020302020202020200A2032332032342020322020302020202020200A2032342032352020312020302020202020200A2032352032362020322020302020202020200A2032362032372020312020302020202020200A2032372032382020322020302020202020200A2032382032332020312020302020202020200A2032352032392020312020302020202020200A2032382033302020312020302020202020200A4D2020454E44
Contributor: FAC. TECHNOLOGY, HIROSHIMA UNIV.
InstType: EI
InstName: SHIMADZU QP-1000
IoniMethod: _ENERGY 70 eV
IonPolarity: pos
Date: 2010-10-09 19:48:36+02:00
Num Peaks: 73
53 21 55 32 57 11 58 11 59 351 60 21 67 32 69 32 71 11 73 999 
74 74 75 32 81 11 83 32 85 32 91 21 95 11 97 21 99 32 101 21 
105 43 109 21 111 11 115 32 119 21 121 20 123 15 125 32 127 11 129 32 
131 43 133 21 135 128 136 11 141 11 145 21 149 32 155 11 159 32 163 64 
169 21 173 11 175 11 179 11 181 53 191 11 213 21 225 21 227 32 236 21 
241 21 255 11 303 15 306 19 307 45 308 15 321 13 334 15 335 49 336 13 
369 30 376 55 377 130 378 45 379 15 408 15 409 15 435 13 436 11 450 119 
451 128 452 62 453 30 
