Name: 2-AMINO-2-THIAZOLINE
CAS: 1779-81-3
MW: 102
Formula: C3H6N2S
Synonym: MassBank: JP011889
Synonym: 2-AMINO-2-THIAZOLINE
Structure: 310A31370A322D414D494E4F2D322D544849415A4F4C494E452E6D6F6C0A20204368656D447261773132323130393232313232440A2020362020362020302020302020302020302020302020302020302020303939392056323030300A20202020302E323632372020202D302E3636373420202020302E303030302053202020302020302020302020302020302020302020302020302020302020302020302020300A2020202D302E3232323320202020302E3030303020202020302E303030302043202020302020302020302020302020302020302020302020302020302020302020302020300A20202020302E3236323720202020302E3636373420202020302E30303030204E202020302020302020302020302020302020302020302020302020302020302020302020300A20202020312E3034373320202020302E3431323520202020302E303030302043202020302020302020302020302020302020302020302020302020302020302020302020300A20202020312E303437332020202D302E3431323520202020302E303030302043202020302020302020302020302020302020302020302020302020302020302020302020300A2020202D312E3034373320202020302E3030303020202020302E30303030204E202020302020302020302020302020302020302020302020302020302020302020302020300A2020312020322020312020302020202020200A2020322020332020322020302020202020200A2020332020342020312020302020202020200A2020342020352020312020302020202020200A2020312020352020312020302020202020200A2020322020362020312020302020202020200A4D2020454E44
Contributor: YAMAMOTO M, DEP. CHEMISTRY, FAC. SCIENCE, NARA WOMEN'S UNIV.
InstType: EI
InstName: HITACHI M-2500
IoniMethod: _ENERGY 70 eV
IonPolarity: pos
Date: 2010-10-09 19:48:36+02:00
Num Peaks: 31
15 12 18 20 26 18 27 54 28 126 29 13 30 10 32 18 33 11 40 19 
41 21 42 56 43 189 45 171 46 42 47 28 55 118 56 382 57 18 58 65 
59 268 60 498 61 32 62 21 74 41 75 11 100 13 101 447 102 999 103 88 
104 47 
