Name: MassBank: JP010416
MW: 335
Formula: C13H16F3N3O4
Synonym: MassBank: JP010416
Synonym: N-BUTYL-N-ETHYL-2,6-DINITRO-4-(TRIFLUOROMETHYL)BENZENAMINE
Synonym: BENFLURALIN
Structure: 4E2D425554594C2D4E2D455448594C2D322C362D44494E4954524F2D342D28545249464C554F524F4D455448594C2942454E5A454E414D494E452E6D6F6C0A20204368656D447261773038313331303133313132440A2032332032332020302020302020302020302020302020302020302020303939392056323030300A2020202D302E333537322020202D302E3230363220202020302E303030302043202020302020302020302020302020302020302020302020302020302020302020302020300A2020202D312E303731372020202D302E3631383820202020302E303030302043202020302020302020302020302020302020302020302020302020302020302020302020300A2020202D312E373836322020202D302E3230363220202020302E303030302043202020302020302020302020302020302020302020302020302020302020302020302020300A2020202D312E3738363220202020302E3631383820202020302E303030302043202020302020302020302020302020302020302020302020302020302020302020302020300A2020202D312E3037313720202020312E3033313320202020302E303030302043202020302020302020302020302020302020302020302020302020302020302020302020300A2020202D302E3335373220202020302E3631383820202020302E303030302043202020302020302020302020302020302020302020302020302020302020302020302020300A20202020302E333537322020202D302E3631383720202020302E30303030204E202020302020302020302020302020302020302020302020302020302020302020302020300A2020202D322E3530303620202020312E3033313320202020302E303030302043202020302020302020302020302020302020302020302020302020302020302020302020300A2020202D322E3038383120202020312E3734353720202020302E303030302046202020302020302020302020302020302020302020302020302020302020302020302020300A2020202D322E3931333120202020302E3331363820202020302E303030302046202020302020302020302020302020302020302020302020302020302020302020302020300A2020202D332E3231353120202020312E3434333820202020302E303030302046202020302020302020302020302020302020302020302020302020302020302020302020300A20202020302E3335373220202020312E3033313320202020302E30303030204E202020302020332020302020302020302020302020302020302020302020302020302020300A20202020302E3335373220202020312E3835363320202020302E30303030204F202020302020302020302020302020302020302020302020302020302020302020302020300A20202020312E3037313720202020302E3631383820202020302E30303030204F202020302020352020302020302020302020302020302020302020302020302020302020300A2020202D312E303731372020202D312E3434333720202020302E30303030204E202020302020332020302020302020302020302020302020302020302020302020302020300A2020202D312E373836322020202D312E3835363320202020302E30303030204F202020302020302020302020302020302020302020302020302020302020302020302020300A2020202D302E333537322020202D312E3835363320202020302E30303030204F202020302020352020302020302020302020302020302020302020302020302020302020300A20202020302E333537322020202D312E3434333720202020302E303030302043202020302020302020302020302020302020302020302020302020302020302020302020300A20202020312E303731372020202D312E3835363220202020302E303030302043202020302020302020302020302020302020302020302020302020302020302020302020300A20202020312E303731372020202D302E3230363220202020302E303030302043202020302020302020302020302020302020302020302020302020302020302020302020300A20202020312E373836322020202D302E3631383720202020302E303030302043202020302020302020302020302020302020302020302020302020302020302020302020300A20202020322E353030362020202D302E3230363220202020302E303030302043202020302020302020302020302020302020302020302020302020302020302020302020300A20202020332E323135312020202D302E3631383720202020302E303030302043202020302020302020302020302020302020302020302020302020302020302020302020300A2020312020322020312020302020202020200A2020322020332020322020302020202020200A2020332020342020312020302020202020200A2020342020352020322020302020202020200A2020352020362020312020302020202020200A2020312020362020322020302020202020200A2020312020372020312020302020202020200A2020382020392020312020312020202020200A2020382031302020312020312020202020200A2020382031312020312020302020202020200A2020342020382020312020302020202020200A2031322031332020322020302020202020200A2031322031342020312020302020202020200A2020362031322020312020302020202020200A2031352031362020322020302020202020200A2031352031372020312020302020202020200A2020322031352020312020302020202020200A2031382031392020312020302020202020200A2020372031382020312020302020202020200A2032302032312020312020302020202020200A2032312032322020312020302020202020200A2032322032332020312020302020202020200A2020372032302020312020302020202020200A4D202043484720203420203132202020312020313420202D3120203135202020312020313720202D310A4D2020454E44
Contributor: UOEH
InstType: EI
InstName: JEOL JMS-DX-303
IoniMethod: _ENERGY 70 eV
IonPolarity: pos
Date: 2010-10-09 19:48:36+02:00
Num Peaks: 71
36 15 41 34 43 24 55 12 57 30 105 27 126 12 133 12 140 17 143 14 
144 10 145 41 146 14 147 12 152 10 153 21 158 14 159 31 160 44 161 10 
166 12 171 12 172 25 173 15 174 19 185 13 186 33 187 31 188 22 189 15 
198 14 199 17 200 27 201 28 202 31 206 41 213 15 214 18 215 23 218 26 
227 10 228 25 229 18 230 14 232 35 234 12 240 14 241 11 242 20 243 10 
246 12 248 30 260 24 262 18 264 221 265 24 271 25 273 12 276 121 277 15 
278 14 288 11 292 999 293 127 294 20 316 39 318 80 319 14 320 16 335 74 
336 17 
