Name: TRANS-2-HEXENYL BEZOATE
MW: 204
Formula: C13H16O2
Synonym: MassBank: JP010915
Synonym: TRANS-2-HEXENYL BEZOATE
Structure: 310A350A5452414E532D322D484558454E594C2042455A4F4154452E6D6F6C0A20204368656D447261773038313231303037353032440A2020302020302020302020302020302020302020302020302020302020303939392056323030300A4D2020454E44
Contributor: SODA AROMATIC CO., LTD.
InstType: EI
InstName: HITACHI M-80B
IoniMethod: _ENERGY 70 eV
IonPolarity: pos
Date: 2010-10-09 19:48:36+02:00
Num Peaks: 28
27 67 29 38 39 79 41 137 42 19 50 28 51 103 52 10 53 32 54 51 
55 106 56 11 57 28 65 12 67 170 76 12 77 249 78 21 79 18 81 18 
82 84 83 20 105 999 106 77 117 11 123 14 175 11 204 13 
