Name: N-ACETYL-L-CYSTEINE
CAS: 616-91-1
MW: 163
Formula: C5H9NO3S
Synonym: MassBank: JP011891
Synonym: N-ACETYL-L-CYSTEINE
Structure: 4E2D41434554594C2D4C2D4359535445494E452E6D6F6C0A20204368656D447261773038313231303031333832440A2031302020392020302020302020302020302020302020302020302020303939392056323030300A20202020302E3230363220202020302E3731343520202020302E303030302043202020302020302020302020302020302020302020302020302020302020302020302020300A20202020302E323036322020202D302E3731343520202020302E30303030204E202020302020302020302020302020302020302020302020302020302020302020302020300A2020202D302E3230363220202020302E3030303020202020302E303030302043202020302020302020302020302020302020302020302020302020302020302020302020300A2020202D312E3033313320202020302E3030303020202020302E303030302043202020302020302020302020302020302020302020302020302020302020302020302020300A2020202D312E343433382020202D302E3731343520202020302E303030302053202020302020302020302020302020302020302020302020302020302020302020302020300A20202020312E3033313320202020302E3731343520202020302E30303030204F202020302020302020302020302020302020302020302020302020302020302020302020300A2020202D302E3230363220202020312E3432383920202020302E30303030204F202020302020302020302020302020302020302020302020302020302020302020302020300A20202020312E303331332020202D302E3731343520202020302E303030302043202020302020302020302020302020302020302020302020302020302020302020302020300A20202020312E3434333820202020302E3030303020202020302E30303030204F202020302020302020302020302020302020302020302020302020302020302020302020300A20202020312E343433382020202D312E3432383920202020302E303030302043202020302020302020302020302020302020302020302020302020302020302020302020300A2020332020322020312020312020202020200A2020312020332020312020302020202020200A2020332020342020312020302020202020200A2020342020352020312020302020202020200A2020312020362020322020302020202020200A2020312020372020312020302020202020200A2020382020392020322020302020202020200A2020382031302020312020302020202020200A2020322020382020312020302020202020200A4D2020454E44
Contributor: YAMAMOTO M, DEP. CHEMISTRY, FAC. SCIENCE, NARA WOMEN'S UNIV.
InstType: EI
InstName: HITACHI M-2500
IoniMethod: _ENERGY 70 eV
IonPolarity: pos
Date: 2010-10-09 19:48:36+02:00
Num Peaks: 49
14 16 15 106 17 11 18 40 26 14 27 46 28 183 29 24 30 50 32 10 
33 13 34 12 40 22 41 58 42 138 43 999 44 123 45 123 46 57 47 98 
48 28 55 17 56 11 57 67 58 56 59 138 60 797 61 24 70 31 71 22 
74 326 75 78 76 310 77 15 78 14 84 21 85 55 86 82 87 40 88 42 
99 105 100 45 117 28 118 44 120 21 121 19 130 13 151 14 163 41 
