Name: SELIN-11-EN-4ALPHA-OL
MW: 222
Formula: C15H26O
Synonym: MassBank: JP010677
Synonym: SELIN-11-EN-4ALPHA-OL
Structure: 303537325F53454C494E2D31312D454E2D34414C5048412D4F4C2E6D6F6C0A20204368656D447261773038323031303035353032440A2031382031392020302020302020302020302020302020302020302020303939392056323030300A2020202D302E3637333320202020302E3232303320202020302E303030302043202020302020302020302020302020302020302020302020302020302020302020302020300A2020202D302E363733332020202D302E3630343720202020302E303030302043202020302020302020302020302020302020302020302020302020302020302020302020300A20202020302E303431322020202D312E3031373220202020302E303030302043202020302020302020302020302020302020302020302020302020302020302020302020300A20202020302E373535372020202D302E3630343720202020302E303030302043202020302020302020302020302020302020302020302020302020302020302020302020300A20202020302E3735353720202020302E3232303320202020302E303030302043202020302020302020302020302020302020302020302020302020302020302020302020300A20202020302E3034313220202020302E3633323820202020302E303030302043202020302020302020302020302020302020302020302020302020302020302020302020300A20202020312E343730322020202D312E3031373220202020302E303030302043202020302020302020302020302020302020302020302020302020302020302020302020300A20202020322E313834362020202D302E3630343720202020302E303030302043202020302020302020302020302020302020302020302020302020302020302020302020300A20202020322E3138343620202020302E3232303320202020302E303030302043202020302020302020302020302020302020302020302020302020302020302020302020300A20202020312E3437303220202020302E3633323820202020302E303030302043202020302020302020302020302020302020302020302020302020302020302020302020300A20202020302E373535372020202D312E3432393720202020302E303030302043202020302020302020302020302020302020302020302020302020302020302020302020300A20202020322E3035333520202020312E3231363220202020302E303030302043202020302020302020302020302020302020302020302020302020302020302020302020300A2020202D312E333837372020202D302E3139323220202020302E303030302043202020302020302020302020302020302020302020302020302020302020302020302020300A20202020302E3735353720202020312E3034353320202020302E303030302048202020302020302020302020302020302020302020302020302020302020302020302020300A20202020312E3235363620202020312E3432393720202020302E30303030204F202020302020302020302020302020302020302020302020302020302020302020302020300A2020202D312E3038353820202020302E3933343820202020302E303030302048202020302020302020302020302020302020302020302020302020302020302020302020300A2020202D312E333837372020202D312E3031373220202020302E303030302043202020302020302020302020302020302020302020302020302020302020302020302020300A2020202D322E3138343620202020302E3032313320202020302E303030302043202020302020302020302020302020302020302020302020302020302020302020302020300A2020312020322020312020302020202020200A2020322020332020312020302020202020200A2020332020342020312020302020202020200A2020342020352020312020302020202020200A2020352020362020312020302020202020200A2020362020312020312020302020202020200A2020342020372020312020302020202020200A2020372020382020312020302020202020200A2020382020392020312020302020202020200A2020392031302020312020302020202020200A2031302020352020312020302020202020200A2020342031312020312020312020202020200A2031302031322020312020312020202020200A2020312031332020312020312020202020200A2020352031342020312020362020202020200A2031302031352020312020362020202020200A2020312031362020312020362020202020200A2031332031372020322020302020202020200A2031332031382020312020302020202020200A4D2020454E44
Contributor: EGUCHI S, FAC. OF SCIENCE, HIROSHIMA UNIV.
InstType: EI
InstName: HITACHI RMU-6L
IoniMethod: _ENERGY 70 eV
IonPolarity: pos
Date: 2010-10-09 19:48:36+02:00
Num Peaks: 96
41 200 42 80 43 360 44 6 45 80 51 60 52 40 53 37 54 70 55 130 
56 60 57 9 58 180 59 350 65 150 66 7 67 610 68 280 69 410 70 6 
71 830 72 60 77 260 78 8 79 160 80 130 81 999 82 29 83 170 84 70 
85 170 86 3 91 350 92 100 93 200 94 21 95 230 96 290 97 130 98 5 
99 30 103 40 104 30 105 32 106 110 107 420 108 260 109 21 110 100 111 80 
113 50 115 3 117 50 118 70 119 180 120 8 121 380 122 250 123 360 124 6 
125 100 126 40 131 50 133 24 134 200 135 780 136 200 137 45 138 70 139 30 
145 40 146 3 142 215 148 160 149 240 150 5 151 50 152 30 161 410 162 19 
163 60 164 230 165 60 175 10 176 40 179 130 180 30 189 40 190 70 204 825 
205 370 206 6 207 120 208 30 222 299 223 70 
