Name: MassBank: JP010481
MW: 73
Formula: C4H11N
Synonym: MassBank: JP010481
Synonym: N,N-DIMETHYLETHYLAMINE
Structure: 310A31340A4E2C4E2D44494D455448594C455448594C414D494E452E6D6F6C0A20204368656D447261773038313231303032343032440A2020352020342020302020302020302020302020302020302020302020303939392056323030300A20202020302E333537322020202D302E3230363220202020302E30303030204E202020302020302020302020302020302020302020302020302020302020302020302020300A2020202D302E333537322020202D302E3631383820202020302E303030302043202020302020302020302020302020302020302020302020302020302020302020302020300A2020202D312E303731372020202D302E3230363220202020302E303030302043202020302020302020302020302020302020302020302020302020302020302020302020300A20202020312E303731372020202D302E3631383720202020302E303030302043202020302020302020302020302020302020302020302020302020302020302020302020300A20202020302E3335373220202020302E3631383820202020302E303030302043202020302020302020302020302020302020302020302020302020302020302020302020300A2020322020332020312020302020202020200A2020312020322020312020302020202020200A2020312020342020312020302020202020200A2020312020352020312020302020202020200A4D2020454E44
Contributor: TAJIMA S, GUNMA COLLEGE OF TECHNOLOGY
InstType: EI
InstName: HITACHI M-80A
IoniMethod: _ENERGY 70 eV
IonPolarity: pos
Date: 2010-10-09 19:48:36+02:00
Num Peaks: 24
14 30 15 141 18 18 26 40 27 124 28 104 29 87 30 123 39 16 40 31 
41 62 42 368 43 118 44 198 54 20 55 13 56 89 57 53 58 999 59 38 
70 12 72 140 73 183 74 13 
