Name: BUTYLDIMETHYLSILANE (D)
MW: 116
Formula: C6H16Si
Synonym: MassBank: JP012043
Synonym: BUTYLDIMETHYLSILANE (D)
Structure: 310A32310A425554594C44494D455448594C53494C414E45202844292E6D6F6C0A20204368656D447261773039303631303034323932440A2020382020372020302020302020302020302020302020302020302020303939392056323030300A2020202D302E383235302020202D302E3330323020202020302E303030302053692020302020302020302020302020302020302020302020302020302020302020302020300A2020202D312E363530302020202D302E3330323020202020302E303030302043202020302020302020302020302020302020302020302020302020302020302020302020300A20202020302E303030302020202D302E3330323020202020302E303030302043202020302020302020302020302020302020302020302020302020302020302020302020300A2020202D302E3832353020202020302E3532333020202020302E303030302048202020302020302020302020302020302020302020302020302020302020302020302020300A2020202D302E383235302020202D312E3132373020202020302E303030302048202020312020302020302020302020302020302020302020302020302020302020302020300A20202020302E3431323520202020302E3431323520202020302E303030302043202020302020302020302020302020302020302020302020302020302020302020302020300A20202020312E3233373520202020302E3431323520202020302E303030302043202020302020302020302020302020302020302020302020302020302020302020302020300A20202020312E3635303020202020312E3132373020202020302E303030302043202020302020302020302020302020302020302020302020302020302020302020302020300A2020312020322020312020302020202020200A2020312020332020312020302020202020200A2020312020342020312020302020202020200A2020312020352020312020302020202020200A2020332020362020312020302020202020200A2020362020372020312020302020202020200A2020372020382020312020302020202020200A4D202049534F20203120202035202020320A4D2020454E44
Contributor: YAMAMOTO M, DEP. CHEMISTRY, FAC. SCIENCE, NARA WOMEN'S UNIV.
InstType: EI
InstName: HITACHI RMU-6M
IoniMethod: _ENERGY 70 eV
IonPolarity: pos
Date: 2010-10-09 19:48:36+02:00
Num Peaks: 37
27 72 28 34 29 54 30 10 31 69 32 42 39 32 41 41 42 24 43 161 
44 83 45 113 46 135 47 10 53 15 55 22 56 34 57 21 58 138 59 435 
60 999 61 79 62 36 69 10 71 10 72 49 73 93 74 82 86 63 87 10 
88 253 89 31 90 10 102 86 114 99 115 34 117 12 
