Name: MassBank: JP010431
MW: 348
Formula: C9H11Cl3NO3PS
Synonym: MassBank: JP010431
Synonym: PHOSPHOROTHIOIC ACID O,O-DIETHYL O-(3,5,6-TRICHLORO-2-PYRIDINYL) ESTER
Synonym: CHLOROPYRIFOS
Structure: 50484F5350484F524F5448494F49432041434944204F2C4F2D4449455448594C204F2D28332C352C362D54524943484C4F524F2D322D5059524944494E594C292045535445522E6D6F6C0A20204368656D447261773038313231303035343032440A2031382031382020302020302020302020302020302020302020302020303939392056323030300A20202020312E303331322020202D302E3731343520202020302E303030302050202020302020302020302020302020302020302020302020302020302020302020302020300A20202020312E373435372020202D302E3330323020202020302E30303030204F202020302020302020302020302020302020302020302020302020302020302020302020300A20202020312E343433372020202D312E3432383920202020302E30303030204F202020302020302020302020302020302020302020302020302020302020302020302020300A20202020302E3631383720202020302E3030303020202020302E30303030204F202020302020302020302020302020302020302020302020302020302020302020302020300A20202020302E333136382020202D312E3132373020202020302E303030302053202020302020302020302020302020302020302020302020302020302020302020302020300A2020202D302E3230363320202020302E3030303020202020302E303030302043202020302020302020302020302020302020302020302020302020302020302020302020300A2020202D302E363138382020202D302E3731343520202020302E303030302043202020302020302020302020302020302020302020302020302020302020302020302020300A2020202D312E343433382020202D302E3731343520202020302E303030302043202020302020302020302020302020302020302020302020302020302020302020302020300A2020202D312E3835363320202020302E3030303020202020302E303030302043202020302020302020302020302020302020302020302020302020302020302020302020300A2020202D312E3434333820202020302E3731343520202020302E303030302043202020302020302020302020302020302020302020302020302020302020302020302020300A2020202D302E3631383820202020302E3731343520202020302E30303030204E202020302020302020302020302020302020302020302020302020302020302020302020300A2020202D312E3835363320202020312E3432383920202020302E3030303020436C2020302020302020302020302020302020302020302020302020302020302020302020300A2020202D322E3638313320202020302E3030303020202020302E3030303020436C2020302020302020302020302020302020302020302020302020302020302020302020300A2020202D302E323036332020202D312E3432383920202020302E3030303020436C2020302020302020302020302020302020302020302020302020302020302020302020300A20202020312E3734353720202020302E3532333020202020302E303030302043202020302020302020302020302020302020302020302020302020302020302020302020300A20202020322E3436303220202020302E3933353520202020302E303030302043202020302020302020302020302020302020302020302020302020302020302020302020300A20202020322E323638372020202D312E3432383920202020302E303030302043202020302020302020302020302020302020302020302020302020302020302020302020300A20202020322E363831332020202D302E3731343520202020302E303030302043202020302020302020302020302020302020302020302020302020302020302020302020300A2020312020322020312020302020202020200A2020312020332020312020302020202020200A2020312020342020312020302020202020200A2020312020352020322020302020202020200A2020362020372020312020302020202020200A2020372020382020322020302020202020200A2020382020392020312020302020202020200A2020392031302020322020302020202020200A2031302031312020312020302020202020200A2020362031312020322020302020202020200A2031302031322020312020302020202020200A2020392031332020312020302020202020200A2020372031342020312020302020202020200A2020342020362020312020302020202020200A2031352031362020312020302020202020200A2020322031352020312020302020202020200A2031372031382020312020302020202020200A2020332031372020312020302020202020200A4D2020454E44
Contributor: UOEH
InstType: EI
InstName: JEOL JMS-DX-303
IoniMethod: _ENERGY 70 eV
IonPolarity: pos
Date: 2010-10-09 19:48:36+02:00
Num Peaks: 138
43 22 44 11 45 31 47 53 60 12 63 42 65 142 72 20 75 11 79 18 
80 24 81 48 91 17 93 80 96 20 97 759 98 103 99 38 100 40 107 82 
108 19 109 133 110 28 111 14 114 34 115 13 121 57 125 283 126 10 127 17 
130 12 133 48 134 49 135 35 136 35 137 17 141 11 142 39 144 43 145 16 
146 25 153 55 161 53 162 37 163 39 164 26 165 13 166 13 168 71 169 106 
170 64 171 105 172 36 173 30 178 21 180 79 181 15 182 75 184 23 190 11 
194 18 196 15 197 999 198 122 199 962 200 108 201 327 202 57 203 39 207 51 
208 284 209 94 210 286 211 43 212 121 213 206 214 57 215 195 216 23 217 69 
219 11 224 20 225 14 226 17 228 19 230 13 240 13 241 17 242 17 243 22 
244 112 245 21 246 94 248 31 257 50 258 410 259 57 260 310 261 30 262 73 
263 11 264 13 270 13 272 16 274 15 276 86 277 17 278 109 279 15 280 36 
285 16 286 360 287 45 288 297 289 30 290 91 291 11 292 53 294 47 296 25 
298 13 300 15 304 46 306 44 308 23 313 15 314 771 315 96 316 585 317 67 
318 149 319 15 320 17 349 79 350 12 351 73 352 11 353 34 
