Name: MassBank: JP011554
MW: 118
Formula: C4H14Si2
Synonym: MassBank: JP011554
Synonym: 1,1,2,2-TETRAMETHYLDISILANE
Structure: 310A31360A312C312C322C322D54455452414D455448594C444953494C414E452E6D6F6C0A20204368656D447261773130323330393031323632440A2020362020352020302020302020302020302020302020302020302020303939392056323030300A20202020302E3431323520202020302E3030303020202020302E303030302053692020302020302020302020302020302020302020302020302020302020302020302020300A2020202D302E343132352020202D302E3030303020202020302E303030302053692020302020302020302020302020302020302020302020302020302020302020302020300A2020202D302E383235302020202D302E3731343520202020302E303030302043202020302020302020302020302020302020302020302020302020302020302020302020300A2020202D302E3832353020202020302E3731343520202020302E303030302043202020302020302020302020302020302020302020302020302020302020302020302020300A20202020302E3832353020202020302E3731343520202020302E303030302043202020302020302020302020302020302020302020302020302020302020302020302020300A20202020302E383235302020202D302E3731343520202020302E303030302043202020302020302020302020302020302020302020302020302020302020302020302020300A2020312020322020312020302020202020200A2020322020332020312020302020202020200A2020322020342020312020302020202020200A2020312020352020312020302020202020200A2020312020362020312020302020202020200A4D2020454E44
Contributor: YAMAMOTO M, DEP. CHEMISTRY, FAC. SCIENCE, NARA WOMEN'S UNIV.
InstType: EI
InstName: HITACHI RMU-6M
IoniMethod: _ENERGY 20 eV
IonPolarity: pos
Date: 2010-10-09 19:48:36+02:00
Num Peaks: 29
28 12 31 20 43 167 44 26 45 26 52 21 57 10 58 718 59 999 60 83 
61 38 72 17 73 989 74 83 75 36 77 18 87 20 99 12 100 12 101 63 
102 169 103 311 104 48 105 22 116 14 117 100 118 461 119 78 120 38 
