Name: BUTAMIFOS
MW: 332
Formula: C13H21N2O4PS
Synonym: MassBank: JP010745
Synonym: BUTAMIFOS
Synonym: O-ETHYL O-6-NITRO-META-TOLYL-SEC-BUTYLPHOSPHORAMIDOTHIOATE
Structure: 425554414D49464F532E6D6F6C0A20204368656D447261773039303631303031333532440A2032312032312020302020302020302020302020302020302020302020303939392056323030300A20202020302E3337323020202020302E3335373220202020302E303030302050202020302020302020302020302020302020302020302020302020302020302020302020300A20202020302E3738343520202020312E3037313720202020302E30303030204F202020302020302020302020302020302020302020302020302020302020302020302020300A2020202D302E303430352020202D302E3335373220202020302E30303030204F202020302020302020302020302020302020302020302020302020302020302020302020300A2020202D302E3334323420202020302E3736393720202020302E303030302053202020302020302020302020302020302020302020302020302020302020302020302020300A20202020312E303836352020202D302E3035353320202020302E30303030204E202020302020302020302020302020302020302020302020302020302020302020302020300A2020202D302E383635352020202D302E3335373220202020302E303030302043202020302020302020302020302020302020302020302020302020302020302020302020300A2020202D312E3237383020202020302E3335373220202020302E303030302043202020302020302020302020302020302020302020302020302020302020302020302020300A2020202D322E353135352020202D302E3335373220202020302E303030302043202020302020302020302020302020302020302020302020302020302020302020302020300A2020202D312E323738302020202D312E3037313720202020302E303030302043202020302020302020302020302020302020302020302020302020302020302020302020300A2020202D322E3130333020202020302E3335373220202020302E303030302043202020302020302020302020302020302020302020302020302020302020302020302020300A2020202D322E313033302020202D312E3037313720202020302E303030302043202020302020302020302020302020302020302020302020302020302020302020302020300A2020202D322E3531353520202020312E3037313720202020302E303030302043202020302020302020302020302020302020302020302020302020302020302020302020300A2020202D302E383635352020202D312E3738363220202020302E30303030204E202020302020332020302020302020302020302020302020302020302020302020302020300A2020202D302E303430352020202D312E3738363220202020302E30303030204F202020302020302020302020302020302020302020302020302020302020302020302020300A2020202D312E323738302020202D322E3530303620202020302E30303030204F202020302020352020302020302020302020302020302020302020302020302020302020300A20202020312E3830313020202020302E3335373220202020302E303030302043202020302020302020302020302020302020302020302020302020302020302020302020300A20202020322E353135352020202D302E3035353320202020302E303030302043202020302020302020302020302020302020302020302020302020302020302020302020300A20202020322E353135352020202D302E3838303320202020302E303030302043202020302020302020302020302020302020302020302020302020302020302020302020300A20202020312E3830313020202020312E3138323220202020302E303030302043202020302020302020302020302020302020302020302020302020302020302020302020300A20202020302E3337323020202020312E3738363220202020302E303030302043202020302020302020302020302020302020302020302020302020302020302020302020300A20202020302E3738343520202020322E3530303620202020302E303030302043202020302020302020302020302020302020302020302020302020302020302020302020300A2020312020322020312020302020202020200A2020312020332020312020302020202020200A2020312020342020322020302020202020200A2020312020352020312020302020202020200A2020362020372020312020302020202020200A2020362020392020322020302020202020200A2020372031302020322020302020202020200A2020382031302020312020302020202020200A2020382031312020322020302020202020200A2020392031312020312020302020202020200A2031302031322020312020302020202020200A2031332031342020322020302020202020200A2031332031352020312020302020202020200A2020392031332020312020302020202020200A2020332020362020312020302020202020200A2031362031372020312020302020202020200A2031372031382020312020302020202020200A2031362031392020312020302020202020200A2020352031362020312020302020202020200A2032302032312020312020302020202020200A2020322032302020312020302020202020200A4D202043484720203220203133202020312020313520202D310A4D2020454E44
Contributor: HASHIMOTO K, KYOTO COLLEGE OF PHARMACY
InstType: EI
InstName: HITACHI M-80
IoniMethod: _ENERGY 20 eV
IonPolarity: pos
Date: 2010-10-09 19:48:36+02:00
Num Peaks: 58
44 33 57 37 64 21 65 33 70 11 72 293 73 13 80 12 92 48 93 17 
96 250 98 11 120 184 121 21 122 38 123 13 124 45 136 62 137 62 138 15 
139 14 148 14 150 36 152 264 153 31 154 14 164 10 168 26 169 11 178 11 
180 37 184 78 185 85 186 10 196 23 200 611 201 60 202 305 203 85 204 22 
216 18 228 107 229 14 232 281 233 28 234 16 244 15 256 30 258 206 259 29 
260 146 261 21 282 42 286 999 287 159 288 61 303 12 332 1 
