Name: MassBank: JP011361
MW: 128
Formula: C7H16Si
Synonym: MassBank: JP011361
Synonym: 1,1-DIMETHYLSILACYCLOHEXANE
Structure: 310A32310A312C312D44494D455448594C53494C414359434C4F484558414E452E6D6F6C0A20204368656D447261773130323330393131303432440A2020382020382020302020302020302020302020302020302020302020303939392056323030300A20202020302E3030303020202020302E3530393020202020302E303030302053692020302020302020302020302020302020302020302020302020302020302020302020300A20202020302E3731343520202020302E3039363520202020302E303030302043202020302020302020302020302020302020302020302020302020302020302020302020300A20202020302E373134352020202D302E3732383520202020302E303030302043202020302020302020302020302020302020302020302020302020302020302020302020300A20202020302E303030302020202D312E3134313020202020302E303030302043202020302020302020302020302020302020302020302020302020302020302020302020300A2020202D302E373134352020202D302E3732383520202020302E303030302043202020302020302020302020302020302020302020302020302020302020302020302020300A2020202D302E3731343520202020302E3039363520202020302E303030302043202020302020302020302020302020302020302020302020302020302020302020302020300A2020202D302E3533303320202020312E3134313020202020302E303030302043202020302020302020302020302020302020302020302020302020302020302020302020300A20202020302E3533303320202020312E3134313020202020302E303030302043202020302020302020302020302020302020302020302020302020302020302020302020300A2020312020322020312020302020202020200A2020322020332020312020302020202020200A2020332020342020312020302020202020200A2020342020352020312020302020202020200A2020352020362020312020302020202020200A2020312020362020312020302020202020200A2020312020372020312020362020202020200A2020312020382020312020312020202020200A4D2020454E44
Contributor: YAMAMOTO M, DEP. CHEMISTRY, FAC. SCIENCE, NARA WOMEN'S UNIV.
InstType: EI
InstName: HITACHI RMU-6M
IoniMethod: _ENERGY 70 eV
IonPolarity: pos
Date: 2010-10-09 19:48:36+02:00
Num Peaks: 44
27 24 28 70 29 46 31 52 32 19 39 24 41 26 42 25 43 229 44 47 
45 94 46 8 53 18 54 6 55 39 56 8 57 32 58 70 59 443 60 33 
61 16 66 7 67 14 69 17 70 10 71 60 72 155 73 30 74 7 83 15 
84 22 85 854 86 100 87 35 97 13 99 24 100 44 111 16 113 999 114 116 
115 41 128 335 129 41 130 10 
