Name: XANTHINE
CAS: 69-89-6
MW: 152
Formula: C5H4N4O2
Synonym: MassBank: JP010518
Synonym: XANTHINE
Synonym: 3,7-DIHYDRO-1H-PURINE-2,6-DIONE
Structure: 58414E5448494E452E6D6F6C0A20204368656D447261773032323231303033333632440A2031312031322020302020302020302020302020302020302020302020303939392056323030300A2020202D312E343539342020202D302E3032333820202020302E30303030204E202020302020302020302020302020302020302020302020302020302020302020302020300A2020202D312E373535312020202D302E3739343020202020302E303030302043202020302020302020302020302020302020302020302020302020302020302020302020300A2020202D312E313133392020202D312E3331333220202020302E30303030204E202020302020302020302020302020302020302020302020302020302020302020302020300A2020202D302E343232302020202D302E3836333920202020302E303030302043202020302020302020302020302020302020302020302020302020302020302020302020300A20202020302E333734382020202D312E3037373420202020302E30303030204E202020302020302020302020302020302020302020302020302020302020302020302020300A20202020302E393538322020202D302E3439343120202020302E303030302043202020302020302020302020302020302020302020302020302020302020302020302020300A20202020312E373535312020202D302E3730373620202020302E30303030204F202020302020302020302020302020302020302020302020302020302020302020302020300A20202020302E3734343720202020302E3330323820202020302E30303030204E202020302020302020302020302020302020302020302020302020302020302020302020300A2020202D302E3035323220202020302E3531363320202020302E303030302043202020302020302020302020302020302020302020302020302020302020302020302020300A2020202D302E3236353720202020312E3331333220202020302E30303030204F202020302020302020302020302020302020302020302020302020302020302020302020300A2020202D302E363335362020202D302E3036373020202020302E303030302043202020302020302020302020302020302020302020302020302020302020302020302020300A2020312020322020312020302020202020200A2020322020332020322020302020202020200A2020332020342020312020302020202020200A2020342020352020322020302020202020200A2020352020362020312020302020202020200A2020362020372020322020302020202020200A2020362020382020312020302020202020200A2020382020392020312020302020202020200A2020392031302020322020302020202020200A2020392031312020312020302020202020200A2020312031312020322020302020202020200A2020342031312020312020302020202020200A4D2020454E44
Contributor: NARA WOMEN'S UNIVERSITY
InstType: EI
InstName: HITACHI M-80
IoniMethod: _ENERGY 70 eV
IonPolarity: pos
Date: 2010-10-09 19:48:36+02:00
Num Peaks: 28
14 28 16 18 18 32 27 179 28 550 29 37 32 56 38 49 39 45 40 14 
41 18 42 37 43 155 44 77 52 28 53 381 54 999 55 58 67 11 69 21 
70 92 80 37 81 83 82 51 109 490 110 35 152 760 153 68 
