Name: MassBank: JP011965
MW: 406
Formula: C28H26OSi
Synonym: MassBank: JP011965
Synonym: (2,4,6-TRIMETHYLBENZOYL)TRIPHENYLSILANE
Structure: 28322C342C362D5452494D455448594C42454E5A4F594C295452495048454E594C53494C414E452E6D6F6C0A20204368656D447261773130313930393137353032440A2033302033332020302020302020302020302020302020302020302020303939392056323030300A2020202D302E373134352020202D322E3331303420202020302E303030302043202020302020302020302020302020302020302020302020302020302020302020302020300A2020202D302E373134352020202D332E3133353320202020302E303030302043202020302020302020302020302020302020302020302020302020302020302020302020300A20202020302E303030302020202D332E3534373820202020302E303030302043202020302020302020302020302020302020302020302020302020302020302020302020300A20202020302E373134352020202D332E3133353320202020302E303030302043202020302020302020302020302020302020302020302020302020302020302020302020300A20202020302E373134352020202D322E3331303420202020302E303030302043202020302020302020302020302020302020302020302020302020302020302020302020300A20202020302E303030302020202D312E3839373920202020302E303030302043202020302020302020302020302020302020302020302020302020302020302020302020300A20202020302E303030302020202D312E3037323920202020302E303030302053692020302020302020302020302020302020302020302020302020302020302020302020300A20202020302E3030303020202020302E3234373120202020302E303030302043202020302020302020302020302020302020302020302020302020302020302020302020300A20202020302E383235302020202D312E3037323920202020302E303030302043202020302020302020302020302020302020302020302020302020302020302020302020300A2020202D302E383235302020202D312E3037323920202020302E303030302043202020302020302020302020302020302020302020302020302020302020302020302020300A2020202D312E323337352020202D302E3335383420202020302E303030302043202020302020302020302020302020302020302020302020302020302020302020302020300A2020202D322E303632342020202D302E3335383420202020302E303030302043202020302020302020302020302020302020302020302020302020302020302020302020300A2020202D322E343734392020202D312E3037323920202020302E303030302043202020302020302020302020302020302020302020302020302020302020302020302020300A2020202D322E303632342020202D312E3738373420202020302E303030302043202020302020302020302020302020302020302020302020302020302020302020302020300A2020202D312E323337352020202D312E3738373420202020302E303030302043202020302020302020302020302020302020302020302020302020302020302020302020300A20202020312E323337352020202D312E3738373420202020302E303030302043202020302020302020302020302020302020302020302020302020302020302020302020300A20202020322E303632342020202D312E3738373420202020302E303030302043202020302020302020302020302020302020302020302020302020302020302020302020300A20202020322E343734392020202D312E3037323920202020302E303030302043202020302020302020302020302020302020302020302020302020302020302020302020300A20202020322E303632342020202D302E3335383420202020302E303030302043202020302020302020302020302020302020302020302020302020302020302020302020300A20202020312E323337352020202D302E3335383420202020302E303030302043202020302020302020302020302020302020302020302020302020302020302020302020300A20202020302E3030303020202020312E3037323020202020302E303030302043202020302020302020302020302020302020302020302020302020302020302020302020300A2020202D302E3832353020202020302E3234373120202020302E30303030204F202020302020302020302020302020302020302020302020302020302020302020302020300A20202020302E3731343520202020312E3438343520202020302E303030302043202020302020302020302020302020302020302020302020302020302020302020302020300A20202020302E3731343520202020322E3330393520202020302E303030302043202020302020302020302020302020302020302020302020302020302020302020302020300A20202020302E3030303020202020322E3732323020202020302E303030302043202020302020302020302020302020302020302020302020302020302020302020302020300A2020202D302E3731343520202020322E3330393520202020302E303030302043202020302020302020302020302020302020302020302020302020302020302020302020300A2020202D302E3731343520202020312E3438343520202020302E303030302043202020302020302020302020302020302020302020302020302020302020302020302020300A20202020312E3432383620202020312E3037323020202020302E303030302043202020302020302020302020302020302020302020302020302020302020302020302020300A2020202D302E3030303720202020332E3534373820202020302E303030302043202020302020302020302020302020302020302020302020302020302020302020302020300A2020202D312E3433303020202020312E3037333420202020302E303030302043202020302020302020302020302020302020302020302020302020302020302020302020300A2020312020322020322020302020202020200A2020322020332020312020302020202020200A2020332020342020322020302020202020200A2020342020352020312020302020202020200A2020352020362020322020302020202020200A2020362020312020312020302020202020200A2020362020372020312020302020202020200A2020372020382020312020302020202020200A2020372020392020312020302020202020200A2020372031302020312020302020202020200A2031302031312020322020302020202020200A2031312031322020312020302020202020200A2031322031332020322020302020202020200A2031332031342020312020302020202020200A2031342031352020322020302020202020200A2031352031302020312020302020202020200A2020392031362020322020302020202020200A2031362031372020312020302020202020200A2031372031382020322020302020202020200A2031382031392020312020302020202020200A2031392032302020322020302020202020200A2032302020392020312020302020202020200A2020382032312020312020302020202020200A2020382032322020322020302020202020200A2032312032332020322020302020202020200A2032332032342020312020302020202020200A2032342032352020322020302020202020200A2032352032362020312020302020202020200A2032362032372020322020302020202020200A2032372032312020312020302020202020200A2032332032382020312020302020202020200A2032352032392020312020302020202020200A2032372033302020312020302020202020200A4D202053545920203120202031205355500A4D2020534C4220203120202031202020310A4D202053414C20202031202031202032380A4D202053424C20202031202031202033310A4D2020534D5420202031204D650A4D2020534256202020312033312020202D362E3036313220202020372E343632350A4D202053545920203120202032205355500A4D2020534C4220203120202032202020320A4D202053414C20202032202031202032390A4D202053424C20202032202031202033320A4D2020534D5420202032204D650A4D2020534256202020322033322020202D362E3737363020202020382E373030380A4D202053545920203120202033205355500A4D2020534C4220203120202033202020330A4D202053414C20202033202031202033300A4D202053424C20202033202031202033330A4D2020534D5420202033204D650A4D2020534256202020332033332020202D372E3439303820202020372E343633390A4D2020454E44
Contributor: ISHIKAWA M, HIROSHIMA UNIV. FAC. TEQUNOLOGY
InstType: EI
InstName: SHIMADZU QP-1000
IoniMethod: _ENERGY 70 eV
IonPolarity: pos
Date: 2010-10-09 19:48:36+02:00
Num Peaks: 47
51 42 52 42 53 147 55 11 65 21 77 63 78 32 79 53 91 84 103 53 
105 158 106 11 115 11 117 21 119 74 129 21 147 95 148 11 155 63 179 21 
180 84 181 211 182 32 199 158 200 32 205 11 206 232 207 53 255 11 257 42 
259 999 260 253 261 63 288 32 299 11 314 11 316 274 317 74 318 11 329 63 
330 32 392 558 393 189 394 42 406 116 407 63 408 21 
