Name: DI(5-(2-BROMOTHIENYL))METHYLPHENYLSILANE
MW: 441
Formula: C15H12Br2S2Si
Synonym: MassBank: JP011689
Synonym: DI(5-(2-BROMOTHIENYL))METHYLPHENYLSILANE
Structure: 444928352D28322D42524F4D4F544849454E594C29294D455448594C5048454E594C53494C414E452E6D6F6C0A20204368656D447261773039323131303133353432440A2032302032322020302020302020302020302020302020302020302020303939392056323030300A2020202D302E393332332020202D302E3134333520202020302E303030302053692020302020302020302020302020302020302020302020302020302020302020302020300A2020202D302E393332332020202D302E3936383520202020302E303030302043202020302020302020302020302020302020302020302020302020302020302020302020300A2020202D302E323137382020202D312E3338313020202020302E303030302043202020302020302020302020302020302020302020302020302020302020302020302020300A2020202D302E323137382020202D322E3230363020202020302E303030302043202020302020302020302020302020302020302020302020302020302020302020302020300A2020202D302E393332332020202D322E3631383520202020302E303030302043202020302020302020302020302020302020302020302020302020302020302020302020300A2020202D312E363436382020202D322E3230363020202020302E303030302043202020302020302020302020302020302020302020302020302020302020302020302020300A2020202D312E363436382020202D312E3338313020202020302E303030302043202020302020302020302020302020302020302020302020302020302020302020302020300A2020202D312E373537332020202D302E3134333520202020302E303030302043202020302020302020302020302020302020302020302020302020302020302020302020300A2020202D312E3334343820202020312E3935313120202020302E303030302043202020302020302020302020302020302020302020302020302020302020302020302020300A2020202D302E3531393820202020312E3935313120202020302E303030302043202020302020302020302020302020302020302020302020302020302020302020302020300A2020202D302E3236343820202020312E3136363420202020302E303030302043202020302020302020302020302020302020302020302020302020302020302020302020300A2020202D302E3933323320202020302E3638313520202020302E303030302043202020302020302020302020302020302020302020302020302020302020302020302020300A2020202D312E3539393720202020312E3136363420202020302E303030302053202020302020302020302020302020302020302020302020302020302020302020302020300A2020202D312E3832393720202020322E3631383520202020302E303030302042722020302020302020302020302020302020302020302020302020302020302020302020300A20202020312E3136323320202020302E3236393020202020302E303030302043202020302020302020302020302020302020302020302020302020302020302020302020300A20202020312E313632332020202D302E3535363020202020302E303030302043202020302020302020302020302020302020302020302020302020302020302020302020300A20202020302E333737362020202D302E3831303920202020302E303030302043202020302020302020302020302020302020302020302020302020302020302020302020300A2020202D302E313037332020202D302E3134333520202020302E303030302043202020302020302020302020302020302020302020302020302020302020302020302020300A20202020302E3337373620202020302E3532333920202020302E303030302053202020302020302020302020302020302020302020302020302020302020302020302020300A20202020312E3832393720202020302E3735333920202020302E303030302042722020302020302020302020302020302020302020302020302020302020302020302020300A2020322020332020312020302020202020200A2020332020342020322020302020202020200A2020342020352020312020302020202020200A2020352020362020322020302020202020200A2020362020372020312020302020202020200A2020322020372020322020302020202020200A2020312020322020312020302020202020200A2020312020382020312020302020202020200A2020392031302020322020302020202020200A2031302031312020312020302020202020200A2031312031322020322020302020202020200A2031322031332020312020302020202020200A2020392031332020312020302020202020200A2020392031342020312020302020202020200A2020312031322020312020302020202020200A2031352031362020322020302020202020200A2031362031372020312020302020202020200A2031372031382020322020302020202020200A2031382031392020312020302020202020200A2031352031392020312020302020202020200A2031352032302020312020302020202020200A2020312031382020312020302020202020200A4D2020454E44
Contributor: FAC. TECHNOLOGY, HIROSHIMA UNIV.
InstType: EI
InstName: SHIMADZU QP-1000
IoniMethod: _ENERGY 70 eV
IonPolarity: pos
Date: 2010-10-09 19:48:36+02:00
Num Peaks: 41
51 245 52 64 53 362 57 85 63 96 65 74 67 53 69 85 75 138 76 53 
77 266 78 32 79 85 81 53 82 213 85 64 89 43 91 255 93 74 102 53 
103 53 105 287 106 53 107 223 109 266 115 160 119 117 120 138 126 53 127 74 
129 85 199 106 201 117 427 479 429 999 430 234 431 606 432 128 442 223 444 457 
446 287 
