Name: T2 TOXIN
CAS: 21259-20-1
MW: 466
Formula: C24H34O9
Synonym: MassBank: JP011915
Synonym: T2 TOXIN
Synonym: MYCOTOXIN T2
Structure: 303531375F543220544F58494E2E6D6F6C0A20204368656D447261773038323031303034313632440A2033352033382020302020302020302020302020302020302020302020303939392056323030300A2020202D302E3635313520202020312E3331353520202020302E303030302043202020302020302020302020302020302020302020302020302020302020302020302020300A2020202D302E3635313520202020302E3439303520202020302E303030302043202020302020302020302020302020302020302020302020302020302020302020302020300A20202020302E3036323920202020302E3037383020202020302E303030302043202020302020302020302020302020302020302020302020302020302020302020302020300A20202020302E3737373420202020302E3439303520202020302E303030302043202020302020302020302020302020302020302020302020302020302020302020302020300A20202020302E3737373420202020312E3331353520202020302E303030302043202020302020302020302020302020302020302020302020302020302020302020302020300A20202020302E3036323920202020312E3732383020202020302E303030302043202020302020302020302020302020302020302020302020302020302020302020302020300A20202020312E3439313920202020302E3037383020202020302E303030302043202020302020302020302020302020302020302020302020302020302020302020302020300A20202020322E3230363420202020302E3439303520202020302E303030302043202020302020302020302020302020302020302020302020302020302020302020302020300A20202020322E3230363420202020312E3331353520202020302E303030302043202020302020302020302020302020302020302020302020302020302020302020302020300A20202020312E3439313920202020312E3732383020202020302E30303030204F202020302020302020302020302020302020302020302020302020302020302020302020300A2020202D312E3336363020202020312E3732383020202020302E303030302043202020302020302020302020302020302020302020302020302020302020302020302020300A20202020302E3737373420202020322E3134303520202020302E303030302048202020302020302020302020302020302020302020302020302020302020302020302020300A2020202D322E383433392020202D302E3032323020202020302E303030302043202020302020302020302020302020302020302020302020302020302020302020302020300A2020202D322E3132383820202020302E3338393420202020302E303030302043202020302020302020302020302020302020302020302020302020302020302020302020300A2020202D312E343136362020202D302E3032333420202020302E30303030204F202020302020302020302020302020302020302020302020302020302020302020302020300A2020202D322E3132383820202020312E3231333520202020302E30303030204F202020302020302020302020302020302020302020302020302020302020302020302020300A2020202D332E3535383420202020302E3339303520202020302E303030302043202020302020302020302020302020302020302020302020302020302020302020302020300A2020202D342E323732392020202D302E3032323020202020302E303030302043202020302020302020302020302020302020302020302020302020302020302020302020300A2020202D332E3535383420202020312E3231353520202020302E303030302043202020302020302020302020302020302020302020302020302020302020302020302020300A20202020322E3230363420202020322E3134303520202020302E303030302048202020302020302020302020302020302020302020302020302020302020302020302020300A20202020312E3439313920202020302E3930333020202020302E303030302043202020302020302020302020302020302020302020302020302020302020302020302020300A20202020322E3932303820202020302E3930333020202020302E30303030204F202020302020302020302020302020302020302020302020302020302020302020302020300A20202020332E3332313720202020312E3331353520202020302E303030302043202020302020302020302020302020302020302020302020302020302020302020302020300A20202020332E3930353120202020312E3839383820202020302E30303030204F202020302020302020302020302020302020302020302020302020302020302020302020300A20202020342E323732392020202D312E3838333220202020302E30303030204F202020302020302020302020302020302020302020302020302020302020302020302020300A20202020332E363930392020202D312E3239393520202020302E303030302043202020302020302020302020302020302020302020302020302020302020302020302020300A20202020332E393035312020202D302E3530353420202020302E30303030204F202020302020302020302020302020302020302020302020302020302020302020302020300A20202020332E3332313720202020302E3037383020202020302E303030302043202020302020302020302020302020302020302020302020302020302020302020302020300A20202020322E383935362020202D312E3531323720202020302E303030302043202020302020302020302020302020302020302020302020302020302020302020302020300A20202020312E343931392020202D302E3734373020202020302E303030302043202020302020302020302020302020302020302020302020302020302020302020302020300A2020202D302E343436352020202D322E3134303520202020302E30303030204F202020302020302020302020302020302020302020302020302020302020302020302020300A2020202D302E323331382020202D312E3334333920202020302E303030302043202020302020302020302020302020302020302020302020302020302020302020302020300A20202020302E353633372020202D312E3133323120202020302E30303030204F202020302020302020302020302020302020302020302020302020302020302020302020300A20202020302E373737342020202D302E3333343520202020302E303030302043202020302020302020302020302020302020302020302020302020302020302020302020300A2020202D302E383134362020202D302E3736313220202020302E303030302043202020302020302020302020302020302020302020302020302020302020302020302020300A2020312020322020312020302020202020200A2020322020332020312020302020202020200A2020332020342020312020302020202020200A2020342020352020312020302020202020200A2020352020362020312020302020202020200A2020362020312020322020302020202020200A2020342020372020312020302020202020200A2020372020382020312020302020202020200A2020382020392020312020302020202020200A2020392031302020312020302020202020200A2031302020352020312020302020202020200A2020312031312020312020302020202020200A2020342033342020312020362020202020200A2020352031322020312020362020202020200A2031332031342020312020302020202020200A2031342031352020312020302020202020200A2031342031362020322020302020202020200A2020322031352020312020362020202020200A2031332031372020312020302020202020200A2031372031382020312020302020202020200A2031372031392020312020302020202020200A2020392032302020312020312020202020200A2020382032312020312020312020202020200A2020382032322020312020362020202020200A2032312032322020312020302020202020200A2020392032332020312020302020202020200A2032332032382020312020302020202020200A2020372032382020312020302020202020200A2032332032342020312020362020202020200A2032352032362020322020302020202020200A2032362032372020312020302020202020200A2032382032372020312020312020202020200A2032362032392020312020302020202020200A2020372033302020312020312020202020200A2033312033322020322020302020202020200A2033322033332020312020302020202020200A2033332033342020312020302020202020200A2033322033352020312020302020202020200A4D2020454E44
Contributor: YAMAMOTO M, DEP. CHEMISTRY, FAC. SCIENCE, NARA WOMEN'S UNIV.
InstType: EI
InstName: HITACHI M-80
IoniMethod: _ENERGY 70 eV
IonPolarity: pos
Date: 2010-10-09 19:48:36+02:00
Num Peaks: 150
15 32 27 33 28 15 29 85 31 14 39 39 41 164 43 999 44 26 45 12 
53 29 56 56 57 387 58 18 59 13 60 22 65 18 67 30 69 46 71 25 
73 13 77 51 78 14 79 50 80 14 81 28 82 42 83 45 85 256 86 14 
91 93 92 30 93 72 94 26 95 82 96 42 97 30 100 15 103 20 104 39 
105 227 106 40 107 62 108 42 109 45 110 14 111 35 112 18 115 23 116 13 
117 28 118 48 119 48 120 86 121 380 122 194 123 58 124 152 125 170 126 26 
127 12 128 24 129 32 130 17 131 32 132 13 133 29 134 25 135 32 136 16 
137 22 138 85 139 23 141 31 142 75 143 48 144 21 145 63 146 22 147 45 
148 13 149 16 151 11 155 15 156 11 157 61 158 28 159 65 160 32 161 46 
162 13 163 20 164 21 167 20 169 16 171 37 172 57 173 82 174 22 175 47 
176 19 177 15 180 178 181 30 183 17 184 22 185 103 186 58 187 43 188 24 
189 35 190 11 191 14 197 17 198 15 199 19 200 34 201 46 202 27 203 53 
204 16 205 73 206 12 213 32 214 22 215 37 216 15 218 37 219 17 226 14 
227 32 231 42 232 14 233 21 244 17 245 32 246 16 261 21 262 12 263 10 
275 21 276 14 278 75 279 14 291 15 304 28 305 30 364 91 365 21 382 22 
