Name: METHYL 4-HYDROXY-4-(2-TROPONYL)-2-BUTENOATE
MW: 220
Formula: C12H12O4
Synonym: MassBank: JP011032
Synonym: METHYL 4-HYDROXY-4-(2-TROPONYL)-2-BUTENOATE
Structure: 303939345F4D455448594C20342D485944524F58592D342D28322D54524F504F4E594C292D322D425554454E4F4154452E6D6F6C0A20204368656D447261773130323031303139323632440A2031362031362020302020302020302020302020302020302020302020303939392056323030300A2020202D312E3935373320202020302E3035313720202020302E303030302043202020302020302020302020302020302020302020302020302020302020302020302020300A2020202D312E3234323920202020302E3436343220202020302E303030302043202020302020302020302020302020302020302020302020302020302020302020302020300A2020202D302E3532383420202020302E3035313720202020302E303030302043202020302020302020302020302020302020302020302020302020302020302020302020300A20202020302E3138363120202020302E3436343220202020302E303030302043202020302020302020302020302020302020302020302020302020302020302020302020300A2020202D312E393537332020202D302E3737333320202020302E30303030204F202020302020302020302020302020302020302020302020302020302020302020302020300A2020202D322E3637313820202020302E3436343220202020302E30303030204F202020302020302020302020302020302020302020302020302020302020302020302020300A20202020302E3930303520202020302E3035313720202020302E303030302043202020302020302020302020302020302020302020302020302020302020302020302020300A20202020302E3138363120202020312E3238393220202020302E30303030204F202020302020302020302020302020302020302020302020302020302020302020302020300A2020202D322E3637313820202020312E3238393220202020302E303030302043202020302020302020302020302020302020302020302020302020302020302020302020300A20202020302E383338382020202D302E3737313020202020302E303030302043202020302020302020302020302020302020302020302020302020302020302020302020300A20202020312E343433352020202D312E3333323220202020302E303030302043202020302020302020302020302020302020302020302020302020302020302020302020300A20202020322E323539332020202D312E3230393320202020302E303030302043202020302020302020302020302020302020302020302020302020302020302020302020300A20202020322E363731382020202D302E3439343820202020302E303030302043202020302020302020302020302020302020302020302020302020302020302020302020300A20202020322E3337303520202020302E3237333220202020302E303030302043202020302020302020302020302020302020302020302020302020302020302020302020300A20202020312E3538323120202020302E3531363420202020302E303030302043202020302020302020302020302020302020302020302020302020302020302020302020300A20202020312E3435393220202020312E3333323220202020302E30303030204F202020302020302020302020302020302020302020302020302020302020302020302020300A2020312020322020312020302020202020200A2020322020332020322020302020202020200A2020332020342020312020302020202020200A2020312020352020322020302020202020200A2020312020362020312020302020202020200A2020342020372020312020302020202020200A2020342020382020312020302020202020200A2020362020392020312020302020202020200A2020372031302020322020302020202020200A2031302031312020312020302020202020200A2031312031322020322020302020202020200A2031322031332020312020302020202020200A2031332031342020322020302020202020200A2031342031352020312020302020202020200A2031352020372020312020302020202020200A2031352031362020322020302020202020200A4D2020454E44
Contributor: TAKESHITA H, INST. OF ADVANCED MATERIAL STUDY KYUSHU UNIV.
InstType: EI
InstName: JEOL JMS-01-SG-2
IoniMethod: _ENERGY 75 eV
IonPolarity: pos
Date: 2010-10-09 19:48:36+02:00
Num Peaks: 36
39 244 52 445 56 414 63 161 77 780 78 330 79 211 89 184 90 252 103 225 
104 160 105 645 106 258 107 405 116 357 131 865 132 299 133 250 135 162 144 165 
147 223 159 701 160 660 161 597 162 79 171 130 187 56 188 999 189 493 190 61 
191 170 192 47 202 136 203 55 220 612 221 91 
