Name: MassBank: JP010413
MW: 205
Formula: C8H8Cl2O2
Synonym: MassBank: JP010413
Synonym: 1,4-DICHLORO-2,5-DIMETHOXYBENZENE
Structure: 312C342D444943484C4F524F2D322C352D44494D4554484F585942454E5A454E452E6D6F6C0A20204368656D447261773131313430393232353732440A2031322031322020302020302020302020302020302020302020302020303939392056323030300A20202020302E343132352020202D302E3731343520202020302E303030302043202020302020302020302020302020302020302020302020302020302020302020302020300A20202020302E3832353020202020302E3030303020202020302E303030302043202020302020302020302020302020302020302020302020302020302020302020302020300A20202020302E3431323520202020302E3731343520202020302E303030302043202020302020302020302020302020302020302020302020302020302020302020302020300A2020202D302E3431323520202020302E3731343520202020302E303030302043202020302020302020302020302020302020302020302020302020302020302020302020300A2020202D302E383235302020202D302E3030303020202020302E303030302043202020302020302020302020302020302020302020302020302020302020302020302020300A2020202D302E343132352020202D302E3731343520202020302E303030302043202020302020302020302020302020302020302020302020302020302020302020302020300A2020202D312E363530302020202D302E3030303020202020302E30303030204F202020302020302020302020302020302020302020302020302020302020302020302020300A2020202D322E303632352020202D302E3731343520202020302E303030302043202020302020302020302020302020302020302020302020302020302020302020302020300A20202020312E3635303020202020302E3030303020202020302E30303030204F202020302020302020302020302020302020302020302020302020302020302020302020300A20202020322E3036323520202020302E3731343520202020302E303030302043202020302020302020302020302020302020302020302020302020302020302020302020300A2020202D302E3832353020202020312E3432383920202020302E3030303020436C2020302020302020302020302020302020302020302020302020302020302020302020300A20202020302E383235302020202D312E3432383920202020302E3030303020436C2020302020302020302020302020302020302020302020302020302020302020302020300A2020312020322020312020302020202020200A2020322020332020322020302020202020200A2020332020342020312020302020202020200A2020342020352020322020302020202020200A2020352020362020312020302020202020200A2020312020362020322020302020202020200A2020372020382020312020302020202020200A2020352020372020312020302020202020200A2020392031302020312020302020202020200A2020322020392020312020302020202020200A2020342031312020312020302020202020200A2020312031322020312020302020202020200A4D2020454E44
Contributor: UOEH
InstType: EI
InstName: JEOL JMS-DX-303
IoniMethod: _ENERGY 70 eV
IonPolarity: pos
Date: 2010-10-09 19:48:36+02:00
Num Peaks: 49
50 20 53 109 60 17 61 21 62 36 63 32 73 14 74 18 75 22 77 18 
85 45 87 28 88 19 97 78 98 18 99 42 100 14 103 14 109 13 111 24 
113 135 114 12 115 45 120 23 122 15 126 22 132 18 133 12 134 12 141 296 
142 25 143 92 144 12 148 38 150 22 160 14 163 101 165 64 167 11 191 999 
192 81 193 656 194 55 195 110 206 711 207 66 208 485 209 43 210 90 
