Name: SINULARIOLIDE
MW: 334
Formula: C20H30O4
Synonym: MassBank: JP010666
Synonym: SINULARIOLIDE
Structure: 303536305F53494E554C4152494F4C4944452E6D6F6C0A20204368656D447261773038323031303035343532440A2032382033302020302020302020302020302020302020302020302020303939392056323030300A2020202D322E343639312020202D302E3234363820202020302E303030302043202020302020302020302020302020302020302020302020302020302020302020302020300A2020202D322E303536362020202D302E3936313320202020302E303030302043202020302020302020302020302020302020302020302020302020302020302020302020300A2020202D312E323430382020202D312E3038343320202020302E30303030204F202020302020302020302020302020302020302020302020302020302020302020302020300A2020202D302E363336302020202D302E3532333120202020302E303030302043202020302020302020302020302020302020302020302020302020302020302020302020300A2020202D302E3639373720202020302E3239393620202020302E303030302043202020302020302020302020302020302020302020302020302020302020302020302020300A2020202D312E3337393320202020302E3736343320202020302E303030302043202020302020302020302020302020302020302020302020302020302020302020302020300A2020202D322E3136373720202020302E3532313120202020302E303030302043202020302020302020302020302020302020302020302020302020302020302020302020300A2020202D332E313833362020202D302E3635393320202020302E30303030204F202020302020302020302020302020302020302020302020302020302020302020302020300A2020202D322E353231332020202D312E3634333020202020302E303030302043202020302020302020302020302020302020302020302020302020302020302020302020300A2020202D332E3035323520202020302E3333363520202020302E303030302048202020302020302020302020302020302020302020302020302020302020302020302020300A2020202D312E303436302020202D302E3236373520202020302E303030302043202020302020302020302020302020302020302020302020302020302020302020302020300A2020202D302E343232352020202D312E3332303020202020302E30303030204F202020302020302020302020302020302020302020302020302020302020302020302020300A20202020302E313630382020202D302E3733363720202020302E303030302043202020302020302020302020302020302020302020302020302020302020302020302020300A20202020302E313630382020202D312E3536313720202020302E303030302043202020302020302020302020302020302020302020302020302020302020302020302020300A20202020302E393735332020202D302E3330383720202020302E303030302043202020302020302020302020302020302020302020302020302020302020302020302020300A2020202D302E313539312020202D302E3234363820202020302E303030302043202020302020302020302020302020302020302020302020302020302020302020302020300A20202020302E393537372020202D312E3334383120202020302E303030302048202020302020302020302020302020302020302020302020302020302020302020302020300A20202020312E373534362020202D302E3733363720202020302E303030302043202020302020302020302020302020302020302020302020302020302020302020302020300A20202020322E343639312020202D302E3332343220202020302E303030302043202020302020302020302020302020302020302020302020302020302020302020302020300A20202020322E3436393120202020302E3530303820202020302E303030302043202020302020302020302020302020302020302020302020302020302020302020302020300A20202020332E3138333620202020302E3038383320202020302E30303030204F202020302020302020302020302020302020302020302020302020302020302020302020300A20202020332E3035323520202020312E3038343220202020302E303030302043202020302020302020302020302020302020302020302020302020302020302020302020300A20202020332E303532352020202D302E3930373520202020302E303030302048202020302020302020302020302020302020302020302020302020302020302020302020300A20202020312E3735343620202020302E3931333320202020302E303030302043202020302020302020302020302020302020302020302020302020302020302020302020300A20202020302E3937353320202020302E3531363320202020302E303030302043202020302020302020302020302020302020302020302020302020302020302020302020300A20202020302E3036373820202020302E3832353720202020302E303030302043202020302020302020302020302020302020302020302020302020302020302020302020300A20202020302E3039393220202020302E3038363020202020302E303030302043202020302020302020302020302020302020302020302020302020302020302020302020300A2020202D302E3034343720202020312E3634333020202020302E303030302048202020302020302020302020302020302020302020302020302020302020302020302020300A2020312020322020312020302020202020200A2020322020332020312020302020202020200A2020332020342020312020302020202020200A2020352020362020312020302020202020200A2020362020372020312020302020202020200A2020372020312020312020302020202020200A2020312020382020312020312020202020200A2020322020392020312020312020202020200A2020312031302020312020362020202020200A2020322031312020312020362020202020200A2020342031322020322020302020202020200A2020342031332020312020302020202020200A2031332031342020322020302020202020200A2031332031352020312020302020202020200A2031352031362020312020362020202020200A2031312031362020312020302020202020200A2031352031372020312020312020202020200A2031352031382020312020302020202020200A2031382031392020312020302020202020200A2031392032302020312020302020202020200A2032302032312020312020302020202020200A2031392032312020312020302020202020200A2032302032322020312020312020202020200A2031392032332020312020362020202020200A2032302032342020312020302020202020200A2032342032352020312020302020202020200A2032352032362020312020302020202020200A2020352032362020322020302020202020200A2020352032372020312020302020202020200A2032362032382020312020302020202020200A4D2020454E44
Contributor: EGUCHI S, FAC. OF SCIENCE, HIROSHIMA UNIV.
InstType: EI
InstName: HITACHI RMU-6L
IoniMethod: _ENERGY 70 eV
IonPolarity: pos
Date: 2010-10-09 19:48:36+02:00
Num Peaks: 158
41 590 42 50 43 999 44 14 45 70 51 20 52 10 53 29 54 45 55 450 
56 40 57 10 58 50 59 15 65 80 66 5 67 390 68 240 69 270 70 2 
71 150 72 40 73 30 74 1 77 165 78 30 79 300 80 10 81 520 82 90 
83 130 84 12 85 70 87 15 91 180 92 5 93 470 94 170 95 320 96 8 
97 120 98 30 99 20 103 1 105 170 106 70 107 265 108 20 109 270 110 90 
111 155 112 3 113 20 117 40 118 20 119 19 120 80 121 190 122 100 123 16 
125 70 129 20 131 60 132 4 133 150 134 90 135 170 136 7 137 130 138 70 
139 90 140 2 143 20 145 80 146 30 147 17 148 60 149 110 150 60 151 14 
152 70 153 30 154 10 155 2 157 20 158 10 159 60 160 3 161 100 162 40 
163 100 164 7 165 150 166 30 167 50 168 2 169 10 171 20 172 30 174 2 
175 50 176 30 177 70 178 4 179 20 180 20 185 30 186 1 187 40 188 10 
189 40 190 2 191 40 192 30 193 70 194 2 197 15 199 20 201 20 202 1 
203 30 204 20 205 60 207 2 209 20 211 10 213 20 215 1 217 30 218 10 
219 20 220 1 221 30 222 10 227 15 229 1 231 20 232 10 233 20 235 2 
237 10 239 10 243 10 245 2 247 10 251 13 255 10 259 1 270 12 273 14 
283 10 288 1 298 20 301 8 316 36 317 1 334 22 335 5 
