Name: META-AMINOPHENOL
MW: 109
Formula: C6H7NO
Synonym: MassBank: JP011262
Synonym: META-AMINOPHENOL
Synonym: 3-AMINOPHENOL
Structure: 310A32310A4D4554412D414D494E4F5048454E4F4C2E6D6F6C0A20204368656D447261773032323231303133343832440A2020382020382020302020302020302020302020302020302020302020303939392056323030300A2020202D302E3731343520202020302E3431323520202020302E303030302043202020302020302020302020302020302020302020302020302020302020302020302020300A20202020302E3030303020202020302E3832353020202020302E303030302043202020302020302020302020302020302020302020302020302020302020302020302020300A20202020302E3731343520202020302E3431323520202020302E303030302043202020302020302020302020302020302020302020302020302020302020302020302020300A20202020302E373134352020202D302E3431323520202020302E303030302043202020302020302020302020302020302020302020302020302020302020302020302020300A20202020302E303030302020202D302E3832353020202020302E303030302043202020302020302020302020302020302020302020302020302020302020302020302020300A2020202D302E373134352020202D302E3431323520202020302E303030302043202020302020302020302020302020302020302020302020302020302020302020302020300A20202020312E3432383920202020302E3832353020202020302E30303030204E202020302020302020302020302020302020302020302020302020302020302020302020300A2020202D312E3432383920202020302E3832353020202020302E30303030204F202020302020302020302020302020302020302020302020302020302020302020302020300A2020312020322020312020302020202020200A2020322020332020322020302020202020200A2020332020342020312020302020202020200A2020342020352020322020302020202020200A2020352020362020312020302020202020200A2020312020362020322020302020202020200A2020332020372020312020302020202020200A2020312020382020312020302020202020200A4D2020454E44
Contributor: TAJIMA S, GUNMA COLLEGE OF TECHNOLOGY
InstType: EI
InstName: HITACHI M-80A
IoniMethod: _ENERGY 70 eV
IonPolarity: pos
Date: 2010-10-09 19:48:36+02:00
Num Peaks: 42
26 41 27 113 28 82 29 79 30 16 37 151 38 111 39 198 40 88 41 126 
42 77 43 16 44 13 49 20 50 72 51 95 52 159 53 252 54 122 55 51 
61 30 62 46 63 88 64 67 65 67 66 41 67 18 68 76 69 19 70 20 
76 12 78 23 79 20 80 709 81 252 82 71 91 26 92 13 94 10 108 46 
109 999 110 78 
