Name: 3-METHYL-3-BUTENYLTRIMETHYLSILANE
MW: 142
Formula: C8H18Si
Synonym: MassBank: JP010362
Synonym: 3-METHYL-3-BUTENYLTRIMETHYLSILANE
Structure: 310A32320A332D4D455448594C2D332D425554454E594C5452494D455448594C53494C414E452E6D6F6C0A20204368656D447261773033323031303030333632440A2020392020382020302020302020302020302020302020302020302020303939392056323030300A2020202D312E303731372020202D302E3236313520202020302E303030302053692020302020302020302020302020302020302020302020302020302020302020302020300A2020202D302E363539322020202D302E3937363020202020302E303030302043202020302020302020302020302020302020302020302020302020302020302020302020300A2020202D312E373836322020202D302E3637343020202020302E303030302043202020302020302020302020302020302020302020302020302020302020302020302020300A2020202D312E3438343220202020302E3435333020202020302E303030302043202020302020302020302020302020302020302020302020302020302020302020302020300A2020202D302E3335373220202020302E3135313020202020302E303030302043202020302020302020302020302020302020302020302020302020302020302020302020300A20202020302E333537322020202D302E3236313520202020302E303030302043202020302020302020302020302020302020302020302020302020302020302020302020300A20202020312E3037313720202020302E3135313020202020302E303030302043202020302020302020302020302020302020302020302020302020302020302020302020300A20202020312E3037313720202020302E3937363020202020302E303030302043202020302020302020302020302020302020302020302020302020302020302020302020300A20202020312E373836322020202D302E3236313520202020302E303030302043202020302020302020302020302020302020302020302020302020302020302020302020300A2020312020322020312020312020202020200A2020312020332020312020302020202020200A2020312020342020312020312020202020200A2020352020362020312020302020202020200A2020362020372020312020302020202020200A2020372020382020322020302020202020200A2020372020392020312020302020202020200A2020312020352020312020302020202020200A4D2020454E44
Contributor: HISAHIRO HAGIWARA, CHEMICAL RESEARCH INSTITUTE OF NON-AQUEOUSSOLUTIONS TOHOKU UNIV.
InstType: EI
InstName: JEOL JMS-DX-300
IoniMethod: _ENERGY 70 eV
IonPolarity: pos
Date: 2010-10-09 19:48:36+02:00
Num Peaks: 30
31 23 39 17 41 17 43 68 44 18 45 97 55 16 57 15 58 20 59 271 
60 24 61 1 68 18 71 14 72 25 73 999 74 114 75 50 83 12 85 151 
86 17 99 229 100 29 101 10 111 17 127 211 128 31 129 0 142 83 143 13 
