Name: MassBank: JP010356
MW: 222
Formula: C13H18O3
Synonym: MassBank: JP010356
Synonym: METHYL 2-METHYL-4-OXO-TRICYCLO(5,3,0,0(5,10))DECANE-1-CARBOXYLATE
Structure: 4D455448594C20322D4D455448594C2D342D4F584F2D5452494359434C4F28352C332C302C3028352C31302929444543414E452D312D434152424F58594C4154452E6D6F6C0A20204368656D447261773038313131303233333532440A2031362031382020302020302020302020302020302020302020302020303939392056323030300A2020202D302E3139303920202020302E3235363920202020302E303030302043202020302020302020302020302020302020302020302020302020302020302020302020300A20202020302E323231362020202D302E3435373620202020302E303030302043202020302020302020302020302020302020302020302020302020302020302020302020300A2020202D302E313930392020202D312E3137323120202020302E303030302043202020302020302020302020302020302020302020302020302020302020302020302020300A2020202D312E303135392020202D312E3137323120202020302E303030302043202020302020302020302020302020302020302020302020302020302020302020302020300A2020202D312E343238342020202D302E3435373620202020302E303030302043202020302020302020302020302020302020302020302020302020302020302020302020300A2020202D302E313934332020202D302E3139323420202020302E303030302043202020302020302020302020302020302020302020302020302020302020302020302020300A20202020302E3036343020202020312E3034313520202020302E303030302043202020302020302020302020302020302020302020302020302020302020302020302020300A2020202D302E3630333420202020312E3532363420202020302E303030302043202020302020302020302020302020302020302020302020302020302020302020302020300A2020202D312E3237303920202020312E3034313520202020302E303030302043202020302020302020302020302020302020302020302020302020302020302020302020300A2020202D312E3031353920202020302E3235363920202020302E303030302043202020302020302020302020302020302020302020302020302020302020302020302020300A20202020302E3834353120202020302E3535373620202020302E303030302043202020302020302020302020302020302020302020302020302020302020302020302020300A20202020312E343238342020202D302E3032353720202020302E30303030204F202020302020302020302020302020302020302020302020302020302020302020302020300A20202020302E3936393120202020312E3336373320202020302E30303030204F202020302020302020302020302020302020302020302020302020302020302020302020300A2020202D312E343238342020202D312E3838363520202020302E30303030204F202020302020302020302020302020302020302020302020302020302020302020302020300A20202020312E303334302020202D302E3630303920202020302E303030302043202020302020302020302020302020302020302020302020302020302020302020302020300A20202020302E3332373920202020312E3838363520202020302E303030302043202020302020302020302020302020302020302020302020302020302020302020302020300A2020312020322020312020302020202020200A2020322020332020312020302020202020200A2020332020342020312020302020202020200A2020342020352020312020302020202020200A2020352020362020312020302020202020200A2020362020372020312020302020202020200A2020372020382020312020302020202020200A2020382020392020312020302020202020200A2020392031302020312020302020202020200A2020312031302020312020302020202020200A2020312020372020312020302020202020200A2020352031302020312020302020202020200A2031312031322020322020302020202020200A2031312031332020312020302020202020200A2020312031312020312020302020202020200A2020342031342020322020302020202020200A2020322031352020312020302020202020200A2031332031362020312020302020202020200A4D2020454E44
Contributor: HISAHIRO HAGIWARA, CHEMICAL RESEARCH INSTITUTE OF NON-AQUEOUSSOLUTIONS TOHOKU UNIV.
InstType: EI
InstName: JEOL JMS-DX-300
IoniMethod: _ENERGY 70 eV
IonPolarity: pos
Date: 2010-10-09 19:48:36+02:00
Num Peaks: 55
39 264 41 369 43 104 51 103 52 63 53 180 55 221 59 176 65 164 66 77 
67 172 69 96 77 287 78 116 79 378 80 88 81 177 91 441 92 206 93 367 
94 70 105 369 106 99 107 116 108 63 109 110 119 253 120 41 121 499 122 75 
133 193 134 128 135 201 137 65 145 73 147 154 148 631 149 173 151 64 152 7 
161 56 162 215 163 356 164 50 165 155 166 67 179 154 180 614 181 88 190 148 
191 221 194 999 195 155 222 278 223 66 
