Name: PHTHALIMIDE
CAS: 85-41-6
MW: 147
Formula: C8H5NO2
Synonym: MassBank: JP011917
Synonym: PHTHALIMIDE
Structure: 50485448414C494D4944452E6D6F6C0A20204368656D447261773038313231303035343432440A2031312031322020302020302020302020302020302020302020302020303939392056323030300A20202020302E363137352020202D302E3235343520202020302E303030302043202020302020302020302020302020302020302020302020302020302020302020302020300A20202020312E343234352020202D302E3038333020202020302E30303030204F202020302020302020302020302020302020302020302020302020302020302020302020300A20202020302E3030343420202020302E3239373520202020302E303030302043202020302020302020302020302020302020302020302020302020302020302020302020300A2020202D302E373130302020202D302E3131353020202020302E303030302043202020302020302020302020302020302020302020302020302020302020302020302020300A2020202D302E353338352020202D302E3932313920202020302E303030302043202020302020302020302020302020302020302020302020302020302020302020302020300A2020202D312E303930352020202D312E3533353020202020302E30303030204F202020302020302020302020302020302020302020302020302020302020302020302020300A2020202D312E3432343520202020302E3239373520202020302E303030302043202020302020302020302020302020302020302020302020302020302020302020302020300A2020202D312E3432343520202020312E3132323520202020302E303030302043202020302020302020302020302020302020302020302020302020302020302020302020300A2020202D302E3731303020202020312E3533353020202020302E303030302043202020302020302020302020302020302020302020302020302020302020302020302020300A20202020302E3030343420202020312E3132323520202020302E303030302043202020302020302020302020302020302020302020302020302020302020302020302020300A20202020302E323832302020202D312E3030383220202020302E30303030204E202020302020302020302020302020302020302020302020302020302020302020302020300A2020312020322020322020302020202020200A2020312020332020312020302020202020200A2020332020342020312020302020202020200A2020342020352020312020302020202020200A2020352020362020322020302020202020200A2020342020372020322020302020202020200A2020372020382020312020302020202020200A2020382020392020322020302020202020200A2020392031302020312020302020202020200A2020332031302020322020302020202020200A2020312031312020312020302020202020200A2020352031312020312020302020202020200A4D2020454E44
Contributor: YAMAMOTO M, DEP. CHEMISTRY, FAC. SCIENCE, NARA WOMEN'S UNIV.
InstType: EI
InstName: HITACHI M-80
IoniMethod: _ENERGY 70 eV
IonPolarity: pos
Date: 2010-10-09 19:48:36+02:00
Num Peaks: 37
18 35 26 12 27 11 28 100 32 23 37 71 38 73 39 28 43 55 44 14 
46 14 49 36 50 416 51 39 52 29 53 18 59 12 61 21 62 20 63 36 
64 27 66 36 70 13 73 50 74 218 75 168 76 840 77 78 90 33 91 14 
92 20 103 381 104 731 105 60 139 11 147 999 148 95 
