Name: L-TRYPTOPHAN
CAS: 73-22-3
MW: 204
Formula: C11H12N2O2
Synonym: MassBank: JP011293
Synonym: L-TRYPTOPHAN
Structure: 313033395F4C2D54525950544F5048414E2E6D6F6C0A20204368656D447261773130323031303139353132440A2031362031372020302020302020302020302020302020302020302020303939392056323030300A2020202D312E3832303620202020302E3631393820202020302E303030302043202020302020302020302020302020302020302020302020302020302020302020302020300A2020202D312E343530372020202D302E3736303420202020302E30303030204E202020302020302020302020302020302020302020302020302020302020302020302020300A2020202D312E3233373220202020302E3033363420202020302E303030302043202020302020302020302020302020302020302020302020302020302020302020302020300A2020202D302E3435323620202020302E3239313420202020302E303030302043202020302020302020302020302020302020302020302020302020302020302020302020300A20202020302E313630352020202D302E3236303720202020302E303030302043202020302020302020302020302020302020302020302020302020302020302020302020300A20202020302E303734332020202D312E3038313120202020302E303030302043202020302020302020302020302020302020302020302020302020302020302020302020300A20202020302E383237392020202D312E3431363720202020302E30303030204E202020302020302020302020302020302020302020302020302020302020302020302020300A20202020312E333830302020202D302E3830333620202020302E303030302043202020302020302020302020302020302020302020302020302020302020302020302020300A20202020322E323035302020202D302E3830333620202020302E303030302043202020302020302020302020302020302020302020302020302020302020302020302020300A20202020322E363137352020202D302E3038393120202020302E303030302043202020302020302020302020302020302020302020302020302020302020302020302020300A20202020322E3230353020202020302E3632353320202020302E303030302043202020302020302020302020302020302020302020302020302020302020302020302020300A20202020312E3338303020202020302E3632353320202020302E303030302043202020302020302020302020302020302020302020302020302020302020302020302020300A20202020302E393637352020202D302E3038393120202020302E303030302043202020302020302020302020302020302020302020302020302020302020302020302020300A2020202D312E3630373120202020312E3431363720202020302E30303030204F202020302020302020302020302020302020302020302020302020302020302020302020300A2020202D322E3631373520202020302E3430363320202020302E30303030204F202020302020302020302020302020302020302020302020302020302020302020302020300A2020202D302E3936333420202020302E3831343720202020302E303030302048202020302020302020302020302020302020302020302020302020302020302020302020300A2020332020322020312020312020202020200A2020312020332020312020302020202020200A2020332020342020312020302020202020200A2020342020352020312020302020202020200A2020352020362020322020302020202020200A2020362020372020312020302020202020200A2020372020382020312020302020202020200A2020382020392020322020302020202020200A2020392031302020312020302020202020200A2031302031312020322020302020202020200A2031312031322020312020302020202020200A2031322031332020322020302020202020200A2020352031332020312020302020202020200A2020382031332020312020302020202020200A2020312031342020322020302020202020200A2020312031352020312020302020202020200A2020332031362020312020312020202020200A4D2020454E44
Contributor: YAMAMOTO M, DEP. CHEMISTRY, FAC. SCIENCE, NARA WOMEN'S UNIV.
InstType: EI
InstName: HITACHI M-2500
IoniMethod: _ENERGY 70 eV
IonPolarity: pos
Date: 2010-10-09 19:48:36+02:00
Num Peaks: 21
28 12 43 13 45 14 60 10 77 27 102 25 103 53 115 15 117 27 128 29 
129 40 130 999 131 125 132 25 143 12 149 10 157 10 158 25 159 30 204 84 
205 14 
