Name: MassBank: JP010433
MW: 320
Formula: C12H17O4PS2
Synonym: MassBank: JP010433
Synonym: PHOSPHORODITHIOIC ACID O,O-DIMETHYL S-(ALPHA-(ETHOXYCARBONYL)BENZYL) ESTER
Structure: 50484F5350484F524F44495448494F49432041434944204F2C4F2D44494D455448594C20532D28414C5048412D284554484F5859434152424F4E594C2942454E5A594C292045535445522E6D6F6C0A20204368656D447261773038313231303035333932440A2031392031392020302020302020302020302020302020302020302020303939392056323030300A2020202D312E303731372020202D302E3431323520202020302E303030302050202020302020302020302020302020302020302020302020302020302020302020302020300A2020202D312E343834322020202D312E3132373020202020302E30303030204F202020302020302020302020302020302020302020302020302020302020302020302020300A2020202D312E3738363220202020302E3030303020202020302E30303030204F202020302020302020302020302020302020302020302020302020302020302020302020300A2020202D302E333537322020202D302E3832353020202020302E303030302053202020302020302020302020302020302020302020302020302020302020302020302020300A2020202D302E3635393220202020302E3330323020202020302E303030302053202020302020302020302020302020302020302020302020302020302020302020302020300A20202020302E333537322020202D302E3431323520202020302E303030302043202020302020302020302020302020302020302020302020302020302020302020302020300A20202020312E303731372020202D302E3832353020202020302E303030302043202020302020302020302020302020302020302020302020302020302020302020302020300A20202020312E373836322020202D302E3431323520202020302E303030302043202020302020302020302020302020302020302020302020302020302020302020302020300A20202020322E353030362020202D302E3832353020202020302E303030302043202020302020302020302020302020302020302020302020302020302020302020302020300A20202020322E353030362020202D312E3635303020202020302E303030302043202020302020302020302020302020302020302020302020302020302020302020302020300A20202020312E373836322020202D322E3036323520202020302E303030302043202020302020302020302020302020302020302020302020302020302020302020302020300A20202020312E303731372020202D312E3635303020202020302E303030302043202020302020302020302020302020302020302020302020302020302020302020302020300A20202020302E3335373220202020302E3431323520202020302E303030302043202020302020302020302020302020302020302020302020302020302020302020302020300A20202020312E3037313720202020302E3832353020202020302E30303030204F202020302020302020302020302020302020302020302020302020302020302020302020300A2020202D302E3335373220202020302E3832353020202020302E30303030204F202020302020302020302020302020302020302020302020302020302020302020302020300A2020202D302E3335373220202020312E3635303020202020302E303030302043202020302020302020302020302020302020302020302020302020302020302020302020300A2020202D312E3037313720202020322E3036323520202020302E303030302043202020302020302020302020302020302020302020302020302020302020302020302020300A2020202D322E353030362020202D302E3431323520202020302E303030302043202020302020302020302020302020302020302020302020302020302020302020302020300A2020202D322E333039322020202D312E3132373020202020302E303030302043202020302020302020302020302020302020302020302020302020302020302020302020300A2020312020322020312020302020202020200A2020312020332020312020302020202020200A2020312020342020312020302020202020200A2020312020352020322020302020202020200A2020362020372020312020302020202020200A2020372020382020312020302020202020200A2020382020392020322020302020202020200A2020392031302020312020302020202020200A2031302031312020322020302020202020200A2031312031322020312020302020202020200A2020372031322020322020302020202020200A2031332031342020322020302020202020200A2031362031372020312020302020202020200A2031352031362020312020302020202020200A2031332031352020312020302020202020200A2020362031332020312020302020202020200A2020342020362020312020302020202020200A2020332031382020312020302020202020200A2020322031392020312020302020202020200A4D2020454E44
Contributor: UOEH
InstType: EI
InstName: JEOL JMS-DX-303
IoniMethod: _ENERGY 70 eV
IonPolarity: pos
Date: 2010-10-09 19:48:36+02:00
Num Peaks: 50
39 12 45 13 47 34 51 16 62 19 63 60 64 11 65 11 77 66 78 22 
79 129 89 59 90 90 91 195 92 18 93 341 105 12 107 196 108 17 118 100 
119 13 121 387 122 53 123 31 125 421 126 22 127 30 135 209 136 28 137 12 
143 22 157 140 159 13 163 137 164 34 178 10 231 11 246 250 247 157 248 39 
249 16 258 15 261 10 274 999 275 148 276 121 277 14 320 106 321 16 322 12 
