Name: MassBank: JP010041
MW: 340
Formula: C20H36O4
Synonym: MassBank: JP010041
Synonym: 2,6,11,15-TETRAMETHYL-2,14-HEXADECADIENE-6,9,11-TRIOL-8-ONE
Structure: 322C362C31312C31352D54455452414D455448594C2D322C31342D48455841444543414449454E452D362C392C31312D5452494F4C2D382D4F4E452E6D6F6C0A20204368656D447261773132323130393032303932440A2032342032332020302020302020302020302020302020302020302020303939392056323030300A2020202D332E3537323420202020302E3230363220202020302E303030302043202020302020302020302020302020302020302020302020302020302020302020302020300A2020202D322E3835373920202020302E3631383720202020302E303030302043202020302020302020302020302020302020302020302020302020302020302020302020300A2020202D322E3134333420202020302E3230363220202020302E303030302043202020302020302020302020302020302020302020302020302020302020302020302020300A2020202D312E3432383920202020302E3631383720202020302E303030302043202020302020302020302020302020302020302020302020302020302020302020302020300A2020202D302E3731343520202020302E3230363220202020302E303030302043202020302020302020302020302020302020302020302020302020302020302020302020300A2020202D302E373134352020202D302E3631383820202020302E303030302043202020302020302020302020302020302020302020302020302020302020302020302020300A2020202D302E373134352020202D312E3434333820202020302E303030302043202020302020302020302020302020302020302020302020302020302020302020302020300A20202020302E303030302020202D312E3835363320202020302E303030302043202020302020302020302020302020302020302020302020302020302020302020302020300A20202020302E373134352020202D312E3434333820202020302E303030302043202020302020302020302020302020302020302020302020302020302020302020302020300A20202020302E373134352020202D302E3631383820202020302E303030302043202020302020302020302020302020302020302020302020302020302020302020302020300A20202020312E343238392020202D302E3230363320202020302E303030302043202020302020302020302020302020302020302020302020302020302020302020302020300A20202020322E3134333420202020302E3230363320202020302E303030302043202020302020302020302020302020302020302020302020302020302020302020302020300A20202020322E3134333420202020312E3033313320202020302E303030302043202020302020302020302020302020302020302020302020302020302020302020302020300A20202020322E3835373920202020312E3434333820202020302E303030302043202020302020302020302020302020302020302020302020302020302020302020302020300A20202020322E3835373920202020322E3236383820202020302E303030302043202020302020302020302020302020302020302020302020302020302020302020302020300A20202020332E3537323420202020322E3638313320202020302E303030302043202020302020302020302020302020302020302020302020302020302020302020302020300A2020202D312E353339352020202D302E3631383820202020302E30303030204F202020302020302020302020302020302020302020302020302020302020302020302020300A20202020312E343238392020202D312E3835363320202020302E30303030204F202020302020302020302020302020302020302020302020302020302020302020302020300A20202020312E3031363420202020302E3530383220202020302E30303030204F202020302020302020302020302020302020302020302020302020302020302020302020300A20202020302E303030302020202D322E3638313320202020302E30303030204F202020302020302020302020302020302020302020302020302020302020302020302020300A20202020322E3134333420202020322E3638313320202020302E303030302043202020302020302020302020302020302020302020302020302020302020302020302020300A20202020312E383431342020202D302E3932303720202020302E303030302043202020302020302020302020302020302020302020302020302020302020302020302020300A20202020302E313130352020202D302E3631383820202020302E303030302043202020302020302020302020302020302020302020302020302020302020302020302020300A2020202D322E3835373920202020312E3434333720202020302E303030302043202020302020302020302020302020302020302020302020302020302020302020302020300A2020312020322020312020302020202020200A2020322020332020322020302020202020200A2020332020342020312020302020202020200A2020342020352020312020302020202020200A2020352020362020312020302020202020200A2020362020372020312020302020202020200A2020372020382020312020302020202020200A2020382020392020312020302020202020200A2020392031302020312020302020202020200A2031302031312020312020302020202020200A2031312031322020312020302020202020200A2031322031332020312020302020202020200A2031332031342020312020302020202020200A2031342031352020322020302020202020200A2031352031362020312020302020202020200A2020362031372020312020302020202020200A2020392031382020312020302020202020200A2031312031392020312020302020202020200A2020382032302020322020302020202020200A2031352032312020312020302020202020200A2031312032322020312020302020202020200A2020362032332020312020302020202020200A2020322032342020312020302020202020200A4D2020454E44
Contributor: KURARAY CO., LTD.
InstType: EI
InstName: JEOL JMS-D-300
IoniMethod: _ENERGY 70 eV
IonPolarity: pos
Date: 2010-10-09 19:48:36+02:00
Num Peaks: 91
27 22 28 19 29 44 31 22 39 27 41 376 42 28 43 660 44 24 45 44 
53 46 55 209 56 34 57 56 58 42 59 58 67 104 68 70 69 999 70 134 
71 334 72 61 73 30 77 16 79 37 80 58 81 28 82 278 83 219 84 56 
85 61 86 26 87 131 88 76 91 19 92 25 93 277 94 53 95 172 96 30 
97 75 98 21 99 26 101 17 103 17 105 18 107 99 108 262 109 687 110 134 
111 119 112 25 113 41 114 143 115 43 119 24 121 98 122 23 123 80 124 61 
125 88 126 195 127 200 128 24 129 39 134 36 135 310 136 98 137 101 138 21 
139 37 140 20 143 20 149 22 151 28 152 41 153 119 154 42 155 25 165 19 
169 120 170 14 171 29 213 16 237 19 239 18 240 43 255 61 322 36 340 66 
341 22 
