Name: 3-(4-BENZYLOXY-3-METHOXYSTYRYL)-5-PENTYL-2-ISOXAZOLINE
MW: 379
Formula: C24H29NO3
Synonym: MassBank: JP010210
Synonym: 3-(4-BENZYLOXY-3-METHOXYSTYRYL)-5-PENTYL-2-ISOXAZOLINE
Structure: 332D28342D42454E5A594C4F58592D332D4D4554484F585953545952594C292D352D50454E54594C2D322D49534F58415A4F4C494E452E6D6F6C0A20204368656D447261773032323231303130303732440A2032382033302020302020302020302020302020302020302020302020303939392056323030300A2020202D332E313733362020202D302E3536373720202020302E30303030204F202020302020302020302020302020302020302020302020302020302020302020302020300A2020202D322E333839302020202D302E3331323820202020302E30303030204E202020302020302020302020302020302020302020302020302020302020302020302020300A2020202D312E393034312020202D302E3938303220202020302E303030302043202020302020302020302020302020302020302020302020302020302020302020302020300A2020202D322E333839302020202D312E3634373720202020302E303030302043202020302020302020302020302020302020302020302020302020302020302020302020300A2020202D332E313733362020202D312E3339323720202020302E303030302043202020302020302020302020302020302020302020302020302020302020302020302020300A2020202D332E383431312020202D312E3837373720202020302E303030302043202020302020302020302020302020302020302020302020302020302020302020302020300A2020202D342E353934382020202D312E3534323120202020302E303030302043202020302020302020302020302020302020302020302020302020302020302020302020300A2020202D342E363831302020202D302E3732313620202020302E303030302043202020302020302020302020302020302020302020302020302020302020302020302020300A2020202D352E343334372020202D302E3338363120202020302E303030302043202020302020302020302020302020302020302020302020302020302020302020302020300A2020202D352E3532303920202020302E3433343420202020302E303030302043202020302020302020302020302020302020302020302020302020302020302020302020300A2020202D312E303739312020202D302E3938303220202020302E303030302043202020302020302020302020302020302020302020302020302020302020302020302020300A2020202D302E363636362020202D302E3236353820202020302E303030302043202020302020302020302020302020302020302020302020302020302020302020302020300A20202020302E313538342020202D302E3236353820202020302E303030302043202020302020302020302020302020302020302020302020302020302020302020302020300A20202020302E3537303920202020302E3434383720202020302E303030302043202020302020302020302020302020302020302020302020302020302020302020302020300A20202020312E3339353920202020302E3434383720202020302E303030302043202020302020302020302020302020302020302020302020302020302020302020302020300A20202020312E383038342020202D302E3236353820202020302E303030302043202020302020302020302020302020302020302020302020302020302020302020302020300A20202020312E333935392020202D302E3938303220202020302E303030302043202020302020302020302020302020302020302020302020302020302020302020302020300A20202020302E353730392020202D302E3938303220202020302E303030302043202020302020302020302020302020302020302020302020302020302020302020302020300A20202020312E3830383420202020312E3136333220202020302E30303030204F202020302020302020302020302020302020302020302020302020302020302020302020300A20202020312E3339353920202020312E3837373720202020302E303030302043202020302020302020302020302020302020302020302020302020302020302020302020300A20202020322E363333342020202D302E3236353820202020302E30303030204F202020302020302020302020302020302020302020302020302020302020302020302020300A20202020332E303435392020202D302E3938303220202020302E303030302043202020302020302020302020302020302020302020302020302020302020302020302020300A20202020332E383730392020202D302E3938303220202020302E303030302043202020302020302020302020302020302020302020302020302020302020302020302020300A20202020342E323833342020202D302E3236353820202020302E303030302043202020302020302020302020302020302020302020302020302020302020302020302020300A20202020352E313038342020202D302E3236353820202020302E303030302043202020302020302020302020302020302020302020302020302020302020302020302020300A20202020352E353230392020202D302E3938303220202020302E303030302043202020302020302020302020302020302020302020302020302020302020302020302020300A20202020352E313038342020202D312E3639343720202020302E303030302043202020302020302020302020302020302020302020302020302020302020302020302020300A20202020342E323833342020202D312E3639343720202020302E303030302043202020302020302020302020302020302020302020302020302020302020302020302020300A2020312020322020312020302020202020200A2020322020332020322020302020202020200A2020332020342020312020302020202020200A2020342020352020312020302020202020200A2020312020352020312020302020202020200A2020362020372020312020302020202020200A2020372020382020312020302020202020200A2020382020392020312020302020202020200A2020392031302020312020302020202020200A2020352020362020312020302020202020200A2031312031322020322020302020202020200A2031322031332020312020302020202020200A2031332031342020312020302020202020200A2031342031352020322020302020202020200A2031352031362020312020302020202020200A2031362031372020322020302020202020200A2031372031382020312020302020202020200A2031332031382020322020302020202020200A2031392032302020312020302020202020200A2031352031392020312020302020202020200A2032322032332020312020302020202020200A2032332032342020312020302020202020200A2032342032352020322020302020202020200A2032352032362020312020302020202020200A2032362032372020322020302020202020200A2032372032382020312020302020202020200A2032332032382020322020302020202020200A2032312032322020312020302020202020200A2031362032312020312020302020202020200A2020332031312020312020302020202020200A4D2020454E44
Contributor: KANEMASA S, INST. OF ADVANCED MATERIAL STUDY KYUSHU UNIV.
InstType: EI
InstName: JEOL JMS-01-SG-2
IoniMethod: _ENERGY 75 eV
IonPolarity: pos
Date: 2010-10-09 19:48:36+02:00
Num Peaks: 19
39 48 41 112 43 77 51 39 55 37 66 138 77 24 89 23 91 999 92 83 
146 26 160 62 188 31 192 32 216 14 288 71 289 18 378 13 379 27 
