Name: MassBank: JP010568
CAS: 2599-11-3
MW: 183
Formula: C7H13N5O
Synonym: MassBank: JP010568
Synonym: 4,6-BIS(ETHYLAMINO)-1,3,5-TRIAZIN-2(1H)-ONE
Structure: 342C362D42495328455448594C414D494E4F292D312C332C352D545249415A494E2D32283148292D4F4E452E6D6F6C0A20204368656D447261773130313831303137313832440A2031332031332020302020302020302020302020302020302020302020303939392056323030300A2020202D312E3233373520202020302E3335373220202020302E30303030204E202020302020302020302020302020302020302020302020302020302020302020302020300A2020202D302E3832353020202020312E3037313720202020302E303030302043202020302020302020302020302020302020302020302020302020302020302020302020300A2020202D302E3030303020202020312E3037313720202020302E30303030204E202020302020302020302020302020302020302020302020302020302020302020302020300A20202020302E3431323520202020302E3335373220202020302E303030302043202020302020302020302020302020302020302020302020302020302020302020302020300A20202020302E303030302020202D302E3335373220202020302E30303030204E202020302020302020302020302020302020302020302020302020302020302020302020300A2020202D302E383235302020202D302E3335373220202020302E303030302043202020302020302020302020302020302020302020302020302020302020302020302020300A2020202D312E3233373520202020312E3738363220202020302E30303030204F202020302020302020302020302020302020302020302020302020302020302020302020300A2020202D312E323337352020202D312E3037313720202020302E30303030204E202020302020302020302020302020302020302020302020302020302020302020302020300A2020202D322E303632352020202D312E3037313720202020302E303030302043202020302020302020302020302020302020302020302020302020302020302020302020300A2020202D322E343735302020202D312E3738363220202020302E303030302043202020302020302020302020302020302020302020302020302020302020302020302020300A20202020312E3233373520202020302E3335373220202020302E30303030204E202020302020302020302020302020302020302020302020302020302020302020302020300A20202020312E363530302020202D302E3335373220202020302E303030302043202020302020302020302020302020302020302020302020302020302020302020302020300A20202020322E343735302020202D302E3335373220202020302E303030302043202020302020302020302020302020302020302020302020302020302020302020302020300A2020312020322020312020302020202020200A2020322020332020312020302020202020200A2020332020342020322020302020202020200A2020342020352020312020302020202020200A2020352020362020322020302020202020200A2020312020362020312020302020202020200A2020322020372020322020302020202020200A2020392031302020312020302020202020200A2020382020392020312020302020202020200A2020362020382020312020302020202020200A2031322031332020312020302020202020200A2031312031322020312020302020202020200A2020342031312020312020302020202020200A4D2020454E44
Contributor: NARA WOMEN'S UNIVERSITY
InstType: EI
InstName: HITACHI M-80
IoniMethod: _ENERGY 70 eV
IonPolarity: pos
Date: 2010-10-09 19:48:36+02:00
Num Peaks: 37
15 21 18 16 27 68 28 117 29 82 30 69 44 397 45 12 50 75 56 13 
58 13 59 14 67 11 69 195 70 74 71 93 83 10 84 44 85 57 86 65 
95 10 111 77 113 43 114 58 125 36 126 44 139 67 140 324 141 39 154 84 
155 561 156 116 168 267 182 98 183 999 184 315 185 27 
