Name: MassBank: JP010178
MW: 258
Formula: C15H18N2O2
Synonym: MassBank: JP010178
Synonym: 2-PARA-TOLYL-4,4-DIMETHYLPERHYDROPYRROLO(3,4-C)PYRROLE-1,3-DIONE
Structure: 322D504152412D544F4C594C2D342C342D44494D455448594C504552485944524F505952524F4C4F28332C342D4329505952524F4C452D312C332D44494F4E452E6D6F6C0A20204368656D447261773032323131303132333832440A2031392032312020302020302020302020302020302020302020302020303939392056323030300A2020202D302E3236353720202020302E3030303020202020302E30303030204E202020302020302020302020302020302020302020302020302020302020302020302020300A2020202D302E3735303620202020302E3636373420202020302E303030302043202020302020302020302020302020302020302020302020302020302020302020302020300A2020202D312E3533353220202020302E3431323520202020302E303030302043202020302020302020302020302020302020302020302020302020302020302020302020300A2020202D312E353335322020202D302E3431323520202020302E303030302043202020302020302020302020302020302020302020302020302020302020302020302020300A2020202D302E373530362020202D302E3636373420202020302E303030302043202020302020302020302020302020302020302020302020302020302020302020302020300A2020202D322E383034382020202D302E3030303020202020302E30303030204E202020302020302020302020302020302020302020302020302020302020302020302020300A2020202D322E3331393820202020302E3636373420202020302E303030302043202020302020302020302020302020302020302020302020302020302020302020302020300A2020202D322E333139382020202D302E3636373420202020302E303030302043202020302020302020302020302020302020302020302020302020302020302020302020300A2020202D302E3439353720202020312E3435323120202020302E30303030204F202020302020302020302020302020302020302020302020302020302020302020302020300A2020202D302E343935372020202D312E3435323120202020302E30303030204F202020302020302020302020302020302020302020302020302020302020302020302020300A2020202D312E393834332020202D312E3432313120202020302E303030302043202020302020302020302020302020302020302020302020302020302020302020302020300A2020202D332E303334332020202D312E3037393920202020302E303030302043202020302020302020302020302020302020302020302020302020302020302020302020300A20202020302E3535393320202020302E3030303020202020302E303030302043202020302020302020302020302020302020302020302020302020302020302020302020300A20202020302E3937313820202020302E3731343520202020302E303030302043202020302020302020302020302020302020302020302020302020302020302020302020300A20202020322E3230393320202020302E3030303020202020302E303030302043202020302020302020302020302020302020302020302020302020302020302020302020300A20202020302E393731382020202D302E3731343520202020302E303030302043202020302020302020302020302020302020302020302020302020302020302020302020300A20202020312E3739363820202020302E3731343520202020302E303030302043202020302020302020302020302020302020302020302020302020302020302020302020300A20202020312E373936382020202D302E3731343520202020302E303030302043202020302020302020302020302020302020302020302020302020302020302020302020300A20202020332E3033343320202020302E3030303020202020302E303030302043202020302020302020302020302020302020302020302020302020302020302020302020300A2020312020322020312020302020202020200A2020322020332020312020302020202020200A2020332020342020312020302020202020200A2020342020352020312020302020202020200A2020312020352020312020302020202020200A2020362020372020312020302020202020200A2020362020382020312020302020202020200A2020332020372020312020302020202020200A2020342020382020312020302020202020200A2020322020392020322020302020202020200A2020352031302020322020302020202020200A2020382031312020312020312020202020200A2020382031322020312020362020202020200A2031332031342020312020302020202020200A2031332031362020322020302020202020200A2031342031372020322020302020202020200A2031352031372020312020302020202020200A2031352031382020322020302020202020200A2031362031382020312020302020202020200A2031352031392020312020302020202020200A2020312031332020312020302020202020200A4D2020454E44
Contributor: KANEMASA S, INST. OF ADVANCED MATERIAL STUDY KYUSHU UNIV.
InstType: EI
InstName: JEOL JMS-01-SG-2
IoniMethod: _ENERGY 75 eV
IonPolarity: pos
Date: 2010-10-09 19:48:36+02:00
Num Peaks: 28
40 90 41 39 42 94 43 112 54 55 55 58 56 61 67 194 68 48 70 54 
71 155 77 67 78 39 80 104 81 62 82 999 83 51 91 57 94 37 96 61 
104 86 105 34 106 21 132 104 133 114 134 14 243 46 258 15 
