Name: MassBank: JP011675
MW: 228
Formula: C12H28Si2
Synonym: MassBank: JP011675
Synonym: 1,4-BIS(TRIMETHYLSILYL)-2,3-DIMETHYL-2-BUTENE
Structure: 312C342D424953285452494D455448594C53494C594C292D322C332D44494D455448594C2D322D425554454E452E6D6F6C0A20204368656D447261773131313430393232343432440A2031342031332020302020302020302020302020302020302020302020303939392056323030300A20202020302E383235302020202D302E3330323020202020302E303030302043202020302020302020302020302020302020302020302020302020302020302020302020300A20202020302E3431323520202020302E3431323520202020302E303030302043202020302020302020302020302020302020302020302020302020302020302020302020300A2020202D302E3431323520202020302E3431323520202020302E303030302043202020302020302020302020302020302020302020302020302020302020302020302020300A2020202D302E383235302020202D302E3330323020202020302E303030302043202020302020302020302020302020302020302020302020302020302020302020302020300A2020202D302E3832353020202020312E3132373020202020302E303030302043202020302020302020302020302020302020302020302020302020302020302020302020300A20202020302E3832353020202020312E3132373020202020302E303030302043202020302020302020302020302020302020302020302020302020302020302020302020300A2020202D312E363530302020202D302E3330323020202020302E303030302053692020302020302020302020302020302020302020302020302020302020302020302020300A2020202D312E363530302020202D312E3132373020202020302E303030302043202020302020302020302020302020302020302020302020302020302020302020302020300A2020202D312E3635303020202020302E3532333020202020302E303030302043202020302020302020302020302020302020302020302020302020302020302020302020300A2020202D322E343735302020202D302E3330323020202020302E303030302043202020302020302020302020302020302020302020302020302020302020302020302020300A20202020312E363530302020202D302E3330323020202020302E303030302053692020302020302020302020302020302020302020302020302020302020302020302020300A20202020312E3635303020202020302E3532333020202020302E303030302043202020302020302020302020302020302020302020302020302020302020302020302020300A20202020322E343735302020202D302E3330323020202020302E303030302043202020302020302020302020302020302020302020302020302020302020302020302020300A20202020312E363530302020202D312E3132373020202020302E303030302043202020302020302020302020302020302020302020302020302020302020302020302020300A2020312020322020312020302020202020200A2020322020332020322020302020202020200A2020332020342020312020302020202020200A2020332020352020312020302020202020200A2020322020362020312020302020202020200A2020372020382020312020312020202020200A2020372020392020312020312020202020200A2020372031302020312020302020202020200A2020342020372020312020302020202020200A2031312031322020312020312020202020200A2031312031332020312020302020202020200A2031312031342020312020312020202020200A2020312031312020312020302020202020200A4D2020454E44
Contributor: FAC. TECHNOLOGY, HIROSHIMA UNIV.
InstType: EI
InstName: SHIMADZU QP-1000
IoniMethod: _ENERGY 70 eV
IonPolarity: pos
Date: 2010-10-09 19:48:36+02:00
Num Peaks: 18
109 21 111 21 112 32 123 53 125 999 126 128 127 32 131 11 139 149 140 245 
141 43 154 43 155 117 156 11 227 29 228 21 229 53 23 14 
