Name: MassBank: JP010638
MW: 320
Formula: C20H32O3
Synonym: MassBank: JP010638
Synonym: (1S,2R,3E,7E,11E)-2,16,19-TRIHYDROXYCEMBRA-3,7,11,15-TETRAENE
Structure: 2831532C32522C33452C37452C313145292D322C31362C31392D545249485944524F585943454D4252412D332C372C31312C31352D5445545241454E452E6D6F6C0A20204368656D447261773130313930393134323132440A2032382032382020302020302020302020302020302020302020302020303939392056323030300A2020202D312E3933323220202020302E3839323320202020302E303030302043202020302020302020302020302020302020302020302020302020302020302020302020300A2020202D312E3933323220202020302E3036373320202020302E303030302043202020302020302020302020302020302020302020302020302020302020302020302020300A2020202D312E333438392020202D302E3531363120202020302E303030302043202020302020302020302020302020302020302020302020302020302020302020302020300A2020202D302E353233392020202D302E3531363120202020302E303030302043202020302020302020302020302020302020302020302020302020302020302020302020300A20202020302E3035393520202020302E3036373320202020302E303030302043202020302020302020302020302020302020302020302020302020302020302020302020300A20202020302E3035393520202020302E3839323320202020302E303030302043202020302020302020302020302020302020302020302020302020302020302020302020300A2020202D302E3532333920202020312E3437353720202020302E303030302043202020302020302020302020302020302020302020302020302020302020302020302020300A2020202D312E3334383920202020312E3437353720202020302E303030302043202020302020302020302020302020302020302020302020302020302020302020302020300A20202020302E363432382020202D302E3531363120202020302E303030302043202020302020302020302020302020302020302020302020302020302020302020302020300A20202020312E343637382020202D302E3531363120202020302E303030302043202020302020302020302020302020302020302020302020302020302020302020302020300A20202020322E3035313220202020302E3036373320202020302E303030302043202020302020302020302020302020302020302020302020302020302020302020302020300A20202020322E3035313220202020302E3839323320202020302E303030302043202020302020302020302020302020302020302020302020302020302020302020302020300A20202020312E3436373820202020312E3437353720202020302E303030302043202020302020302020302020302020302020302020302020302020302020302020302020300A20202020302E3634323820202020312E3437353720202020302E303030302043202020302020302020302020302020302020302020302020302020302020302020302020300A20202020302E3333333420202020322E3233353120202020302E303030302048202020302020302020302020302020302020302020302020302020302020302020302020300A20202020312E3235353920202020302E3237363020202020302E303030302048202020302020302020302020302020302020302020302020302020302020302020302020300A2020202D322E3639313620202020312E3230353320202020302E303030302048202020302020302020302020302020302020302020302020302020302020302020302020300A2020202D322E373237392020202D302E3134383220202020302E303030302048202020302020302020302020302020302020302020302020302020302020302020302020300A2020202D312E313333342020202D312E3331383620202020302E303030302043202020302020302020302020302020302020302020302020302020302020302020302020300A2020202D322E333339372020202D302E3635313420202020302E30303030204F202020302020302020302020302020302020302020302020302020302020302020302020300A2020202D312E373631342020202D312E3233363620202020302E303030302048202020302020302020302020302020302020302020302020302020302020302020302020300A2020202D312E373138372020202D312E3839363320202020302E303030302043202020302020302020302020302020302020302020302020302020302020302020302020300A2020202D302E333332362020202D312E3532373220202020302E303030302043202020302020302020302020302020302020302020302020302020302020302020302020300A2020202D302E313234302020202D322E3332383020202020302E30303030204F202020302020302020302020302020302020302020302020302020302020302020302020300A2020202D302E3933363420202020302E3736313720202020302E303030302043202020302020302020302020302020302020302020302020302020302020302020302020300A20202020302E333235392020202D312E3237373520202020302E303030302043202020302020302020302020302020302020302020302020302020302020302020302020300A20202020322E3031333420202020322E3332383020202020302E303030302043202020302020302020302020302020302020302020302020302020302020302020302020300A20202020322E3732373920202020312E3931353520202020302E30303030204F202020302020302020302020302020302020302020302020302020302020302020302020300A2020312020322020312020302020202020200A2020322020332020312020302020202020200A2020332020342020312020302020202020200A2020342020352020312020302020202020200A2020362020372020312020302020202020200A2020372020382020312020302020202020200A2020382020312020322020302020202020200A2020352020392020312020302020202020200A2020392031302020322020302020202020200A2031302031312020312020302020202020200A2031312031322020312020302020202020200A2031322031332020312020302020202020200A2031332031342020322020302020202020200A2031342020362020312020302020202020200A2031342031352020312020302020202020200A2031302031362020312020302020202020200A2020312031372020312020302020202020200A2020322031382020312020312020202020200A2020332031392020312020312020202020200A2020322032302020312020362020202020200A2020332032312020312020362020202020200A2031392032322020312020302020202020200A2031392032332020322020302020202020200A2032332032342020312020302020202020200A2020382032352020312020302020202020200A2020392032362020312020302020202020200A2031332032372020312020302020202020200A2032372032382020312020302020202020200A4D202053545920203120202031205355500A4D2020534C4220203120202031202020310A4D202053414C20202031202031202032350A4D202053424C20202031202031202032350A4D2020534D5420202031204D650A4D2020534256202020312032352020202D372E3034313420202020362E363133330A4D202053545920203120202032205355500A4D2020534C4220203120202032202020320A4D202053414C20202032202031202032360A4D202053424C20202032202031202032360A4D2020534D5420202032204D650A4D2020534256202020322032362020202D372E3737303920202020362E353635390A4D202053545920203120202033205355500A4D2020534C4220203120202033202020330A4D202053414C2020203320203220203237202032380A4D202053424C20202033202031202032370A4D2020534D5420202033204348324F480A4D2020534256202020332032372020202D362E3930383320202020382E313739360A4D2020454E44
Contributor: EGUCHI S, FAC. OF SCIENCE, HIROSHIMA UNIV.
InstType: EI
InstName: HITACHI RMU-6L
IoniMethod: _ENERGY 70 eV
IonPolarity: pos
Date: 2010-10-09 19:48:36+02:00
Num Peaks: 202
41 890 42 99 43 309 44 4 45 37 47 284 48 99 49 15 50 49 51 37 
52 37 53 48 54 74 55 999 56 247 57 17 65 136 66 111 67 691 68 41 
69 358 70 62 71 123 77 33 78 86 79 667 80 160 81 72 82 173 83 827 
84 800 85 57 86 320 87 110 88 37 91 41 92 160 93 840 94 190 95 35 
96 110 97 200 98 74 99 5 103 62 104 37 105 430 106 17 107 407 108 198 
109 260 110 10 111 74 112 37 113 25 115 6 116 37 117 136 118 62 119 41 
120 148 121 348 122 154 123 15 124 74 125 62 126 25 127 3 128 31 129 62 
130 37 131 17 132 111 133 370 134 260 135 47 136 173 137 123 138 49 139 4 
141 25 142 25 143 74 144 5 145 210 146 86 147 160 148 10 149 160 150 136 
151 62 152 4 153 37 154 25 155 25 156 3 157 86 158 49 159 111 160 6 
161 123 162 86 163 86 164 3 165 31 166 21 167 37 168 2 169 25 170 12 
171 62 172 5 173 110 174 62 175 148 176 5 177 37 178 25 179 19 181 2 
182 12 183 31 184 25 185 9 186 37 187 86 188 49 189 7 190 50 191 50 
192 50 193 3 197 25 198 25 199 49 200 6 201 100 202 45 203 68 204 3 
205 31 211 19 212 12 213 3 214 20 215 25 216 25 217 3 218 74 219 62 
220 50 221 4 227 31 228 25 229 25 230 3 231 19 232 19 233 25 234 3 
235 19 236 25 237 19 238 1 239 12 240 12 241 37 242 2 243 20 244 12 
245 12 246 1 247 12 251 25 252 12 253 3 254 19 255 37 256 37 257 3 
258 12 259 25 269 37 271 4 272 19 273 37 274 19 275 5 276 37 284 62 
285 37 286 1 287 37 288 12 289 25 302 10 303 37 304 37 305 12 320 5 
321 19 322 12 
