Name: MassBank: JP010422
MW: 219
Formula: C4H7Cl2O4P
Synonym: MassBank: JP010422
Synonym: PHOSPHORIC ACID 2,2-DICHLOROETHENYL DIMETHYL ESTER
Synonym: DICHLORVOS
Structure: 50484F5350484F524943204143494420322C322D444943484C4F524F455448454E594C2044494D455448594C2045535445522E6D6F6C0A20204368656D447261773038313231303035333832440A2031312031302020302020302020302020302020302020302020302020303939392056323030300A2020202D302E3039353720202020302E3631383820202020302E303030302050202020302020302020302020302020302020302020302020302020302020302020302020300A20202020302E3732393320202020302E3631383820202020302E30303030204F202020302020302020302020302020302020302020302020302020302020302020302020300A2020202D302E3932303720202020302E3631383820202020302E30303030204F202020302020302020302020302020302020302020302020302020302020302020302020300A2020202D302E3039353720202020312E3434333820202020302E30303030204F202020302020302020302020302020302020302020302020302020302020302020302020300A2020202D302E303935372020202D302E3230363220202020302E30303030204F202020302020302020302020302020302020302020302020302020302020302020302020300A2020202D312E333333322020202D302E3039353720202020302E303030302043202020302020302020302020302020302020302020302020302020302020302020302020300A20202020302E3631383820202020312E3835363320202020302E303030302043202020302020302020302020302020302020302020302020302020302020302020302020300A20202020302E363138382020202D302E3631383820202020302E303030302043202020302020302020302020302020302020302020302020302020302020302020302020300A20202020302E363138382020202D312E3434333720202020302E303030302043202020302020302020302020302020302020302020302020302020302020302020302020300A20202020312E333333322020202D312E3835363220202020302E3030303020436C2020302020302020302020302020302020302020302020302020302020302020302020300A2020202D302E303935372020202D312E3835363320202020302E3030303020436C2020302020302020302020302020302020302020302020302020302020302020302020300A2020312020322020322020302020202020200A2020312020332020312020302020202020200A2020312020342020312020302020202020200A2020312020352020312020302020202020200A2020332020362020312020302020202020200A2020342020372020312020302020202020200A2020382020392020322020302020202020200A2020392031302020312020302020202020200A2020392031312020312020302020202020200A2020352020382020312020302020202020200A4D2020454E44
Contributor: UOEH
InstType: EI
InstName: JEOL JMS-DX-303
IoniMethod: _ENERGY 70 eV
IonPolarity: pos
Date: 2010-10-09 19:48:36+02:00
Num Peaks: 25
38 22 47 33 48 11 55 14 68 12 76 24 79 142 80 11 83 13 93 19 
109 999 110 45 111 18 113 33 128 13 145 104 147 45 174 15 185 394 186 42 
187 99 194 12 220 122 222 52 224 10 
