Name: MassBank: JP010543
CAS: 504-15-4
MW: 124
Formula: C7H8O2
Synonym: MassBank: JP010543
Synonym: 3,5-DIHYDROXYTOLUENE
Structure: 310A32330A332C352D4449485944524F5859544F4C55454E452E6D6F6C0A20204368656D447261773032323231303031303032440A2020392020392020302020302020302020302020302020302020302020303939392056323030300A2020202D302E3431323520202020302E3030303020202020302E303030302043202020302020302020302020302020302020302020302020302020302020302020302020300A20202020302E3030303020202020302E3731343520202020302E303030302043202020302020302020302020302020302020302020302020302020302020302020302020300A20202020312E323337352020202D302E3030303020202020302E303030302043202020302020302020302020302020302020302020302020302020302020302020302020300A20202020302E303030302020202D302E3731343520202020302E303030302043202020302020302020302020302020302020302020302020302020302020302020302020300A20202020302E3832353020202020302E3731343520202020302E303030302043202020302020302020302020302020302020302020302020302020302020302020302020300A20202020302E383235302020202D302E3731343520202020302E303030302043202020302020302020302020302020302020302020302020302020302020302020302020300A2020202D312E3233373520202020302E3030303020202020302E303030302043202020302020302020302020302020302020302020302020302020302020302020302020300A20202020312E323337352020202D312E3432383920202020302E30303030204F202020302020302020302020302020302020302020302020302020302020302020302020300A20202020312E3233373520202020312E3432383920202020302E30303030204F202020302020302020302020302020302020302020302020302020302020302020302020300A2020312020322020312020302020202020200A2020312020342020322020302020202020200A2020322020352020322020302020202020200A2020332020352020312020302020202020200A2020332020362020322020302020202020200A2020342020362020312020302020202020200A2020312020372020312020302020202020200A2020362020382020312020302020202020200A2020352020392020312020302020202020200A4D2020454E44
Contributor: NARA WOMEN'S UNIVERSITY
InstType: EI
InstName: HITACHI M-80
IoniMethod: _ENERGY 70 eV
IonPolarity: pos
Date: 2010-10-09 19:48:36+02:00
Num Peaks: 39
27 20 28 20 29 16 38 11 39 48 40 15 41 56 42 13 43 96 50 15 
51 48 52 21 53 42 54 10 55 61 61 12 62 20 63 16 65 32 66 34 
67 78 69 71 77 68 78 58 79 18 81 42 82 11 83 12 84 12 85 19 
94 15 95 142 96 27 105 24 106 33 107 71 123 500 124 999 125 83 
