Name: MassBank: JP010245
MW: 266
Formula: C14H18O5
Synonym: MassBank: JP010245
Synonym: DIMETHYL TRANS-4-((E)-CROTONOYL)-4-CYCLOHEXENE-1,2-DICARBOXYLATE
Synonym: DIMETHYL (1S,2S)-4-((E)-CROTONOYL)-4-CYCLOHEXENE-1,2-DICARBOXYLATE
Structure: 44494D455448594C205452414E532D342D282845292D43524F544F4E4F594C292D342D4359434C4F484558454E452D312C322D4449434152424F58594C4154452E6D6F6C0A20204368656D447261773039323231303031303932440A2032312032312020302020302020302020302020302020302020302020303939392056323030300A2020202D312E3033313320202020302E3731343520202020302E303030302043202020302020302020302020302020302020302020302020302020302020302020302020300A2020202D302E363138372020202D302E3030303020202020302E303030302043202020302020302020302020302020302020302020302020302020302020302020302020300A20202020302E323036322020202D302E3030303020202020302E303030302043202020302020302020302020302020302020302020302020302020302020302020302020300A20202020302E3631383820202020302E3731343520202020302E303030302043202020302020302020302020302020302020302020302020302020302020302020302020300A20202020302E3230363320202020312E3432383920202020302E303030302043202020302020302020302020302020302020302020302020302020302020302020302020300A2020202D302E3631383720202020312E3432383920202020302E303030302043202020302020302020302020302020302020302020302020302020302020302020302020300A2020202D312E3835363320202020302E3731343520202020302E303030302043202020302020302020302020302020302020302020302020302020302020302020302020300A2020202D322E323638382020202D302E3030303020202020302E30303030204F202020302020302020302020302020302020302020302020302020302020302020302020300A2020202D322E3236383820202020312E3432383920202020302E30303030204F202020302020302020302020302020302020302020302020302020302020302020302020300A2020202D312E303331332020202D302E3731343520202020302E303030302043202020302020302020302020302020302020302020302020302020302020302020302020300A2020202D312E383536332020202D302E3731343520202020302E30303030204F202020302020302020302020302020302020302020302020302020302020302020302020300A2020202D302E363138382020202D312E3432383920202020302E30303030204F202020302020302020302020302020302020302020302020302020302020302020302020300A20202020312E3434333720202020302E3731343520202020302E303030302043202020302020302020302020302020302020302020302020302020302020302020302020300A20202020312E383536332020202D302E3030303020202020302E303030302043202020302020302020302020302020302020302020302020302020302020302020302020300A20202020322E363831322020202D302E3030303020202020302E303030302043202020302020302020302020302020302020302020302020302020302020302020302020300A20202020332E303933372020202D302E3731343520202020302E303030302043202020302020302020302020302020302020302020302020302020302020302020302020300A20202020312E3835363320202020312E3432383920202020302E30303030204F202020302020302020302020302020302020302020302020302020302020302020302020300A2020202D332E3039333720202020312E3432383920202020302E303030302043202020302020302020302020302020302020302020302020302020302020302020302020300A20202020302E323036322020202D312E3432383920202020302E303030302043202020302020302020302020302020302020302020302020302020302020302020302020300A2020202D312E343135362020202D302E3231333520202020302E303030302048202020302020302020302020302020302020302020302020302020302020302020302020300A2020202D312E3631343620202020312E3239373820202020302E303030302048202020302020302020302020302020302020302020302020302020302020302020302020300A2020312020322020312020302020202020200A2020322020332020312020302020202020200A2020332020342020312020302020202020200A2020342020352020322020302020202020200A2020352020362020312020302020202020200A2020312020362020312020302020202020200A2020372020382020322020302020202020200A2020372020392020312020302020202020200A2020312020372020312020312020202020200A2031302031312020322020302020202020200A2031302031322020312020302020202020200A2020322031302020312020362020202020200A2031332031342020312020302020202020200A2031342031352020322020302020202020200A2031352031362020312020302020202020200A2031332031372020322020302020202020200A2020342031332020312020302020202020200A2020392031382020312020302020202020200A2031322031392020312020302020202020200A2020322032302020312020312020202020200A2020312032312020312020362020202020200A4D2020454E44
Contributor: KANEMASA S, INST. OF ADVANCED MATERIAL STUDY KYUSHU UNIV.
InstType: EI
InstName: JEOL JMS-01-SG-2
IoniMethod: _ENERGY 75 eV
IonPolarity: pos
Date: 2010-10-09 19:48:36+02:00
Num Peaks: 46
38 459 39 64 40 666 41 37 51 114 52 92 53 99 55 64 59 635 65 54 
68 51 69 999 70 40 77 472 78 220 79 267 91 166 93 50 103 37 105 159 
106 37 107 75 115 49 117 55 119 47 129 87 131 41 133 49 137 57 138 15 
145 44 146 44 147 520 148 82 149 19 163 12 165 11 174 11 175 15 191 66 
205 12 206 134 207 45 234 62 235 43 267 23 
