Name: 2-METHYLCYCLOPENTANONE
MW: 98
Formula: C6H10O
Synonym: MassBank: JP011545
Synonym: 2-METHYLCYCLOPENTANONE
Structure: 310A31390A322D4D455448594C4359434C4F50454E54414E4F4E452E6D6F6C0A20204368656D447261773031323231303037343932440A2020372020372020302020302020302020302020302020302020302020303939392056323030300A2020202D302E323232332020202D302E3339323320202020302E303030302043202020302020302020302020302020302020302020302020302020302020302020302020300A20202020302E3236323720202020302E3237353120202020302E303030302043202020302020302020302020302020302020302020302020302020302020302020302020300A20202020312E3034373320202020302E3032303220202020302E303030302043202020302020302020302020302020302020302020302020302020302020302020302020300A20202020312E303437332020202D302E3830343820202020302E303030302043202020302020302020302020302020302020302020302020302020302020302020302020300A20202020302E323632372020202D312E3035393720202020302E303030302043202020302020302020302020302020302020302020302020302020302020302020302020300A20202020302E3030373720202020312E3035393720202020302E303030302043202020302020302020302020302020302020302020302020302020302020302020302020300A2020202D312E303437332020202D302E3339323320202020302E30303030204F202020302020302020302020302020302020302020302020302020302020302020302020300A2020312020322020312020302020202020200A2020322020332020312020302020202020200A2020332020342020312020302020202020200A2020342020352020312020302020202020200A2020312020352020312020302020202020200A2020322020362020312020302020202020200A2020312020372020322020302020202020200A4D2020454E44
Contributor: YAMAMOTO M, DEP. CHEMISTRY, FAC. SCIENCE, NARA WOMEN'S UNIV.
InstType: EI
InstName: HITACHI RMU-6M
IoniMethod: _ENERGY 20 eV
IonPolarity: pos
Date: 2010-10-09 19:48:36+02:00
Num Peaks: 15
28 114 29 41 41 221 42 999 43 157 54 58 55 358 56 175 69 381 70 235 
80 58 83 135 97 36 98 609 99 44 
