Name: 1-METHYLSILACYCLOHEXANE (D3-METHYL)
MW: 114
Formula: C6H14Si
Synonym: MassBank: JP011572
Synonym: 1-METHYLSILACYCLOHEXANE (D3-METHYL)
Structure: 312D4D455448594C53494C414359434C4F484558414E45202844332D4D455448594C292E6D6F6C0A20204368656D447261773131323130393138343032440A2031302031302020302020302020302020302020302020302020302020303939392056323030300A2020202D302E373134352020202D302E3431323520202020302E303030302043202020302020302020302020302020302020302020302020302020302020302020302020300A2020202D302E373134352020202D312E3233373520202020302E303030302043202020302020302020302020302020302020302020302020302020302020302020302020300A20202020302E303030302020202D312E3635303020202020302E303030302043202020302020302020302020302020302020302020302020302020302020302020302020300A20202020302E373134352020202D312E3233373520202020302E303030302043202020302020302020302020302020302020302020302020302020302020302020302020300A20202020302E373134352020202D302E3431323520202020302E303030302043202020302020302020302020302020302020302020302020302020302020302020302020300A20202020302E3030303020202020302E3030303020202020302E303030302053692020302020302020302020302020302020302020302020302020302020302020302020300A20202020302E3030303020202020302E3832353020202020302E303030302043202020302020302020302020302020302020302020302020302020302020302020302020300A20202020302E3030303020202020312E3635303020202020302E303030302048202020312020302020302020302020302020302020302020302020302020302020302020300A20202020302E3832353020202020302E3832353020202020302E303030302048202020312020302020302020302020302020302020302020302020302020302020302020300A2020202D302E3832353020202020302E3832353020202020302E303030302048202020312020302020302020302020302020302020302020302020302020302020302020300A2020312020322020312020302020202020200A2020322020332020312020302020202020200A2020332020342020312020302020202020200A2020342020352020312020302020202020200A2020352020362020312020302020202020200A2020362020312020312020302020202020200A2020362020372020312020302020202020200A2020372020382020312020302020202020200A2020372020392020312020302020202020200A2020372031302020312020302020202020200A4D202049534F2020332020203820202032202020392020203220203130202020320A4D2020454E44
Contributor: YAMAMOTO M, DEP. CHEMISTRY, FAC. SCIENCE, NARA WOMEN'S UNIV.
InstType: EI
InstName: HITACHI RMU-6M
IoniMethod: _ENERGY 20 eV
IonPolarity: pos
Date: 2010-10-09 19:48:36+02:00
Num Peaks: 38
43 29 46 39 47 22 48 68 59 34 60 14 61 464 62 115 63 24 65 34 
67 13 68 25 69 14 70 23 71 201 72 22 73 21 74 68 75 212 76 64 
77 14 87 37 88 218 89 999 90 109 91 41 93 23 97 57 98 31 99 194 
100 31 101 11 102 23 115 59 116 253 117 653 118 90 119 25 
