Name: MassBank: JP011004
MW: 154
Formula: C7H6O4
Synonym: MassBank: JP011004
Synonym: 4,5-DIHYDROXYTROPOLONE
Structure: 342C352D4449485944524F585954524F504F4C4F4E452E6D6F6C0A20204368656D447261773130313831303137323132440A2031312031312020302020302020302020302020302020302020302020303939392056323030300A20202020312E363839372020202D302E3233353320202020302E30303030204F202020302020302020302020302020302020302020302020302020302020302020302020300A20202020302E383634372020202D302E3233353320202020302E303030302043202020302020302020302020302020302020302020302020302020302020302020302020300A20202020302E353033302020202D302E3937343720202020302E303030302043202020302020302020302020302020302020302020302020302020302020302020302020300A2020202D302E333032322020202D312E3135343320202020302E303030302043202020302020302020302020302020302020302020302020302020302020302020302020300A2020202D302E393432362020202D302E3633363720202020302E303030302043202020302020302020302020302020302020302020302020302020302020302020302020300A2020202D302E3934323620202020302E3138383320202020302E303030302043202020302020302020302020302020302020302020302020302020302020302020302020300A2020202D302E3239323920202020302E3639393420202020302E303030302043202020302020302020302020302020302020302020302020302020302020302020302020300A20202020302E3531303520202020302E3531313920202020302E303030302043202020302020302020302020302020302020302020302020302020302020302020302020300A20202020312E3032383020202020312E3135343320202020302E30303030204F202020302020302020302020302020302020302020302020302020302020302020302020300A2020202D312E363839372020202D302E3939303920202020302E30303030204F202020302020302020302020302020302020302020302020302020302020302020302020300A2020202D312E3638323020202020302E3534393920202020302E30303030204F202020302020302020302020302020302020302020302020302020302020302020302020300A2020312020322020322020302020202020200A2020322020332020312020302020202020200A2020332020342020322020302020202020200A2020342020352020312020302020202020200A2020352020362020322020302020202020200A2020362020372020312020302020202020200A2020372020382020322020302020202020200A2020322020382020312020302020202020200A2020382020392020312020302020202020200A2020352031302020312020302020202020200A2020362031312020312020302020202020200A4D2020454E44
Contributor: TAKESHITA H, INST. OF ADVANCED MATERIAL STUDY KYUSHU UNIV.
InstType: EI
InstName: JEOL JMS-01-SG-2
IoniMethod: _ENERGY 75 eV
IonPolarity: pos
Date: 2010-10-09 19:48:36+02:00
Num Peaks: 30
37 50 38 78 39 139 41 80 42 166 43 139 50 104 51 205 52 503 53 258 
54 131 55 247 56 44 62 37 63 59 69 149 70 34 71 43 79 87 80 341 
81 49 82 38 97 122 108 62 110 59 125 59 126 999 127 70 154 369 155 38 
