Name: 2(ISOBUTYLMETHYL(2-NAPHTHYLSILYL))-1-(TRIMETHYLSILYL)NAPHTHALENE
MW: 426
Formula: C28H34Si2
Synonym: MassBank: JP011708
Synonym: 2(ISOBUTYLMETHYL(2-NAPHTHYLSILYL))-1-(TRIMETHYLSILYL)NAPHTHALENE
Structure: 322849534F425554594C4D455448594C28322D4E4150485448594C53494C594C29292D312D285452494D455448594C53494C594C294E4150485448414C454E452E6D6F6C0A20204368656D447261773132313930393032353932440A2033302033332020302020302020302020302020302020302020302020303939392056323030300A20202020312E363236382020202D302E3433333220202020302E303030302043202020302020302020302020302020302020302020302020302020302020302020302020300A20202020302E383031382020202D302E3433333220202020302E303030302043202020302020302020302020302020302020302020302020302020302020302020302020300A20202020302E333839332020202D312E3134373720202020302E303030302043202020302020302020302020302020302020302020302020302020302020302020302020300A20202020302E383031382020202D312E3836323220202020302E303030302043202020302020302020302020302020302020302020302020302020302020302020302020300A20202020312E363236382020202D312E3836323220202020302E303030302043202020302020302020302020302020302020302020302020302020302020302020302020300A20202020322E303339332020202D322E3537363620202020302E303030302043202020302020302020302020302020302020302020302020302020302020302020302020300A20202020322E383634332020202D322E3537363620202020302E303030302043202020302020302020302020302020302020302020302020302020302020302020302020300A20202020332E323736382020202D312E3836323220202020302E303030302043202020302020302020302020302020302020302020302020302020302020302020302020300A20202020322E383634332020202D312E3134373720202020302E303030302043202020302020302020302020302020302020302020302020302020302020302020302020300A20202020322E303339332020202D312E3134373720202020302E303030302043202020302020302020302020302020302020302020302020302020302020302020302020300A20202020322E3332343520202020302E3337393820202020302E303030302053692020302020302020302020302020302020302020302020302020302020302020302020300A20202020322E3930373920202020302E3936333120202020302E303030302043202020302020302020302020302020302020302020302020302020302020302020302020300A20202020312E3738353920202020312E3032303420202020302E303030302043202020302020302020302020302020302020302020302020302020302020302020302020300A20202020322E383939342020202D302E3139353120202020302E303030302043202020302020302020302020302020302020302020302020302020302020302020302020300A20202020302E3236353520202020302E3439353620202020302E303030302053692020302020302020302020302020302020302020302020302020302020302020302020300A2020202D312E3136313020202020302E3431323520202020302E303030302043202020302020302020302020302020302020302020302020302020302020302020302020300A2020202D302E3432333720202020302E3034323320202020302E303030302043202020302020302020302020302020302020302020302020302020302020302020302020300A2020202D302E333735382020202D302E3738313420202020302E303030302043202020302020302020302020302020302020302020302020302020302020302020302020300A2020202D312E303635302020202D312E3233343720202020302E303030302043202020302020302020302020302020302020302020302020302020302020302020302020300A2020202D312E383032332020202D302E3836343420202020302E303030302043202020302020302020302020302020302020302020302020302020302020302020302020300A2020202D322E343931362020202D312E3331373820202020302E303030302043202020302020302020302020302020302020302020302020302020302020302020302020300A2020202D332E323238382020202D302E3934373520202020302E303030302043202020302020302020302020302020302020302020302020302020302020302020302020300A2020202D332E323736382020202D302E3132333920202020302E303030302043202020302020302020302020302020302020302020302020302020302020302020302020300A2020202D322E3538373520202020302E3332393420202020302E303030302043202020302020302020302020302020302020302020302020302020302020302020302020300A2020202D312E383530332020202D302E3034303820202020302E303030302043202020302020302020302020302020302020302020302020302020302020302020302020300A20202020302E3938303020202020302E3930383120202020302E303030302043202020302020302020302020302020302020302020302020302020302020302020302020300A2020202D302E3232373120202020312E3135373320202020302E303030302043202020302020302020302020302020302020302020302020302020302020302020302020300A20202020302E3039393620202020312E3931343920202020302E303030302043202020302020302020302020302020302020302020302020302020302020302020302020300A2020202D302E3339333020202020322E3537363620202020302E303030302043202020302020302020302020302020302020302020302020302020302020302020302020300A20202020302E3931393120202020322E3031303720202020302E303030302043202020302020302020302020302020302020302020302020302020302020302020302020300A2020312020322020312020302020202020200A2020322020332020322020302020202020200A2020332020342020312020302020202020200A2020342020352020322020302020202020200A2020352020362020312020302020202020200A2020362020372020322020302020202020200A2020372020382020312020302020202020200A2020382020392020322020302020202020200A2020392031302020312020302020202020200A2020312031302020322020302020202020200A2020352031302020312020302020202020200A2031312031322020312020302020202020200A2031312031332020312020302020202020200A2031312031342020312020302020202020200A2020312031312020312020302020202020200A2031362031372020312020302020202020200A2031372031382020322020302020202020200A2031382031392020312020302020202020200A2031392032302020322020302020202020200A2032302032312020312020302020202020200A2032312032322020322020302020202020200A2032322032332020312020302020202020200A2032332032342020322020302020202020200A2032342032352020312020302020202020200A2031362032352020322020302020202020200A2032302032352020312020302020202020200A2031352031372020312020302020202020200A2031352032362020312020302020202020200A2032372032382020312020302020202020200A2032382032392020312020302020202020200A2032382033302020312020302020202020200A2031352032372020312020302020202020200A2020322031352020312020302020202020200A4D2020454E44
Contributor: FAC. TECHNOLOGY, HIROSHIMA UNIV.
InstType: EI
InstName: SHIMADZU QP-1000
IoniMethod: _ENERGY 70 eV
IonPolarity: pos
Date: 2010-10-09 19:48:36+02:00
Num Peaks: 65
54 96 56 43 57 32 58 21 59 53 60 160 68 11 69 11 71 11 73 734 
74 53 75 21 76 11 77 11 83 64 97 64 98 309 99 21 103 21 105 21 
115 53 127 11 128 85 129 160 130 21 131 32 153 32 155 999 156 149 157 53 
165 21 166 11 167 234 168 85 169 372 170 479 171 745 172 128 173 21 181 32 
183 96 184 713 185 766 186 149 187 32 195 11 209 11 211 117 212 11 225 43 
226 543 227 149 228 32 252 21 265 11 280 11 281 11 295 11 297 670 298 181 
299 32 370 170 371 96 372 32 426 10 
