Name: MassBank: JP011354
MW: 118
Formula: C4H14Si2
Synonym: MassBank: JP011354
Synonym: 1,1,1,2-TETRAMETHYLDISILANE (D2)
Structure: 310A32310A312C312C312C322D54455452414D455448594C444953494C414E4520284432292E6D6F6C0A20204368656D447261773130323230393232343332440A2020382020372020302020302020302020302020302020302020302020303939392056323030300A2020202D302E3431323520202020302E3030303020202020302E303030302053692020302020302020302020302020302020302020302020302020302020302020302020300A20202020302E3431323520202020302E3030303020202020302E303030302053692020302020302020302020302020302020302020302020302020302020302020302020300A2020202D302E343132352020202D302E3832353020202020302E303030302048202020312020302020302020302020302020302020302020302020302020302020302020300A2020202D312E3233373520202020302E3030303020202020302E303030302043202020302020302020302020302020302020302020302020302020302020302020302020300A2020202D302E3431323520202020302E3832353020202020302E303030302048202020312020302020302020302020302020302020302020302020302020302020302020300A20202020312E3233373520202020302E3030303020202020302E303030302043202020302020302020302020302020302020302020302020302020302020302020302020300A20202020302E3431323520202020302E3832353020202020302E303030302043202020302020302020302020302020302020302020302020302020302020302020302020300A20202020302E343132352020202D302E3832353020202020302E303030302043202020302020302020302020302020302020302020302020302020302020302020302020300A2020312020322020312020302020202020200A2020312020332020312020312020202020200A2020312020342020312020302020202020200A2020312020352020312020312020202020200A2020322020362020312020302020202020200A2020322020372020312020302020202020200A2020322020382020312020302020202020200A4D202049534F202032202020332020203220202035202020320A4D2020454E44
Contributor: YAMAMOTO M, DEP. CHEMISTRY, FAC. SCIENCE, NARA WOMEN'S UNIV.
InstType: EI
InstName: HITACHI RMU-6M
IoniMethod: _ENERGY 70 eV
IonPolarity: pos
Date: 2010-10-09 19:48:36+02:00
Num Peaks: 39
28 19 29 32 31 24 32 12 42 19 43 176 44 53 45 128 46 23 47 19 
53 15 55 16 57 13 58 21 59 22 60 61 61 10 69 27 70 13 71 13 
72 18 73 999 74 107 75 43 81 12 85 11 86 15 87 11 88 11 101 24 
102 13 103 22 105 127 106 21 107 15 116 21 118 22 120 95 121 15 
