Name: MassBank: JP011877
MW: 138
Formula: C9H14O
Synonym: MassBank: JP011877
Synonym: BICYCLO(4,3,0)NONAN-8-ONE
Structure: 42494359434C4F28342C332C30294E4F4E414E2D382D4F4E452E6D6F6C0A20204368656D447261773039303531303139303132440A2031302031312020302020302020302020302020302020302020302020303939392056323030300A20202020302E3333323820202020302E3431323520202020302E303030302043202020302020302020302020302020302020302020302020302020302020302020302020300A20202020312E3034373320202020302E3832353020202020302E303030302043202020302020302020302020302020302020302020302020302020302020302020302020300A20202020312E3736313720202020302E3431323520202020302E303030302043202020302020302020302020302020302020302020302020302020302020302020302020300A20202020312E373631372020202D302E3431323520202020302E303030302043202020302020302020302020302020302020302020302020302020302020302020302020300A20202020312E303437332020202D302E3832353020202020302E303030302043202020302020302020302020302020302020302020302020302020302020302020302020300A20202020302E333332382020202D302E3431323520202020302E303030302043202020302020302020302020302020302020302020302020302020302020302020302020300A2020202D302E343531382020202D302E3636373420202020302E303030302043202020302020302020302020302020302020302020302020302020302020302020302020300A2020202D302E393336372020202D302E3030303020202020302E303030302043202020302020302020302020302020302020302020302020302020302020302020302020300A2020202D302E3435313820202020302E3636373420202020302E303030302043202020302020302020302020302020302020302020302020302020302020302020302020300A2020202D312E373631372020202D302E3030303020202020302E30303030204F202020302020302020302020302020302020302020302020302020302020302020302020300A2020312020322020312020302020202020200A2020322020332020312020302020202020200A2020332020342020312020302020202020200A2020342020352020312020302020202020200A2020352020362020312020302020202020200A2020362020372020312020302020202020200A2020372020382020312020302020202020200A2020382020392020312020302020202020200A2020312020392020312020302020202020200A2020312020362020312020302020202020200A2020382031302020322020302020202020200A4D2020454E44
Contributor: YAMAMOTO M, DEP. CHEMISTRY, FAC. SCIENCE, NARA WOMEN'S UNIV.
InstType: EI
InstName: HITACHI RMU-6M
IoniMethod: _ENERGY 70 eV
IonPolarity: pos
Date: 2010-10-09 19:48:36+02:00
Num Peaks: 70
15 27 26 31 27 329 28 83 29 168 31 11 32 18 37 11 38 28 39 442 
40 102 41 652 42 58 43 46 44 12 45 10 46 10 50 37 51 83 52 43 
53 214 54 494 55 276 56 74 57 112 58 15 62 16 63 34 64 19 65 61 
66 65 67 631 68 355 69 107 70 64 71 25 77 82 78 37 79 155 80 93 
81 681 82 276 83 57 84 40 89 15 91 83 92 51 93 55 94 999 95 332 
96 257 97 36 103 22 104 17 105 225 106 41 107 21 109 93 110 50 115 28 
116 25 119 11 120 37 122 73 123 35 134 101 135 15 137 19 138 532 139 54 
