Name: 2-(4-(2-CARBOXYLPROPYL)PHENYL)PROPIONIC ACID DI-TRIMETHYLSILYL ESTER
MW: 380
Formula: C19H32O4Si2
Synonym: MassBank: JP011085
Synonym: 2-(4-(2-CARBOXYLPROPYL)PHENYL)PROPIONIC ACID DI-TRIMETHYLSILYL ESTER
Structure: 322D28342D28322D434152424F58594C50524F50594C295048454E594C2950524F50494F4E494320414349442044492D5452494D455448594C53494C594C2045535445522E6D6F6C0A20204368656D447261773132323130393139343332440A2032352032352020302020302020302020302020302020302020302020303939392056323030300A2020202D302E3431323520202020312E3434333820202020302E303030302043202020302020302020302020302020302020302020302020302020302020302020302020300A2020202D302E3431323520202020302E3631383820202020302E303030302043202020302020302020302020302020302020302020302020302020302020302020302020300A20202020302E3330323020202020302E3230363220202020302E303030302043202020302020302020302020302020302020302020302020302020302020302020302020300A20202020312E3031363520202020302E3631383820202020302E303030302043202020302020302020302020302020302020302020302020302020302020302020302020300A20202020312E3031363520202020312E3434333820202020302E303030302043202020302020302020302020302020302020302020302020302020302020302020302020300A20202020302E3330323020202020312E3835363320202020302E303030302043202020302020302020302020302020302020302020302020302020302020302020302020300A20202020302E3330323020202020322E3638313320202020302E303030302043202020302020302020302020302020302020302020302020302020302020302020302020300A2020202D302E3431323520202020332E3039333720202020302E303030302043202020302020302020302020302020302020302020302020302020302020302020302020300A20202020312E3031363520202020332E3039333720202020302E303030302043202020302020302020302020302020302020302020302020302020302020302020302020300A2020202D312E3132363920202020322E3638313320202020302E30303030204F202020302020302020302020302020302020302020302020302020302020302020302020300A2020202D302E3431323520202020332E3931383820202020302E30303030204F202020302020302020302020302020302020302020302020302020302020302020302020300A20202020302E333032302020202D302E3631383820202020302E303030302043202020302020302020302020302020302020302020302020302020302020302020302020300A20202020312E303136352020202D312E3033313320202020302E303030302043202020302020302020302020302020302020302020302020302020302020302020302020300A20202020312E373330392020202D302E3631383820202020302E303030302043202020302020302020302020302020302020302020302020302020302020302020302020300A20202020312E303136352020202D312E3835363220202020302E303030302043202020302020302020302020302020302020302020302020302020302020302020302020300A20202020302E333032302020202D322E3236383820202020302E30303030204F202020302020302020302020302020302020302020302020302020302020302020302020300A20202020312E373330392020202D322E3236383820202020302E30303030204F202020302020302020302020302020302020302020302020302020302020302020302020300A2020202D312E3834313320202020322E3236383820202020302E303030302053692020302020302020302020302020302020302020302020302020302020302020302020300A2020202D322E3535353820202020312E3835363320202020302E303030302043202020302020302020302020302020302020302020302020302020302020302020302020300A2020202D322E3235333820202020322E3938333320202020302E303030302043202020302020302020302020302020302020302020302020302020302020302020302020300A2020202D312E3432383820202020312E3535343320202020302E303030302043202020302020302020302020302020302020302020302020302020302020302020302020300A20202020312E373330382020202D332E3039333820202020302E303030302043202020302020302020302020302020302020302020302020302020302020302020302020300A20202020312E373330382020202D332E3931383820202020302E303030302043202020302020302020302020302020302020302020302020302020302020302020302020300A20202020322E353535382020202D332E3039333920202020302E303030302043202020302020302020302020302020302020302020302020302020302020302020302020300A20202020302E393035382020202D332E3039333720202020302E303030302043202020302020302020302020302020302020302020302020302020302020302020302020300A2020312020322020322020302020202020200A2020322020332020312020302020202020200A2020332020342020322020302020202020200A2020342020352020312020302020202020200A2020352020362020322020302020202020200A2020362020312020312020302020202020200A2020362020372020312020302020202020200A2020372020382020312020302020202020200A2020372020392020312020302020202020200A2020382031302020312020302020202020200A2020382031312020322020302020202020200A2020332031322020312020302020202020200A2031322031332020312020302020202020200A2031332031342020312020302020202020200A2031332031352020312020302020202020200A2031352031362020322020302020202020200A2031352031372020312020302020202020200A2031302031382020312020302020202020200A2031382031392020312020302020202020200A2031382032302020312020302020202020200A2031382032312020312020302020202020200A2031372032322020312020302020202020200A2032322032332020312020302020202020200A2032322032342020312020312020202020200A2032322032352020312020312020202020200A4D2020454E44
Contributor: YAMAMOTO M, DEP. CHEMISTRY, FAC. SCIENCE, NARA WOMEN'S UNIV.
InstType: EI
InstName: HITACHI M-80
IoniMethod: _ENERGY 70 eV
IonPolarity: pos
Date: 2010-10-09 19:48:36+02:00
Num Peaks: 45
41 26 43 26 44 21 45 105 47 31 55 16 56 148 57 22 58 17 59 19 
61 24 72 12 73 999 74 90 75 265 76 12 77 23 86 16 91 49 103 13 
105 13 115 31 116 12 118 116 119 15 128 13 129 23 130 44 131 38 143 11 
144 12 145 186 146 31 147 68 148 13 218 338 219 72 220 32 221 11 262 13 
263 14 336 67 337 24 365 38 380 10 
