Name: 4-(PENTAFLUOROBENZOYL)-1-OXA-3-PHENYL-2-AZACYCLOPENT-2-EN-5-ONE
MW: 355
Formula: C16H6F5NO3
Synonym: MassBank: JP012112
Synonym: 4-(PENTAFLUOROBENZOYL)-1-OXA-3-PHENYL-2-AZACYCLOPENT-2-EN-5-ONE
Structure: 342D2850454E5441464C554F524F42454E5A4F594C292D312D4F58412D332D5048454E594C2D322D415A414359434C4F50454E542D322D454E2D352D4F4E452E6D6F6C0A20204368656D447261773033323531303033353232440A2032352032372020302020302020302020302020302020302020302020303939392056323030300A20202020302E3934393020202020312E3830383920202020302E30303030204F202020302020302020302020302020302020302020302020302020302020302020302020300A20202020312E3634303920202020312E3335393620202020302E30303030204E202020302020302020302020302020302020302020302020302020302020302020302020300A20202020312E3432373420202020302E3536323720202020302E303030302043202020302020302020302020302020302020302020302020302020302020302020302020300A20202020302E3630333520202020302E3531393520202020302E303030302043202020302020302020302020302020302020302020302020302020302020302020302020300A20202020302E3330373920202020312E3238393720202020302E303030302043202020302020302020302020302020302020302020302020302020302020302020302020300A2020202D302E3438393020202020312E3530333220202020302E30303030204F202020302020302020302020302020302020302020302020302020302020302020302020300A20202020312E363530392020202D302E3834383720202020302E303030302043202020302020302020302020302020302020302020302020302020302020302020302020300A20202020312E393436362020202D302E3037383520202020302E303030302043202020302020302020302020302020302020302020302020302020302020302020302020300A20202020322E3736313420202020302E3035303620202020302E303030302043202020302020302020302020302020302020302020302020302020302020302020302020300A20202020332E323830362020202D302E3539303520202020302E303030302043202020302020302020302020302020302020302020302020302020302020302020302020300A20202020322E393835302020202D312E3336303720202020302E303030302043202020302020302020302020302020302020302020302020302020302020302020302020300A20202020322E313730312020202D312E3438393820202020302E303030302043202020302020302020302020302020302020302020302020302020302020302020302020300A20202020302E303139342020202D302E3338303020202020302E303030302043202020302020302020302020302020302020302020302020302020302020302020302020300A2020202D302E383035362020202D302E3338303020202020302E303030302043202020302020302020302020302020302020302020302020302020302020302020302020300A2020202D312E3231383120202020302E3333343520202020302E303030302043202020302020302020302020302020302020302020302020302020302020302020302020300A2020202D322E3034333120202020302E3333343520202020302E303030302043202020302020302020302020302020302020302020302020302020302020302020302020300A2020202D322E343535362020202D302E3338303020202020302E303030302043202020302020302020302020302020302020302020302020302020302020302020302020300A2020202D322E303433312020202D312E3039343420202020302E303030302043202020302020302020302020302020302020302020302020302020302020302020302020300A2020202D312E323138312020202D312E3039343420202020302E303030302043202020302020302020302020302020302020302020302020302020302020302020302020300A20202020302E343331392020202D312E3039343420202020302E30303030204F202020302020302020302020302020302020302020302020302020302020302020302020300A2020202D302E3830353620202020312E3034393020202020302E303030302046202020302020302020302020302020302020302020302020302020302020302020302020300A2020202D322E3435353620202020312E3034393020202020302E303030302046202020302020302020302020302020302020302020302020302020302020302020302020300A2020202D332E323830362020202D302E3338303020202020302E303030302046202020302020302020302020302020302020302020302020302020302020302020302020300A2020202D322E343535362020202D312E3830383920202020302E303030302046202020302020302020302020302020302020302020302020302020302020302020302020300A2020202D302E383035362020202D312E3830383920202020302E303030302046202020302020302020302020302020302020302020302020302020302020302020302020300A2020312020322020312020302020202020200A2020322020332020322020302020202020200A2020332020342020312020302020202020200A2020342020352020312020302020202020200A2020312020352020312020302020202020200A2020352020362020322020302020202020200A2020372020382020312020302020202020200A2020382020392020322020302020202020200A2020392031302020312020302020202020200A2031302031312020322020302020202020200A2031312031322020312020302020202020200A2020372031322020322020302020202020200A2020332020382020312020302020202020200A2031332031342020312020302020202020200A2031342031352020312020302020202020200A2031352031362020322020302020202020200A2031362031372020312020302020202020200A2031372031382020322020302020202020200A2031382031392020312020302020202020200A2031342031392020322020302020202020200A2031332032302020322020302020202020200A2031352032312020312020302020202020200A2031362032322020312020302020202020200A2031372032332020312020302020202020200A2031382032342020312020302020202020200A2031392032352020312020302020202020200A2020342031332020312020302020202020200A4D2020454E44
Contributor: HISAHIRO HAGIWARA, INSTITUTE FOR CHEMICAL REACTION SCIENCE TOHOKU UNIV.
InstType: EI
InstName: JEOL JMS-DX-300
IoniMethod: _ENERGY 70 eV
IonPolarity: pos
Date: 2010-10-09 19:48:36+02:00
Num Peaks: 21
39 21 50 19 51 30 52 12 63 29 74 11 75 13 76 27 77 17 89 31 
93 12 102 85 103 16 116 14 117 54 167 162 168 13 195 999 196 118 311 11 
355 47 
