Name: MassBank: JP010293
MW: 243
Formula: C14H13NO3
Synonym: MassBank: JP010293
Synonym: (E)-3-(2-OXOPROPYLENE)-1-PARA-TOLYL-2,5-PYRROLIDINEDIONE
Structure: 2845292D332D28322D4F584F50524F50594C454E45292D312D504152412D544F4C594C2D322C352D20505952524F4C4944494E4544494F4E452E6D6F6C0A20204368656D447261773130323230393136313932440A2031392032302020302020302020302020302020302020302020302020303939392056323030300A2020202D322E353034342020202D302E3133323020202020302E303030302043202020302020302020302020302020302020302020302020302020302020302020302020300A2020202D322E303931392020202D302E3834363520202020302E303030302043202020302020302020302020302020302020302020302020302020302020302020302020300A2020202D312E323636392020202D302E3834363520202020302E303030302043202020302020302020302020302020302020302020302020302020302020302020302020300A2020202D302E383534342020202D302E3133323020202020302E303030302043202020302020302020302020302020302020302020302020302020302020302020302020300A2020202D312E3236363920202020302E3538323520202020302E303030302043202020302020302020302020302020302020302020302020302020302020302020302020300A2020202D322E3039313920202020302E3538323520202020302E303030302043202020302020302020302020302020302020302020302020302020302020302020302020300A2020202D302E303239342020202D302E3133323020202020302E30303030204E202020302020302020302020302020302020302020302020302020302020302020302020300A20202020302E343535352020202D302E3739393420202020302E303030302043202020302020302020302020302020302020302020302020302020302020302020302020300A20202020312E323430312020202D302E3534343520202020302E303030302043202020302020302020302020302020302020302020302020302020302020302020302020300A20202020312E3234303120202020302E3238303520202020302E303030302043202020302020302020302020302020302020302020302020302020302020302020302020300A20202020302E3435353520202020302E3533353520202020302E303030302043202020302020302020302020302020302020302020302020302020302020302020302020300A20202020302E3230313320202020312E3331373420202020302E30303030204F202020302020302020302020302020302020302020302020302020302020302020302020300A20202020302E323031332020202D312E3538343220202020302E30303030204F202020302020302020302020302020302020302020302020302020302020302020302020300A20202020312E3930373520202020302E3736353420202020302E303030302043202020302020302020302020302020302020302020302020302020302020302020302020300A20202020312E3832343120202020312E3538343220202020302E303030302048202020302020302020302020302020302020302020302020302020302020302020302020300A20202020322E3636313220202020302E3432393920202020302E303030302043202020302020302020302020302020302020302020302020302020302020302020302020300A20202020322E373437352020202D302E3339303620202020302E30303030204F202020302020302020302020302020302020302020302020302020302020302020302020300A20202020332E3332393420202020302E3931323920202020302E303030302043202020302020302020302020302020302020302020302020302020302020302020302020300A2020202D332E333239342020202D302E3133323020202020302E303030302043202020302020302020302020302020302020302020302020302020302020302020302020300A2020312020322020322020302020202020200A2020322020332020312020302020202020200A2020332020342020322020302020202020200A2020342020352020312020302020202020200A2020352020362020322020302020202020200A2020362020312020312020302020202020200A2020342020372020312020302020202020200A2020372020382020312020302020202020200A2020382020392020312020302020202020200A2020392031302020312020302020202020200A2031302031312020312020302020202020200A2031312020372020312020302020202020200A2031312031322020322020302020202020200A2020382031332020322020302020202020200A2031302031342020322020302020202020200A2031342031352020312020302020202020200A2031362031372020322020302020202020200A2031362031382020312020302020202020200A2031342031362020312020302020202020200A2020312031392020312020302020202020200A4D202053545920203120202031205355500A4D2020534C4220203120202031202020310A4D202053414C20202031202031202031390A4D202053424C20202031202031202032300A4D2020534D5420202031204D650A4D2020534256202020312032302020202D372E3135363620202020372E343233380A4D2020454E44
Contributor: KANEMASA S, INST. OF ADVANCED MATERIAL STUDY KYUSHU UNIV.
InstType: EI
InstName: JEOL JMS-01-SG-2
IoniMethod: _ENERGY 75 eV
IonPolarity: pos
Date: 2010-10-09 19:48:36+02:00
Num Peaks: 26
39 190 43 739 51 53 65 48 67 150 75 84 76 54 79 63 86 93 96 57 
98 81 99 377 101 162 126 48 133 99 135 111 143 226 156 58 172 140 173 197 
200 76 201 289 202 64 215 70 243 999 244 165 
