Name: MassBank: JP011860
MW: 333
Formula: C16H19N3O5
Synonym: MassBank: JP011860
Synonym: 4H,5H-1-TERT-BUTYL-3-METHOXYCARBONYL-4-(1-METHOXYPYRROL-2-YL)METHYLENE-PYRAZOL-5-ONE
Structure: 34482C35482D312D544552542D425554594C2D332D4D4554484F5859434152424F4E594C2D342D28312D4D4554484F5859505952524F4C2D322D594C294D455448594C454E452D505952415A4F4C2D352D4F4E452E6D6F6C0A20204368656D447261773034323331303031303532440A2032322032332020302020302020302020302020302020302020302020303939392056323030300A2020202D312E363735382020202D302E3432303120202020302E30303030204E202020302020302020302020302020302020302020302020302020302020302020302020300A2020202D312E3637353820202020302E3430343920202020302E30303030204E202020302020302020302020302020302020302020302020302020302020302020302020300A2020202D302E3839313220202020302E3635393820202020302E303030302043202020302020302020302020302020302020302020302020302020302020302020302020300A2020202D302E343036332020202D302E3030373620202020302E303030302043202020302020302020302020302020302020302020302020302020302020302020302020300A2020202D302E383931322020202D302E3637353120202020302E303030302043202020302020302020302020302020302020302020302020302020302020302020302020300A2020202D302E363336332020202D312E3435393720202020302E30303030204F202020302020302020302020302020302020302020302020302020302020302020302020300A20202020302E343138372020202D302E3030373620202020302E303030302043202020302020302020302020302020302020302020302020302020302020302020302020300A20202020312E363531372020202D302E3830383320202020302E30303030204E202020302020302020302020302020302020302020302020302020302020302020302020300A20202020302E383331322020202D302E3732323120202020302E303030302043202020302020302020302020302020302020302020302020302020302020302020302020300A20202020302E343935372020202D312E3437353820202020302E303030302043202020302020302020302020302020302020302020302020302020302020302020302020300A20202020312E313038382020202D322E3032373820202020302E303030302043202020302020302020302020302020302020302020302020302020302020302020302020300A20202020312E383233322020202D312E3631353320202020302E303030302043202020302020302020302020302020302020302020302020302020302020302020302020300A20202020322E323033372020202D302E3139353220202020302E30303030204F202020302020302020302020302020302020302020302020302020302020302020302020300A20202020332E303130372020202D302E3336363820202020302E303030302043202020302020302020302020302020302020302020302020302020302020302020302020300A2020202D302E3633363320202020312E3434343420202020302E303030302043202020302020302020302020302020302020302020302020302020302020302020302020300A20202020302E3137303720202020312E3631363020202020302E30303030204F202020302020302020302020302020302020302020302020302020302020302020302020300A2020202D312E3231393620202020322E3032373820202020302E30303030204F202020302020302020302020302020302020302020302020302020302020302020302020300A2020202D322E3031363520202020312E3831343320202020302E303030302043202020302020302020302020302020302020302020302020302020302020302020302020300A2020202D322E333433332020202D302E3930353020202020302E303030302043202020302020302020302020302020302020302020302020302020302020302020302020300A2020202D312E383538332020202D312E3537323520202020302E303030302043202020302020302020302020302020302020302020302020302020302020302020302020300A2020202D332E303130372020202D312E3339303020202020302E303030302043202020302020302020302020302020302020302020302020302020302020302020302020300A2020202D322E383238322020202D302E3233373620202020302E303030302043202020302020302020302020302020302020302020302020302020302020302020302020300A2020312020322020312020302020202020200A2020322020332020322020302020202020200A2020332020342020312020302020202020200A2020342020352020312020302020202020200A2020312020352020312020302020202020200A2020352020362020322020302020202020200A2020382020392020312020302020202020200A2020392031302020322020302020202020200A2031302031312020312020302020202020200A2031312031322020322020302020202020200A2020382031322020312020302020202020200A2031332031342020312020302020202020200A2020382031332020312020302020202020200A2020372020392020312020302020202020200A2020342020372020322020302020202020200A2031352031362020322020302020202020200A2031372031382020312020302020202020200A2031352031372020312020302020202020200A2020332031352020312020302020202020200A2031392032302020312020302020202020200A2031392032322020312020302020202020200A2031392032312020312020302020202020200A2020312031392020312020302020202020200A4D2020454E44
Contributor: YOSHIKI O, FAC, TECHNOLOGY, OSAKA UNIV.
InstType: EI
InstName: Unknown
IoniMethod: _ENERGY 70 eV
IonPolarity: pos
Date: 2010-10-09 19:48:36+02:00
Num Peaks: 141
50 44 51 103 52 46 53 60 54 30 55 76 56 626 57 507 58 29 59 613 
60 17 62 38 63 90 64 46 65 55 66 25 67 25 68 15 69 13 70 23 
74 22 75 64 76 100 77 94 78 59 79 33 80 36 81 13 84 13 88 16 
89 101 90 103 91 59 92 26 93 17 94 107 95 11 101 10 102 156 103 144 
104 141 105 82 106 32 107 11 115 12 116 66 117 122 118 228 119 63 120 14 
125 19 129 21 130 142 131 133 132 63 133 39 134 26 143 14 144 115 145 80 
146 76 147 24 148 17 149 16 156 10 157 20 158 30 159 82 160 39 161 36 
162 114 163 20 169 10 172 33 173 41 174 128 175 39 176 37 177 10 178 22 
184 29 185 16 186 62 187 45 188 113 189 328 190 94 191 85 192 16 198 13 
199 14 200 54 201 31 202 203 203 56 204 28 205 12 206 40 214 34 216 44 
217 34 218 24 219 64 220 55 221 11 227 16 230 60 231 13 232 40 234 15 
235 33 236 26 242 41 244 54 245 52 246 73 247 58 248 11 249 11 254 19 
258 11 259 13 260 13 262 385 263 54 274 56 275 17 276 162 277 921 278 156 
279 25 286 150 287 27 290 28 302 24 318 652 319 115 320 17 333 999 334 198 
335 30 
