Name: MassBank: JP011562
MW: 104
Formula: C3H12Si2
Synonym: MassBank: JP011562
Synonym: 1,1,1-TRIMETHYLDISILANE
Structure: 310A31340A312C312C312D5452494D455448594C444953494C414E452E6D6F6C0A20204368656D447261773130323330393030353632440A2020352020342020302020302020302020302020302020302020302020303939392056323030300A20202020302E3030303020202020302E3030303020202020302E303030302053692020302020302020302020302020302020302020302020302020302020302020302020300A20202020302E3832353020202020302E3030303020202020302E303030302053692020302020302020302020302020302020302020302020302020302020302020302020300A20202020302E303030302020202D302E3832353020202020302E303030302043202020302020302020302020302020302020302020302020302020302020302020302020300A2020202D302E3832353020202020302E3030303020202020302E303030302043202020302020302020302020302020302020302020302020302020302020302020302020300A20202020302E3030303020202020302E3832353020202020302E303030302043202020302020302020302020302020302020302020302020302020302020302020302020300A2020312020322020312020302020202020200A2020312020332020312020302020202020200A2020312020342020312020302020202020200A2020312020352020312020302020202020200A4D2020454E44
Contributor: YAMAMOTO M, DEP. CHEMISTRY, FAC. SCIENCE, NARA WOMEN'S UNIV.
InstType: EI
InstName: HITACHI RMU-6M
IoniMethod: _ENERGY 20 eV
IonPolarity: pos
Date: 2010-10-09 19:48:36+02:00
Num Peaks: 21
43 30 45 59 59 30 72 10 73 999 74 81 75 30 85 30 86 22 87 111 
88 10 89 163 90 22 91 10 99 10 100 10 101 30 102 141 103 133 104 89 
105 22 
