Name: MassBank: JP011578
MW: 128
Formula: C7H16Si
Synonym: MassBank: JP011578
Synonym: 1,1-DIMETHYL-SILACYCLOHEXANE (2,2,6,6-D4)
Structure: 312C312D44494D455448594C2D53494C414359434C4F484558414E452028322C322C362C362D4434292E6D6F6C0A20204368656D447261773130323330393130353032440A2031322031322020302020302020302020302020302020302020302020303939392056323030300A20202020302E3030323020202020302E3530383120202020302E303030302053692020302020302020302020302020302020302020302020302020302020302020302020300A20202020302E3731353020202020302E3039333020202020302E303030302043202020302020302020302020302020302020302020302020302020302020302020302020300A20202020302E373132302020202D302E3733323020202020302E303030302043202020302020302020302020302020302020302020302020302020302020302020302020300A2020202D302E303033392020202D312E3134313920202020302E303030302043202020302020302020302020302020302020302020302020302020302020302020302020300A2020202D302E373136392020202D302E3732363920202020302E303030302043202020302020302020302020302020302020302020302020302020302020302020302020300A2020202D302E3731343020202020302E3039383120202020302E303030302043202020302020302020302020302020302020302020302020302020302020302020302020300A2020202D312E353236392020202D302E3034323220202020302E303030302048202020312020302020302020302020302020302020302020302020302020302020302020300A2020202D302E3939333320202020302E3837343420202020302E303030302048202020312020302020302020302020302020302020302020302020302020302020302020300A20202020302E3939393920202020302E3836373220202020302E303030302048202020312020302020302020302020302020302020302020302020302020302020302020300A20202020312E353236392020202D302E3035333220202020302E303030302048202020312020302020302020302020302020302020302020302020302020302020302020300A2020202D302E3532363020202020312E3134313920202020302E303030302043202020302020302020302020302020302020302020302020302020302020302020302020300A20202020302E3533343620202020312E3133383120202020302E303030302043202020302020302020302020302020302020302020302020302020302020302020302020300A2020312020322020312020302020202020200A2020322020332020312020302020202020200A2020332020342020312020302020202020200A2020342020352020312020302020202020200A2020352020362020312020302020202020200A2020312020362020312020302020202020200A2020362020372020312020312020202020200A2020362020382020312020362020202020200A2020322020392020312020312020202020200A2020322031302020312020362020202020200A2020312031312020312020362020202020200A2020312031322020312020312020202020200A4D202049534F20203420202037202020322020203820202032202020392020203220203130202020320A4D2020454E44
Contributor: YAMAMOTO M, DEP. CHEMISTRY, FAC. SCIENCE, NARA WOMEN'S UNIV.
InstType: EI
InstName: HITACHI RMU-6M
IoniMethod: _ENERGY 20 eV
IonPolarity: pos
Date: 2010-10-09 19:48:36+02:00
Num Peaks: 28
43 16 58 27 59 80 60 34 61 87 62 34 72 59 73 24 74 73 75 13 
85 12 86 64 87 403 88 190 89 77 90 13 101 19 102 35 103 20 115 11 
116 24 117 999 118 130 119 46 131 10 132 371 133 55 134 15 
