Name: MassBank: JP012114
MW: 332
Formula: C16H9Cl2NO3
Synonym: MassBank: JP012114
Synonym: 4-(2,4-DICHLOROBENZOYL)-3-PHENYL-5-OXAZOLONE
Structure: 313135325F342D28322C342D444943484C4F524F42454E5A4F594C292D332D5048454E594C2D352D4F58415A4F4C4F4E452E6D6F6C0A20204368656D447261773130323031303230343832440A2032322032342020302020302020302020302020302020302020302020303939392056323030300A2020202D302E3838313620202020312E3730353120202020302E30303030204F202020302020302020302020302020302020302020302020302020302020302020302020300A2020202D312E3537333520202020312E3235353820202020302E30303030204E202020302020302020302020302020302020302020302020302020302020302020302020300A2020202D312E3336303020202020302E3435383920202020302E303030302043202020302020302020302020302020302020302020302020302020302020302020302020300A2020202D302E3533363120202020302E3431353720202020302E303030302043202020302020302020302020302020302020302020302020302020302020302020302020300A2020202D302E3234303520202020312E3138353920202020302E303030302043202020302020302020302020302020302020302020302020302020302020302020302020300A20202020302E3535363420202020312E3339393520202020302E30303030204F202020302020302020302020302020302020302020302020302020302020302020302020300A2020202D312E383739322020202D302E3138323220202020302E303030302043202020302020302020302020302020302020302020302020302020302020302020302020300A2020202D322E363934302020202D302E3035333220202020302E303030302043202020302020302020302020302020302020302020302020302020302020302020302020300A2020202D332E323133322020202D302E3639343320202020302E303030302043202020302020302020302020302020302020302020302020302020302020302020302020300A2020202D322E393137362020202D312E3436343520202020302E303030302043202020302020302020302020302020302020302020302020302020302020302020302020300A2020202D322E313032372020202D312E3539333620202020302E303030302043202020302020302020302020302020302020302020302020302020302020302020302020300A2020202D312E353833352020202D302E3935323420202020302E303030302043202020302020302020302020302020302020302020302020302020302020302020302020300A2020202D302E303836382020202D302E3237363220202020302E303030302043202020302020302020302020302020302020302020302020302020302020302020302020300A20202020302E373338322020202D302E3237363220202020302E303030302043202020302020302020302020302020302020302020302020302020302020302020302020300A20202020312E313530372020202D302E3939303620202020302E303030302043202020302020302020302020302020302020302020302020302020302020302020302020300A20202020312E393735372020202D302E3939303620202020302E303030302043202020302020302020302020302020302020302020302020302020302020302020302020300A20202020322E333838322020202D302E3237363220202020302E303030302043202020302020302020302020302020302020302020302020302020302020302020302020300A20202020312E3937353720202020302E3433383320202020302E303030302043202020302020302020302020302020302020302020302020302020302020302020302020300A20202020312E3135303720202020302E3433383320202020302E303030302043202020302020302020302020302020302020302020302020302020302020302020302020300A2020202D302E343939332020202D302E3939303620202020302E30303030204F202020302020302020302020302020302020302020302020302020302020302020302020300A20202020332E323133322020202D302E3237363220202020302E3030303020436C2020302020302020302020302020302020302020302020302020302020302020302020300A20202020302E373338322020202D312E3730353120202020302E3030303020436C2020302020302020302020302020302020302020302020302020302020302020302020300A2020312020322020312020302020202020200A2020322020332020322020302020202020200A2020332020342020312020302020202020200A2020342020352020312020302020202020200A2020312020352020312020302020202020200A2020352020362020322020302020202020200A2020372020382020312020302020202020200A2020382020392020322020302020202020200A2020392031302020312020302020202020200A2031302031312020322020302020202020200A2031312031322020312020302020202020200A2020372031322020322020302020202020200A2020332020372020312020302020202020200A2031332031342020312020302020202020200A2031342031352020312020302020202020200A2031352031362020322020302020202020200A2031362031372020312020302020202020200A2031372031382020322020302020202020200A2031382031392020312020302020202020200A2031342031392020322020302020202020200A2031332032302020322020302020202020200A2031372032312020312020302020202020200A2031352032322020312020302020202020200A2020342031332020312020302020202020200A4D2020454E44
Contributor: HISAHIRO HAGIWARA, INSTITUTE FOR CHEMICAL REACTION SCIENCE TOHOKU UNIV.
InstType: EI
InstName: JEOL JMS-DX-300
IoniMethod: _ENERGY 70 eV
IonPolarity: pos
Date: 2010-10-09 19:48:36+02:00
Num Peaks: 57
36 8 38 8 39 19 50 26 51 40 52 12 61 4 62 12 63 38 64 7 
73 7 74 43 75 54 76 37 77 43 78 6 84 11 85 11 86 7 87 9 
88 7 89 61 90 11 102 126 103 42 104 12 105 12 109 87 110 48 111 37 
112 17 116 105 117 23 123 5 132 10 138 24 139 15 140 12 141 6 144 38 
145 184 147 128 149 26 160 6 161 7 173 999 174 328 175 918 176 263 177 248 
190 9 192 8 199 9 327 9 329 10 333 7 335 5 
