Name: SULFUR
MW: 255
Formula: S8
Synonym: MassBank: JP011921
Synonym: SULFUR
Structure: 310A32310A53554C4655522E6D6F6C0A20204368656D447261773038313231303036353832440A2020382020382020302020302020302020302020302020302020302020303939392056323030300A20202020302E393935392020202D302E3431323520202020302E303030302053202020302020302020302020302020302020302020302020302020302020302020302020300A20202020302E343132352020202D302E3939353920202020302E303030302053202020302020302020302020302020302020302020302020302020302020302020302020300A2020202D302E343132352020202D302E3939353920202020302E303030302053202020302020302020302020302020302020302020302020302020302020302020302020300A2020202D302E393935392020202D302E3431323520202020302E303030302053202020302020302020302020302020302020302020302020302020302020302020302020300A2020202D302E3939353920202020302E3431323520202020302E303030302053202020302020302020302020302020302020302020302020302020302020302020302020300A2020202D302E3431323520202020302E3939353920202020302E303030302053202020302020302020302020302020302020302020302020302020302020302020302020300A20202020302E3431323520202020302E3939353920202020302E303030302053202020302020302020302020302020302020302020302020302020302020302020302020300A20202020302E3939353920202020302E3431323520202020302E303030302053202020302020302020302020302020302020302020302020302020302020302020302020300A2020312020322020312020302020202020200A2020322020332020312020302020202020200A2020332020342020312020302020202020200A2020342020352020312020302020202020200A2020352020362020312020302020202020200A2020362020372020312020302020202020200A2020372020382020312020302020202020200A2020312020382020312020302020202020200A4D2020454E44
Contributor: YAMAMOTO M, DEP. CHEMISTRY, FAC. SCIENCE, NARA WOMEN'S UNIV.
InstType: EI
InstName: HITACHI M-80
IoniMethod: _ENERGY 70 eV
IonPolarity: pos
Date: 2010-10-09 19:48:36+02:00
Num Peaks: 24
32 113 64 999 65 15 66 87 86 16 96 242 98 33 128 462 129 14 130 81 
160 619 161 25 162 137 164 12 192 255 193 12 194 67 224 74 226 23 256 874 
257 56 258 310 259 17 260 49 
