Name: MassBank: JP010284
MW: 231
Formula: C14H17NO2
Synonym: MassBank: JP010284
Synonym: METHYL 5-ETHYL-2-PHENYL-1-PYRROLINE-4-CARBOXYLATE (4,5-CIS)
Synonym: METHYL (4R,5S)-5-ETHYL-2-PHENYL-1-PYRROLINE-4-CARBOXYLATE
Structure: 303836345F4D455448594C202834522C3553292D352D455448594C2D322D5048454E594C2D312D505952524F4C494E452D342D434152424F58594C4154452E6D6F6C0A20204368656D447261773130323031303138323432440A2031372031382020302020302020302020302020302020302020302020303939392056323030300A2020202D302E3038303420202020302E3439393320202020302E30303030204E202020302020302020302020302020302020302020302020302020302020302020302020300A20202020302E313734352020202D302E3238353320202020302E303030302043202020302020302020302020302020302020302020302020302020302020302020302020300A2020202D302E343932392020202D302E3737303220202020302E303030302043202020302020302020302020302020302020302020302020302020302020302020302020300A2020202D312E313630342020202D302E3238353320202020302E303030302043202020302020302020302020302020302020302020302020302020302020302020302020300A2020202D302E3930353420202020302E3439393320202020302E303030302043202020302020302020302020302020302020302020302020302020302020302020302020300A2020202D312E393435302020202D302E3534303220202020302E303030302043202020302020302020302020302020302020302020302020302020302020302020302020300A2020202D322E3532383420202020302E3034333220202020302E30303030204F202020302020302020302020302020302020302020302020302020302020302020302020300A2020202D322E313538352020202D312E3333373120202020302E30303030204F202020302020302020302020302020302020302020302020302020302020302020302020300A20202020302E393539312020202D302E3534303220202020302E303030302043202020302020302020302020302020302020302020302020302020302020302020302020300A20202020312E3537323220202020302E3031313820202020302E303030302043202020302020302020302020302020302020302020302020302020302020302020302020300A20202020322E333536382020202D302E3234333120202020302E303030302043202020302020302020302020302020302020302020302020302020302020302020302020300A20202020322E353238342020202D312E3035303120202020302E303030302043202020302020302020302020302020302020302020302020302020302020302020302020300A20202020312E393135332020202D312E3630323120202020302E303030302043202020302020302020302020302020302020302020302020302020302020302020302020300A20202020312E313330362020202D312E3334373220202020302E303030302043202020302020302020302020302020302020302020302020302020302020302020302020300A2020202D312E3339303420202020312E3136363820202020302E303030302043202020302020302020302020302020302020302020302020302020302020302020302020300A2020202D312E3035343820202020312E3932303520202020302E303030302043202020302020302020302020302020302020302020302020302020302020302020302020300A2020202D312E353735322020202D312E3932303520202020302E303030302043202020302020302020302020302020302020302020302020302020302020302020302020300A2020312020322020322020302020202020200A2020322020332020312020302020202020200A2020332020342020312020302020202020200A2020342020352020312020302020202020200A2020312020352020312020302020202020200A2020362020372020322020302020202020200A2020362020382020312020302020202020200A2020342020362020312020312020202020200A2020392031302020312020302020202020200A2031302031312020322020302020202020200A2031312031322020312020302020202020200A2031322031332020322020302020202020200A2031332031342020312020302020202020200A2020392031342020322020302020202020200A2020322020392020312020302020202020200A2031352031362020312020302020202020200A2020352031352020312020312020202020200A2020382031372020312020302020202020200A4D2020454E44
Contributor: KANEMASA S, INST. OF ADVANCED MATERIAL STUDY KYUSHU UNIV.
InstType: EI
InstName: JEOL JMS-01-SG-2
IoniMethod: _ENERGY 75 eV
IonPolarity: pos
Date: 2010-10-09 19:48:36+02:00
Num Peaks: 50
39 531 40 102 41 491 42 132 50 134 51 370 52 99 53 133 54 103 55 291 
59 205 63 166 65 112 69 89 76 181 77 617 78 116 89 214 91 262 103 343 
104 975 105 136 115 918 116 327 117 241 130 999 131 181 142 167 143 473 144 270 
145 194 147 38 148 29 154 16 156 113 157 30 158 44 159 29 161 18 170 119 
171 61 172 248 173 35 174 21 200 14 202 103 203 41 216 66 231 44 232 14 
