Name: MassBank: JP010030
MW: 144
Formula: C7H12O3
Synonym: MassBank: JP010030
Synonym: 4,4-DIMETHOXY-2-METHYL-2-BUTENAL
Structure: 342C342D44494D4554484F58592D322D4D455448594C2D322D425554454E414C2E6D6F6C0A20204368656D447261773130313831303137313232440A2031302020392020302020302020302020302020302020302020302020303939392056323030300A20202020302E3431323520202020312E3432383920202020302E303030302043202020302020302020302020302020302020302020302020302020302020302020302020300A2020202D302E3030303020202020302E3731343520202020302E303030302043202020302020302020302020302020302020302020302020302020302020302020302020300A20202020302E343132352020202D302E3030303020202020302E303030302043202020302020302020302020302020302020302020302020302020302020302020302020300A20202020302E303030302020202D302E3731343520202020302E303030302043202020302020302020302020302020302020302020302020302020302020302020302020300A20202020312E3233373520202020312E3432383920202020302E30303030204F202020302020302020302020302020302020302020302020302020302020302020302020300A2020202D302E3832353020202020302E3731343520202020302E303030302043202020302020302020302020302020302020302020302020302020302020302020302020300A20202020302E343132352020202D312E3432383920202020302E30303030204F202020302020302020302020302020302020302020302020302020302020302020302020300A20202020312E323337352020202D312E3432383920202020302E303030302043202020302020302020302020302020302020302020302020302020302020302020302020300A2020202D302E383235302020202D302E3731343520202020302E30303030204F202020302020302020302020302020302020302020302020302020302020302020302020300A2020202D312E323337352020202D312E3432383920202020302E303030302043202020302020302020302020302020302020302020302020302020302020302020302020300A2020312020322020312020302020202020200A2020322020332020322020302020202020200A2020332020342020312020302020202020200A2020312020352020322020302020202020200A2020322020362020312020302020202020200A2020372020382020312020302020202020200A2020342020372020312020302020202020200A2020392031302020312020302020202020200A2020342020392020312020302020202020200A4D2020454E44
Contributor: KURARAY CO., LTD.
InstType: EI
InstName: JEOL JMS-D-300
IoniMethod: _ENERGY 70 eV
IonPolarity: pos
Date: 2010-10-09 19:48:36+02:00
Num Peaks: 56
26 16 27 130 28 253 29 21 30 18 31 68 32 62 33 3 37 14 38 33 
39 282 40 5 41 273 42 66 43 64 44 1 45 601 46 16 47 117 50 2 
51 38 52 16 53 295 54 5 55 357 56 62 57 32 58 3 59 168 67 19 
68 31 69 55 70 71 71 26 73 32 75 68 76 34 81 139 82 31 83 11 
84 276 85 296 86 19 97 19 98 59 99 21 101 18 112 6 113 999 114 95 
115 675 116 8 129 80 133 10 143 20 144 24 
