Name: MassBank: JP010918
MW: 148
Formula: C6H12O4
Synonym: MassBank: JP010918
Synonym: METHYL 2,2-DIMETHOXYPROPIONATE
Structure: 4D455448594C20322C322D44494D4554484F585950524F50494F4E4154452E6D6F6C0A20204368656D447261773038313131303233343032440A2031302020392020302020302020302020302020302020302020302020303939392056323030300A2020202D302E303935372020202D302E3832353020202020302E303030302043202020302020302020302020302020302020302020302020302020302020302020302020300A2020202D302E303935372020202D302E3030303020202020302E303030302043202020302020302020302020302020302020302020302020302020302020302020302020300A20202020302E373239332020202D302E3030303020202020302E303030302043202020302020302020302020302020302020302020302020302020302020302020302020300A2020202D302E383130322020202D312E3233373520202020302E30303030204F202020302020302020302020302020302020302020302020302020302020302020302020300A20202020302E363138382020202D312E3233373520202020302E30303030204F202020302020302020302020302020302020302020302020302020302020302020302020300A2020202D302E393230372020202D302E3030303020202020302E30303030204F202020302020302020302020302020302020302020302020302020302020302020302020300A2020202D312E333333322020202D302E3731343520202020302E303030302043202020302020302020302020302020302020302020302020302020302020302020302020300A2020202D302E3039353720202020302E3832353020202020302E30303030204F202020302020302020302020302020302020302020302020302020302020302020302020300A20202020302E3631383820202020312E3233373520202020302E303030302043202020302020302020302020302020302020302020302020302020302020302020302020300A20202020312E333333322020202D302E3832353020202020302E303030302043202020302020302020302020302020302020302020302020302020302020302020302020300A2020312020322020312020302020202020200A2020322020332020312020302020202020200A2020312020342020322020302020202020200A2020312020352020312020302020202020200A2020362020372020312020302020202020200A2020322020362020312020302020202020200A2020382020392020312020302020202020200A2020322020382020312020302020202020200A2020352031302020312020302020202020200A4D2020454E44
Contributor: KURARAY CO., LTD.
InstType: EI
InstName: JEOL JMS-D-300
IoniMethod: _ENERGY 70 eV
IonPolarity: pos
Date: 2010-10-09 19:48:36+02:00
Num Peaks: 23
27 11 28 14 29 24 31 14 42 17 43 732 44 16 45 4 47 117 55 4 
57 189 58 23 59 36 75 106 85 155 86 5 87 24 89 999 90 49 91 3 
117 446 118 25 133 28 
