Name: 2-BUTYLCYCLOPENANONE
MW: 140
Formula: C9H16O
Synonym: MassBank: JP010859
Synonym: 2-BUTYLCYCLOPENANONE
Structure: 322D425554594C4359434C4F50454E414E4F4E452E6D6F6C0A20204368656D447261773031303331303130313932440A2031302031302020302020302020302020302020302020302020302020303939392056323030300A2020202D302E343234312020202D312E3837323320202020302E303030302043202020302020302020302020302020302020302020302020302020302020302020302020300A20202020302E343030392020202D312E3837323320202020302E303030302043202020302020302020302020302020302020302020302020302020302020302020302020300A20202020302E363535392020202D312E3038373720202020302E303030302043202020302020302020302020302020302020302020302020302020302020302020302020300A2020202D302E303131362020202D302E3630323720202020302E303030302043202020302020302020302020302020302020302020302020302020302020302020302020300A2020202D302E363739302020202D312E3038373720202020302E303030302043202020302020302020302020302020302020302020302020302020302020302020302020300A20202020312E343430352020202D302E3833323720202020302E30303030204F202020302020302020302020302020302020302020302020302020302020302020302020300A2020202D302E3031313620202020302E3232323320202020302E303030302043202020302020302020302020302020302020302020302020302020302020302020302020300A2020202D302E3732363020202020302E3633343820202020302E303030302043202020302020302020302020302020302020302020302020302020302020302020302020300A2020202D302E3732363020202020312E3435393820202020302E303030302043202020302020302020302020302020302020302020302020302020302020302020302020300A2020202D312E3434303520202020312E3837323320202020302E303030302043202020302020302020302020302020302020302020302020302020302020302020302020300A2020312020322020312020302020202020200A2020322020332020312020302020202020200A2020332020342020312020302020202020200A2020342020352020312020302020202020200A2020352020312020312020302020202020200A2020332020362020322020302020202020200A2020342020372020312020302020202020200A2020372020382020312020302020202020200A2020382020392020312020302020202020200A2020392031302020312020302020202020200A4D2020454E44
Contributor: SODA AROMATIC CO., LTD.
InstType: EI
InstName: HITACHI M-80B
IoniMethod: _ENERGY 70 eV
IonPolarity: pos
Date: 2010-10-09 19:48:36+02:00
Num Peaks: 28
26 11 27 154 28 26 29 112 39 142 40 14 41 290 42 118 43 92 51 11 
53 44 54 57 55 231 56 145 57 15 67 37 68 13 69 81 70 31 79 11 
81 16 83 188 84 999 85 61 97 120 98 33 111 16 140 71 
