Name: 1-BUTEN-3-OL
MW: 72
Formula: C4H8O
Synonym: MassBank: JP010316
Synonym: 1-BUTEN-3-OL
Structure: 310A31340A312D425554454E2D332D4F4C2E6D6F6C0A20204368656D447261773131313730393233343132440A2020352020342020302020302020302020302020302020302020302020303939392056323030300A20202020312E303731372020202D302E3230363220202020302E303030302043202020302020302020302020302020302020302020302020302020302020302020302020300A20202020302E333537322020202D302E3631383820202020302E303030302043202020302020302020302020302020302020302020302020302020302020302020302020300A2020202D302E333537322020202D302E3230363220202020302E303030302043202020302020302020302020302020302020302020302020302020302020302020302020300A2020202D302E3335373220202020302E3631383820202020302E303030302043202020302020302020302020302020302020302020302020302020302020302020302020300A2020202D312E303731372020202D302E3631383820202020302E30303030204F202020302020302020302020302020302020302020302020302020302020302020302020300A2020312020322020322020302020202020200A2020322020332020312020302020202020200A2020332020342020312020302020202020200A2020332020352020312020302020202020200A4D2020454E44
Contributor: TAJIMA S, GUNMA COLLEGE OF TECHNOLOGY
InstType: EI
InstName: HITACHI M-80A
IoniMethod: _ENERGY 70 eV
IonPolarity: pos
Date: 2010-10-09 19:48:36+02:00
Num Peaks: 32
14 27 15 114 17 13 18 47 19 36 25 13 26 116 27 412 29 363 31 135 
37 24 38 39 39 163 40 14 41 72 42 46 43 999 44 69 45 349 49 13 
50 46 51 39 52 13 53 63 54 43 55 97 56 13 57 996 58 49 59 13 
71 129 72 18 
