Name: LIGULOXIDE
MW: 222
Formula: C15H26O
Synonym: MassBank: JP010685
Synonym: LIGULOXIDE
Structure: 303933365F4C4947554C4F584944452E6D6F6C0A20204368656D447261773130323031303139303532440A2031372031392020302020302020302020302020302020302020302020303939392056323030300A2020202D312E3232363120202020302E3734363220202020302E303030302043202020302020302020302020302020302020302020302020302020302020302020302020300A2020202D312E353335322020202D302E3031383720202020302E303030302043202020302020302020302020302020302020302020302020302020302020302020302020300A2020202D312E313239382020202D302E3733373320202020302E303030302043202020302020302020302020302020302020302020302020302020302020302020302020300A2020202D302E333135332020202D302E3836383420202020302E303030302043202020302020302020302020302020302020302020302020302020302020302020302020300A20202020302E323935302020202D302E3331333320202020302E303030302043202020302020302020302020302020302020302020302020302020302020302020302020300A20202020302E3234313620202020302E3531303020202020302E303030302043202020302020302020302020302020302020302020302020302020302020302020302020300A2020202D302E3433353420202020302E3938313520202020302E303030302043202020302020302020302020302020302020302020302020302020302020302020302020300A20202020312E303934352020202D302E3531363920202020302E303030302043202020302020302020302020302020302020302020302020302020302020302020302020300A20202020312E3533353220202020302E3138303620202020302E303030302043202020302020302020302020302020302020302020302020302020302020302020302020300A20202020312E3030383020202020302E3831353220202020302E303030302043202020302020302020302020302020302020302020302020302020302020302020302020300A20202020312E3231313620202020312E3631343720202020302E303030302043202020302020302020302020302020302020302020302020302020302020302020302020300A2020202D302E3833353420202020302E3031373420202020302E303030302043202020302020302020302020302020302020302020302020302020302020302020302020300A2020202D312E343937392020202D302E3437343220202020302E303030302043202020302020302020302020302020302020302020302020302020302020302020302020300A2020202D302E3339313120202020302E3731323620202020302E303030302043202020302020302020302020302020302020302020302020302020302020302020302020300A2020202D302E333031342020202D302E3131313120202020302E30303030204F202020302020302020302020302020302020302020302020302020302020302020302020300A20202020302E363131322020202D312E3037353320202020302E303030302048202020302020302020302020302020302020302020302020302020302020302020302020300A20202020302E303336322020202D312E3631343720202020302E303030302043202020302020302020302020302020302020302020302020302020302020302020302020300A2020312020322020312020302020202020200A2020322020332020312020302020202020200A2020332020342020312020302020202020200A2020342020352020312020302020202020200A2020352020362020312020302020202020200A2020362020372020312020302020202020200A2020372020312020312020302020202020200A2020352020382020312020302020202020200A2020382020392020312020302020202020200A2020392031302020312020302020202020200A2031302020362020312020302020202020200A2031302031312020312020362020202020200A2020312031322020312020312020202020200A2031322031332020312020312020202020200A2031322031342020312020312020202020200A2020362031352020312020312020202020200A2031322031352020312020302020202020200A2020352031362020312020312020202020200A2020342031372020312020312020202020200A4D2020454E44
Contributor: EGUCHI S, FAC. OF SCIENCE, HIROSHIMA UNIV.
InstType: EI
InstName: HITACHI RMU-6L
IoniMethod: _ENERGY 70 eV
IonPolarity: pos
Date: 2010-10-09 19:48:36+02:00
Num Peaks: 68
41 350 42 90 43 260 53 12 54 40 55 390 56 60 57 7 59 40 65 45 
67 210 68 10 69 270 70 50 71 90 77 8 79 150 80 70 81 400 82 13 
83 120 84 40 91 110 92 4 93 180 94 115 95 320 96 8 97 95 98 40 
105 100 106 4 107 230 108 180 109 300 110 12 111 70 119 120 120 40 121 13 
122 120 123 130 124 120 125 13 126 125 133 90 135 110 136 5 137 320 138 60 
139 40 147 6 149 280 150 60 151 90 161 9 163 80 164 200 165 60 173 4 
179 50 189 370 190 70 204 5 207 999 208 160 222 140 221 30 
