Name: MassBank: JP011173
MW: 210
Formula: C8H10N4O3
Synonym: MassBank: JP011173
Synonym: 1,3-DIMETHYL-1,9A-DIHYDRO-2H-PYRIMIDO(1,2-A)(1,3,5)TRIAZINE-2,4,8(3H,9H)-TRIONE
Structure: 312C332D44494D455448594C2D312C39412D4449485944524F2D32482D505952494D49444F28312C322D412928312C332C3529545249415A494E452D322C342C382833482C3948292D5452494F4E452E6D6F6C0A20204368656D447261773131313230393131333832440A2031372031382020302020302020302020302020302020302020302020303939392056323030300A20202020302E3230363320202020302E3335373220202020302E30303030204E202020302020302020302020302020302020302020302020302020302020302020302020300A2020202D302E323036332020202D302E3335373220202020302E303030302043202020302020302020302020302020302020302020302020302020302020302020302020300A20202020302E323036332020202D312E3037313720202020302E30303030204E202020302020302020302020302020302020302020302020302020302020302020302020300A20202020312E303331332020202D312E3037313720202020302E303030302043202020302020302020302020302020302020302020302020302020302020302020302020300A20202020312E343433382020202D302E3335373220202020302E30303030204E202020302020302020302020302020302020302020302020302020302020302020302020300A20202020312E3033313320202020302E3335373220202020302E303030302043202020302020302020302020302020302020302020302020302020302020302020302020300A2020202D312E303331332020202D302E3335373220202020302E30303030204E202020302020302020302020302020302020302020302020302020302020302020302020300A2020202D312E3434333820202020302E3335373220202020302E303030302043202020302020302020302020302020302020302020302020302020302020302020302020300A2020202D312E3033313320202020312E3037313720202020302E303030302043202020302020302020302020302020302020302020302020302020302020302020302020300A2020202D302E3230363320202020312E3037313720202020302E303030302043202020302020302020302020302020302020302020302020302020302020302020302020300A20202020312E343433382020202D312E3738363220202020302E30303030204F202020302020302020302020302020302020302020302020302020302020302020302020300A20202020312E3434333820202020312E3037313720202020302E30303030204F202020302020302020302020302020302020302020302020302020302020302020302020300A2020202D322E3236383820202020302E3335373220202020302E30303030204F202020302020302020302020302020302020302020302020302020302020302020302020300A20202020322E323638382020202D302E3335373220202020302E303030302043202020302020302020302020302020302020302020302020302020302020302020302020300A2020202D302E323036322020202D312E3738363220202020302E303030302043202020302020302020302020302020302020302020302020302020302020302020302020300A2020202D312E3434333820202020312E3738363220202020302E303030302048202020302020302020302020302020302020302020302020302020302020302020302020300A20202020302E3230363220202020312E3738363220202020302E303030302048202020302020302020302020302020302020302020302020302020302020302020302020300A2020312020322020312020302020202020200A2020322020332020312020302020202020200A2020332020342020312020302020202020200A2020342020352020312020302020202020200A2020352020362020312020302020202020200A2020312020362020312020302020202020200A2020372020382020312020302020202020200A2020382020392020312020302020202020200A2020392031302020322020302020202020200A2020312031302020312020302020202020200A2020322020372020312020302020202020200A2020342031312020322020302020202020200A2020362031322020322020302020202020200A2020382031332020322020302020202020200A2020352031342020312020302020202020200A2020332031352020312020302020202020200A2020392031362020312020302020202020200A2031302031372020312020302020202020200A4D2020454E44
Contributor: SAWADA M, THE INST. OF SCIENTIFIC AND INDUSTRIALRESEARCH OSAKA UNIV.
InstType: EI
InstName: JEOL JMS-DX-300
IoniMethod: _ENERGY 70 eV
IonPolarity: pos
Date: 2010-10-09 19:48:36+02:00
Num Peaks: 53
38 10 39 37 40 427 41 221 42 413 43 70 44 123 51 12 52 42 53 89 
54 39 55 87 56 294 57 159 58 355 59 13 67 83 68 659 69 270 70 109 
71 20 79 20 81 17 82 33 83 88 84 131 85 20 87 11 91 11 95 160 
96 830 97 402 98 150 99 13 109 73 110 46 111 22 113 10 123 22 124 31 
125 54 141 24 142 17 152 485 153 182 154 18 167 17 181 22 182 22 208 34 
209 999 210 574 211 81 
