Name: MassBank: JP011837
MW: 614
Formula: C30H54O5Sn
Synonym: MassBank: JP011837
Synonym: 2-(3-((Z)-3-TRIBUTYLSTANNYL-1-PROPENOXY)-(2R,3S,5AR,6AS,10AR,12AS)-TETRAHYDROPYRANO(3,2-B)OXEPANO(2',3':6,7)OXEPAN-2-YL)ETHANAL
Structure: 322D28332D28285A292D332D545249425554594C5354414E4E594C2D312D50524F50454E4F5859292D2832522C33532C3541522C3641532C313041522C31324153292D5445545241485944524F505952414E4F28332C322D42294F584550414E4F2832272C3327362C37294F584550414E2D322D594C29455448414E414C2E6D6F6C0A20204368656D447261773132323130393137333832440A2034342034362020302020302020302020302020302020302020302020303939392056323030300A2020202D342E353936372020202D322E3430343520202020302E303030302043202020302020302020302020302020302020302020302020302020302020302020302020300A2020202D342E353936372020202D332E3232393520202020302E303030302043202020302020302020302020302020302020302020302020302020302020302020302020300A2020202D332E383832322020202D332E3634323020202020302E30303030204F202020302020302020302020302020302020302020302020302020302020302020302020300A2020202D332E313637382020202D332E3232393520202020302E303030302043202020302020302020302020302020302020302020302020302020302020302020302020300A2020202D332E313637382020202D322E3430343520202020302E303030302043202020302020302020302020302020302020302020302020302020302020302020302020300A2020202D332E383832322020202D312E3939323020202020302E303030302043202020302020302020302020302020302020302020302020302020302020302020302020300A2020202D322E353232382020202D332E3734333920202020302E303030302043202020302020302020302020302020302020302020302020302020302020302020302020300A2020202D312E373138342020202D332E3536303320202020302E303030302043202020302020302020302020302020302020302020302020302020302020302020302020300A2020202D312E333630352020202D322E3831373020202020302E303030302043202020302020302020302020302020302020302020302020302020302020302020302020300A2020202D312E373138342020202D322E3037333720202020302E303030302043202020302020302020302020302020302020302020302020302020302020302020302020300A2020202D322E353232382020202D312E3839303220202020302E30303030204F202020302020302020302020302020302020302020302020302020302020302020302020300A2020202D302E353536322020202D332E3030303620202020302E30303030204F202020302020302020302020302020302020302020302020302020302020302020302020300A20202020302E303838382020202D322E3438363220202020302E303030302043202020302020302020302020302020302020302020302020302020302020302020302020300A20202020302E303838382020202D312E3636313220202020302E303030302043202020302020302020302020302020302020302020302020302020302020302020302020300A2020202D302E353536322020202D312E3134363920202020302E303030302043202020302020302020302020302020302020302020302020302020302020302020302020300A2020202D312E333630352020202D312E3333303420202020302E303030302043202020302020302020302020302020302020302020302020302020302020302020302020300A2020202D332E313637382020202D312E3537393520202020302E303030302048202020302020302020302020302020302020302020302020302020302020302020302020300A2020202D332E313637382020202D342E3035343520202020302E303030302048202020302020302020302020302020302020302020302020302020302020302020302020300A2020202D312E393332302020202D312E3237363820202020302E303030302048202020302020302020302020302020302020302020302020302020302020302020302020300A2020202D312E313437302020202D322E3032303120202020302E303030302048202020302020302020302020302020302020302020302020302020302020302020302020300A20202020302E353031332020202D302E3934363820202020302E30303030204F202020302020302020302020302020302020302020302020302020302020302020302020300A20202020302E383835372020202D312E3837343820202020302E303030302048202020302020302020302020302020302020302020302020302020302020302020302020300A20202020312E333236332020202D302E3934363820202020302E303030302043202020302020302020302020302020302020302020302020302020302020302020302020300A20202020312E373338382020202D302E3233323320202020302E303030302043202020302020302020302020302020302020302020302020302020302020302020302020300A20202020312E373338382020202D312E3636313220202020302E303030302048202020302020302020302020302020302020302020302020302020302020302020302020300A20202020322E353633382020202D302E3233323320202020302E303030302048202020302020302020302020302020302020302020302020302020302020302020302020300A20202020312E3332363320202020302E3438323220202020302E303030302043202020302020302020302020302020302020302020302020302020302020302020302020300A20202020312E3733383820202020312E3139363620202020302E3030303020536E2020302020302020302020302020302020302020302020302020302020302020302020300A20202020322E3135313320202020312E3931313120202020302E303030302043202020302020302020302020302020302020302020302020302020302020302020302020300A20202020312E3032343420202020312E3630393120202020302E303030302043202020302020302020302020302020302020302020302020302020302020302020302020300A20202020322E3435333320202020302E3738343120202020302E303030302043202020302020302020302020302020302020302020302020302020302020302020302020300A20202020332E3136373820202020312E3139363620202020302E303030302043202020302020302020302020302020302020302020302020302020302020302020302020300A20202020332E3838323220202020302E3738343120202020302E303030302043202020302020302020302020302020302020302020302020302020302020302020302020300A20202020342E3539363720202020312E3139363620202020302E303030302043202020302020302020302020302020302020302020302020302020302020302020302020300A20202020312E3733383820202020322E3632353620202020302E303030302043202020302020302020302020302020302020302020302020302020302020302020302020300A20202020322E3135313320202020332E3334303120202020302E303030302043202020302020302020302020302020302020302020302020302020302020302020302020300A20202020312E3733383820202020342E3035343520202020302E303030302043202020302020302020302020302020302020302020302020302020302020302020302020300A20202020302E393133382020202D322E3438363220202020302E303030302043202020302020302020302020302020302020302020302020302020302020302020302020300A20202020302E333631332020202D332E3236343920202020302E303030302048202020302020302020302020302020302020302020302020302020302020302020302020300A20202020312E333236332020202D332E3230303720202020302E303030302043202020302020302020302020302020302020302020302020302020302020302020302020300A20202020322E313531332020202D332E3230303720202020302E30303030204F202020302020302020302020302020302020302020302020302020302020302020302020300A20202020302E3330393920202020312E3139363620202020302E303030302043202020302020302020302020302020302020302020302020302020302020302020302020300A2020202D302E3430343620202020312E3630393120202020302E303030302043202020302020302020302020302020302020302020302020302020302020302020302020300A2020202D312E3131393120202020312E3139363620202020302E303030302043202020302020302020302020302020302020302020302020302020302020302020302020300A2020312020322020312020302020202020200A2020322020332020312020302020202020200A2020332020342020312020302020202020200A2020342020352020312020302020202020200A2020352020362020312020302020202020200A2020362020312020312020302020202020200A2020342020372020312020302020202020200A2020372020382020312020302020202020200A2020382020392020312020302020202020200A2020392031302020312020302020202020200A2031302031312020312020302020202020200A2031312020352020312020302020202020200A2020392031322020312020302020202020200A2031322031332020312020302020202020200A2031332031342020312020302020202020200A2031342031352020312020302020202020200A2031352031362020312020302020202020200A2031362031302020312020302020202020200A2020352031372020312020312020202020200A2020342031382020312020362020202020200A2031302031392020312020312020202020200A2020392032302020312020362020202020200A2031342032312020312020362020202020200A2031342032322020312020312020202020200A2032312032332020312020302020202020200A2032332032342020322020302020202020200A2032332032352020312020302020202020200A2032342032362020312020302020202020200A2032342032372020312020302020202020200A2032372032382020312020302020202020200A2032382032392020312020302020202020200A2032382033302020312020302020202020200A2032382033312020312020302020202020200A2033312033322020312020302020202020200A2033322033332020312020302020202020200A2033332033342020312020302020202020200A2032392033352020312020302020202020200A2033352033362020312020302020202020200A2033362033372020312020302020202020200A2031332033382020312020312020202020200A2031332033392020312020362020202020200A2033382034302020312020302020202020200A2034302034312020322020302020202020200A2033302034322020312020302020202020200A2034322034332020312020302020202020200A2034332034342020312020302020202020200A4D2020454E44
Contributor: YOSHINORI Y, FAC. SCIENCE, TOHOKU UNIV.
InstType: EI
InstName: Unknown
IoniMethod: _ENERGY 20 eV
IonPolarity: pos
Date: 2010-10-09 19:48:36+02:00
Num Peaks: 103
55 75 57 52 67 63 69 49 70 23 71 199 79 30 81 53 83 38 84 37 
85 30 95 24 97 543 98 111 99 22 110 56 111 84 112 17 119 22 121 34 
123 22 131 14 140 38 141 175 154 24 167 21 173 47 174 23 175 190 176 110 
177 307 178 88 179 319 180 16 181 76 183 42 211 24 223 14 230 35 231 166 
232 150 233 280 234 183 235 351 236 25 237 34 239 53 247 22 249 54 250 20 
251 86 253 47 2457 14 267 212 268 45 269 53 274 27 275 46 276 54 277 55 
278 57 287 255 288 179 289 449 290 237 291 601 292 69 293 74 295 93 306 22 
309 30 311 102 312 43 313 135 314 24 315 94 317 23 319 21 324 101 537 22 
538 13 539 23 541 12 553 402 554 323 555 747 556 416 557 999 558 271 559 165 
560 28 561 143 562 24 569 41 570 36 571 86 572 34 573 135 574 34 575 15 
612 12 613 11 614 32 
