Name: 3-CYCLOHEXENE-1-CARBOXYLIC ACID METHYL ESTER
MW: 140
Formula: C8H12O2
Synonym: MassBank: JP010461
Synonym: 3-CYCLOHEXENE-1-CARBOXYLIC ACID METHYL ESTER
Structure: 332D4359434C4F484558454E452D312D434152424F58594C49432041434944204D455448594C2045535445522E6D6F6C0A20204368656D447261773032323231303136353732440A2031302031302020302020302020302020302020302020302020302020303939392056323030300A20202020302E323036332020202D302E3335373220202020302E303030302043202020302020302020302020302020302020302020302020302020302020302020302020300A2020202D302E323036332020202D312E3037313720202020302E303030302043202020302020302020302020302020302020302020302020302020302020302020302020300A2020202D312E303331322020202D312E3037313720202020302E303030302043202020302020302020302020302020302020302020302020302020302020302020302020300A2020202D312E343433382020202D302E3335373220202020302E303030302043202020302020302020302020302020302020302020302020302020302020302020302020300A2020202D312E3033313320202020302E3335373220202020302E303030302043202020302020302020302020302020302020302020302020302020302020302020302020300A2020202D302E3230363320202020302E3335373220202020302E303030302043202020302020302020302020302020302020302020302020302020302020302020302020300A20202020312E303331322020202D302E3335373220202020302E303030302043202020302020302020302020302020302020302020302020302020302020302020302020300A20202020312E343433382020202D312E3037313720202020302E30303030204F202020302020302020302020302020302020302020302020302020302020302020302020300A20202020312E3434333820202020302E3335373220202020302E30303030204F202020302020302020302020302020302020302020302020302020302020302020302020300A20202020312E3033313220202020312E3037313720202020302E303030302043202020302020302020302020302020302020302020302020302020302020302020302020300A2020312020322020312020302020202020200A2020322020332020312020302020202020200A2020332020342020322020302020202020200A2020342020352020312020302020202020200A2020352020362020312020302020202020200A2020312020362020312020302020202020200A2020372020382020322020302020202020200A2020372020392020312020302020202020200A2020312020372020312020302020202020200A2020392031302020312020302020202020200A4D2020454E44
Contributor: TAJIMA S, GUNMA COLLEGE OF TECHNOLOGY
InstType: EI
InstName: HITACHI M-80A
IoniMethod: _ENERGY 70 eV
IonPolarity: pos
Date: 2010-10-09 19:48:36+02:00
Num Peaks: 44
15 105 27 119 29 53 30 10 31 18 38 14 39 144 40 18 41 127 42 10 
43 27 45 11 50 24 51 51 52 32 53 127 54 116 55 67 59 57 61 11 
65 28 66 37 67 40 68 13 69 12 74 16 77 84 78 27 79 345 80 999 
81 849 82 58 83 14 97 23 98 13 107 14 108 479 109 176 110 14 111 37 
112 11 125 20 140 272 141 93 
