Name: TERT-BUTYLAMINE
CAS: 75-64-9
MW: 73
Formula: C4H11N
Synonym: MassBank: JP011054
Synonym: TERT-BUTYLAMINE
Structure: 310A31340A544552542D425554594C414D494E452E6D6F6C0A20204368656D447261773031323231303033323032440A2020352020342020302020302020302020302020302020302020302020303939392056323030300A20202020302E3832353020202020302E3030303020202020302E30303030204E202020302020302020302020302020302020302020302020302020302020302020302020300A20202020302E3030303020202020302E3030303020202020302E303030302043202020302020302020302020302020302020302020302020302020302020302020302020300A20202020302E303030302020202D302E3832353020202020302E303030302043202020302020302020302020302020302020302020302020302020302020302020302020300A2020202D302E3832353020202020302E3030303020202020302E303030302043202020302020302020302020302020302020302020302020302020302020302020302020300A20202020302E3030303020202020302E3832353020202020302E303030302043202020302020302020302020302020302020302020302020302020302020302020302020300A2020322020332020312020302020202020200A2020322020352020312020302020202020200A2020322020342020312020302020202020200A2020312020322020312020302020202020200A4D2020454E44
Contributor: YAMAMOTO M, DEP. CHEMISTRY, FAC. SCIENCE, NARA WOMEN'S UNIV.
InstType: EI
InstName: HITACHI M-80
IoniMethod: _ENERGY 70 eV
IonPolarity: pos
Date: 2010-10-09 19:48:36+02:00
Num Peaks: 17
15 39 18 61 27 20 28 36 29 26 30 98 39 34 41 143 42 109 43 24 
55 10 56 20 57 54 58 999 59 43 73 2 74 2 
