Name: MassBank: JP012085
MW: 240
Formula: C15H28O2
Synonym: MassBank: JP012085
Synonym: 1BETA-HYDROXY-1ALPHA,(4A)BETA-DIMETHYL-7BETA-(1-METHYL-1-HYDROXYETHYL)-(8A)BETA-DECAHYDRONPHTHALENE
Structure: 31424554412D485944524F58592D31414C5048412C28344129424554412D44494D455448594C2D37424554412D28312D4D455448594C2D312D485944524F5859455448594C292D28384129424554412D44454341485944524F4E50485448414C454E452E6D6F6C0A20204368656D447261773132313130393031323232440A2031392032302020302020302020302020302020302020302020302020303939392056323030300A2020202D302E3634393420202020302E3232303320202020302E303030302043202020302020302020302020302020302020302020302020302020302020302020302020300A2020202D302E363439342020202D302E3630343720202020302E303030302043202020302020302020302020302020302020302020302020302020302020302020302020300A20202020302E303635312020202D312E3031373220202020302E303030302043202020302020302020302020302020302020302020302020302020302020302020302020300A20202020302E373739352020202D302E3630343720202020302E303030302043202020302020302020302020302020302020302020302020302020302020302020302020300A20202020302E3737393520202020302E3232303320202020302E303030302043202020302020302020302020302020302020302020302020302020302020302020302020300A20202020302E3036353120202020302E3633323820202020302E303030302043202020302020302020302020302020302020302020302020302020302020302020302020300A20202020312E343934302020202D312E3031373220202020302E303030302043202020302020302020302020302020302020302020302020302020302020302020302020300A20202020322E323038352020202D302E3630343720202020302E303030302043202020302020302020302020302020302020302020302020302020302020302020302020300A20202020322E3230383520202020302E3232303320202020302E303030302043202020302020302020302020302020302020302020302020302020302020302020302020300A20202020312E3439343020202020302E3633323820202020302E303030302043202020302020302020302020302020302020302020302020302020302020302020302020300A20202020302E373739352020202D312E3432393720202020302E303030302043202020302020302020302020302020302020302020302020302020302020302020302020300A20202020302E3737393520202020312E3034353320202020302E303030302048202020302020302020302020302020302020302020302020302020302020302020302020300A20202020312E3238303520202020312E3432393720202020302E30303030204F202020302020302020302020302020302020302020302020302020302020302020302020300A20202020322E3134383520202020312E3133353020202020302E303030302043202020302020302020302020302020302020302020302020302020302020302020302020300A2020202D312E3233323820202020302E3830333720202020302E303030302048202020302020302020302020302020302020302020302020302020302020302020302020300A2020202D312E343131362020202D302E3039353420202020302E303030302043202020302020302020302020302020302020302020302020302020302020302020302020300A2020202D322E323038352020202D302E3330383920202020302E30303030204F202020302020302020302020302020302020302020302020302020302020302020302020300A2020202D312E313436342020202D302E3837363620202020302E303030302043202020302020302020302020302020302020302020302020302020302020302020302020300A2020202D312E3637363820202020302E3638353820202020302E303030302043202020302020302020302020302020302020302020302020302020302020302020302020300A2020312020322020312020302020202020200A2020322020332020312020302020202020200A2020332020342020312020302020202020200A2020342020352020312020302020202020200A2020352020362020312020302020202020200A2020362020312020312020302020202020200A2020342020372020312020302020202020200A2020372020382020312020302020202020200A2020382020392020312020302020202020200A2020392031302020312020302020202020200A2031302020352020312020302020202020200A2020342031312020312020312020202020200A2020352031322020312020312020202020200A2031302031332020312020312020202020200A2031302031342020312020362020202020200A2020312031352020312020362020202020200A2020312031362020312020312020202020200A2031362031372020312020302020202020200A2031362031382020312020302020202020200A2031362031392020312020302020202020200A4D2020454E44
Contributor: HISAHIRO HAGIWARA, INSTITUTE FOR CHEMICAL REACTION SCIENCE TOHOKU UNIV.
InstType: EI
InstName: JEOL JMS-DX-300
IoniMethod: _ENERGY 70 eV
IonPolarity: pos
Date: 2010-10-09 19:48:36+02:00
Num Peaks: 49
41 192 43 481 53 62 55 194 58 129 59 576 67 175 68 62 69 150 71 358 
77 66 79 113 81 391 82 139 83 91 85 131 91 86 93 208 94 76 95 262 
96 201 97 159 105 120 107 157 108 234 109 999 110 152 111 69 121 195 122 117 
123 184 125 62 133 92 134 70 135 288 136 74 137 241 147 97 149 491 150 70 
161 232 163 66 164 448 165 82 189 226 204 426 205 94 207 89 222 107 
