Name: PHENYLTRIETHYNYLSILANE
MW: 180
Formula: C12H8Si
Synonym: MassBank: JP011736
Synonym: PHENYLTRIETHYNYLSILANE
Structure: 5048454E594C545249455448594E594C53494C414E452E6D6F6C0A20204368656D447261773038313231303035333632440A2031332031332020302020302020302020302020302020302020302020303939392056323030300A2020202D302E3335373220202020302E3131303520202020302E303030302053692020302020302020302020302020302020302020302020302020302020302020302020300A2020202D302E373639372020202D302E3630333920202020302E303030302043202020302020302020302020302020302020302020302020302020302020302020302020300A2020202D312E313832322020202D312E3331383420202020302E303030302043202020302020302020302020302020302020302020302020302020302020302020302020300A2020202D312E3037313720202020302E3532333020202020302E303030302043202020302020302020302020302020302020302020302020302020302020302020302020300A2020202D312E3738363220202020302E3933353520202020302E303030302043202020302020302020302020302020302020302020302020302020302020302020302020300A20202020302E3035353320202020302E3832353020202020302E303030302043202020302020302020302020302020302020302020302020302020302020302020302020300A20202020302E3436373820202020312E3533393520202020302E303030302043202020302020302020302020302020302020302020302020302020302020302020302020300A20202020302E333537322020202D302E3330323020202020302E303030302043202020302020302020302020302020302020302020302020302020302020302020302020300A20202020312E3037313720202020302E3131303520202020302E303030302043202020302020302020302020302020302020302020302020302020302020302020302020300A20202020312E373836322020202D302E3330323020202020302E303030302043202020302020302020302020302020302020302020302020302020302020302020302020300A20202020312E373836322020202D312E3132373020202020302E303030302043202020302020302020302020302020302020302020302020302020302020302020302020300A20202020312E303731372020202D312E3533393520202020302E303030302043202020302020302020302020302020302020302020302020302020302020302020302020300A20202020302E333537322020202D312E3132373020202020302E303030302043202020302020302020302020302020302020302020302020302020302020302020302020300A2020322020332020332020302020202020200A2020312020322020312020302020202020200A2020342020352020332020302020202020200A2020312020342020312020302020202020200A2020362020372020332020302020202020200A2020312020362020312020302020202020200A2020382020392020312020302020202020200A2020392031302020322020302020202020200A2031302031312020312020302020202020200A2031312031322020322020302020202020200A2031322031332020312020302020202020200A2020382031332020322020302020202020200A2020312020382020312020302020202020200A4D2020454E44
Contributor: FAC. TECHNOLOGY, HIROSHIMA UNIV.
InstType: EI
InstName: SHIMADZU QP-1000
IoniMethod: _ENERGY 70 eV
IonPolarity: pos
Date: 2010-10-09 19:48:36+02:00
Num Peaks: 35
50 116 51 174 53 999 54 86 55 39 62 14 63 29 65 13 66 15 74 41 
75 29 76 68 77 300 78 163 79 52 89 13 90 11 101 56 102 115 103 241 
104 59 105 30 126 16 127 16 128 15 129 163 130 55 131 11 152 11 153 77 
154 128 155 23 179 170 180 103 181 21 
