Name: MassBank: JP011375
MW: 383
Formula: C10H24Sn2
Synonym: MassBank: JP011375
Synonym: 1,4-BIS(TRIMETHYLSTANNYL)-2-BUTENYLENE
Structure: 312C342D424953285452494D455448594C5354414E4E594C292D322D425554454E594C454E452E6D6F6C0A20204368656D447261773131313430393232343532440A2031322031312020302020302020302020302020302020302020302020303939392056323030300A20202020312E303731372020202D302E3230363320202020302E303030302043202020302020302020302020302020302020302020302020302020302020302020302020300A20202020302E3335373220202020302E3230363320202020302E303030302043202020302020302020302020302020302020302020302020302020302020302020302020300A2020202D302E333537322020202D302E3230363320202020302E303030302043202020302020302020302020302020302020302020302020302020302020302020302020300A2020202D312E3037313720202020302E3230363220202020302E303030302043202020302020302020302020302020302020302020302020302020302020302020302020300A2020202D312E373836322020202D302E3230363320202020302E3030303020536E2020302020302020302020302020302020302020302020302020302020302020302020300A2020202D322E3139383720202020302E3530383220202020302E303030302043202020302020302020302020302020302020302020302020302020302020302020302020300A2020202D312E333733372020202D302E3932303720202020302E303030302043202020302020302020302020302020302020302020302020302020302020302020302020300A2020202D322E353030362020202D302E3631383820202020302E303030302043202020302020302020302020302020302020302020302020302020302020302020302020300A20202020312E3738363220202020302E3230363320202020302E3030303020536E2020302020302020302020302020302020302020302020302020302020302020302020300A20202020312E3337333720202020302E3932303720202020302E303030302043202020302020302020302020302020302020302020302020302020302020302020302020300A20202020322E3530303620202020302E3631383820202020302E303030302043202020302020302020302020302020302020302020302020302020302020302020302020300A20202020322E313938372020202D302E3530383220202020302E303030302043202020302020302020302020302020302020302020302020302020302020302020302020300A2020312020322020312020302020202020200A2020322020332020322020302020202020200A2020332020342020312020302020202020200A2020352020362020312020312020202020200A2020352020372020312020312020202020200A2020352020382020312020302020202020200A2020342020352020312020302020202020200A2020392031302020312020312020202020200A2020392031312020312020302020202020200A2020392031322020312020312020202020200A2020312020392020312020302020202020200A4D2020454E44
Contributor: HISAHIRO HAGIWARA, INSTITUTE FOR CHEMICAL REACTION SCIENCE TOHOKU UNIV.
InstType: EI
InstName: JEOL JMS-DX-300
IoniMethod: _ENERGY 70 eV
IonPolarity: pos
Date: 2010-10-09 19:48:36+02:00
Num Peaks: 55
40 49 44 40 107 50 131 91 132 53 133 144 134 54 135 201 137 33 139 40 
146 46 147 31 148 76 149 35 150 100 154 21 157 38 159 28 161 485 162 285 
163 767 164 326 165 999 166 42 167 169 169 214 185 45 186 24 187 67 188 28 
189 89 215 57 216 35 217 94 218 40 219 123 223 23 309 28 310 23 311 57 
312 34 313 62 314 26 315 50 317 21 326 30 328 31 330 24 378 24 379 21 
380 49 381 31 382 53 383 25 384 43 
