Name: BORIC ACID TRIMETHYL ESTER
MW: 104
Formula: C3H9BO3
Synonym: MassBank: JP011794
Synonym: BORIC ACID TRIMETHYL ESTER
Synonym: TRIMETHYL BORATE
Structure: 310A31380A424F5249432041434944205452494D455448594C2045535445522E6D6F6C0A20204368656D447261773038313131303136313032440A2020372020362020302020302020302020302020302020302020302020303939392056323030300A2020202D302E303030302020202D302E3335373220202020302E303030302042202020302020302020302020302020302020302020302020302020302020302020302020300A20202020302E3431323520202020302E3335373220202020302E30303030204F202020302020302020302020302020302020302020302020302020302020302020302020300A20202020302E343132352020202D312E3037313720202020302E30303030204F202020302020302020302020302020302020302020302020302020302020302020302020300A2020202D302E383235302020202D302E3335373220202020302E30303030204F202020302020302020302020302020302020302020302020302020302020302020302020300A2020202D302E3030303020202020312E3037313720202020302E303030302043202020302020302020302020302020302020302020302020302020302020302020302020300A20202020312E323337352020202D312E3037313720202020302E303030302043202020302020302020302020302020302020302020302020302020302020302020302020300A2020202D312E323337352020202D312E3037313720202020302E303030302043202020302020302020302020302020302020302020302020302020302020302020302020300A2020312020322020312020302020202020200A2020312020332020312020302020202020200A2020312020342020312020302020202020200A2020322020352020312020302020202020200A2020332020362020312020302020202020200A2020342020372020312020302020202020200A4D2020454E44
Contributor: TAJIMA S, GUNMA COLLEGE OF TECHNOLOGY
InstType: EI
InstName: HITACHI M-80A
IoniMethod: _ENERGY 70 eV
IonPolarity: pos
Date: 2010-10-09 19:48:36+02:00
Num Peaks: 33
13 16 14 143 15 545 16 44 27 31 28 28 29 791 30 95 31 168 39 10 
40 27 41 51 42 187 43 477 44 33 45 69 55 11 56 94 57 381 58 131 
59 286 71 55 72 434 73 999 74 26 86 28 87 105 88 46 89 143 102 11 
103 119 104 316 105 17 
