Name: METHYL 2-ETHYLBUTYRATE
MW: 130
Formula: C7H14O2
Synonym: MassBank: JP010900
Synonym: METHYL 2-ETHYLBUTYRATE
Structure: 310A32320A4D455448594C20322D455448594C42555459524154452E6D6F6C0A20204368656D447261773038313131303233333132440A2020392020382020302020302020302020302020302020302020302020303939392056323030300A20202020302E3431323520202020302E3335373220202020302E303030302043202020302020302020302020302020302020302020302020302020302020302020302020300A2020202D302E303030302020202D302E3335373220202020302E303030302043202020302020302020302020302020302020302020302020302020302020302020302020300A20202020302E343132352020202D312E3037313720202020302E303030302043202020302020302020302020302020302020302020302020302020302020302020302020300A20202020312E323337352020202D312E3037313720202020302E303030302043202020302020302020302020302020302020302020302020302020302020302020302020300A20202020312E3233373520202020302E3335373220202020302E30303030204F202020302020302020302020302020302020302020302020302020302020302020302020300A2020202D302E3030303020202020312E3037313720202020302E30303030204F202020302020302020302020302020302020302020302020302020302020302020302020300A2020202D302E383235302020202D302E3335373220202020302E303030302043202020302020302020302020302020302020302020302020302020302020302020302020300A2020202D312E323337352020202D312E3037313720202020302E303030302043202020302020302020302020302020302020302020302020302020302020302020302020300A2020202D302E3832353020202020312E3037313720202020302E303030302043202020302020302020302020302020302020302020302020302020302020302020302020300A2020312020322020312020302020202020200A2020322020332020312020302020202020200A2020332020342020312020302020202020200A2020312020352020322020302020202020200A2020312020362020312020302020202020200A2020372020382020312020302020202020200A2020322020372020312020302020202020200A2020362020392020312020302020202020200A4D2020454E44
Contributor: SODA AROMATIC CO., LTD.
InstType: EI
InstName: HITACHI M-80B
IoniMethod: _ENERGY 70 eV
IonPolarity: pos
Date: 2010-10-09 19:48:36+02:00
Num Peaks: 31
15 54 16 15 26 21 27 105 38 12 39 104 41 149 42 58 43 535 45 16 
53 23 54 11 55 176 56 24 59 134 69 92 70 64 71 316 72 24 73 23 
74 23 87 637 88 52 99 165 100 24 101 298 102 999 103 49 104 13 115 63 
116 12 
