Name: TERT-BUTYL(3-METHYL-2-BUTENYL)AMINE
MW: 141
Formula: C9H19N
Synonym: MassBank: JP010024
Synonym: TERT-BUTYL(3-METHYL-2-BUTENYL)AMINE
Structure: 544552542D425554594C28332D4D455448594C2D322D425554454E594C29414D494E452E6D6F6C0A20204368656D447261773038313231303037303632440A2031302020392020302020302020302020302020302020302020302020303939392056323030300A20202020302E373134352020202D302E3436373820202020302E30303030204E202020302020302020302020302020302020302020302020302020302020302020302020300A20202020302E303030302020202D302E3035353320202020302E303030302043202020302020302020302020302020302020302020302020302020302020302020302020300A2020202D302E373134352020202D302E3436373820202020302E303030302043202020302020302020302020302020302020302020302020302020302020302020302020300A2020202D312E343238392020202D302E3035353320202020302E303030302043202020302020302020302020302020302020302020302020302020302020302020302020300A2020202D322E313433342020202D302E3436373820202020302E303030302043202020302020302020302020302020302020302020302020302020302020302020302020300A2020202D312E3432383920202020302E3736393720202020302E303030302043202020302020302020302020302020302020302020302020302020302020302020302020300A20202020312E343238392020202D302E3035353320202020302E303030302043202020302020302020302020302020302020302020302020302020302020302020302020300A20202020312E3031363420202020302E3635393220202020302E303030302043202020302020302020302020302020302020302020302020302020302020302020302020300A20202020322E3134333420202020302E3335373220202020302E303030302043202020302020302020302020302020302020302020302020302020302020302020302020300A20202020312E383431342020202D302E3736393720202020302E303030302043202020302020302020302020302020302020302020302020302020302020302020302020300A2020322020332020312020302020202020200A2020332020342020322020302020202020200A2020342020352020312020302020202020200A2020342020362020312020302020202020200A2020312020322020312020302020202020200A2020372020382020312020302020202020200A2020372031302020312020302020202020200A2020372020392020312020302020202020200A2020312020372020312020302020202020200A4D2020454E44
Contributor: KURARAY CO., LTD.
InstType: EI
InstName: JEOL JMS-D-300
IoniMethod: _ENERGY 70 eV
IonPolarity: pos
Date: 2010-10-09 19:48:36+02:00
Num Peaks: 28
27 34 28 114 29 52 30 5 32 18 39 52 41 241 42 7 43 23 53 27 
55 18 56 2 57 80 58 999 59 41 67 3 68 27 69 338 70 145 71 1 
82 12 84 97 85 10 110 1 126 414 127 34 141 112 142 12 
