Name: SILACYCLOPENTANE
MW: 86
Formula: C4H10Si
Synonym: MassBank: JP011579
Synonym: SILACYCLOPENTANE
Structure: 310A31350A53494C414359434C4F50454E54414E452E6D6F6C0A20204368656D447261773038313231303036343632440A2020352020352020302020302020302020302020302020302020302020303939392056323030300A20202020302E3431323520202020302E3633343820202020302E303030302053692020302020302020302020302020302020302020302020302020302020302020302020300A20202020302E363637342020202D302E3134393820202020302E303030302043202020302020302020302020302020302020302020302020302020302020302020302020300A20202020302E303030302020202D302E3633343820202020302E303030302043202020302020302020302020302020302020302020302020302020302020302020302020300A2020202D302E363637342020202D302E3134393820202020302E303030302043202020302020302020302020302020302020302020302020302020302020302020302020300A2020202D302E3431323520202020302E3633343820202020302E303030302043202020302020302020302020302020302020302020302020302020302020302020302020300A2020312020322020312020302020202020200A2020322020332020312020302020202020200A2020332020342020312020302020202020200A2020342020352020312020302020202020200A2020312020352020312020302020202020200A4D2020454E44
Contributor: YAMAMOTO M, DEP. CHEMISTRY, FAC. SCIENCE, NARA WOMEN'S UNIV.
InstType: EI
InstName: HITACHI RMU-6M
IoniMethod: _ENERGY 70 eV
IonPolarity: pos
Date: 2010-10-09 19:48:36+02:00
Num Peaks: 28
26 12 27 49 28 63 29 92 30 30 31 48 39 38 41 15 42 31 43 273 
44 44 45 38 53 51 54 22 55 77 56 84 57 122 58 999 59 93 60 42 
67 12 71 25 83 21 84 36 85 69 86 247 87 27 88 10 
