Name: ISOPROPYLDIMETHYLSILANE-D1
MW: 102
Formula: C5H14Si
Synonym: MassBank: JP011557
Synonym: ISOPROPYLDIMETHYLSILANE-D1
Structure: 310A31390A49534F50524F50594C44494D455448594C53494C414E452D44312E6D6F6C0A20204368656D447261773038313131303231353032440A2020372020362020302020302020302020302020302020302020302020303939392056323030300A20202020302E303030302020202D302E3230363320202020302E303030302053692020302020302020302020302020302020302020302020302020302020302020302020300A20202020302E303030302020202D312E3033313320202020302E303030302043202020302020302020302020302020302020302020302020302020302020302020302020300A20202020302E383235302020202D302E3230363320202020302E303030302043202020302020302020302020302020302020302020302020302020302020302020302020300A20202020302E3030303020202020302E3631383720202020302E303030302043202020302020302020302020302020302020302020302020302020302020302020302020300A20202020302E3731343520202020312E3033313320202020302E303030302043202020302020302020302020302020302020302020302020302020302020302020302020300A2020202D302E3731343520202020312E3033313320202020302E303030302043202020302020302020302020302020302020302020302020302020302020302020302020300A2020202D302E383235302020202D302E3230363320202020302E303030302048202020312020302020302020302020302020302020302020302020302020302020302020300A2020312020322020312020302020202020200A2020312020332020312020302020202020200A2020342020352020312020302020202020200A2020342020362020312020302020202020200A2020312020342020312020302020202020200A2020312020372020312020302020202020200A4D202049534F20203120202037202020320A4D2020454E44
Contributor: YAMAMOTO M, DEP. CHEMISTRY, FAC. SCIENCE, NARA WOMEN'S UNIV.
InstType: EI
InstName: HITACHI RMU-6M
IoniMethod: _ENERGY 20 eV
IonPolarity: pos
Date: 2010-10-09 19:48:36+02:00
Num Peaks: 16
31 17 43 17 45 17 46 25 57 15 58 330 59 192 60 999 61 78 62 36 
73 33 86 13 88 30 101 24 103 106 104 13 
