Name: EXO-6-CHLOROCAMPHENE
MW: 170
Formula: C10H15Cl
Synonym: MassBank: JP010695
Synonym: EXO-6-CHLOROCAMPHENE
Structure: 303933375F45584F2D362D43484C4F524F43414D5048454E452E6D6F6C0A20204368656D447261773130323031303139303632440A2031312031322020302020302020302020302020302020302020302020303939392056323030300A2020202D302E393133312020202D302E3338363720202020302E303030302043202020302020302020302020302020302020302020302020302020302020302020302020300A2020202D302E333434332020202D302E3935353520202020302E303030302043202020302020302020302020302020302020302020302020302020302020302020302020300A20202020302E343833312020202D312E3033373920202020302E303030302043202020302020302020302020302020302020302020302020302020302020302020302020300A20202020302E383232302020202D302E3238353720202020302E303030302043202020302020302020302020302020302020302020302020302020302020302020302020300A20202020302E3231303520202020302E3237303720202020302E303030302043202020302020302020302020302020302020302020302020302020302020302020302020300A2020202D302E3539323320202020302E3333373820202020302E303030302043202020302020302020302020302020302020302020302020302020302020302020302020300A2020202D302E353034302020202D302E3134313820202020302E303030302043202020302020302020302020302020302020302020302020302020302020302020302020300A2020202D312E3030343820202020312E3035323320202020302E303030302043202020302020302020302020302020302020302020302020302020302020302020302020300A2020202D312E343137392020202D312E3035323320202020302E303030302043202020302020302020302020302020302020302020302020302020302020302020302020300A2020202D312E3632393720202020302E3032373120202020302E303030302043202020302020302020302020302020302020302020302020302020302020302020302020300A20202020312E363239372020202D302E3131373720202020302E3030303020436C2020302020302020302020302020302020302020302020302020302020302020302020300A2020312020322020312020302020202020200A2020322020332020312020302020202020200A2020332020342020312020302020202020200A2020342020352020312020302020202020200A2020352020362020312020302020202020200A2020362020312020312020302020202020200A2020352020372020312020362020202020200A2020362020382020322020302020202020200A2020312020392020312020302020202020200A2020312031302020312020302020202020200A2020342031312020312020362020202020200A2020322020372020312020362020202020200A4D2020454E44
Contributor: EGUCHI S, FAC. OF SCIENCE, HIROSHIMA UNIV.
InstType: EI
InstName: HITACHI RMU-6L
IoniMethod: _ENERGY 70 eV
IonPolarity: pos
Date: 2010-10-09 19:48:36+02:00
Num Peaks: 69
41 450 42 50 43 110 44 4 50 50 51 190 52 80 53 19 54 30 55 120 
56 30 57 3 61 15 62 30 63 80 64 3 65 200 66 120 67 270 68 10 
69 120 70 20 75 50 76 3 77 470 78 100 79 390 80 9 81 60 82 40 
89 30 91 50 92 165 93 999 94 150 95 9 100 30 101 20 102 55 103 5 
104 40 105 170 106 60 107 49 108 170 109 30 113 40 114 2 115 45 116 25 
117 50 119 27 121 300 122 40 125 30 126 3 127 120 128 50 129 60 133 5 
134 100 135 370 136 70 155 24 156 40 157 90 170 90 171 4 172 80 
