Name: MassBank: JP010194
MW: 320
Formula: C20H20N2O2
Synonym: MassBank: JP010194
Synonym: 5-BENZYL-2-PARA-TOLYLPERHYDROPYRROLO(3,4-C)PYRROLE-1,3-DIONE
Structure: 352D42454E5A594C2D322D504152412D544F4C594C504552485944524F505952524F4C4F28332C342D4329505952524F4C452D312C332D44494F4E452E6D6F6C0A20204368656D447261773034323331303034323232440A2032342032372020302020302020302020302020302020302020302020303939392056323030300A2020202D312E3038373220202020302E3031363020202020302E30303030204E202020302020302020302020302020302020302020302020302020302020302020302020300A2020202D312E303031302020202D302E3830343520202020302E303030302043202020302020302020302020302020302020302020302020302020302020302020302020300A2020202D302E313934302020202D302E3937363020202020302E303030302043202020302020302020302020302020302020302020302020302020302020302020302020300A20202020302E323138352020202D302E3236313520202020302E303030302043202020302020302020302020302020302020302020302020302020302020302020302020300A2020202D302E3333333520202020302E3335313620202020302E303030302043202020302020302020302020302020302020302020302020302020302020302020302020300A20202020312E313131372020202D312E3235333520202020302E30303030204E202020302020302020302020302020302020302020302020302020302020302020302020300A20202020302E333538302020202D312E3538393120202020302E303030302043202020302020302020302020302020302020302020302020302020302020302020302020300A20202020312E303235352020202D302E3433333020202020302E303030302043202020302020302020302020302020302020302020302020302020302020302020302020300A2020202D312E363134312020202D312E3335363520202020302E30303030204F202020302020302020302020302020302020302020302020302020302020302020302020300A2020202D302E3136323020202020312E3135383620202020302E30303030204F202020302020302020302020302020302020302020302020302020302020302020302020300A2020202D312E3830313720202020302E3432383520202020302E303030302043202020302020302020302020302020302020302020302020302020302020302020302020300A2020202D322E3531363120202020302E3031363020202020302E303030302043202020302020302020302020302020302020302020302020302020302020302020302020300A2020202D332E3233303620202020312E3235333520202020302E303030302043202020302020302020302020302020302020302020302020302020302020302020302020300A2020202D312E3830313720202020312E3235333520202020302E303030302043202020302020302020302020302020302020302020302020302020302020302020302020300A2020202D332E3233303620202020302E3432383520202020302E303030302043202020302020302020302020302020302020302020302020302020302020302020302020300A2020202D322E3531363120202020312E3636363020202020302E303030302043202020302020302020302020302020302020302020302020302020302020302020302020300A2020202D332E3934353120202020312E3636363020202020302E303030302043202020302020302020302020302020302020302020302020302020302020302020302020300A20202020312E383236322020202D312E3636363020202020302E303030302043202020302020302020302020302020302020302020302020302020302020302020302020300A20202020322E353138312020202D312E3231363720202020302E303030302043202020302020302020302020302020302020302020302020302020302020302020302020300A20202020322E343734392020202D302E3339323820202020302E303030302043202020302020302020302020302020302020302020302020302020302020302020302020300A20202020332E3136363820202020302E3035363520202020302E303030302043202020302020302020302020302020302020302020302020302020302020302020302020300A20202020332E393031392020202D302E3331383020202020302E303030302043202020302020302020302020302020302020302020302020302020302020302020302020300A20202020332E393435312020202D312E3134313920202020302E303030302043202020302020302020302020302020302020302020302020302020302020302020302020300A20202020332E323533322020202D312E3539313220202020302E303030302043202020302020302020302020302020302020302020302020302020302020302020302020300A2020312020322020312020302020202020200A2020322020332020312020302020202020200A2020332020342020312020302020202020200A2020342020352020312020302020202020200A2020312020352020312020302020202020200A2020362020372020312020302020202020200A2020362020382020312020302020202020200A2020332020372020312020302020202020200A2020342020382020312020302020202020200A2020322020392020322020302020202020200A2020352031302020322020302020202020200A2031312031322020312020302020202020200A2031312031342020322020302020202020200A2031322031352020322020302020202020200A2031332031352020312020302020202020200A2031332031362020322020302020202020200A2031342031362020312020302020202020200A2031332031372020312020302020202020200A2020312031312020312020302020202020200A2031382031392020312020302020202020200A2031392032302020312020302020202020200A2032302032312020322020302020202020200A2032312032322020312020302020202020200A2032322032332020322020302020202020200A2032332032342020312020302020202020200A2031392032342020322020302020202020200A2020362031382020312020302020202020200A4D2020454E44
Contributor: KANEMASA S, INST. OF ADVANCED MATERIAL STUDY KYUSHU UNIV.
InstType: EI
InstName: JEOL JMS-01-SG-2
IoniMethod: _ENERGY 75 eV
IonPolarity: pos
Date: 2010-10-09 19:48:36+02:00
Num Peaks: 35
32 382 39 95 41 103 42 295 43 87 44 42 52 43 54 39 56 75 58 44 
65 126 67 65 68 159 77 62 78 43 91 999 92 279 104 63 105 40 106 47 
107 39 118 88 131 49 132 152 133 220 158 142 159 45 202 57 228 84 229 729 
230 151 243 228 319 252 320 800 321 183 
