Name: MassBank: JP010643
MW: 304
Formula: C20H32O2
Synonym: MassBank: JP010643
Synonym: (1S,2R,3E,7E,11E)-2,17-DIHYDROXYCEMBRA-3,7,11,15-TETRAENE
Structure: 2831532C32522C33452C37452C313145292D322C31372D4449485944524F585943454D4252412D332C372C31312C31352D5445545241454E452E6D6F6C0A20204368656D447261773130313930393134333032440A2032372032372020302020302020302020302020302020302020302020303939392056323030300A2020202D312E3539343620202020302E3737373320202020302E303030302043202020302020302020302020302020302020302020302020302020302020302020302020300A2020202D312E353934362020202D302E3034373720202020302E303030302043202020302020302020302020302020302020302020302020302020302020302020302020300A2020202D312E303131332020202D302E3633313120202020302E303030302043202020302020302020302020302020302020302020302020302020302020302020302020300A2020202D302E313836332020202D302E3633313120202020302E303030302043202020302020302020302020302020302020302020302020302020302020302020302020300A20202020302E333937312020202D302E3034373720202020302E303030302043202020302020302020302020302020302020302020302020302020302020302020302020300A20202020302E3339373120202020302E3737373320202020302E303030302043202020302020302020302020302020302020302020302020302020302020302020302020300A2020202D302E3138363320202020312E3336303720202020302E303030302043202020302020302020302020302020302020302020302020302020302020302020302020300A2020202D312E3031313320202020312E3336303720202020302E303030302043202020302020302020302020302020302020302020302020302020302020302020302020300A20202020302E393830342020202D302E3633313120202020302E303030302043202020302020302020302020302020302020302020302020302020302020302020302020300A20202020312E383035342020202D302E3633313120202020302E303030302043202020302020302020302020302020302020302020302020302020302020302020302020300A20202020322E333838382020202D302E3034373720202020302E303030302043202020302020302020302020302020302020302020302020302020302020302020302020300A20202020322E3338383820202020302E3737373320202020302E303030302043202020302020302020302020302020302020302020302020302020302020302020302020300A20202020312E3830353420202020312E3336303720202020302E303030302043202020302020302020302020302020302020302020302020302020302020302020302020300A20202020302E3938303420202020312E3336303720202020302E303030302043202020302020302020302020302020302020302020302020302020302020302020302020300A20202020302E3637343520202020322E3131363520202020302E303030302048202020302020302020302020302020302020302020302020302020302020302020302020300A20202020312E3539353920202020302E3135393320202020302E303030302048202020302020302020302020302020302020302020302020302020302020302020302020300A2020202D322E3335303520202020312E3038343820202020302E303030302048202020302020302020302020302020302020302020302020302020302020302020302020300A2020202D322E333838382020202D302E3236363420202020302E303030302048202020302020302020302020302020302020302020302020302020302020302020302020300A2020202D302E373935382020202D312E3433333620202020302E303030302043202020302020302020302020302020302020302020302020302020302020302020302020300A2020202D312E393935352020202D302E3736393920202020302E30303030204F202020302020302020302020302020302020302020302020302020302020302020302020300A2020202D312E343138312020202D312E3335353320202020302E303030302048202020302020302020302020302020302020302020302020302020302020302020302020300A2020202D312E333831312020202D322E3031313320202020302E303030302043202020302020302020302020302020302020302020302020302020302020302020302020300A2020202D302E333934312020202D322E3131363520202020302E303030302043202020302020302020302020302020302020302020302020302020302020302020302020300A2020202D302E393737342020202D312E3533333120202020302E30303030204F202020302020302020302020302020302020302020302020302020302020302020302020300A20202020302E363633352020202D312E3339323520202020302E303030302043202020302020302020302020302020302020302020302020302020302020302020302020300A20202020312E3539303820202020302E3536343220202020302E303030302043202020302020302020302020302020302020302020302020302020302020302020302020300A2020202D302E3539383820202020302E3634363720202020302E303030302043202020302020302020302020302020302020302020302020302020302020302020302020300A2020312020322020312020302020202020200A2020322020332020312020302020202020200A2020332020342020312020302020202020200A2020342020352020312020302020202020200A2020362020372020312020302020202020200A2020372020382020312020302020202020200A2020382020312020322020302020202020200A2020352020392020312020302020202020200A2020392031302020322020302020202020200A2031302031312020312020302020202020200A2031312031322020312020302020202020200A2031322031332020312020302020202020200A2031332031342020322020302020202020200A2031342020362020312020302020202020200A2031342031352020312020302020202020200A2031302031362020312020302020202020200A2020312031372020312020302020202020200A2020322031382020312020312020202020200A2020332031392020312020312020202020200A2020322032302020312020362020202020200A2020332032312020312020362020202020200A2031392032322020322020302020202020200A2031392032332020312020302020202020200A2032332032342020312020302020202020200A2020392032352020312020302020202020200A2031332032362020312020302020202020200A2020382032372020312020302020202020200A4D202053545920203120202031205355500A4D2020534C4220203120202031202020310A4D202053414C2020203120203220203233202032340A4D202053424C20202031202031202032330A4D2020534D5420202031204348324F480A4D2020534256202020312032332020202D362E3732323220202020362E333438300A4D202053545920203120202032205355500A4D2020534C4220203120202032202020320A4D202053414C20202032202031202032350A4D202053424C20202032202031202032350A4D2020534D5420202032204D650A4D2020534256202020322032352020202D372E3434303920202020362E323639350A4D202053545920203120202033205355500A4D2020534C4220203120202033202020330A4D202053414C20202033202031202032360A4D202053424C20202033202031202032360A4D2020534D5420202033204D650A4D2020534256202020332032362020202D372E3333383620202020362E323334340A4D202053545920203120202034205355500A4D2020534C4220203120202034202020340A4D202053414C20202034202031202032370A4D202053424C20202034202031202032370A4D2020534D5420202034204D650A4D2020534256202020342032372020202D362E3731313520202020362E333136390A4D2020454E44
Contributor: EGUCHI S, FAC. OF SCIENCE, HIROSHIMA UNIV.
InstType: EI
InstName: HITACHI RMU-6L
IoniMethod: _ENERGY 70 eV
IonPolarity: pos
Date: 2010-10-09 19:48:36+02:00
Num Peaks: 199
40 91 41 999 42 64 43 27 44 15 45 20 46 10 47 4 48 18 49 9 
51 41 52 3 53 439 54 58 55 929 56 12 57 102 58 12 59 20 60 1 
63 12 65 129 66 73 67 63 68 561 69 491 70 53 71 9 77 330 78 73 
79 560 80 15 81 194 83 284 84 737 85 11 87 18 89 15 91 560 92 19 
93 930 94 210 95 440 96 11 97 155 98 26 99 18 103 4 104 26 105 456 
106 175 107 56 108 237 109 404 110 76 111 7 112 18 113 6 115 53 116 3 
117 135 118 41 119 596 120 15 121 561 122 190 123 178 124 6 125 47 126 41 
127 67 128 4 129 73 130 29 131 167 132 11 133 292 134 330 135 807 136 17 
137 175 138 58 139 53 140 1 141 29 142 29 143 56 144 4 145 190 146 67 
147 233 148 12 149 187 150 182 151 94 152 4 153 23 154 9 155 23 156 2 
157 94 158 35 159 137 160 6 161 117 162 73 163 114 164 5 165 32 166 12 
167 12 168 1 169 23 170 15 171 47 172 2 173 91 174 32 175 190 176 8 
177 73 178 20 179 12 180 1 181 12 182 18 183 26 184 2 185 53 186 26 
187 102 188 4 189 102 190 32 191 29 192 2 193 12 195 6 196 6 197 3 
198 9 199 29 200 20 201 4 202 91 203 102 204 29 205 4 206 18 207 12 
211 18 212 1 213 29 214 9 215 41 216 2 217 29 218 23 219 15 220 1 
221 20 222 15 223 12 225 2 226 6 227 12 228 12 229 3 230 15 231 18 
232 9 240 1 241 9 242 6 243 26 244 2 245 6 253 29 254 12 255 5 
256 18 257 20 258 15 260 0 262 20 263 6 268 64 269 2 270 9 271 58 
272 15 273 5 274 12 286 404 287 89 288 6 289 15 304 20 305 6 
