Name: 1-(2-HYDROXY-3-METHOXYPHENYL)ETHANONE
MW: 166
Formula: C9H10O3
Synonym: MassBank: JP012049
Synonym: 1-(2-HYDROXY-3-METHOXYPHENYL)ETHANONE
Synonym: 2'-HYDROXY-3'-METHOXYACETOPHENONE
Structure: 312D28322D485944524F58592D332D4D4554484F58595048454E594C29455448414E4F4E452E6D6F6C0A20204368656D447261773131313730393136353832440A2031322031322020302020302020302020302020302020302020302020303939392056323030300A20202020302E3431323520202020312E3432383920202020302E303030302043202020302020302020302020302020302020302020302020302020302020302020302020300A20202020302E3030303020202020322E3134333420202020302E303030302043202020302020302020302020302020302020302020302020302020302020302020302020300A20202020302E3030303020202020302E3731343520202020302E303030302043202020302020302020302020302020302020302020302020302020302020302020302020300A20202020302E343132352020202D302E3030303020202020302E303030302043202020302020302020302020302020302020302020302020302020302020302020302020300A20202020302E303030302020202D302E3731343520202020302E303030302043202020302020302020302020302020302020302020302020302020302020302020302020300A2020202D302E383235302020202D302E3731343520202020302E303030302043202020302020302020302020302020302020302020302020302020302020302020302020300A2020202D312E3233373520202020302E3030303020202020302E303030302043202020302020302020302020302020302020302020302020302020302020302020302020300A2020202D302E3832353020202020302E3731343520202020302E303030302043202020302020302020302020302020302020302020302020302020302020302020302020300A20202020302E343132352020202D312E3432383920202020302E30303030204F202020302020302020302020302020302020302020302020302020302020302020302020300A20202020302E303030302020202D322E3134333420202020302E303030302043202020302020302020302020302020302020302020302020302020302020302020302020300A20202020312E323337352020202D302E3030303020202020302E30303030204F202020302020302020302020302020302020302020302020302020302020302020302020300A20202020312E3233373520202020312E3432383920202020302E30303030204F202020302020302020302020302020302020302020302020302020302020302020302020300A2020312020322020312020302020202020200A2020332020342020312020302020202020200A2020342020352020322020302020202020200A2020352020362020312020302020202020200A2020362020372020322020302020202020200A2020372020382020312020302020202020200A2020332020382020322020302020202020200A2020392031302020312020302020202020200A2020352020392020312020302020202020200A2020342031312020312020302020202020200A2020312020332020312020302020202020200A2020312031322020322020302020202020200A4D2020454E44
Contributor: SUMITA Y, KYOTO COLLEGE OF PHARMACY
InstType: EI
InstName: HITACHI M-80
IoniMethod: _ENERGY 20 eV
IonPolarity: pos
Date: 2010-10-09 19:48:36+02:00
Num Peaks: 41
39 18 41 29 43 176 51 19 52 56 53 18 55 14 65 67 66 18 67 58 
69 13 77 137 78 15 79 17 80 39 81 39 91 15 92 18 93 70 94 17 
95 21 105 94 106 10 107 18 108 189 109 41 120 13 121 23 122 13 123 46 
133 61 136 105 137 19 147 11 148 37 151 999 152 92 153 10 166 654 167 83 
168 8 
