Name: 1-METHYL-3-METHOXYCARBONYL-5-TRIMETHYLSILYL-2-PHENYLPYRROLE
MW: 287
Formula: C16H21NO2Si
Synonym: MassBank: JP011854
Synonym: 1-METHYL-3-METHOXYCARBONYL-5-TRIMETHYLSILYL-2-PHENYLPYRROLE
Structure: 312D4D455448594C2D332D4D4554484F5859434152424F4E594C2D352D5452494D455448594C53494C594C2D322D5048454E594C505952524F4C452E6D6F6C0A20204368656D447261773131313930393136333432440A2032312032322020302020302020302020302020302020302020302020303939392056323030300A2020202D302E3331353720202020302E3538363120202020302E30303030204E202020302020302020302020302020302020302020302020302020302020302020302020300A2020202D302E303630382020202D302E3139383520202020302E303030302043202020302020302020302020302020302020302020302020302020302020302020302020300A2020202D302E373238322020202D302E3638333520202020302E303030302043202020302020302020302020302020302020302020302020302020302020302020302020300A2020202D312E333935372020202D302E3139383520202020302E303030302043202020302020302020302020302020302020302020302020302020302020302020302020300A2020202D312E3134303720202020302E3538363120202020302E303030302043202020302020302020302020302020302020302020302020302020302020302020302020300A20202020302E373233382020202D302E3435333520202020302E303030302043202020302020302020302020302020302020302020302020302020302020302020302020300A20202020312E3333363920202020302E3039383620202020302E303030302043202020302020302020302020302020302020302020302020302020302020302020302020300A20202020322E313231362020202D302E3135363420202020302E303030302043202020302020302020302020302020302020302020302020302020302020302020302020300A20202020322E323933312020202D302E3936333420202020302E303030302043202020302020302020302020302020302020302020302020302020302020302020302020300A20202020312E363830302020202D312E3531353420202020302E303030302043202020302020302020302020302020302020302020302020302020302020302020302020300A20202020302E383935342020202D312E3236303420202020302E303030302043202020302020302020302020302020302020302020302020302020302020302020302020300A2020202D312E3632353620202020312E3235333520202020302E303030302053692020302020302020302020302020302020302020302020302020302020302020302020300A2020202D322E3239333120202020302E3736383620202020302E303030302043202020302020302020302020302020302020302020302020302020302020302020302020300A2020202D322E3131303620202020312E3932313020202020302E303030302043202020302020302020302020302020302020302020302020302020302020302020302020300A2020202D302E3935383220202020312E3733383420202020302E303030302043202020302020302020302020302020302020302020302020302020302020302020302020300A2020202D302E373238322020202D312E3530383520202020302E303030302043202020302020302020302020302020302020302020302020302020302020302020302020300A2020202D302E303133372020202D312E3932313020202020302E30303030204F202020302020302020302020302020302020302020302020302020302020302020302020300A2020202D312E343432372020202D312E3932313020202020302E30303030204F202020302020302020302020302020302020302020302020302020302020302020302020300A2020202D322E313537322020202D312E3530383520202020302E303030302043202020302020302020302020302020302020302020302020302020302020302020302020300A20202020302E3136393220202020312E3235333520202020302E303030302043202020302020302020302020302020302020302020302020302020302020302020302020300A2020202D322E313830332020202D302E3435333520202020302E303030302048202020302020302020302020302020302020302020302020302020302020302020302020300A2020312020322020312020302020202020200A2020322020332020322020302020202020200A2020332020342020312020302020202020200A2020342020352020322020302020202020200A2020312020352020312020302020202020200A2020362020372020312020302020202020200A2020372020382020322020302020202020200A2020382020392020312020302020202020200A2020392031302020322020302020202020200A2031302031312020312020302020202020200A2020362031312020322020302020202020200A2020322020362020312020302020202020200A2031322031332020312020302020202020200A2031322031342020312020302020202020200A2031322031352020312020302020202020200A2020352031322020312020302020202020200A2031362031372020322020302020202020200A2031382031392020312020302020202020200A2031362031382020312020302020202020200A2020332031362020312020302020202020200A2020312032302020312020302020202020200A2020342032312020312020302020202020200A4D2020454E44
Contributor: YOSHIKI O, FAC, TECHNOLOGY, OSAKA UNIV.
InstType: EI
InstName: Unknown
IoniMethod: _ENERGY 70 eV
IonPolarity: pos
Date: 2010-10-09 19:48:36+02:00
Num Peaks: 35
51 34 53 36 59 212 73 172 75 43 77 74 83 31 89 71 91 34 113 77 
114 81 115 35 118 80 120 97 121 97 127 43 128 67 129 70 154 44 167 32 
168 41 182 149 198 36 212 37 224 35 240 33 242 98 256 173 257 53 272 999 
273 233 274 65 287 680 288 153 289 42 
