Name: MassBank: JP011011
MW: 222
Formula: C11H10O5
Synonym: MassBank: JP011011
Synonym: 2,4-DIACETOXYTROPONE
Structure: 322C342D4449414345544F585954524F504F4E452E6D6F6C0A20204368656D447261773132323030393133343732440A2031362031362020302020302020302020302020302020302020302020303939392056323030300A20202020312E3235313620202020312E3831393020202020302E30303030204F202020302020302020302020302020302020302020302020302020302020302020302020300A20202020302E3933393120202020312E3034303320202020302E303030302043202020302020302020302020302020302020302020302020302020302020302020302020300A20202020312E3532323520202020302E3435373020202020302E303030302043202020302020302020302020302020302020302020302020302020302020302020302020300A20202020312E333838342020202D302E3336393520202020302E303030302043202020302020302020302020302020302020302020302020302020302020302020302020300A20202020302E363733392020202D302E3738323020202020302E303030302043202020302020302020302020302020302020302020302020302020302020302020302020300A2020202D302E313034372020202D302E3436393520202020302E303030302043202020302020302020302020302020302020302020302020302020302020302020302020300A2020202D302E3333373220202020302E3330373720202020302E303030302043202020302020302020302020302020302020302020302020302020302020302020302020300A20202020302E3132373520202020302E3938393420202020302E303030302043202020302020302020302020302020302020302020302020302020302020302020302020300A2020202D302E363838312020202D312E3035323920202020302E30303030204F202020302020302020302020302020302020302020302020302020302020302020302020300A2020202D302E353235392020202D312E3833353020202020302E303030302043202020302020302020302020302020302020302020302020302020302020302020302020300A20202020302E323831372020202D322E3035393620202020302E30303030204F202020302020302020302020302020302020302020302020302020302020302020302020300A2020202D312E313039332020202D322E3431383320202020302E303030302043202020302020302020302020302020302020302020302020302020302020302020302020300A2020202D302E3238353020202020312E3730333920202020302E30303030204F202020302020302020302020302020302020302020302020302020302020302020302020300A2020202D312E3131303020202020312E3730333920202020302E303030302043202020302020302020302020302020302020302020302020302020302020302020302020300A2020202D312E3532323520202020302E3938393420202020302E30303030204F202020302020302020302020302020302020302020302020302020302020302020302020300A2020202D312E3532323520202020322E3431383320202020302E303030302043202020302020302020302020302020302020302020302020302020302020302020302020300A2020312020322020322020302020202020200A2020322020332020312020302020202020200A2020332020342020322020302020202020200A2020342020352020312020302020202020200A2020352020362020322020302020202020200A2020362020372020312020302020202020200A2020372020382020322020302020202020200A2020322020382020312020302020202020200A2031302031312020322020302020202020200A2031302031322020312020302020202020200A2020392031302020312020302020202020200A2020362020392020312020302020202020200A2031342031352020322020302020202020200A2031342031362020312020302020202020200A2031332031342020312020302020202020200A2020382031332020312020302020202020200A4D2020454E44
Contributor: TAKESHITA H, INST. OF ADVANCED MATERIAL STUDY KYUSHU UNIV.
InstType: EI
InstName: JEOL JMS-01-SG-2
IoniMethod: _ENERGY 75 eV
IonPolarity: pos
Date: 2010-10-09 19:48:36+02:00
Num Peaks: 28
37 13 38 51 39 147 41 20 42 62 43 999 44 22 50 32 51 37 52 36 
53 66 55 12 62 21 63 58 64 28 65 20 68 11 69 57 82 52 83 31 
95 10 110 426 111 31 139 130 140 14 180 34 181 10 222 12 
