Name: DIMETHYLPHENYLSILANE(1-D)
MW: 136
Formula: C8H12Si
Synonym: MassBank: JP011608
Synonym: DIMETHYLPHENYLSILANE(1-D)
Structure: 44494D455448594C5048454E594C53494C414E4528312D44292E6D6F6C0A20204368656D447261773130313831303137323932440A2031302031302020302020302020302020302020302020302020302020303939392056323030300A20202020302E3832353020202020302E3030303020202020302E303030302053692020302020302020302020302020302020302020302020302020302020302020302020300A20202020302E3832353020202020302E3832353020202020302E303030302048202020312020302020302020302020302020302020302020302020302020302020302020300A20202020302E3030303020202020302E3030303020202020302E303030302043202020302020302020302020302020302020302020302020302020302020302020302020300A2020202D302E343132352020202D302E3731343520202020302E303030302043202020302020302020302020302020302020302020302020302020302020302020302020300A2020202D312E323337352020202D302E3731343520202020302E303030302043202020302020302020302020302020302020302020302020302020302020302020302020300A2020202D312E3635303020202020302E3030303020202020302E303030302043202020302020302020302020302020302020302020302020302020302020302020302020300A2020202D312E3233373520202020302E3731343520202020302E303030302043202020302020302020302020302020302020302020302020302020302020302020302020300A2020202D302E3431323520202020302E3731343520202020302E303030302043202020302020302020302020302020302020302020302020302020302020302020302020300A20202020312E3635303020202020302E3030303020202020302E303030302043202020302020302020302020302020302020302020302020302020302020302020302020300A20202020302E383235302020202D302E3832353020202020302E303030302043202020302020302020302020302020302020302020302020302020302020302020302020300A2020312020322020312020302020202020200A2020332020342020312020302020202020200A2020342020352020322020302020202020200A2020352020362020312020302020202020200A2020362020372020322020302020202020200A2020372020382020312020302020202020200A2020332020382020322020302020202020200A2020312020332020312020302020202020200A2020312020392020312020302020202020200A2020312031302020312020302020202020200A4D202049534F20203120202032202020320A4D2020454E44
Contributor: YAMAMOTO M, DEP. CHEMISTRY, FAC. SCIENCE, NARA WOMEN'S UNIV.
InstType: EI
InstName: HITACHI RMU-6M
IoniMethod: _ENERGY 70 eV
IonPolarity: pos
Date: 2010-10-09 19:48:36+02:00
Num Peaks: 60
27 14 28 17 29 41 31 21 32 14 39 28 42 17 43 299 44 79 45 17 
46 10 50 28 51 62 52 14 53 155 54 31 55 33 56 14 57 10 58 619 
59 55 60 52 61 21 63 10 65 17 66 26 67 38 68 24 69 29 70 21 
74 10 77 21 78 12 79 50 80 17 81 14 82 12 91 21 92 24 93 35 
94 17 95 21 96 28 103 14 105 113 106 72 107 31 108 19 117 10 119 24 
120 45 121 21 122 999 123 134 124 52 135 103 136 90 137 381 138 62 139 19 
