Name: MassBank: JP012017
MW: 174
Formula: C8H22Si2
Synonym: MassBank: JP012017
Synonym: 1,1,2,2-TETRAETHYLDISILANE (1,2-D2)
Structure: 312C312C322C322D5445545241455448594C444953494C414E452028312C322D4432292E6D6F6C0A20204368656D447261773130323330393031303932440A2031322031312020302020302020302020302020302020302020302020303939392056323030300A20202020302E343132352020202D302E3030303020202020302E303030302053692020302020302020302020302020302020302020302020302020302020302020302020300A2020202D302E343132352020202D302E3030303020202020302E303030302053692020302020302020302020302020302020302020302020302020302020302020302020300A2020202D302E3431323520202020302E3832353020202020302E303030302048202020312020302020302020302020302020302020302020302020302020302020302020300A20202020302E343132352020202D302E3832353020202020302E303030302048202020312020302020302020302020302020302020302020302020302020302020302020300A2020202D302E343132352020202D302E3832353020202020302E303030302043202020302020302020302020302020302020302020302020302020302020302020302020300A2020202D312E313237302020202D312E3233373520202020302E303030302043202020302020302020302020302020302020302020302020302020302020302020302020300A2020202D312E323337352020202D302E3030303020202020302E303030302043202020302020302020302020302020302020302020302020302020302020302020302020300A20202020302E3431323520202020302E3832353020202020302E303030302043202020302020302020302020302020302020302020302020302020302020302020302020300A20202020312E3132373020202020312E3233373520202020302E303030302043202020302020302020302020302020302020302020302020302020302020302020302020300A20202020312E323337352020202D302E3030303020202020302E303030302043202020302020302020302020302020302020302020302020302020302020302020302020300A20202020312E363530302020202D302E3731343520202020302E303030302043202020302020302020302020302020302020302020302020302020302020302020302020300A2020202D312E3635303020202020302E3731343520202020302E303030302043202020302020302020302020302020302020302020302020302020302020302020302020300A2020312020322020312020302020202020200A2020322020332020312020302020202020200A2020312020342020312020302020202020200A2020352020362020312020302020202020200A2020322020352020312020302020202020200A2020322020372020312020302020202020200A2020382020392020312020302020202020200A2020312020382020312020302020202020200A2031302031312020312020302020202020200A2020312031302020312020302020202020200A2020372031322020312020302020202020200A4D202049534F202032202020332020203220202034202020320A4D2020454E44
Contributor: YAMAMOTO M, DEP. CHEMISTRY, FAC. SCIENCE, NARA WOMEN'S UNIV.
InstType: EI
InstName: HITACHI RMU-6M
IoniMethod: _ENERGY 70 eV
IonPolarity: pos
Date: 2010-10-09 19:48:36+02:00
Num Peaks: 61
27 38 28 48 29 120 30 19 31 169 32 125 33 15 42 10 43 133 44 73 
45 55 46 44 47 10 53 26 55 79 56 70 57 220 58 821 59 476 60 643 
61 79 62 99 63 51 69 24 70 14 71 15 72 17 73 14 74 14 75 17 
76 10 77 12 81 12 83 14 84 19 85 34 86 999 87 429 88 774 89 162 
90 262 91 304 92 48 93 19 105 15 114 34 115 181 116 24 117 89 118 109 
119 333 120 51 121 24 145 31 146 14 147 250 148 48 149 17 176 137 177 24 
178 12 
