Name: MassBank: JP010996
MW: 302
Formula: C17H18O5
Synonym: MassBank: JP010996
Synonym: 2-(2,5-DIMETHOXYBENZYLOXY)-5-METHOXYTROPONE
Structure: 322D28322C352D44494D4554484F585942454E5A594C4F5859292D352D4D4554484F585954524F504F4E452E6D6F6C0A20204368656D447261773132323130393130343432440A2032322032332020302020302020302020302020302020302020302020303939392056323030300A20202020302E3439363220202020312E3033313120202020302E30303030204F202020302020302020302020302020302020302020302020302020302020302020302020300A20202020312E3031303620202020302E3338363120202020302E303030302043202020302020302020302020302020302020302020302020302020302020302020302020300A20202020312E3831343920202020302E3536393620202020302E303030302043202020302020302020302020302020302020302020302020302020302020302020302020300A20202020322E3435393920202020302E3035353320202020302E303030302043202020302020302020302020302020302020302020302020302020302020302020302020300A20202020322E343539392020202D302E3736393720202020302E303030302043202020302020302020302020302020302020302020302020302020302020302020302020300A20202020312E383134392020202D312E3238343120202020302E303030302043202020302020302020302020302020302020302020302020302020302020302020302020300A20202020312E303130362020202D312E3130303520202020302E303030302043202020302020302020302020302020302020302020302020302020302020302020302020300A20202020302E363532362020202D302E3335373220202020302E303030302043202020302020302020302020302020302020302020302020302020302020302020302020300A20202020332E323033322020202D312E3132373720202020302E30303030204F202020302020302020302020302020302020302020302020302020302020302020302020300A20202020332E383834392020202D302E3636333020202020302E303030302043202020302020302020302020302020302020302020302020302020302020302020302020300A2020202D302E313732342020202D302E3335373220202020302E30303030204F202020302020302020302020302020302020302020302020302020302020302020302020300A2020202D302E3538343920202020302E3335373220202020302E303030302043202020302020302020302020302020302020302020302020302020302020302020302020300A2020202D312E3430393920202020302E3335373220202020302E303030302043202020302020302020302020302020302020302020302020302020302020302020302020300A2020202D312E383232342020202D302E3335373220202020302E303030302043202020302020302020302020302020302020302020302020302020302020302020302020300A2020202D322E363437342020202D302E3335373220202020302E303030302043202020302020302020302020302020302020302020302020302020302020302020302020300A2020202D332E3035393920202020302E3335373220202020302E303030302043202020302020302020302020302020302020302020302020302020302020302020302020300A2020202D322E3634373420202020312E3037313720202020302E303030302043202020302020302020302020302020302020302020302020302020302020302020302020300A2020202D312E3832323420202020312E3037313720202020302E303030302043202020302020302020302020302020302020302020302020302020302020302020302020300A2020202D332E3035393920202020312E3738363220202020302E30303030204F202020302020302020302020302020302020302020302020302020302020302020302020300A2020202D332E3838343920202020312E3738363220202020302E303030302043202020302020302020302020302020302020302020302020302020302020302020302020300A2020202D312E343039392020202D312E3037313720202020302E30303030204F202020302020302020302020302020302020302020302020302020302020302020302020300A2020202D312E383232342020202D312E3738363220202020302E303030302043202020302020302020302020302020302020302020302020302020302020302020302020300A2020312020322020322020302020202020200A2020322020332020312020302020202020200A2020332020342020322020302020202020200A2020342020352020312020302020202020200A2020352020362020322020302020202020200A2020362020372020312020302020202020200A2020372020382020322020302020202020200A2020322020382020312020302020202020200A2020392031302020312020302020202020200A2020352020392020312020302020202020200A2031322031332020312020302020202020200A2031332031342020312020302020202020200A2031342031352020322020302020202020200A2031352031362020312020302020202020200A2031362031372020322020302020202020200A2031372031382020312020302020202020200A2031332031382020322020302020202020200A2031312031322020312020302020202020200A2031392032302020312020302020202020200A2031372031392020312020302020202020200A2032312032322020312020302020202020200A2031342032312020312020302020202020200A2020382031312020312020302020202020200A4D2020454E44
Contributor: TAKESHITA H, INST. OF ADVANCED MATERIAL STUDY KYUSHU UNIV.
InstType: EI
InstName: JEOL JMS-01-SG-2
IoniMethod: _ENERGY 75 eV
IonPolarity: pos
Date: 2010-10-09 19:48:36+02:00
Num Peaks: 47
38 216 40 261 42 184 51 135 52 140 53 107 54 98 55 230 56 520 61 132 
63 103 64 68 65 302 67 78 70 93 77 282 78 252 79 113 80 90 81 83 
83 78 91 324 95 150 98 95 99 183 108 185 109 155 119 14 120 11 121 431 
122 35 123 150 124 44 135 36 136 38 137 27 142 14 143 58 151 999 152 132 
153 18 165 16 169 12 224 56 225 13 302 80 303 22 
