Name: 7-METHYL-6-TRIMETHYLSILYLMETHYL-7-OCTEN-3-ONE
MW: 226
Formula: C13H26OSi
Synonym: MassBank: JP012097
Synonym: 7-METHYL-6-TRIMETHYLSILYLMETHYL-7-OCTEN-3-ONE
Structure: 372D4D455448594C2D362D5452494D455448594C53494C594C4D455448594C2D372D4F4354454E2D332D4F4E452E6D6F6C0A20204368656D447261773035323431303135303532440A2031352031342020302020302020302020302020302020302020302020303939392056323030300A20202020322E3236383820202020302E3335373220202020302E303030302043202020302020302020302020302020302020302020302020302020302020302020302020300A20202020312E3434333820202020302E3335373220202020302E303030302043202020302020302020302020302020302020302020302020302020302020302020302020300A20202020312E303331322020202D302E3335373220202020302E303030302043202020302020302020302020302020302020302020302020302020302020302020302020300A20202020302E323036332020202D302E3335373220202020302E303030302043202020302020302020302020302020302020302020302020302020302020302020302020300A2020202D302E3230363320202020302E3335373220202020302E303030302043202020302020302020302020302020302020302020302020302020302020302020302020300A2020202D312E3033313320202020302E3335373220202020302E303030302043202020302020302020302020302020302020302020302020302020302020302020302020300A2020202D312E3434333820202020312E3037313720202020302E303030302043202020302020302020302020302020302020302020302020302020302020302020302020300A2020202D322E3236383820202020312E3037313720202020302E303030302043202020302020302020302020302020302020302020302020302020302020302020302020300A20202020312E343433372020202D312E3037313720202020302E30303030204F202020302020302020302020302020302020302020302020302020302020302020302020300A2020202D312E343433382020202D302E3335373220202020302E303030302043202020302020302020302020302020302020302020302020302020302020302020302020300A2020202D312E303331332020202D312E3037313720202020302E303030302053692020302020302020302020302020302020302020302020302020302020302020302020300A2020202D302E333136382020202D302E3635393220202020302E303030302043202020302020302020302020302020302020302020302020302020302020302020302020300A2020202D302E363138382020202D312E3738363220202020302E303030302043202020302020302020302020302020302020302020302020302020302020302020302020300A2020202D312E373435372020202D312E3438343220202020302E303030302043202020302020302020302020302020302020302020302020302020302020302020302020300A2020202D312E3033313320202020312E3738363220202020302E303030302043202020302020302020302020302020302020302020302020302020302020302020302020300A2020312020322020312020302020202020200A2020322020332020312020302020202020200A2020332020342020312020302020202020200A2020342020352020312020302020202020200A2020352020362020312020302020202020200A2020362020372020312020302020202020200A2020372020382020322020302020202020200A2020332020392020322020302020202020200A2031312031322020312020312020202020200A2031312031332020312020302020202020200A2031312031342020312020312020202020200A2031302031312020312020302020202020200A2020362031302020312020302020202020200A2020372031352020312020302020202020200A4D2020454E44
Contributor: HISAHIRO HAGIWARA, INSTITUTE FOR CHEMICAL REACTION SCIENCE TOHOKU UNIV.
InstType: EI
InstName: JEOL JMS-DX-300
IoniMethod: _ENERGY 70 eV
IonPolarity: pos
Date: 2010-10-09 19:48:36+02:00
Num Peaks: 59
39 17 41 33 43 23 44 17 45 116 47 13 53 20 55 27 57 59 59 84 
61 21 67 22 68 13 71 12 72 24 73 999 74 108 75 387 76 30 77 22 
79 18 81 13 83 36 85 33 91 12 93 18 95 14 97 12 99 24 107 152 
108 19 109 10 111 26 112 27 113 13 117 12 121 35 127 18 129 75 130 10 
135 20 136 65 137 12 139 23 141 83 142 17 143 38 144 132 145 19 154 48 
155 18 157 24 158 26 169 13 183 23 197 52 198 11 211 21 226 5 
