Name: MassBank: JP011723
MW: 292
Formula: C20H24Si
Synonym: MassBank: JP011723
Synonym: 3,4-DIMETHYL-1,1-DI(PARA-TOLYL)-1-SILACYCLOPENT-3-ENE
Structure: 332C342D44494D455448594C2D312C312D444928504152412D544F4C594C292D312D53494C414359434C4F50454E542D332D454E452E6D6F6C0A20204368656D447261773032323131303232343332440A2032312032332020302020302020302020302020302020302020302020303939392056323030300A20202020302E363539352020202D302E3633303020202020302E303030302053692020302020302020302020302020302020302020302020302020302020302020302020300A20202020302E343837392020202D312E3433373020202020302E303030302043202020302020302020302020302020302020302020302020302020302020302020302020300A20202020312E323032342020202D312E3834393520202020302E303030302043202020302020302020302020302020302020302020302020302020302020302020302020300A20202020312E383135352020202D312E3239373520202020302E303030302043202020302020302020302020302020302020302020302020302020302020302020302020300A20202020312E343739392020202D302E3534333820202020302E303030302043202020302020302020302020302020302020302020302020302020302020302020302020300A20202020302E3635393520202020302E3139353020202020302E303030302043202020302020302020302020302020302020302020302020302020302020302020302020300A20202020312E3337333920202020302E3630373520202020302E303030302043202020302020302020302020302020302020302020302020302020302020302020302020300A20202020302E3635393520202020312E3834353020202020302E303030302043202020302020302020302020302020302020302020302020302020302020302020302020300A2020202D302E3035353020202020302E3630373520202020302E303030302043202020302020302020302020302020302020302020302020302020302020302020302020300A20202020312E3337333920202020312E3433323520202020302E303030302043202020302020302020302020302020302020302020302020302020302020302020302020300A2020202D302E3035353020202020312E3433323520202020302E303030302043202020302020302020302020302020302020302020302020302020302020302020302020300A20202020302E3635393520202020322E3637303020202020302E303030302043202020302020302020302020302020302020302020302020302020302020302020302020300A2020202D302E313631302020202D302E3534333820202020302E303030302043202020302020302020302020302020302020302020302020302020302020302020302020300A2020202D302E3439363620202020302E3230393920202020302E303030302043202020302020302020302020302020302020302020302020302020302020302020302020300A2020202D312E383032302020202D302E3337313320202020302E303030302043202020302020302020302020302020302020302020302020302020302020302020302020300A2020202D302E363435392020202D312E3231313220202020302E303030302043202020302020302020302020302020302020302020302020302020302020302020302020300A2020202D312E3331373120202020302E3239363120202020302E303030302043202020302020302020302020302020302020302020302020302020302020302020302020300A2020202D312E343636342020202D312E3132353020202020302E303030302043202020302020302020302020302020302020302020302020302020302020302020302020300A2020202D322E363232352020202D302E3238353120202020302E303030302043202020302020302020302020302020302020302020302020302020302020302020302020300A20202020322E363232352020202D312E3436393020202020302E303030302043202020302020302020302020302020302020302020302020302020302020302020302020300A20202020312E323838362020202D322E3637303020202020302E303030302043202020302020302020302020302020302020302020302020302020302020302020302020300A2020312020322020312020302020202020200A2020322020332020312020302020202020200A2020332020342020322020302020202020200A2020342020352020312020302020202020200A2020312020352020312020302020202020200A2020362020372020312020302020202020200A2020362020392020322020302020202020200A2020372031302020322020302020202020200A2020382031302020312020302020202020200A2020382031312020322020302020202020200A2020392031312020312020302020202020200A2020382031322020312020302020202020200A2020312020362020312020302020202020200A2031332031342020312020302020202020200A2031332031362020322020302020202020200A2031342031372020322020302020202020200A2031352031372020312020302020202020200A2031352031382020322020302020202020200A2031362031382020312020302020202020200A2031352031392020312020302020202020200A2020312031332020312020302020202020200A2020342032302020312020302020202020200A2020332032312020312020302020202020200A4D2020454E44
Contributor: FAC. TECHNOLOGY, HIROSHIMA UNIV.
InstType: EI
InstName: SHIMADZU QP-1000
IoniMethod: _ENERGY 70 eV
IonPolarity: pos
Date: 2010-10-09 19:48:36+02:00
Num Peaks: 85
51 32 52 32 53 168 55 63 56 11 57 11 58 11 62 21 63 21 65 63 
66 116 67 116 68 32 69 21 76 21 77 32 78 32 79 32 80 11 81 21 
82 11 89 11 91 116 93 189 94 32 95 21 103 11 104 32 105 63 107 95 
108 116 109 63 11 32 115 11 117 63 119 326 120 42 121 32 128 21 129 11 
131 11 135 32 141 11 142 32 143 32 145 32 155 32 156 32 157 32 158 32 
159 63 160 21 165 53 166 11 167 21 169 11 171 11 178 21 179 63 180 21 
181 32 182 11 183 21 185 221 186 32 187 32 193 32 195 179 196 32 197 11 
200 999 201 242 202 53 205 11 207 42 208 63 209 221 210 137 211 126 212 21 
235 21 249 11 292 411 293 116 294 21 
