Name: TOLCHLOPHOS-METHYL
MW: 299
Formula: C9H11Cl2O3PS
Synonym: MassBank: JP010738
Synonym: TOLCHLOPHOS-METHYL
Synonym: O-2,6-DICHLORO-PARA-TOLYL O,O-DIMETHYL PHOSPHOROTHIOATE
Structure: 4F2D322C362D444943484C4F524F2D504152412D544F4C594C204F2C4F2D44494D455448594C2050484F5350484F524F5448494F4154452E6D6F6C0A20204368656D447261773038313231303033303332440A2031362031362020302020302020302020302020302020302020302020303939392056323030300A20202020312E3037313720202020302E3030303020202020302E303030302050202020302020302020302020302020302020302020302020302020302020302020302020300A20202020312E373836322020202D302E3431323520202020302E30303030204F202020302020302020302020302020302020302020302020302020302020302020302020300A20202020302E3335373220202020302E3431323520202020302E30303030204F202020302020302020302020302020302020302020302020302020302020302020302020300A20202020312E3438343220202020302E3731343520202020302E30303030204F202020302020302020302020302020302020302020302020302020302020302020302020300A20202020302E363539322020202D302E3731343520202020302E303030302053202020302020302020302020302020302020302020302020302020302020302020302020300A20202020322E3330393220202020302E3731343520202020302E303030302043202020302020302020302020302020302020302020302020302020302020302020302020300A20202020322E3530303620202020302E3030303020202020302E303030302043202020302020302020302020302020302020302020302020302020302020302020302020300A2020202D302E3335373220202020302E3030303020202020302E303030302043202020302020302020302020302020302020302020302020302020302020302020302020300A2020202D302E333537322020202D302E3832353020202020302E303030302043202020302020302020302020302020302020302020302020302020302020302020302020300A2020202D312E373836322020202D302E3832353020202020302E303030302043202020302020302020302020302020302020302020302020302020302020302020302020300A2020202D312E3037313720202020302E3431323520202020302E303030302043202020302020302020302020302020302020302020302020302020302020302020302020300A2020202D312E303731372020202D312E3233373520202020302E303030302043202020302020302020302020302020302020302020302020302020302020302020302020300A2020202D312E3738363220202020302E3030303020202020302E303030302043202020302020302020302020302020302020302020302020302020302020302020302020300A2020202D322E353030362020202D312E3233373520202020302E303030302043202020302020302020302020302020302020302020302020302020302020302020302020300A2020202D312E3037313720202020312E3233373520202020302E3030303020436C2020302020302020302020302020302020302020302020302020302020302020302020300A20202020302E333537322020202D312E3233373520202020302E3030303020436C2020302020302020302020302020302020302020302020302020302020302020302020300A2020312020322020312020302020202020200A2020312020332020312020302020202020200A2020312020342020312020302020202020200A2020312020352020322020302020202020200A2020342020362020312020302020202020200A2020322020372020312020302020202020200A2020382020392020312020302020202020200A2020382031312020322020302020202020200A2020392031322020322020302020202020200A2031302031322020312020302020202020200A2031302031332020322020302020202020200A2031312031332020312020302020202020200A2031302031342020312020302020202020200A2031312031352020312020302020202020200A2020392031362020312020302020202020200A2020332020382020312020302020202020200A4D2020454E44
Contributor: HASHIMOTO K, KYOTO COLLEGE OF PHARMACY
InstType: EI
InstName: HITACHI M-80
IoniMethod: _ENERGY 20 eV
IonPolarity: pos
Date: 2010-10-09 19:48:36+02:00
Num Peaks: 14
47 17 79 38 93 74 109 40 125 194 173 15 250 61 252 24 265 999 266 111 
267 378 268 40 269 23 300 2 
