Name: MassBank: JP010218
MW: 239
Formula: C15H13NO2
Synonym: MassBank: JP010218
Synonym: 1,3,3A,4-TETRAHYDRO-2-(PARA-TOLYL)-2H-ISOINDOLE-1,3-DIONE
Structure: 312C332C33412C342D5445545241485944524F2D322D28504152412D544F4C594C292D32482D49534F494E444F4C452D312C332D44494F4E452E6D6F6C0A20204368656D447261773131313130393137323032440A2032312032332020302020302020302020302020302020302020302020303939392056323030300A2020202D302E3432383420202020302E3536383520202020302E303030302043202020302020302020302020302020302020302020302020302020302020302020302020300A20202020302E303536352020202D302E3039393020202020302E30303030204E202020302020302020302020302020302020302020302020302020302020302020302020300A2020202D302E343238342020202D302E3736363420202020302E303030302043202020302020302020302020302020302020302020302020302020302020302020302020300A2020202D312E323133312020202D302E3531313520202020302E303030302043202020302020302020302020302020302020302020302020302020302020302020302020300A2020202D312E393237352020202D302E3932343020202020302E303030302043202020302020302020302020302020302020302020302020302020302020302020302020300A2020202D322E363432302020202D302E3531313520202020302E303030302043202020302020302020302020302020302020302020302020302020302020302020302020300A2020202D322E3634323020202020302E3331333520202020302E303030302043202020302020302020302020302020302020302020302020302020302020302020302020300A2020202D312E3932373520202020302E3732363020202020302E303030302043202020302020302020302020302020302020302020302020302020302020302020302020300A2020202D312E3231333120202020302E3331333520202020302E303030302043202020302020302020302020302020302020302020302020302020302020302020302020300A2020202D302E3137333520202020312E3335333120202020302E30303030204F202020302020302020302020302020302020302020302020302020302020302020302020300A2020202D302E313733352020202D312E3535313020202020302E30303030204F202020302020302020302020302020302020302020302020302020302020302020302020300A20202020302E383831352020202D302E3039393020202020302E303030302043202020302020302020302020302020302020302020302020302020302020302020302020300A20202020312E3239343020202020302E3631353520202020302E303030302043202020302020302020302020302020302020302020302020302020302020302020302020300A20202020322E353331352020202D302E3039393020202020302E303030302043202020302020302020302020302020302020302020302020302020302020302020302020300A20202020312E323934302020202D302E3831333420202020302E303030302043202020302020302020302020302020302020302020302020302020302020302020302020300A20202020322E3131393020202020302E3631353520202020302E303030302043202020302020302020302020302020302020302020302020302020302020302020302020300A20202020322E313139302020202D302E3831333420202020302E303030302043202020302020302020302020302020302020302020302020302020302020302020302020300A20202020332E333536352020202D302E3039393020202020302E303030302043202020302020302020302020302020302020302020302020302020302020302020302020300A2020202D312E3932373520202020312E3535313020202020302E303030302048202020302020302020302020302020302020302020302020302020302020302020302020300A2020202D332E3335363520202020302E3732363020202020302E303030302048202020302020302020302020302020302020302020302020302020302020302020302020300A2020202D332E333536352020202D302E3932343020202020302E303030302048202020302020302020302020302020302020302020302020302020302020302020302020300A2020312020322020312020302020202020200A2020322020332020312020302020202020200A2020332020342020312020302020202020200A2020342020352020312020302020202020200A2020352020362020312020302020202020200A2020362020372020322020302020202020200A2020372020382020312020302020202020200A2020382020392020322020302020202020200A2020312020392020312020302020202020200A2020342020392020312020302020202020200A2020312031302020322020302020202020200A2020332031312020322020302020202020200A2031322031332020312020302020202020200A2031322031352020322020302020202020200A2031332031362020322020302020202020200A2031342031362020312020302020202020200A2031342031372020322020302020202020200A2031352031372020312020302020202020200A2031342031382020312020302020202020200A2020322031322020312020302020202020200A2020382031392020312020302020202020200A2020372032302020312020302020202020200A2020362032312020312020302020202020200A4D2020454E44
Contributor: KANEMASA S, INST. OF ADVANCED MATERIAL STUDY KYUSHU UNIV.
InstType: EI
InstName: JEOL JMS-01-SG-2
IoniMethod: _ENERGY 75 eV
IonPolarity: pos
Date: 2010-10-09 19:48:36+02:00
Num Peaks: 44
25 196 29 34 38 33 39 165 41 73 43 76 50 191 51 351 52 305 53 73 
55 54 57 47 63 119 65 114 67 36 74 30 75 66 76 165 77 740 78 999 
79 119 80 37 83 32 89 33 90 41 91 152 102 33 104 193 105 953 106 774 
107 80 108 20 122 23 130 21 132 218 133 158 134 22 144 23 149 26 193 71 
194 33 237 48 239 194 240 21 
