Name: MassBank: JP011076
CAS: 2435-53-2
MW: 243
Formula: C6Cl4O2
Synonym: MassBank: JP011076
Synonym: TETRACHLORO-1,2-BENZOQUINONE
Synonym: ORTHO-CHLORANIL
Structure: 544554524143484C4F524F2D312C322D42454E5A4F5155494E4F4E452E6D6F6C0A20204368656D447261773038313231303037313432440A2031322031322020302020302020302020302020302020302020302020303939392056323030300A2020202D302E383235302020202D302E3030303020202020302E303030302043202020302020302020302020302020302020302020302020302020302020302020302020300A2020202D302E3431323520202020302E3731343520202020302E303030302043202020302020302020302020302020302020302020302020302020302020302020302020300A20202020302E3431323520202020302E3731343520202020302E303030302043202020302020302020302020302020302020302020302020302020302020302020302020300A20202020302E383235302020202D302E3030303020202020302E303030302043202020302020302020302020302020302020302020302020302020302020302020302020300A20202020302E343132352020202D302E3731343520202020302E303030302043202020302020302020302020302020302020302020302020302020302020302020302020300A2020202D302E343132352020202D302E3731343520202020302E303030302043202020302020302020302020302020302020302020302020302020302020302020302020300A2020202D302E3832353020202020312E3432383920202020302E30303030204F202020302020302020302020302020302020302020302020302020302020302020302020300A2020202D312E363530302020202D302E3030303020202020302E30303030204F202020302020302020302020302020302020302020302020302020302020302020302020300A20202020302E3832353020202020312E3432383920202020302E3030303020436C2020302020302020302020302020302020302020302020302020302020302020302020300A20202020312E363530302020202D302E3030303020202020302E3030303020436C2020302020302020302020302020302020302020302020302020302020302020302020300A20202020302E383235302020202D312E3432383920202020302E3030303020436C2020302020302020302020302020302020302020302020302020302020302020302020300A2020202D302E383235302020202D312E3432383920202020302E3030303020436C2020302020302020302020302020302020302020302020302020302020302020302020300A2020312020322020312020302020202020200A2020322020332020312020302020202020200A2020332020342020322020302020202020200A2020342020352020312020302020202020200A2020352020362020322020302020202020200A2020312020362020312020302020202020200A2020322020372020322020302020202020200A2020312020382020322020302020202020200A2020332020392020312020302020202020200A2020342031302020312020302020202020200A2020352031312020312020302020202020200A2020362031322020312020302020202020200A4D2020454E44
Contributor: YAMAMOTO M, DEP. CHEMISTRY, FAC. SCIENCE, NARA WOMEN'S UNIV.
InstType: EI
InstName: HITACHI M-80
IoniMethod: _ENERGY 70 eV
IonPolarity: pos
Date: 2010-10-09 19:48:36+02:00
Num Peaks: 75
24 18 35 65 36 33 37 20 47 125 48 31 49 41 52 45 59 80 60 22 
61 29 63 43 65 14 71 47 73 15 83 86 85 27 87 999 88 33 89 320 
90 10 95 36 96 162 97 12 98 26 106 18 108 11 111 39 113 13 118 199 
120 134 122 96 124 48 130 14 153 127 155 123 157 48 159 11 165 17 167 16 
181 195 182 11 183 188 184 11 185 62 188 237 189 11 190 307 191 14 192 150 
194 31 209 425 210 29 211 407 212 30 213 133 214 12 215 15 216 250 217 14 
218 313 219 17 220 152 222 33 235 17 237 28 238 11 239 18 244 603 245 42 
246 789 247 54 248 385 249 27 250 85 
