Name: MassBank: JP010320
MW: 133
Formula: C4H15NSi2
Synonym: MassBank: JP010320
Synonym: 1,1,3,3-TETRAMETHYLDISILAZANE
Structure: 310A31380A312C312C332C332D54455452414D455448594C444953494C415A414E452E6D6F6C0A20204368656D447261773130323330393032303232440A2020372020362020302020302020302020302020302020302020302020303939392056323030300A20202020302E373134352020202D302E3230363220202020302E303030302053692020302020302020302020302020302020302020302020302020302020302020302020300A2020202D302E303030302020202D302E3631383820202020302E30303030204E202020302020302020302020302020302020302020302020302020302020302020302020300A2020202D302E373134352020202D302E3230363220202020302E303030302053692020302020302020302020302020302020302020302020302020302020302020302020300A2020202D312E343238392020202D302E3631383820202020302E303030302043202020302020302020302020302020302020302020302020302020302020302020302020300A2020202D302E3731343520202020302E3631383820202020302E303030302043202020302020302020302020302020302020302020302020302020302020302020302020300A20202020302E3731343520202020302E3631383820202020302E303030302043202020302020302020302020302020302020302020302020302020302020302020302020300A20202020312E343238392020202D302E3631383820202020302E303030302043202020302020302020302020302020302020302020302020302020302020302020302020300A2020312020322020312020302020202020200A2020322020332020312020302020202020200A2020332020342020312020302020202020200A2020332020352020312020302020202020200A2020312020362020312020302020202020200A2020312020372020312020302020202020200A4D2020454E44
Contributor: TAJIMA S, GUNMA COLLEGE OF TECHNOLOGY
InstType: EI
InstName: HITACHI M-80A
IoniMethod: _ENERGY 70 eV
IonPolarity: pos
Date: 2010-10-09 19:48:36+02:00
Num Peaks: 46
15 251 26 20 27 59 29 43 31 28 42 23 43 164 44 32 45 76 46 11 
51 12 52 12 56 18 57 18 58 57 59 153 60 27 61 18 70 66 71 16 
72 44 73 146 74 44 75 25 85 14 86 64 87 15 88 17 89 11 100 71 
101 12 102 128 103 25 104 15 116 279 117 53 118 999 119 220 120 87 121 17 
130 69 131 31 132 305 133 197 134 51 135 17 
