Name: METHYL TRIACETYL-6-DEOXY-BETA-L-IDOPYRANOSIDE
MW: 304
Formula: C13H20O8
Synonym: MassBank: JP010701
Synonym: METHYL TRIACETYL-6-DEOXY-BETA-L-IDOPYRANOSIDE
Structure: 303934305F4D455448594C2054524941434554594C2D362D44454F58592D424554412D4C2D49444F505952414E4F534944452E6D6F6C0A20204368656D447261773130323031303139303932440A2032362032362020302020302020302020302020302020302020302020303939392056323030300A2020202D302E3234313020202020312E3334353220202020302E303030302043202020302020302020302020302020302020302020302020302020302020302020302020300A2020202D312E3433303920202020302E3433393120202020302E303030302043202020302020302020302020302020302020302020302020302020302020302020302020300A2020202D302E323431302020202D302E3435353020202020302E303030302043202020302020302020302020302020302020302020302020302020302020302020302020300A20202020312E363231322020202D302E3435353020202020302E303030302043202020302020302020302020302020302020302020302020302020302020302020302020300A20202020322E3835383720202020302E3433393120202020302E303030302043202020302020302020302020302020302020302020302020302020302020302020302020300A20202020312E3632323320202020312E3334333820202020302E30303030204F202020302020302020302020302020302020302020302020302020302020302020302020300A2020202D312E3433303620202020312E3139383720202020302E30303030204F202020302020302020302020302020302020302020302020302020302020302020302020300A2020202D312E343330362020202D302E3435353320202020302E303030302048202020302020302020302020302020302020302020302020302020302020302020302020300A20202020322E3835393820202020312E3239343620202020302E303030302043202020302020302020302020302020302020302020302020302020302020302020302020300A20202020322E383538372020202D302E3337343020202020302E303030302048202020302020302020302020302020302020302020302020302020302020302020302020300A20202020312E3632313220202020302E3334333720202020302E30303030204F202020302020302020302020302020302020302020302020302020302020302020302020300A20202020312E363232332020202D312E3238303320202020302E303030302048202020302020302020302020302020302020302020302020302020302020302020302020300A2020202D302E323430342020202D312E3238303320202020302E30303030204F202020302020302020302020302020302020302020302020302020302020302020302020300A2020202D302E3234303420202020302E3239343720202020302E303030302048202020302020302020302020302020302020302020302020302020302020302020302020300A2020202D302E3234303420202020322E3130343720202020302E30303030204F202020302020302020302020302020302020302020302020302020302020302020302020300A2020202D302E3235313820202020302E3734383420202020302E303030302048202020302020302020302020302020302020302020302020302020302020302020302020300A2020202D322E3134353320202020312E3631323220202020302E303030302043202020302020302020302020302020302020302020302020302020302020302020302020300A2020202D322E3134343620202020322E3433363220202020302E30303030204F202020302020302020302020302020302020302020302020302020302020302020302020300A2020202D322E3835393820202020312E3139393720202020302E303030302043202020302020302020302020302020302020302020302020302020302020302020302020300A20202020302E343733342020202D312E3639323520202020302E303030302043202020302020302020302020302020302020302020302020302020302020302020302020300A20202020302E343733362020202D322E3531373820202020302E30303030204F202020302020302020302020302020302020302020302020302020302020302020302020300A20202020312E313837392020202D312E3238303020202020302E303030302043202020302020302020302020302020302020302020302020302020302020302020302020300A20202020302E3930363720202020302E3735363220202020302E303030302043202020302020302020302020302020302020302020302020302020302020302020302020300A20202020302E3139323220202020302E3334333720202020302E303030302043202020302020302020302020302020302020302020302020302020302020302020302020300A20202020302E3930363720202020312E3538313220202020302E30303030204F202020302020302020302020302020302020302020302020302020302020302020302020300A2020202D302E3935343520202020322E3531373820202020302E303030302043202020302020302020302020302020302020302020302020302020302020302020302020300A2020312020322020312020302020202020200A2020322020332020312020312020202020200A2020332020342020312020312020202020200A2020352020342020312020312020202020200A2020352020362020312020302020202020200A2020312020362020312020302020202020200A2020322020372020312020302020202020200A2020322020382020312020302020202020200A2020352020392020312020302020202020200A2020352031302020312020302020202020200A2020342031312020312020302020202020200A2020342031322020312020302020202020200A2020332031332020312020302020202020200A2020332031342020312020302020202020200A2020312031352020312020302020202020200A2020312031362020312020302020202020200A2020372031372020312020302020202020200A2031372031382020322020302020202020200A2031372031392020312020302020202020200A2031332032302020312020302020202020200A2032302032312020322020302020202020200A2032302032322020312020302020202020200A2031312032332020312020302020202020200A2032332032342020312020302020202020200A2032332032352020322020302020202020200A2031352032362020312020302020202020200A4D2020454E44
Contributor: EGUCHI S, FAC. OF SCIENCE, HIROSHIMA UNIV.
InstType: EI
InstName: HITACHI RMU-6L
IoniMethod: _ENERGY 70 eV
IonPolarity: pos
Date: 2010-10-09 19:48:36+02:00
Num Peaks: 89
40 10 41 33 42 19 43 999 44 38 45 38 46 14 53 1 54 11 55 33 
56 14 57 4 58 30 59 14 60 22 61 3 67 14 69 22 70 14 71 12 
72 19 73 27 74 87 75 1 81 16 82 44 83 115 84 3 85 27 86 14 
87 82 88 2 89 14 95 14 96 27 97 2 98 14 99 60 100 115 101 5 
102 109 103 82 104 14 105 1 109 11 110 11 111 60 112 1 113 98 114 22 
115 142 116 4 117 19 125 19 126 16 127 3 128 11 129 30 130 8 131 1 
140 49 141 19 142 96 143 3 144 87 145 38 146 8 149 2 153 33 154 11 
155 8 156 1 157 251 158 33 159 14 184 12 185 33 186 14 187 11 200 1 
201 11 213 16 214 8 244 1 261 14 262 5 273 8 274 0 303 3 
