Name: MassBank: JP010697
MW: 212
Formula: C12H20O3
Synonym: MassBank: JP010697
Synonym: (-)-2,6,6-TRIMETHYL-2(R)-VINYL-5(R)-ACETOXYTETRAHYDROPYRAN
Structure: 282D292D322C362C362D5452494D455448594C2D322852292D56494E594C2D352852292D414345544F58595445545241485944524F505952414E2E6D6F6C0A20204368656D447261773130303630393134323732440A2031362031362020302020302020302020302020302020302020302020303939392056323030300A2020202D302E3937393620202020302E3635363620202020302E303030302043202020302020302020302020302020302020302020302020302020302020302020302020300A2020202D302E393739362020202D302E3136383420202020302E303030302043202020302020302020302020302020302020302020302020302020302020302020302020300A2020202D302E323635312020202D302E3538303920202020302E303030302043202020302020302020302020302020302020302020302020302020302020302020302020300A20202020302E3434393320202020302E3635363620202020302E303030302043202020302020302020302020302020302020302020302020302020302020302020302020300A2020202D302E3236353120202020312E3036393120202020302E30303030204F202020302020302020302020302020302020302020302020302020302020302020302020300A20202020302E373331352020202D302E3934333620202020302E303030302048202020302020302020302020302020302020302020302020302020302020302020302020300A2020202D312E3739323120202020302E3531333320202020302E303030302043202020302020302020302020302020302020302020302020302020302020302020302020300A2020202D322E3630343620202020302E3337303120202020302E303030302043202020302020302020302020302020302020302020302020302020302020302020302020300A20202020322E363034362020202D302E3531333920202020302E30303030204F202020302020302020302020302020302020302020302020302020302020302020302020300A20202020312E373932312020202D302E3635373120202020302E303030302043202020302020302020302020302020302020302020302020302020302020302020302020300A20202020312E323631382020202D302E3032353120202020302E30303030204F202020302020302020302020302020302020302020302020302020302020302020302020300A20202020302E343439332020202D302E3136383420202020302E303030302043202020302020302020302020302020302020302020302020302020302020302020302020300A20202020312E353039392020202D312E3433323420202020302E303030302043202020302020302020302020302020302020302020302020302020302020302020302020300A20202020302E3733303820202020312E3433323420202020302E303030302043202020302020302020302020302020302020302020302020302020302020302020302020300A20202020312E3236313620202020302E3531333920202020302E303030302043202020302020302020302020302020302020302020302020302020302020302020302020300A2020202D312E3236323920202020312E3433323420202020302E303030302043202020302020302020302020302020302020302020302020302020302020302020302020300A2020312020322020312020302020202020200A2020322020332020312020302020202020200A2020332031322020312020302020202020200A2031322020342020312020302020202020200A2020342020352020312020302020202020200A2020352020312020312020302020202020200A2031322020362020312020312020202020200A2020312020372020312020362020202020200A2020372020382020322020302020202020200A2020392031302020322020302020202020200A2031302031312020312020302020202020200A2031322031312020312020362020202020200A2031302031332020312020302020202020200A2020342031342020312020362020202020200A2020342031352020312020312020202020200A2020312031362020312020312020202020200A4D202053545920203120202031205355500A4D2020534C4220203120202031202020310A4D202053414C20202031202031202031340A4D202053424C20202031202031202031340A4D2020534D5420202031204D650A4D2020534256202020312031342020202D372E3033383320202020362E313531360A4D202053545920203120202032205355500A4D2020534C4220203120202032202020320A4D202053414C20202032202031202031350A4D202053424C20202032202031202031350A4D2020534D5420202032204D650A4D2020534256202020322031352020202D362E3530373620202020352E323333310A4D202053545920203120202033205355500A4D2020534C4220203120202033202020330A4D202053414C20202033202031202031360A4D202053424C20202033202031202031360A4D2020534D5420202033204D650A4D2020534256202020332031362020202D372E3630333120202020362E313531360A4D2020454E44
Contributor: EGUCHI S, FAC. OF SCIENCE, HIROSHIMA UNIV.
InstType: EI
InstName: HITACHI RMU-6L
IoniMethod: _ENERGY 70 eV
IonPolarity: pos
Date: 2010-10-09 19:48:36+02:00
Num Peaks: 63
41 140 42 25 43 999 44 5 45 25 53 50 54 20 55 14 56 15 57 25 
59 200 60 2 65 20 67 85 68 310 69 6 70 25 71 65 72 110 75 2 
77 35 78 15 79 110 80 2 81 80 82 45 83 50 84 3 85 35 86 20 
91 20 93 14 94 510 95 80 96 25 97 4 98 20 99 25 100 25 101 10 
102 20 107 25 108 20 109 2 111 45 112 20 113 20 114 3 119 30 121 20 
125 55 126 3 136 140 137 115 138 25 143 5 154 90 155 70 156 25 170 1 
197 65 198 20 212 3 
