Name: MassBank: JP011939
MW: 122
Formula: C7H10Si
Synonym: MassBank: JP011939
Synonym: TRIMETHYLSILYL-1,3-BUTADIYNE
Structure: 310A32300A5452494D455448594C53494C594C2D312C332D425554414449594E452E6D6F6C0A20204368656D447261773038313231303038343732440A2020382020372020302020302020302020302020302020302020302020303939392056323030300A2020202D322E303632352020202D302E3030303020202020302E303030302043202020302020302020302020302020302020302020302020302020302020302020302020300A2020202D312E323337352020202D302E3030303020202020302E303030302043202020302020302020302020302020302020302020302020302020302020302020302020300A2020202D302E343132352020202D302E3030303020202020302E303030302043202020302020302020302020302020302020302020302020302020302020302020302020300A20202020302E343132352020202D302E3030303020202020302E303030302043202020302020302020302020302020302020302020302020302020302020302020302020300A20202020312E323337352020202D302E3030303020202020302E303030302053692020302020302020302020302020302020302020302020302020302020302020302020300A20202020312E3233373520202020302E3832353020202020302E303030302043202020302020302020302020302020302020302020302020302020302020302020302020300A20202020322E303632352020202D302E3030303020202020302E303030302043202020302020302020302020302020302020302020302020302020302020302020302020300A20202020312E323337352020202D302E3832353020202020302E303030302043202020302020302020302020302020302020302020302020302020302020302020302020300A2020312020322020332020302020202020200A2020322020332020312020302020202020200A2020332020342020332020302020202020200A2020352020362020312020302020202020200A2020352020372020312020302020202020200A2020352020382020312020302020202020200A2020342020352020312020302020202020200A4D2020454E44
Contributor: ISHIKAWA M, HIROSHIMA UNIV. FAC. TEQUNOLOGY
InstType: EI
InstName: SHIMADZU QP-1000
IoniMethod: _ENERGY 70 eV
IonPolarity: pos
Date: 2010-10-09 19:48:36+02:00
Num Peaks: 28
52 11 53 11 54 695 55 95 56 216 57 21 58 32 59 11 63 11 64 21 
65 95 66 84 67 116 69 11 73 63 77 242 79 137 80 11 82 32 89 11 
90 21 91 42 93 11 107 999 108 116 109 42 122 195 123 21 
