Name: 3-(2-NITROBENZYL)TROPOLONE
MW: 257
Formula: C14H11NO4
Synonym: MassBank: JP010989
Synonym: 3-(2-NITROBENZYL)TROPOLONE
Structure: 332D28322D4E4954524F42454E5A594C2954524F504F4C4F4E452E6D6F6C0A20204368656D447261773032323231303039353432440A2031392032302020302020302020302020302020302020302020302020303939392056323030300A2020202D322E303932322020202D312E3132323920202020302E30303030204F202020302020302020302020302020302020302020302020302020302020302020302020300A2020202D312E393038362020202D302E3331383620202020302E303030302043202020302020302020302020302020302020302020302020302020302020302020302020300A2020202D322E3535333620202020302E3139353820202020302E303030302043202020302020302020302020302020302020302020302020302020302020302020302020300A2020202D322E3535333620202020312E3032303820202020302E303030302043202020302020302020302020302020302020302020302020302020302020302020302020300A2020202D312E3930383620202020312E3533353120202020302E303030302043202020302020302020302020302020302020302020302020302020302020302020302020300A2020202D312E3130343320202020312E3335313620202020302E303030302043202020302020302020302020302020302020302020302020302020302020302020302020300A2020202D302E3734363420202020302E3630383320202020302E303030302043202020302020302020302020302020302020302020302020302020302020302020302020300A2020202D312E313034332020202D302E3133353020202020302E303030302043202020302020302020302020302020302020302020302020302020302020302020302020300A2020202D302E353839392020202D302E3738303020202020302E30303030204F202020302020302020302020302020302020302020302020302020302020302020302020300A20202020302E3037383620202020302E3630383320202020302E303030302043202020302020302020302020302020302020302020302020302020302020302020302020300A20202020302E343931312020202D302E3130363220202020302E303030302043202020302020302020302020302020302020302020302020302020302020302020302020300A20202020312E333136312020202D302E3130363220202020302E303030302043202020302020302020302020302020302020302020302020302020302020302020302020300A20202020312E373238362020202D302E3832303720202020302E303030302043202020302020302020302020302020302020302020302020302020302020302020302020300A20202020312E333136312020202D312E3533353120202020302E303030302043202020302020302020302020302020302020302020302020302020302020302020302020300A20202020302E343931312020202D312E3533353120202020302E303030302043202020302020302020302020302020302020302020302020302020302020302020302020300A20202020302E303738362020202D302E3832303720202020302E303030302043202020302020302020302020302020302020302020302020302020302020302020302020300A20202020312E3732383620202020302E3630383320202020302E30303030204E202020302020332020302020302020302020302020302020302020302020302020302020300A20202020312E3331363120202020312E3332323720202020302E30303030204F202020302020302020302020302020302020302020302020302020302020302020302020300A20202020322E3535333620202020302E3630383320202020302E30303030204F202020302020352020302020302020302020302020302020302020302020302020302020300A2020312020322020322020302020202020200A2020322020332020312020302020202020200A2020332020342020322020302020202020200A2020342020352020312020302020202020200A2020352020362020322020302020202020200A2020362020372020312020302020202020200A2020372020382020322020302020202020200A2020322020382020312020302020202020200A2020382020392020312020302020202020200A2031302031312020312020302020202020200A2031312031322020312020302020202020200A2031322031332020322020302020202020200A2031332031342020312020302020202020200A2031342031352020322020302020202020200A2031352031362020312020302020202020200A2031312031362020322020302020202020200A2031372031382020322020302020202020200A2031372031392020312020302020202020200A2031322031372020312020302020202020200A2020372031302020312020302020202020200A4D202043484720203220203137202020312020313920202D310A4D2020454E44
Contributor: TAKESHITA H, INST. OF ADVANCED MATERIAL STUDY KYUSHU UNIV.
InstType: EI
InstName: JEOL JMS-01-SG-2
IoniMethod: _ENERGY 75 eV
IonPolarity: pos
Date: 2010-10-09 19:48:36+02:00
Num Peaks: 49
39 717 50 323 51 632 52 398 53 518 63 748 64 359 65 718 66 260 75 298 
76 521 77 999 78 706 79 305 81 725 89 540 91 263 92 373 93 257 94 307 
105 290 115 531 121 352 127 278 128 395 129 261 152 415 154 365 183 469 184 395 
185 86 194 148 195 112 196 181 197 50 198 32 200 25 209 28 210 73 211 440 
212 554 213 79 222 43 223 34 236 32 239 102 240 85 257 100 258 27 
