Name: 4-METHOXY-6-METHYL-3-(TRIMETHYLSILYL)METHYL-1-HEPTENE
MW: 228
Formula: C13H28OSi
Synonym: MassBank: JP011383
Synonym: 4-METHOXY-6-METHYL-3-(TRIMETHYLSILYL)METHYL-1-HEPTENE
Structure: 342D4D4554484F58592D362D4D455448594C2D332D285452494D455448594C53494C594C294D455448594C2D312D48455054454E452E6D6F6C0A20204368656D447261773034323031303137303632440A2031352031342020302020302020302020302020302020302020302020303939392056323030300A2020202D322E313433342020202D302E3135313020202020302E303030302043202020302020302020302020302020302020302020302020302020302020302020302020300A2020202D312E343238392020202D302E3536333520202020302E303030302043202020302020302020302020302020302020302020302020302020302020302020302020300A2020202D302E373134352020202D302E3135313020202020302E303030302043202020302020302020302020302020302020302020302020302020302020302020302020300A20202020302E303030302020202D302E3536333520202020302E303030302043202020302020302020302020302020302020302020302020302020302020302020302020300A20202020302E373134352020202D302E3135313020202020302E303030302043202020302020302020302020302020302020302020302020302020302020302020302020300A20202020312E343238392020202D302E3536333520202020302E303030302043202020302020302020302020302020302020302020302020302020302020302020302020300A20202020322E313433342020202D302E3135313020202020302E303030302043202020302020302020302020302020302020302020302020302020302020302020302020300A20202020312E343238392020202D312E3338383520202020302E303030302043202020302020302020302020302020302020302020302020302020302020302020302020300A20202020302E303030302020202D312E3338383520202020302E30303030204F202020302020302020302020302020302020302020302020302020302020302020302020300A20202020302E373134352020202D312E3830313020202020302E303030302043202020302020302020302020302020302020302020302020302020302020302020302020300A2020202D302E3731343520202020302E3637343020202020302E303030302043202020302020302020302020302020302020302020302020302020302020302020302020300A2020202D312E3432383920202020312E3038363520202020302E303030302053692020302020302020302020302020302020302020302020302020302020302020302020300A2020202D322E3134333420202020312E3439393020202020302E303030302043202020302020302020302020302020302020302020302020302020302020302020302020300A2020202D312E3031363420202020312E3830313020202020302E303030302043202020302020302020302020302020302020302020302020302020302020302020302020300A2020202D312E3834313420202020302E3337323020202020302E303030302043202020302020302020302020302020302020302020302020302020302020302020302020300A2020312020322020322020302020202020200A2020322020332020312020302020202020200A2020332020342020312020302020202020200A2020342020352020312020302020202020200A2020352020362020312020302020202020200A2020362020372020312020302020202020200A2020362020382020312020302020202020200A2020392031302020312020302020202020200A2020342020392020312020302020202020200A2020332031312020312020302020202020200A2031312031322020312020302020202020200A2031322031332020312020302020202020200A2031322031342020312020312020202020200A2031322031352020312020312020202020200A4D2020454E44
Contributor: HISAHIRO HAGIWARA, INSTITUTE FOR CHEMICAL REACTION SCIENCE TOHOKU UNIV.
InstType: EI
InstName: JEOL JMS-DX-300
IoniMethod: _ENERGY 70 eV
IonPolarity: pos
Date: 2010-10-09 19:48:36+02:00
Num Peaks: 37
31 25 33 30 39 34 41 132 42 12 43 238 44 34 45 561 46 19 53 19 
54 12 55 35 57 17 58 52 59 491 60 24 67 94 68 15 69 688 70 51 
71 136 72 20 73 493 74 47 75 42 81 17 82 12 85 33 89 313 90 29 
91 15 95 11 97 33 101 999 102 86 103 16 127 13 
