Name: META-CHLORONITROBENZENE
MW: 156
Formula: C6H4ClNO2
Synonym: MassBank: JP011281
Synonym: META-CHLORONITROBENZENE
Structure: 4D4554412D43484C4F524F4E4954524F42454E5A454E452E6D6F6C0A20204368656D447261773038313131303232343332440A2031302031302020302020302020302020302020302020302020302020303939392056323030300A2020202D302E323036332020202D302E3335373220202020302E303030302043202020302020302020302020302020302020302020302020302020302020302020302020300A20202020302E3230363320202020302E3335373220202020302E303030302043202020302020302020302020302020302020302020302020302020302020302020302020300A20202020312E3033313220202020302E3335373220202020302E303030302043202020302020302020302020302020302020302020302020302020302020302020302020300A20202020312E343433382020202D302E3335373220202020302E303030302043202020302020302020302020302020302020302020302020302020302020302020302020300A20202020312E303331332020202D312E3037313720202020302E303030302043202020302020302020302020302020302020302020302020302020302020302020302020300A20202020302E323036332020202D312E3037313720202020302E303030302043202020302020302020302020302020302020302020302020302020302020302020302020300A20202020312E3434333820202020312E3037313720202020302E3030303020436C2020302020302020302020302020302020302020302020302020302020302020302020300A2020202D312E303331322020202D302E3335373220202020302E30303030204E202020302020332020302020302020302020302020302020302020302020302020302020300A2020202D312E343433382020202D312E3037313720202020302E30303030204F202020302020302020302020302020302020302020302020302020302020302020302020300A2020202D312E3434333820202020302E3335373220202020302E30303030204F202020302020352020302020302020302020302020302020302020302020302020302020300A2020312020322020312020302020202020200A2020322020332020322020302020202020200A2020332020342020312020302020202020200A2020342020352020322020302020202020200A2020352020362020312020302020202020200A2020312020362020322020302020202020200A2020332020372020312020302020202020200A2020382020392020322020302020202020200A2020382031302020312020302020202020200A2020312020382020312020302020202020200A4D202043484720203220202038202020312020313020202D310A4D2020454E44
Contributor: TAJIMA S, GUNMA COLLEGE OF TECHNOLOGY
InstType: EI
InstName: HITACHI M-80A
IoniMethod: _ENERGY 70 eV
IonPolarity: pos
Date: 2010-10-09 19:48:36+02:00
Num Peaks: 48
27 12 28 11 30 520 37 37 38 51 39 51 46 56 49 23 50 268 51 130 
53 16 61 37 62 29 63 94 64 26 69 40 73 85 74 210 75 912 76 187 
77 15 84 25 85 92 86 14 87 34 90 12 91 10 92 15 99 470 100 28 
101 152 110 14 111 999 112 78 113 317 114 25 125 35 127 193 128 21 129 58 
141 379 142 36 143 122 144 11 157 966 158 181 159 326 160 58 
