Name: 2-ACETOXY-7-BROMO-5-ISOPROPYLTROPONE
MW: 284
Formula: C12H13BrO3
Synonym: MassBank: JP011024
Synonym: 2-ACETOXY-7-BROMO-5-ISOPROPYLTROPONE
Structure: 322D414345544F58592D372D42524F4D4F2D352D49534F50524F50594C54524F504F4E452E6D6F6C0A20204368656D447261773132323130393231353332440A2031362031362020302020302020302020302020302020302020302020303939392056323030300A20202020302E3734313320202020312E3331393320202020302E30303030204F202020302020302020302020302020302020302020302020302020302020302020302020300A20202020302E3232363920202020302E3637343320202020302E303030302043202020302020302020302020302020302020302020302020302020302020302020302020300A2020202D302E3537373420202020302E3835373920202020302E303030302043202020302020302020302020302020302020302020302020302020302020302020302020300A2020202D312E3232323420202020302E3334333520202020302E303030302043202020302020302020302020302020302020302020302020302020302020302020302020300A2020202D312E323232342020202D302E3438313520202020302E303030302043202020302020302020302020302020302020302020302020302020302020302020302020300A2020202D302E353737342020202D302E3939353920202020302E303030302043202020302020302020302020302020302020302020302020302020302020302020302020300A20202020302E323236392020202D302E3831323320202020302E303030302043202020302020302020302020302020302020302020302020302020302020302020302020300A20202020302E353834392020202D302E3036393020202020302E303030302043202020302020302020302020302020302020302020302020302020302020302020302020300A2020202D312E393635372020202D302E3833393520202020302E303030302043202020302020302020302020302020302020302020302020302020302020302020302020300A2020202D322E303237342020202D312E3636323220202020302E303030302043202020302020302020302020302020302020302020302020302020302020302020302020300A2020202D322E363437342020202D302E3337343720202020302E303030302043202020302020302020302020302020302020302020302020302020302020302020302020300A2020202D302E3736313020202020312E3636323220202020302E303030302042722020302020302020302020302020302020302020302020302020302020302020302020300A20202020312E343039392020202D302E3036393020202020302E30303030204F202020302020302020302020302020302020302020302020302020302020302020302020300A20202020312E383232342020202D302E3738333520202020302E303030302043202020302020302020302020302020302020302020302020302020302020302020302020300A20202020312E343039392020202D312E3439383020202020302E30303030204F202020302020302020302020302020302020302020302020302020302020302020302020300A20202020322E363437342020202D302E3738333520202020302E303030302043202020302020302020302020302020302020302020302020302020302020302020302020300A2020312020322020322020302020202020200A2020322020332020312020302020202020200A2020332020342020322020302020202020200A2020342020352020312020302020202020200A2020352020362020322020302020202020200A2020362020372020312020302020202020200A2020372020382020322020302020202020200A2020322020382020312020302020202020200A2020392031302020312020302020202020200A2020392031312020312020302020202020200A2020352020392020312020302020202020200A2020332031322020312020302020202020200A2031342031352020322020302020202020200A2031342031362020312020302020202020200A2031332031342020312020302020202020200A2020382031332020312020302020202020200A4D2020454E44
Contributor: TAKESHITA H, INST. OF ADVANCED MATERIAL STUDY KYUSHU UNIV.
InstType: EI
InstName: JEOL JMS-01-SG-2
IoniMethod: _ENERGY 75 eV
IonPolarity: pos
Date: 2010-10-09 19:48:36+02:00
Num Peaks: 35
39 155 41 79 42 40 43 999 50 50 51 80 53 41 62 76 63 113 64 40 
65 126 77 73 78 35 79 49 89 36 90 38 91 174 92 34 103 34 105 49 
107 32 120 146 163 31 199 185 201 175 227 116 229 121 230 18 240 15 242 295 
243 49 244 320 245 20 284 20 286 24 
