Name: MassBank: JP010425
MW: 240
Formula: C10H12N2O3S
Synonym: MassBank: JP010425
Synonym: 3-(1-METHYLETHYL)-1H-2,1,3-BENZOTHIADIAZIN-4(3H)-ONE
Synonym: BENTAZON
Structure: 332D28312D4D455448594C455448594C292D31482D322C312C332D42454E5A4F544849414449415A494E2D34283348292D4F4E452E6D6F6C0A20204368656D447261773032323231303039303132440A2031362031372020302020302020302020302020302020302020302020303939392056323030300A20202020302E343132352020202D302E3635393220202020302E30303030204E202020302020302020302020302020302020302020302020302020302020302020302020300A2020202D302E343132352020202D302E3635393220202020302E303030302053202020302020322020302020302020302020302020302020302020302020302020302020300A2020202D302E3832353020202020302E3035353320202020302E30303030204E202020302020302020302020302020302020302020302020302020302020302020302020300A2020202D302E3431323520202020302E3736393720202020302E303030302043202020302020302020302020302020302020302020302020302020302020302020302020300A20202020302E3431323520202020302E3736393720202020302E303030302043202020302020302020302020302020302020302020302020302020302020302020302020300A20202020302E3832353020202020302E3035353320202020302E303030302043202020302020302020302020302020302020302020302020302020302020302020302020300A20202020302E3832353020202020312E3438343220202020302E303030302043202020302020302020302020302020302020302020302020302020302020302020302020300A20202020312E3635303020202020312E3438343220202020302E303030302043202020302020302020302020302020302020302020302020302020302020302020302020300A20202020322E3036323520202020302E3736393720202020302E303030302043202020302020302020302020302020302020302020302020302020302020302020302020300A20202020312E3635303020202020302E3035353320202020302E303030302043202020302020302020302020302020302020302020302020302020302020302020302020300A2020202D302E3832353020202020312E3438343220202020302E30303030204F202020302020302020302020302020302020302020302020302020302020302020302020300A2020202D312E3635303020202020302E3035353320202020302E303030302043202020302020302020302020302020302020302020302020302020302020302020302020300A2020202D322E3036323520202020302E3736393720202020302E303030302043202020302020302020302020302020302020302020302020302020302020302020302020300A2020202D322E303632352020202D302E3635393220202020302E303030302043202020302020302020302020302020302020302020302020302020302020302020302020300A2020202D312E313237302020202D312E3037313720202020302E30303030204F202020302020352020302020302020302020302020302020302020302020302020302020300A2020202D302E343132352020202D312E3438343220202020302E30303030204F202020302020352020302020302020302020302020302020302020302020302020302020300A2020312020322020312020302020202020200A2020322020332020312020302020202020200A2020332020342020312020302020202020200A2020342020352020312020302020202020200A2020352020362020312020302020202020200A2020312020362020312020302020202020200A2020372020382020312020302020202020200A2020382020392020322020302020202020200A2020392031302020312020302020202020200A2020362031302020322020302020202020200A2020352020372020322020302020202020200A2020342031312020322020302020202020200A2031322031332020312020302020202020200A2031322031342020312020302020202020200A2020332031322020312020302020202020200A2020322031352020312020312020202020200A2020322031362020312020362020202020200A4D202043484720203320202032202020322020313520202D312020313620202D310A4D2020454E44
Contributor: UOEH
InstType: EI
InstName: JEOL JMS-DX-303
IoniMethod: _ENERGY 70 eV
IonPolarity: pos
Date: 2010-10-09 19:48:36+02:00
Num Peaks: 45
36 27 39 38 41 32 42 20 43 17 51 19 52 24 62 10 63 58 64 74 
65 42 76 15 77 19 78 16 79 17 90 62 91 60 92 204 93 18 105 28 
106 21 118 94 119 793 120 198 121 13 133 14 134 15 138 13 154 17 161 343 
162 38 181 17 182 241 183 29 184 17 198 999 199 150 200 64 201 11 225 263 
226 31 227 17 240 186 241 21 242 10 
