Name: MassBank: JP010435
MW: 313
Formula: C13H16NO4PS
Synonym: MassBank: JP010435
Synonym: PHOSPHOROTHIOIC ACID O,O-DIETHYL O-(5-PHENYL-3-ISOXAZOLYL) ESTER
Structure: 50484F5350484F524F5448494F49432041434944204F2C4F2D4449455448594C204F2D28352D5048454E594C2D332D49534F58415A4F4C594C292045535445522E6D6F6C0A20204368656D447261773038313231303035343032440A2032302032312020302020302020302020302020302020302020302020303939392056323030300A20202020312E343935342020202D302E3731303620202020302E303030302050202020302020302020302020302020302020302020302020302020302020302020302020300A20202020312E3135393920202020302E3034333120202020302E30303030204F202020302020302020302020302020302020302020302020302020302020302020302020300A20202020322E323439312020202D302E3337353020202020302E30303030204F202020302020302020302020302020302020302020302020302020302020302020302020300A20202020302E373431382020202D312E3034363120202020302E30303030204F202020302020302020302020302020302020302020302020302020302020302020302020300A20202020312E383331302020202D312E3436343220202020302E303030302053202020302020302020302020302020302020302020302020302020302020302020302020300A2020202D302E3731303320202020302E3531383720202020302E30303030204F202020302020302020302020302020302020302020302020302020302020302020302020300A20202020302E3037343320202020302E3236333820202020302E30303030204E202020302020302020302020302020302020302020302020302020302020302020302020300A20202020302E303734332020202D302E3536313220202020302E303030302043202020302020302020302020302020302020302020302020302020302020302020302020300A2020202D302E373130332020202D302E3831363120202020302E303030302043202020302020302020302020302020302020302020302020302020302020302020302020300A2020202D312E313935322020202D302E3134383720202020302E303030302043202020302020302020302020302020302020302020302020302020302020302020302020300A2020202D322E303230322020202D302E3134383720202020302E303030302043202020302020302020302020302020302020302020302020302020302020302020302020300A2020202D322E343332372020202D302E3836333220202020302E303030302043202020302020302020302020302020302020302020302020302020302020302020302020300A2020202D332E323537372020202D302E3836333220202020302E303030302043202020302020302020302020302020302020302020302020302020302020302020302020300A2020202D332E363730322020202D302E3134383720202020302E303030302043202020302020302020302020302020302020302020302020302020302020302020302020300A2020202D332E3235373720202020302E3536353820202020302E303030302043202020302020302020302020302020302020302020302020302020302020302020302020300A2020202D322E3433323720202020302E3536353820202020302E303030302043202020302020302020302020302020302020302020302020302020302020302020302020300A20202020312E3634343820202020302E3731303620202020302E303030302043202020302020302020302020302020302020302020302020302020302020302020302020300A20202020312E3330393220202020312E3436343220202020302E303030302043202020302020302020302020302020302020302020302020302020302020302020302020300A20202020322E393136352020202D302E3835393920202020302E303030302043202020302020302020302020302020302020302020302020302020302020302020302020300A20202020332E363730322020202D302E3532343420202020302E303030302043202020302020302020302020302020302020302020302020302020302020302020302020300A2020312020322020312020302020202020200A2020312020332020312020302020202020200A2020312020342020312020302020202020200A2020312020352020322020302020202020200A2020362020372020312020302020202020200A2020372020382020322020302020202020200A2020382020392020312020302020202020200A2020392031302020322020302020202020200A2020362031302020312020302020202020200A2031312031322020312020302020202020200A2031322031332020322020302020202020200A2031332031342020312020302020202020200A2031342031352020322020302020202020200A2031352031362020312020302020202020200A2031312031362020322020302020202020200A2031302031312020312020302020202020200A2020342020382020312020302020202020200A2031372031382020312020302020202020200A2020322031372020312020302020202020200A2031392032302020312020302020202020200A2020332031392020312020302020202020200A4D2020454E44
Contributor: UOEH
InstType: EI
InstName: JEOL JMS-DX-303
IoniMethod: _ENERGY 70 eV
IonPolarity: pos
Date: 2010-10-09 19:48:36+02:00
Num Peaks: 88
36 14 39 17 45 40 47 11 50 30 51 97 61 17 63 20 65 51 69 11 
74 16 75 19 76 34 77 340 78 49 81 42 89 35 90 14 91 32 93 37 
97 133 99 30 102 60 103 23 104 16 105 999 106 79 109 95 111 12 113 68 
114 17 115 19 116 64 117 14 121 28 125 50 127 34 128 18 129 41 130 175 
131 33 132 17 136 40 137 18 141 79 142 13 143 12 144 10 145 56 146 24 
147 22 148 16 149 39 150 13 153 24 158 11 159 181 160 30 161 96 162 72 
163 10 164 31 169 41 170 18 171 13 172 37 174 31 177 769 178 101 179 47 
180 12 186 12 188 25 192 19 205 11 208 104 209 14 224 10 236 14 240 27 
257 16 284 11 285 69 286 12 312 16 313 551 314 90 315 35 
