Name: PERYLENE
MW: 252
Formula: C20H12
Synonym: MassBank: JP011277
Synonym: PERYLENE
Synonym: DIBENZ(DE,KL)ANTHRACENE
Structure: 504552594C454E452E6D6F6C0A20204368656D447261773038313231303035313132440A2032302032342020302020302020302020302020302020302020302020303939392056323030300A2020202D312E3432393120202020302E3832343020202020302E303030302043202020302020302020302020302020302020302020302020302020302020302020302020300A2020202D312E3432393120202020312E3634393020202020302E303030302043202020302020302020302020302020302020302020302020302020302020302020302020300A2020202D302E3731343620202020322E3036313620202020302E303030302043202020302020302020302020302020302020302020302020302020302020302020302020300A2020202D302E3030303220202020312E3634393220202020302E303030302043202020302020302020302020302020302020302020302020302020302020302020302020300A20202020302E3731343920202020322E3036323120202020302E303030302043202020302020302020302020302020302020302020302020302020302020302020302020300A20202020312E3432393020202020312E3634393820202020302E303030302043202020302020302020302020302020302020302020302020302020302020302020302020300A20202020312E3432393020202020302E3832353020202020302E303030302043202020302020302020302020302020302020302020302020302020302020302020302020300A20202020302E3731343620202020302E3431323520202020302E303030302043202020302020302020302020302020302020302020302020302020302020302020302020300A20202020302E373134362020202D302E3431323520202020302E303030302043202020302020302020302020302020302020302020302020302020302020302020302020300A20202020312E343239312020202D302E3832353020202020302E303030302043202020302020302020302020302020302020302020302020302020302020302020302020300A20202020312E343239312020202D312E3634393120202020302E303030302043202020302020302020302020302020302020302020302020302020302020302020302020300A20202020302E373134392020202D322E3036313520202020302E303030302043202020302020302020302020302020302020302020302020302020302020302020302020300A20202020302E303030372020202D312E3634393120202020302E303030302043202020302020302020302020302020302020302020302020302020302020302020302020300A2020202D302E373134352020202D322E3036323120202020302E303030302043202020302020302020302020302020302020302020302020302020302020302020302020300A2020202D312E343238362020202D312E3634393820202020302E303030302043202020302020302020302020302020302020302020302020302020302020302020302020300A2020202D312E343238362020202D302E3832353020202020302E303030302043202020302020302020302020302020302020302020302020302020302020302020302020300A2020202D302E373134322020202D302E3431323620202020302E303030302043202020302020302020302020302020302020302020302020302020302020302020302020300A20202020302E303030322020202D302E3832353020202020302E303030302043202020302020302020302020302020302020302020302020302020302020302020302020300A2020202D302E3731343220202020302E3431323520202020302E303030302043202020302020302020302020302020302020302020302020302020302020302020302020300A20202020302E3030303220202020302E3832353020202020302E303030302043202020302020302020302020302020302020302020302020302020302020302020302020300A2020312020322020312020302020202020200A2020322020332020322020302020202020200A2020332020342020312020302020202020200A2020342020352020322020302020202020200A2020352020362020312020302020202020200A2020362020372020322020302020202020200A2020372020382020312020302020202020200A2020382020392020312020302020202020200A2020392031302020322020302020202020200A2031302031312020312020302020202020200A2031312031322020322020302020202020200A2031322031332020312020302020202020200A2031332031342020312020302020202020200A2031342031352020322020302020202020200A2031352031362020312020302020202020200A2031362031372020322020302020202020200A2031372031382020312020302020202020200A2031332031382020322020302020202020200A2020392031382020312020302020202020200A2031372031392020312020302020202020200A2020312031392020322020302020202020200A2031392032302020312020302020202020200A2020342032302020312020302020202020200A2020382032302020322020302020202020200A4D2020454E44
Contributor: TAJIMA S, GUNMA COLLEGE OF TECHNOLOGY
InstType: EI
InstName: HITACHI M-80A
IoniMethod: _ENERGY 70 eV
IonPolarity: pos
Date: 2010-10-09 19:48:36+02:00
Num Peaks: 18
28 10 29 11 40 20 112 27 113 37 124 36 125 108 126 152 224 21 225 12 
226 151 248 42 249 36 250 201 251 67 252 999 253 216 254 23 
