Name: MassBank: JP010957
MW: 222
Formula: C11H10O5
Synonym: MassBank: JP010957
Synonym: 4,6-DIFORMYL-2,5-DIMETHOXYTROPONE
Structure: 342C362D4449464F524D594C2D322C352D44494D4554484F585954524F504F4E452E6D6F6C0A20204368656D447261773130313831303137323032440A2031362031362020302020302020302020302020302020302020302020303939392056323030300A2020202D312E3535333220202020302E3737303520202020302E30303030204F202020302020302020302020302020302020302020302020302020302020302020302020300A2020202D302E3830393920202020302E3431323520202020302E303030302043202020302020302020302020302020302020302020302020302020302020302020302020300A2020202D302E3136343920202020302E3932363920202020302E303030302043202020302020302020302020302020302020302020302020302020302020302020302020300A20202020302E3633393420202020302E3734333320202020302E303030302043202020302020302020302020302020302020302020302020302020302020302020302020300A20202020302E3939373420202020302E3030303020202020302E303030302043202020302020302020302020302020302020302020302020302020302020302020302020300A20202020302E363339342020202D302E3734333320202020302E303030302043202020302020302020302020302020302020302020302020302020302020302020302020300A2020202D302E313634392020202D302E3932363920202020302E303030302043202020302020302020302020302020302020302020302020302020302020302020302020300A2020202D302E383039392020202D302E3431323520202020302E303030302043202020302020302020302020302020302020302020302020302020302020302020302020300A20202020312E3832323420202020302E3030303020202020302E30303030204F202020302020302020302020302020302020302020302020302020302020302020302020300A20202020322E323334392020202D302E3731343520202020302E303030302043202020302020302020302020302020302020302020302020302020302020302020302020300A2020202D312E353533322020202D302E3737303520202020302E30303030204F202020302020302020302020302020302020302020302020302020302020302020302020300A2020202D322E323334392020202D302E3330353720202020302E303030302043202020302020302020302020302020302020302020302020302020302020302020302020300A20202020312E3135333820202020312E3338383320202020302E303030302043202020302020302020302020302020302020302020302020302020302020302020302020300A20202020302E3835323420202020322E3135363320202020302E30303030204F202020302020302020302020302020302020302020302020302020302020302020302020300A20202020312E313533382020202D312E3338383320202020302E303030302043202020302020302020302020302020302020302020302020302020302020302020302020300A20202020302E383532342020202D322E3135363320202020302E30303030204F202020302020302020302020302020302020302020302020302020302020302020302020300A2020312020322020322020302020202020200A2020322020332020312020302020202020200A2020332020342020322020302020202020200A2020342020352020312020302020202020200A2020352020362020322020302020202020200A2020362020372020312020302020202020200A2020372020382020322020302020202020200A2020322020382020312020302020202020200A2020392031302020312020302020202020200A2020352020392020312020302020202020200A2031312031322020312020302020202020200A2020382031312020312020302020202020200A2031332031342020322020302020202020200A2020342031332020312020302020202020200A2031352031362020322020302020202020200A2020362031352020312020302020202020200A4D2020454E44
Contributor: TAKESHITA H, INST. OF ADVANCED MATERIAL STUDY KYUSHU UNIV.
InstType: EI
InstName: JEOL JMS-01-SG-2
IoniMethod: _ENERGY 75 eV
IonPolarity: pos
Date: 2010-10-09 19:48:36+02:00
Num Peaks: 34
39 428 41 316 43 386 50 280 51 469 52 292 53 999 55 243 63 466 64 750 
66 391 77 385 79 357 80 236 93 295 95 664 107 293 121 277 123 331 135 291 
150 448 152 388 179 330 191 455 192 62 193 189 194 86 195 40 207 847 208 99 
209 34 221 55 222 465 223 92 
