Name: MassBank: JP010705
MW: 200
Formula: C13H12O2
Synonym: MassBank: JP010705
Synonym: (2Z)-2-(2,4-HEXADIYNYLIDENE)-1,6-DIOXASPIRO(4,4)NON-3-ENE
Structure: 28325A292D322D28322C342D484558414449594E594C4944454E45292D312C362D44494F5841535049524F28342C34294E4F4E2D332D454E452E6D6F6C0A20204368656D447261773130323030393232343432440A2031382031392020302020302020302020302020302020302020302020303939392056323030300A20202020302E3731313720202020312E3737343120202020302E303030302043202020302020302020302020302020302020302020302020302020302020302020302020300A20202020302E3232363120202020322E3434313020202020302E303030302043202020302020302020302020302020302020302020302020302020302020302020302020300A2020202D302E3535373920202020322E3138363620202020302E303030302043202020302020302020302020302020302020302020302020302020302020302020302020300A2020202D302E3535373920202020312E3336313620202020302E303030302043202020302020302020302020302020302020302020302020302020302020302020302020300A20202020302E3232343020202020312E3130393120202020302E30303030204F202020302020302020302020302020302020302020302020302020302020302020302020300A2020202D312E3232373720202020322E3637323720202020302E303030302048202020302020302020302020302020302020302020302020302020302020302020302020300A20202020302E3437393520202020332E3232363020202020302E303030302048202020302020302020302020302020302020302020302020302020302020302020302020300A2020202D312E3232343720202020302E3837353820202020302E303030302043202020302020302020302020302020302020302020302020302020302020302020302020300A2020202D312E3938313120202020312E3231313420202020302E303030302048202020302020302020302020302020302020302020302020302020302020302020302020300A2020202D312E3133373420202020302E3035353420202020302E303030302043202020302020302020302020302020302020302020302020302020302020302020302020300A2020202D312E303530312020202D302E3736343920202020302E303030302043202020302020302020302020302020302020302020302020302020302020302020302020300A2020202D302E393632382020202D312E3538353320202020302E303030302043202020302020302020302020302020302020302020302020302020302020302020302020300A2020202D302E383735352020202D322E3430353720202020302E303030302043202020302020302020302020302020302020302020302020302020302020302020302020300A2020202D302E373838322020202D332E3232363020202020302E303030302043202020302020302020302020302020302020302020302020302020302020302020302020300A20202020312E3139363420202020312E3130363520202020302E303030302043202020302020302020302020302020302020302020302020302020302020302020302020300A20202020312E3938313120202020312E3336313220202020302E303030302043202020302020302020302020302020302020302020302020302020302020302020302020300A20202020312E3938313120202020322E3138363220202020302E303030302043202020302020302020302020302020302020302020302020302020302020302020302020300A20202020312E3139363420202020322E3434313420202020302E30303030204F202020302020302020302020302020302020302020302020302020302020302020302020300A2020312020322020312020302020202020200A2020322020332020322020302020202020200A2020332020342020312020302020202020200A2020342020352020312020302020202020200A2020352020312020312020302020202020200A2020332020362020312020302020202020200A2020322020372020312020302020202020200A2020342020382020322020302020202020200A2020382020392020312020302020202020200A2020382031302020312020302020202020200A2031302031312020332020302020202020200A2031312031322020312020302020202020200A2031322031332020332020302020202020200A2031332031342020312020302020202020200A2020312031352020312020302020202020200A2031352031362020312020302020202020200A2031362031372020312020302020202020200A2031372031382020312020302020202020200A2031382020312020312020302020202020200A4D2020454E44
Contributor: EGUCHI S, FAC. OF SCIENCE, HIROSHIMA UNIV.
InstType: EI
InstName: HITACHI RMU-6L
IoniMethod: _ENERGY 70 eV
IonPolarity: pos
Date: 2010-10-09 19:48:36+02:00
Num Peaks: 79
41 120 42 120 43 50 50 23 51 125 52 50 53 80 54 12 55 125 62 60 
63 100 64 4 65 70 66 40 67 80 68 4 69 55 74 110 75 120 76 25 
77 110 78 40 79 50 82 10 83 60 85 40 86 30 87 5 88 40 89 40 
91 60 95 5 96 55 100 40 101 40 102 18 103 60 104 45 105 25 113 2 
114 30 115 265 116 115 117 7 119 55 124 35 127 90 128 19 129 105 130 120 
131 65 132 3 133 20 139 30 141 120 142 4 143 90 144 110 145 40 152 3 
153 40 155 50 156 60 157 21 158 150 159 75 169 140 170 27 171 185 172 135 
173 35 183 4 184 40 185 150 186 35 199 22 200 999 201 165 202 20 
