Name: MassBank: JP011693
MW: 194
Formula: C10H18Si2
Synonym: MassBank: JP011693
Synonym: 1,2,2,2-TETRAMETHYL-1-PHENYLDISILANE
Structure: 312C322C322C322D54455452414D455448594C2D312D5048454E594C444953494C414E452E6D6F6C0A20204368656D447261773130323330393131343232440A2031322031322020302020302020302020302020302020302020302020303939392056323030300A2020202D302E3335373220202020302E3637343020202020302E303030302053692020302020302020302020302020302020302020302020302020302020302020302020300A20202020302E3335373220202020312E3038363520202020302E303030302053692020302020302020302020302020302020302020302020302020302020302020302020300A2020202D302E333537322020202D302E3135313020202020302E303030302043202020302020302020302020302020302020302020302020302020302020302020302020300A20202020302E333537322020202D302E3536333520202020302E303030302043202020302020302020302020302020302020302020302020302020302020302020302020300A20202020302E333537322020202D312E3338383520202020302E303030302043202020302020302020302020302020302020302020302020302020302020302020302020300A2020202D302E333537322020202D312E3830313020202020302E303030302043202020302020302020302020302020302020302020302020302020302020302020302020300A2020202D312E303731372020202D312E3338383520202020302E303030302043202020302020302020302020302020302020302020302020302020302020302020302020300A2020202D312E303731372020202D302E3536333520202020302E303030302043202020302020302020302020302020302020302020302020302020302020302020302020300A2020202D302E3035353320202020312E3830313020202020302E303030302043202020302020302020302020302020302020302020302020302020302020302020302020300A20202020302E3736393720202020302E3337323020202020302E303030302043202020302020302020302020302020302020302020302020302020302020302020302020300A20202020312E3037313720202020312E3439393020202020302E303030302043202020302020302020302020302020302020302020302020302020302020302020302020300A2020202D312E3037313720202020312E3038363520202020302E303030302043202020302020302020302020302020302020302020302020302020302020302020302020300A2020312020322020312020302020202020200A2020332020342020312020302020202020200A2020342020352020322020302020202020200A2020352020362020312020302020202020200A2020362020372020322020302020202020200A2020372020382020312020302020202020200A2020332020382020322020302020202020200A2020312020332020312020302020202020200A2020322020392020312020302020202020200A2020322031302020312020302020202020200A2020322031312020312020302020202020200A2020312031322020312020302020202020200A4D2020454E44
Contributor: FAC. TECHNOLOGY, HIROSHIMA UNIV.
InstType: EI
InstName: SHIMADZU QP-1000
IoniMethod: _ENERGY 70 eV
IonPolarity: pos
Date: 2010-10-09 19:48:36+02:00
Num Peaks: 37
51 35 52 28 53 134 55 56 57 42 59 70 65 14 66 28 67 21 68 28 
69 28 70 14 72 999 73 986 74 92 75 28 76 14 77 21 78 35 79 35 
80 14 91 14 92 14 93 14 104 126 105 155 106 35 107 28 115 21 116 28 
119 35 120 92 121 92 135 268 136 21 179 25 194 25 
