Name: ETHYL 4-NITROPHENYLACETATE
MW: 209
Formula: C10H11NO4
Synonym: MassBank: JP011478
Synonym: ETHYL 4-NITROPHENYLACETATE
Structure: 455448594C20342D4E4954524F5048454E594C414345544154452E6D6F6C0A20204368656D447261773038313131303138313932440A2031352031352020302020302020302020302020302020302020302020303939392056323030300A2020202D312E3738363220202020302E3832353020202020302E303030302043202020302020302020302020302020302020302020302020302020302020302020302020300A2020202D312E3037313720202020312E3233373520202020302E303030302043202020302020302020302020302020302020302020302020302020302020302020302020300A2020202D322E3530303620202020312E3233373520202020302E30303030204F202020302020302020302020302020302020302020302020302020302020302020302020300A2020202D312E3738363220202020302E3030303020202020302E30303030204F202020302020302020302020302020302020302020302020302020302020302020302020300A2020202D302E3335373220202020302E3832353020202020302E303030302043202020302020302020302020302020302020302020302020302020302020302020302020300A20202020302E3335373220202020312E3233373520202020302E303030302043202020302020302020302020302020302020302020302020302020302020302020302020300A20202020312E3037313720202020302E3832353020202020302E303030302043202020302020302020302020302020302020302020302020302020302020302020302020300A20202020312E3037313720202020302E3030303020202020302E303030302043202020302020302020302020302020302020302020302020302020302020302020302020300A20202020302E333537322020202D302E3431323520202020302E303030302043202020302020302020302020302020302020302020302020302020302020302020302020300A2020202D302E333537322020202D302E3030303020202020302E303030302043202020302020302020302020302020302020302020302020302020302020302020302020300A20202020312E373836322020202D302E3431323520202020302E30303030204E202020302020332020302020302020302020302020302020302020302020302020302020300A20202020312E373836322020202D312E3233373520202020302E30303030204F202020302020302020302020302020302020302020302020302020302020302020302020300A20202020322E3530303620202020302E3030303020202020302E30303030204F202020302020352020302020302020302020302020302020302020302020302020302020300A2020202D322E353030362020202D302E3431323520202020302E303030302043202020302020302020302020302020302020302020302020302020302020302020302020300A2020202D322E353030362020202D312E3233373520202020302E303030302043202020302020302020302020302020302020302020302020302020302020302020302020300A2020312020322020312020302020202020200A2020312020332020322020302020202020200A2020312020342020312020302020202020200A2020352020362020312020302020202020200A2020362020372020322020302020202020200A2020372020382020312020302020202020200A2020382020392020322020302020202020200A2020392031302020312020302020202020200A2020352031302020322020302020202020200A2020322020352020312020302020202020200A2031312031322020322020302020202020200A2031312031332020312020302020202020200A2020382031312020312020302020202020200A2031342031352020312020302020202020200A2020342031342020312020302020202020200A4D202043484720203220203131202020312020313320202D310A4D2020454E44
Contributor: FUJISE Y, HAMAMATSU UNIV. SCHOOL OF MEDICINE
InstType: EI
InstName: JEOL JMS-DX-300
IoniMethod: _ENERGY 70 eV
IonPolarity: pos
Date: 2010-10-09 19:48:36+02:00
Num Peaks: 54
38 31 39 163 40 31 41 15 42 12 43 54 44 14 45 57 46 36 50 53 
51 133 52 83 53 21 62 66 63 326 64 147 65 44 73 22 75 19 76 17 
77 180 78 627 79 122 87 14 88 15 89 826 90 779 91 192 92 18 105 19 
106 284 107 539 108 37 117 24 118 12 119 127 120 230 121 56 133 21 135 59 
136 714 137 999 138 84 148 19 150 15 163 33 164 155 165 51 179 19 181 59 
193 22 209 638 210 89 211 11 
