Name: MassBank: JP011214
MW: 182
Formula: C9H10O4
Synonym: MassBank: JP011214
Synonym: 2,5-DIMETHOXYBENZOIC ACID
Structure: 322C352D44494D4554484F585942454E5A4F494320414349442E6D6F6C0A20204368656D447261773132323130393031323432440A2031332031332020302020302020302020302020302020302020302020303939392056323030300A2020202D312E343433382020202D302E3335373220202020302E303030302043202020302020302020302020302020302020302020302020302020302020302020302020300A2020202D302E363138382020202D302E3335373220202020302E303030302043202020302020302020302020302020302020302020302020302020302020302020302020300A2020202D302E3230363220202020302E3335373220202020302E303030302043202020302020302020302020302020302020302020302020302020302020302020302020300A20202020302E3631383720202020302E3335373220202020302E303030302043202020302020302020302020302020302020302020302020302020302020302020302020300A20202020312E303331332020202D302E3335373220202020302E303030302043202020302020302020302020302020302020302020302020302020302020302020302020300A20202020302E363138382020202D312E3037313720202020302E303030302043202020302020302020302020302020302020302020302020302020302020302020302020300A2020202D302E323036322020202D312E3037313720202020302E303030302043202020302020302020302020302020302020302020302020302020302020302020302020300A2020202D312E383536332020202D312E3037313720202020302E30303030204F202020302020302020302020302020302020302020302020302020302020302020302020300A2020202D312E3835363320202020302E3335373220202020302E30303030204F202020302020302020302020302020302020302020302020302020302020302020302020300A20202020312E303331332020202D312E3738363220202020302E30303030204F202020302020302020302020302020302020302020302020302020302020302020302020300A20202020312E383536332020202D312E3738363220202020302E303030302043202020302020302020302020302020302020302020302020302020302020302020302020300A2020202D302E3631383820202020312E3037313720202020302E30303030204F202020302020302020302020302020302020302020302020302020302020302020302020300A2020202D302E3230363320202020312E3738363220202020302E303030302043202020302020302020302020302020302020302020302020302020302020302020302020300A2020312020322020312020302020202020200A2020322020332020312020302020202020200A2020332020342020322020302020202020200A2020342020352020312020302020202020200A2020352020362020322020302020202020200A2020362020372020312020302020202020200A2020322020372020322020302020202020200A2020312020382020322020302020202020200A2020312020392020312020302020202020200A2031302031312020312020302020202020200A2020362031302020312020302020202020200A2031322031332020312020302020202020200A2020332031322020312020302020202020200A4D2020454E44
Contributor: MASS SPECTROSCOPY SOC. OF JAPAN (MSSJ)
InstType: EI
InstName: SHIMADZU QP-1000EX
IoniMethod: _ENERGY 20 eV
IonPolarity: pos
Date: 2010-10-09 19:48:36+02:00
Num Peaks: 50
39 23 41 59 43 19 51 24 52 27 53 36 55 44 59 13 63 21 64 16 
65 64 67 17 68 20 69 27 77 80 79 120 80 36 81 14 92 43 93 35 
94 30 95 163 96 30 106 24 107 245 108 113 109 160 110 14 111 76 122 30 
123 112 124 14 133 16 135 427 136 74 137 32 139 17 149 31 150 38 151 23 
153 61 163 46 164 20 165 65 166 24 167 399 168 36 182 999 183 99 184 13 
