Name: 4-METHOXY-2-METHYL-3-TRIMETHYLSILYLMETHYL-1-UNDECENE
MW: 284
Formula: C17H36OSi
Synonym: MassBank: JP010951
Synonym: 4-METHOXY-2-METHYL-3-TRIMETHYLSILYLMETHYL-1-UNDECENE
Structure: 342D4D4554484F58592D322D4D455448594C2D332D5452494D455448594C53494C594C4D455448594C2D312D554E444543454E452E6D6F6C0A20204368656D447261773034323031303131323632440A2031392031382020302020302020302020302020302020302020302020303939392056323030300A20202020322E353030362020202D312E3338383520202020302E303030302043202020302020302020302020302020302020302020302020302020302020302020302020300A20202020322E353030362020202D302E3536333520202020302E303030302043202020302020302020302020302020302020302020302020302020302020302020302020300A20202020312E373836322020202D302E3135313020202020302E303030302043202020302020302020302020302020302020302020302020302020302020302020302020300A20202020312E303731372020202D302E3536333520202020302E303030302043202020302020302020302020302020302020302020302020302020302020302020302020300A20202020312E303731372020202D312E3338383520202020302E303030302043202020302020302020302020302020302020302020302020302020302020302020302020300A20202020302E333537322020202D312E3830313020202020302E303030302043202020302020302020302020302020302020302020302020302020302020302020302020300A2020202D302E333537322020202D312E3338383520202020302E303030302043202020302020302020302020302020302020302020302020302020302020302020302020300A2020202D312E303731372020202D312E3830313020202020302E303030302043202020302020302020302020302020302020302020302020302020302020302020302020300A2020202D312E373836322020202D312E3338383520202020302E303030302043202020302020302020302020302020302020302020302020302020302020302020302020300A2020202D322E353030362020202D312E3830313020202020302E303030302043202020302020302020302020302020302020302020302020302020302020302020302020300A2020202D332E323135312020202D312E3338383520202020302E303030302043202020302020302020302020302020302020302020302020302020302020302020302020300A20202020312E3738363220202020302E3637343020202020302E303030302043202020302020302020302020302020302020302020302020302020302020302020302020300A20202020312E3037313720202020312E3038363520202020302E303030302053692020302020302020302020302020302020302020302020302020302020302020302020300A20202020312E3438343220202020312E3830313020202020302E303030302043202020302020302020302020302020302020302020302020302020302020302020302020300A20202020302E3635393220202020302E3337323020202020302E303030302043202020302020302020302020302020302020302020302020302020302020302020302020300A20202020302E3335373220202020312E3439393020202020302E303030302043202020302020302020302020302020302020302020302020302020302020302020302020300A20202020332E323135312020202D302E3135313020202020302E303030302043202020302020302020302020302020302020302020302020302020302020302020302020300A20202020302E333537322020202D302E3135313020202020302E30303030204F202020302020302020302020302020302020302020302020302020302020302020302020300A2020202D302E333537322020202D302E3536333520202020302E303030302043202020302020302020302020302020302020302020302020302020302020302020302020300A2020312020322020322020302020202020200A2020322020332020312020302020202020200A2020332020342020312020302020202020200A2020342020352020312020302020202020200A2020352020362020312020302020202020200A2020362020372020312020302020202020200A2020372020382020312020302020202020200A2020382020392020312020302020202020200A2020392031302020312020302020202020200A2031302031312020312020302020202020200A2031332031342020312020312020202020200A2031332031352020312020312020202020200A2031332031362020312020302020202020200A2031322031332020312020302020202020200A2020332031322020312020302020202020200A2020322031372020312020302020202020200A2031382031392020312020302020202020200A2020342031382020312020302020202020200A4D2020454E44
Contributor: HISAHIRO HAGIWARA, INSTITUTE FOR CHEMICAL REACTION SCIENCE TOHOKU UNIV.
InstType: EI
InstName: JEOL JMS-DX-300
IoniMethod: _ENERGY 70 eV
IonPolarity: pos
Date: 2010-10-09 19:48:36+02:00
Num Peaks: 54
52 59 53 17 55 429 56 34 57 113 58 116 59 199 60 16 61 9 65 9 
66 7 67 67 68 39 69 999 70 80 71 147 72 36 73 709 74 75 75 52 
77 14 79 30 80 6 81 97 82 21 83 59 84 7 85 23 89 242 90 23 
91 15 93 5 95 24 96 7 97 12 99 8 101 9 103 6 105 8 109 16 
110 14 111 322 112 33 126 9 141 20 142 55 143 626 144 78 145 6 179 12 
180 6 237 6 253 24 254 6 
