Name: MassBank: JP011007
MW: 238
Formula: C11H10O6
Synonym: MassBank: JP011007
Synonym: 2,4-DIACETOXY-5-HYDROXYTROPONE
Structure: 322C342D4449414345544F58592D352D485944524F585954524F504F4E452E6D6F6C0A20204368656D447261773132323030393133343632440A2031372031372020302020302020302020302020302020302020302020303939392056323030300A20202020302E3733353620202020312E3539393220202020302E30303030204F202020302020302020302020302020302020302020302020302020302020302020302020300A20202020302E3637333920202020302E3737363520202020302E303030302043202020302020302020302020302020302020302020302020302020302020302020302020300A20202020312E3338383420202020302E3336343020202020302E303030302043202020302020302020302020302020302020302020302020302020302020302020302020300A20202020312E353232352020202D302E3436323520202020302E303030302043202020302020302020302020302020302020302020302020302020302020302020302020300A20202020302E393339312020202D312E3034353920202020302E303030302043202020302020302020302020302020302020302020302020302020302020302020302020300A20202020302E313237352020202D302E3939343920202020302E303030302043202020302020302020302020302020302020302020302020302020302020302020302020300A2020202D302E333337322020202D302E3331333320202020302E303030302043202020302020302020302020302020302020302020302020302020302020302020302020300A2020202D302E3130343720202020302E3436333920202020302E303030302043202020302020302020302020302020302020302020302020302020302020302020302020300A20202020312E323531362020202D312E3832343620202020302E30303030204F202020302020302020302020302020302020302020302020302020302020302020302020300A2020202D302E323835302020202D312E3730393420202020302E30303030204F202020302020302020302020302020302020302020302020302020302020302020302020300A2020202D312E313130302020202D312E3730393420202020302E303030302043202020302020302020302020302020302020302020302020302020302020302020302020300A2020202D312E353232352020202D322E3432333920202020302E30303030204F202020302020302020302020302020302020302020302020302020302020302020302020300A2020202D312E353232352020202D302E3939343920202020302E303030302043202020302020302020302020302020302020302020302020302020302020302020302020300A2020202D302E3638383120202020312E3034373320202020302E30303030204F202020302020302020302020302020302020302020302020302020302020302020302020300A2020202D302E3531353220202020312E3834303520202020302E303030302043202020302020302020302020302020302020302020302020302020302020302020302020300A2020202D312E3039383620202020322E3432333920202020302E30303030204F202020302020302020302020302020302020302020302020302020302020302020302020300A20202020302E3238313720202020322E3035343020202020302E303030302043202020302020302020302020302020302020302020302020302020302020302020302020300A2020312020322020322020302020202020200A2020322020332020312020302020202020200A2020332020342020322020302020202020200A2020342020352020312020302020202020200A2020352020362020322020302020202020200A2020362020372020312020302020202020200A2020372020382020322020302020202020200A2020322020382020312020302020202020200A2020352020392020312020302020202020200A2031312031322020322020302020202020200A2031312031332020312020302020202020200A2031302031312020312020302020202020200A2020362031302020312020302020202020200A2031352031362020322020302020202020200A2031352031372020312020302020202020200A2031342031352020312020302020202020200A2020382031342020312020302020202020200A4D2020454E44
Contributor: TAKESHITA H, INST. OF ADVANCED MATERIAL STUDY KYUSHU UNIV.
InstType: EI
InstName: JEOL JMS-01-SG-2
IoniMethod: _ENERGY 75 eV
IonPolarity: pos
Date: 2010-10-09 19:48:36+02:00
Num Peaks: 21
39 14 41 19 42 69 43 999 44 33 50 11 51 13 53 11 54 20 55 17 
69 32 82 17 97 17 125 12 126 137 153 10 154 461 155 37 196 83 197 12 
238 60 
