Name: MassBank: JP011043
MW: 152
Formula: C8H8O3
Synonym: MassBank: JP011043
Synonym: 1-HYDROXY-5-METHYL-8-OXABICYCLO(3.2.1)OCTA-3,6-DIEN-2-ONE
Structure: 312D485944524F58592D352D4D455448594C2D382D4F584142494359434C4F28332E322E31294F4354412D332C362D4449454E2D322D4F4E452E6D6F6C0A20204368656D447261773131313930393134333532440A2031352031362020302020302020302020302020302020302020302020303939392056323030300A2020202D302E3832353020202020302E3731343520202020302E303030302043202020302020302020302020302020302020302020302020302020302020302020302020300A20202020302E3030303020202020302E3731343520202020302E303030302043202020302020302020302020302020302020302020302020302020302020302020302020300A20202020302E343132352020202D302E3030303020202020302E303030302043202020302020302020302020302020302020302020302020302020302020302020302020300A20202020302E303030302020202D302E3731343520202020302E303030302043202020302020302020302020302020302020302020302020302020302020302020302020300A2020202D302E383235302020202D302E3731343520202020302E303030302043202020302020302020302020302020302020302020302020302020302020302020302020300A2020202D302E323537322020202D302E3333393120202020302E303030302043202020302020302020302020302020302020302020302020302020302020302020302020300A2020202D302E3235373220202020302E3334313520202020302E303030302043202020302020302020302020302020302020302020302020302020302020302020302020300A2020202D312E323337352020202D302E3030303020202020302E30303030204F202020302020302020302020302020302020302020302020302020302020302020302020300A20202020302E3431323520202020312E3432383920202020302E30303030204F202020302020302020302020302020302020302020302020302020302020302020302020300A2020202D312E323337352020202D312E3432383920202020302E303030302043202020302020302020302020302020302020302020302020302020302020302020302020300A2020202D312E3233373520202020312E3432383920202020302E30303030204F202020302020302020302020302020302020302020302020302020302020302020302020300A20202020312E323337352020202D302E3030303020202020302E303030302048202020302020302020302020302020302020302020302020302020302020302020302020300A20202020302E343132352020202D312E3432383920202020302E303030302048202020302020302020302020302020302020302020302020302020302020302020302020300A20202020302E3436383820202020302E3733333220202020302E303030302048202020302020302020302020302020302020302020302020302020302020302020302020300A20202020302E343639342020202D302E3732393820202020302E303030302048202020302020302020302020302020302020302020302020302020302020302020302020300A2020312020322020312020302020202020200A2020322020332020312020302020202020200A2020332020342020322020302020202020200A2020342020352020312020302020202020200A2020352020362020312020302020202020200A2020362020372020322020302020202020200A2020312020372020312020302020202020200A2020312020382020312020302020202020200A2020352020382020312020302020202020200A2020322020392020322020302020202020200A2020352031302020312020302020202020200A2020312031312020312020302020202020200A2020332031322020312020302020202020200A2020342031332020312020302020202020200A2020372031342020312020302020202020200A2020362031352020312020302020202020200A4D2020454E44
Contributor: TAKESHITA H, INST. OF ADVANCED MATERIAL STUDY KYUSHU UNIV.
InstType: EI
InstName: JEOL JMS-01-SG-2
IoniMethod: _ENERGY 75 eV
IonPolarity: pos
Date: 2010-10-09 19:48:36+02:00
Num Peaks: 37
38 90 39 301 41 99 42 63 43 607 46 105 51 193 52 357 53 266 54 348 
55 89 56 212 63 110 67 75 69 68 77 473 78 272 79 719 80 214 81 195 
82 110 95 144 96 63 97 85 98 145 106 102 107 510 108 999 110 105 111 214 
112 32 123 38 124 35 134 28 135 15 137 14 153 22 
