Name: MassBank: JP010352
MW: 422
Formula: C23H34O7
Synonym: MassBank: JP010352
Synonym: ETHYL 3-((E)-5-ETHOXYCARBONYL-4-PENTENYL)-6,6-ETHYLENDIOXY-3,4,4A,5,6,7,8,8A-OCTAHYDRONAPHTHALEN-1(2H)-ONE-4-CARBOXYLATE
Structure: 455448594C20332D282845292D352D4554484F5859434152424F4E594C2D342D50454E54454E594C292D362C362D455448594C454E44494F58592D332C342C34412C352C362C372C382C38412D4F435441485944524F4E4150485448414C454E2D31283248292D4F4E452D342D434152424F58594C4154452E6D6F6C0A20204368656D447261773038313131303138313032440A2033302033322020302020302020302020302020302020302020302020303939392056323030300A20202020312E343930362020202D312E3635303020202020302E303030302043202020302020302020302020302020302020302020302020302020302020302020302020300A20202020302E373736312020202D312E3233373520202020302E303030302043202020302020302020302020302020302020302020302020302020302020302020302020300A20202020302E373736312020202D302E3431323520202020302E303030302043202020302020302020302020302020302020302020302020302020302020302020302020300A20202020312E3439303620202020302E3030303020202020302E303030302043202020302020302020302020302020302020302020302020302020302020302020302020300A20202020322E323035302020202D302E3431323520202020302E303030302043202020302020302020302020302020302020302020302020302020302020302020302020300A20202020322E3931393520202020302E3030303020202020302E303030302043202020302020302020302020302020302020302020302020302020302020302020302020300A20202020332E363334302020202D302E3431323520202020302E303030302043202020302020302020302020302020302020302020302020302020302020302020302020300A20202020332E363334302020202D312E3233373520202020302E303030302043202020302020302020302020302020302020302020302020302020302020302020302020300A20202020322E393139352020202D312E3635303020202020302E303030302043202020302020302020302020302020302020302020302020302020302020302020302020300A20202020322E323035302020202D312E3233373520202020302E303030302043202020302020302020302020302020302020302020302020302020302020302020302020300A20202020312E343930362020202D322E3437353020202020302E30303030204F202020302020302020302020302020302020302020302020302020302020302020302020300A20202020312E3439303620202020302E3832353020202020302E303030302043202020302020302020302020302020302020302020302020302020302020302020302020300A20202020322E3230353020202020312E3233373520202020302E30303030204F202020302020302020302020302020302020302020302020302020302020302020302020300A20202020302E3737363120202020312E3233373520202020302E30303030204F202020302020302020302020302020302020302020302020302020302020302020302020300A20202020342E3532373220202020302E3537393520202020302E303030302043202020302020302020302020302020302020302020302020302020302020302020302020300A20202020342E393339372020202D302E3133353020202020302E303030302043202020302020302020302020302020302020302020302020302020302020302020302020300A20202020332E3732303220202020302E3430383020202020302E30303030204F202020302020302020302020302020302020302020302020302020302020302020302020300A20202020342E333837362020202D302E3734383120202020302E30303030204F202020302020302020302020302020302020302020302020302020302020302020302020300A20202020302E3036313620202020302E3030303020202020302E303030302043202020302020302020302020302020302020302020302020302020302020302020302020300A2020202D302E363532392020202D302E3431323520202020302E303030302043202020302020302020302020302020302020302020302020302020302020302020302020300A2020202D312E333637332020202D302E3030303020202020302E303030302043202020302020302020302020302020302020302020302020302020302020302020302020300A2020202D322E303831382020202D302E3431323520202020302E303030302043202020302020302020302020302020302020302020302020302020302020302020302020300A2020202D322E373936332020202D302E3030303020202020302E303030302043202020302020302020302020302020302020302020302020302020302020302020302020300A2020202D332E353130372020202D302E3431323520202020302E303030302043202020302020302020302020302020302020302020302020302020302020302020302020300A2020202D342E323235322020202D302E3030303020202020302E30303030204F202020302020302020302020302020302020302020302020302020302020302020302020300A2020202D332E353130372020202D312E3233373520202020302E30303030204F202020302020302020302020302020302020302020302020302020302020302020302020300A2020202D342E323235322020202D312E3635303020202020302E303030302043202020302020302020302020302020302020302020302020302020302020302020302020300A2020202D342E393339372020202D312E3233373520202020302E303030302043202020302020302020302020302020302020302020302020302020302020302020302020300A20202020302E3737363120202020322E3036323520202020302E303030302043202020302020302020302020302020302020302020302020302020302020302020302020300A20202020302E3036313620202020322E3437353020202020302E303030302043202020302020302020302020302020302020302020302020302020302020302020302020300A2020312020322020312020302020202020200A2020322020332020312020302020202020200A2020332020342020312020302020202020200A2020342020352020312020302020202020200A2020352020362020312020302020202020200A2020362020372020312020302020202020200A2020372020382020312020302020202020200A2020382020392020312020302020202020200A2020392031302020312020302020202020200A2020312031302020312020302020202020200A2020352031302020312020302020202020200A2020312031312020322020302020202020200A2031322031332020322020302020202020200A2031322031342020312020302020202020200A2020342031322020312020302020202020200A2031352031362020312020302020202020200A2031352031372020312020302020202020200A2031362031382020312020302020202020200A2020372031372020312020302020202020200A2020372031382020312020302020202020200A2031392032302020312020302020202020200A2032302032312020312020302020202020200A2032312032322020312020302020202020200A2032322032332020322020302020202020200A2032342032352020322020302020202020200A2032372032382020312020302020202020200A2032362032372020312020302020202020200A2032342032362020312020302020202020200A2032332032342020312020302020202020200A2020332031392020312020302020202020200A2032392033302020312020302020202020200A2031342032392020312020302020202020200A4D2020454E44
Contributor: HISAHIRO HAGIWARA, CHEMICAL RESEARCH INSTITUTE OF NON-AQUEOUSSOLUTIONS TOHOKU UNIV.
InstType: EI
InstName: JEOL JMS-DX-300
IoniMethod: _ENERGY 70 eV
IonPolarity: pos
Date: 2010-10-09 19:48:36+02:00
Num Peaks: 48
39 20 40 24 41 59 42 63 43 234 44 102 45 45 53 27 55 125 57 45 
61 34 67 43 69 23 70 30 71 24 73 47 77 29 79 39 81 53 86 308 
87 186 88 23 91 31 93 34 95 37 99 999 100 97 107 24 112 42 113 22 
121 26 123 20 125 47 139 39 140 100 141 32 163 20 167 47 181 20 182 29 
209 33 283 25 291 56 331 42 337 87 338 21 377 64 422 49 
