Name: MassBank: JP011796
MW: 128
Formula: C7H6F2
Synonym: MassBank: JP011796
Synonym: 2,4-DIFLUOROTOLUENE
Structure: 310A32330A322C342D4449464C554F524F544F4C55454E452E6D6F6C0A20204368656D447261773132323030393138333532440A2020392020392020302020302020302020302020302020302020302020303939392056323030300A20202020302E373134352020202D302E3431323520202020302E303030302043202020302020302020302020302020302020302020302020302020302020302020302020300A20202020302E3731343520202020302E3431323520202020302E303030302043202020302020302020302020302020302020302020302020302020302020302020302020300A2020202D302E3731343520202020302E3431323520202020302E303030302043202020302020302020302020302020302020302020302020302020302020302020302020300A2020202D302E303030302020202D302E3832353020202020302E303030302043202020302020302020302020302020302020302020302020302020302020302020302020300A2020202D302E3030303020202020302E3832353020202020302E303030302043202020302020302020302020302020302020302020302020302020302020302020302020300A2020202D302E373134352020202D302E3431323520202020302E303030302043202020302020302020302020302020302020302020302020302020302020302020302020300A20202020312E343238392020202D302E3832353020202020302E303030302043202020302020302020302020302020302020302020302020302020302020302020302020300A2020202D312E3432383920202020302E3832353020202020302E303030302046202020302020302020302020302020302020302020302020302020302020302020302020300A20202020312E3432383920202020302E3832353020202020302E303030302046202020302020302020302020302020302020302020302020302020302020302020302020300A2020312020322020312020302020202020200A2020312020342020322020302020202020200A2020322020352020322020302020202020200A2020332020352020312020302020202020200A2020332020362020322020302020202020200A2020342020362020312020302020202020200A2020312020372020312020302020202020200A2020332020382020312020302020202020200A2020322020392020312020302020202020200A4D2020454E44
Contributor: TAJIMA S, GUNMA COLLEGE OF TECHNOLOGY
InstType: EI
InstName: HITACHI M-80A
IoniMethod: _ENERGY 70 eV
IonPolarity: pos
Date: 2010-10-09 19:48:36+02:00
Num Peaks: 44
26 17 27 20 31 66 33 11 37 19 38 28 39 41 43 10 44 23 49 12 
50 68 51 80 54 19 56 24 57 91 61 29 62 36 63 58 64 22 68 17 
69 14 70 11 74 30 75 75 76 15 77 33 78 12 80 16 81 62 82 10 
83 27 85 11 86 11 99 15 101 109 105 11 107 73 108 16 109 52 125 39 
126 39 127 999 128 524 129 37 
