Name: SUCCINIC ACID
CAS: 110-15-6
MW: 118
Formula: C4H6O4
Synonym: MassBank: JP011660
Synonym: SUCCINIC ACID
Structure: 310A32300A53554343494E494320414349442E6D6F6C0A20204368656D447261773038313231303036353632440A2020382020372020302020302020302020302020302020302020302020303939392056323030300A20202020312E3037313720202020302E3230363320202020302E303030302043202020302020302020302020302020302020302020302020302020302020302020302020300A20202020302E333537322020202D302E3230363220202020302E303030302043202020302020302020302020302020302020302020302020302020302020302020302020300A2020202D302E3335373220202020302E3230363220202020302E303030302043202020302020302020302020302020302020302020302020302020302020302020302020300A2020202D312E303731372020202D302E3230363220202020302E303030302043202020302020302020302020302020302020302020302020302020302020302020302020300A20202020312E3037313720202020312E3033313320202020302E30303030204F202020302020302020302020302020302020302020302020302020302020302020302020300A20202020312E373836322020202D302E3230363220202020302E30303030204F202020302020302020302020302020302020302020302020302020302020302020302020300A2020202D312E303731372020202D312E3033313320202020302E30303030204F202020302020302020302020302020302020302020302020302020302020302020302020300A2020202D312E3738363220202020302E3230363220202020302E30303030204F202020302020302020302020302020302020302020302020302020302020302020302020300A2020312020322020312020302020202020200A2020322020332020312020302020202020200A2020332020342020312020302020202020200A2020312020352020322020302020202020200A2020312020362020312020302020202020200A2020342020372020322020302020202020200A2020342020382020312020302020202020200A4D2020454E44
Contributor: YAMAMOTO M, DEP. CHEMISTRY, FAC. SCIENCE, NARA WOMEN'S UNIV.
InstType: EI
InstName: HITACHI M-2500
IoniMethod: _ENERGY 70 eV
IonPolarity: pos
Date: 2010-10-09 19:48:36+02:00
Num Peaks: 33
14 25 15 22 18 33 19 19 25 21 26 161 27 548 28 575 29 340 30 91 
31 54 41 14 42 92 43 75 44 38 45 808 46 87 47 33 53 40 54 15 
55 999 56 256 57 25 63 10 71 15 72 180 73 662 74 899 75 33 100 615 
101 469 102 22 119 18 
