Name: MassBank: JP010299
MW: 240
Formula: C14H12N2O2
Synonym: MassBank: JP010299
Synonym: 4-CYANOMETHYL-3-METHYL-1-PARA-TOLYL-3-PYRROLINE-2,5-DIONE
Structure: 342D4359414E4F4D455448594C2D332D4D455448594C2D312D504152412D544F4C594C2D332D505952524F4C494E452D322C352D44494F4E452E6D6F6C0A20204368656D447261773033323531303131343532440A2031382031392020302020302020302020302020302020302020302020303939392056323030300A2020202D302E3037323220202020302E3030303020202020302E30303030204E202020302020302020302020302020302020302020302020302020302020302020302020300A20202020302E3431323820202020302E3636373420202020302E303030302043202020302020302020302020302020302020302020302020302020302020302020302020300A20202020312E3139373420202020302E3431323520202020302E303030302043202020302020302020302020302020302020302020302020302020302020302020302020300A20202020312E313937342020202D302E3431323520202020302E303030302043202020302020302020302020302020302020302020302020302020302020302020302020300A20202020302E343132382020202D302E3636373420202020302E303030302043202020302020302020302020302020302020302020302020302020302020302020302020300A20202020302E3135373820202020312E3435323120202020302E30303030204F202020302020302020302020302020302020302020302020302020302020302020302020300A20202020302E313537382020202D312E3435323120202020302E30303030204F202020302020302020302020302020302020302020302020302020302020302020302020300A2020202D302E3839373220202020302E3030303020202020302E303030302043202020302020302020302020302020302020302020302020302020302020302020302020300A2020202D312E333039372020202D302E3731343520202020302E303030302043202020302020302020302020302020302020302020302020302020302020302020302020300A2020202D322E3534373220202020302E3030303020202020302E303030302043202020302020302020302020302020302020302020302020302020302020302020302020300A2020202D312E3330393720202020302E3731343520202020302E303030302043202020302020302020302020302020302020302020302020302020302020302020302020300A2020202D322E313334372020202D302E3731343520202020302E303030302043202020302020302020302020302020302020302020302020302020302020302020302020300A2020202D322E3133343720202020302E3731343520202020302E303030302043202020302020302020302020302020302020302020302020302020302020302020302020300A2020202D332E3337323220202020302E3030303020202020302E303030302043202020302020302020302020302020302020302020302020302020302020302020302020300A20202020312E3836343820202020302E3839373420202020302E303030302043202020302020302020302020302020302020302020302020302020302020302020302020300A20202020312E383634382020202D302E3839373420202020302E303030302043202020302020302020302020302020302020302020302020302020302020302020302020300A20202020322E363138352020202D302E3536313920202020302E303030302043202020302020302020302020302020302020302020302020302020302020302020302020300A20202020332E333732322020202D302E3232363320202020302E30303030204E202020302020302020302020302020302020302020302020302020302020302020302020300A2020312020322020312020302020202020200A2020322020332020312020302020202020200A2020332020342020322020302020202020200A2020342020352020312020302020202020200A2020312020352020312020302020202020200A2020322020362020322020302020202020200A2020352020372020322020302020202020200A2020382020392020312020302020202020200A2020382031312020322020302020202020200A2020392031322020322020302020202020200A2031302031322020312020302020202020200A2031302031332020322020302020202020200A2031312031332020312020302020202020200A2031302031342020312020302020202020200A2020312020382020312020302020202020200A2020332031352020312020302020202020200A2031372031382020332020302020202020200A2031362031372020312020302020202020200A2020342031362020312020302020202020200A4D2020454E44
Contributor: KANEMASA S, INST. OF ADVANCED MATERIAL STUDY KYUSHU UNIV.
InstType: EI
InstName: JEOL JMS-01-SG-2
IoniMethod: _ENERGY 75 eV
IonPolarity: pos
Date: 2010-10-09 19:48:36+02:00
Num Peaks: 29
39 140 41 71 50 51 51 158 52 278 53 92 65 66 77 150 78 170 79 121 
91 135 104 135 105 65 106 46 107 61 132 169 133 86 156 197 157 65 169 111 
184 62 185 67 197 72 211 46 212 58 213 106 239 55 240 999 241 181 
