Name: SPIRO(3.4)SILAOCTANE
MW: 126
Formula: C7H14Si
Synonym: MassBank: JP011604
Synonym: SPIRO(3.4)SILAOCTANE
Structure: 310A32320A303535365F535049524F28332E342953494C414F4354414E452E6D6F6C0A20204368656D447261773038323031303035333732440A2020382020392020302020302020302020302020302020302020302020303939392056323030300A20202020302E3633343820202020302E3538333420202020302E303030302043202020302020302020302020302020302020302020302020302020302020302020302020300A20202020312E3231383120202020302E3030303020202020302E303030302043202020302020302020302020302020302020302020302020302020302020302020302020300A20202020302E363334382020202D302E3538333420202020302E303030302043202020302020302020302020302020302020302020302020302020302020302020302020300A20202020302E3035313420202020302E3030303020202020302E303030302053692020302020302020302020302020302020302020302020302020302020302020302020300A2020202D302E343333352020202D302E3636373420202020302E303030302043202020302020302020302020302020302020302020302020302020302020302020302020300A2020202D312E323138312020202D302E3431323520202020302E303030302043202020302020302020302020302020302020302020302020302020302020302020302020300A2020202D312E3231383120202020302E3431323520202020302E303030302043202020302020302020302020302020302020302020302020302020302020302020302020300A2020202D302E3433333520202020302E3636373420202020302E303030302043202020302020302020302020302020302020302020302020302020302020302020302020300A2020312020322020312020302020202020200A2020322020332020312020302020202020200A2020332020342020312020302020202020200A2020342020352020312020302020202020200A2020352020362020312020302020202020200A2020362020372020312020302020202020200A2020372020382020312020302020202020200A2020312020342020312020302020202020200A2020342020382020312020302020202020200A4D2020454E44
Contributor: YAMAMOTO M, DEP. CHEMISTRY, FAC. SCIENCE, NARA WOMEN'S UNIV.
InstType: EI
InstName: HITACHI RMU-6M
IoniMethod: _ENERGY 70 eV
IonPolarity: pos
Date: 2010-10-09 19:48:36+02:00
Num Peaks: 39
27 34 28 33 29 47 31 16 39 39 41 19 42 141 43 232 44 38 45 44 
53 50 54 23 55 182 56 68 57 78 58 18 59 11 66 19 67 45 68 17 
69 62 70 516 71 74 72 25 81 16 82 20 83 215 84 61 85 92 86 11 
95 16 96 60 97 226 98 999 99 124 100 43 126 331 127 45 128 15 
