Name: 3-MERCAPTOPROPIONIC ACID
MW: 106
Formula: C3H6O2S
Synonym: MassBank: JP012064
Synonym: 3-MERCAPTOPROPIONIC ACID
Structure: 310A31360A332D4D4552434150544F50524F50494F4E494320414349442E6D6F6C0A20204368656D447261773032323231303231353832440A2020362020352020302020302020302020302020302020302020302020303939392056323030300A20202020302E373134352020202D302E3230363220202020302E303030302043202020302020302020302020302020302020302020302020302020302020302020302020300A20202020302E303030302020202D302E3631383820202020302E303030302043202020302020302020302020302020302020302020302020302020302020302020302020300A2020202D302E373134352020202D302E3230363220202020302E303030302043202020302020302020302020302020302020302020302020302020302020302020302020300A20202020302E3731343520202020302E3631383820202020302E30303030204F202020302020302020302020302020302020302020302020302020302020302020302020300A20202020312E343238392020202D302E3631383820202020302E30303030204F202020302020302020302020302020302020302020302020302020302020302020302020300A2020202D312E343238392020202D302E3631383820202020302E303030302053202020302020302020302020302020302020302020302020302020302020302020302020300A2020312020322020312020302020202020200A2020322020332020312020302020202020200A2020312020342020322020302020202020200A2020312020352020312020302020202020200A2020332020362020312020302020202020200A4D2020454E44
Contributor: SUMITA Y, KYOTO COLLEGE OF PHARMACY
InstType: EI
InstName: HITACHI M-80
IoniMethod: _ENERGY 20 eV
IonPolarity: pos
Date: 2010-10-09 19:48:36+02:00
Num Peaks: 28
26 11 27 196 28 431 29 91 31 11 34 35 35 91 42 66 43 87 45 223 
46 91 47 294 49 14 55 134 58 20 59 99 60 498 61 232 62 28 63 21 
73 92 87 33 88 460 89 47 90 23 106 999 107 52 108 49 
