Name: 2-(TRIFLUOROMETHYL)CINNAMIC ACID
MW: 216
Formula: C10H7F3O2
Synonym: MassBank: JP011253
Synonym: 2-(TRIFLUOROMETHYL)CINNAMIC ACID
Structure: 322D28545249464C554F524F4D455448594C2943494E4E414D494320414349442E6D6F6C0A20204368656D447261773132323130393231323132440A2031352031352020302020302020302020302020302020302020302020303939392056323030300A20202020312E3438343220202020302E3030303020202020302E303030302043202020302020302020302020302020302020302020302020302020302020302020302020300A20202020302E373639372020202D302E3431323520202020302E303030302043202020302020302020302020302020302020302020302020302020302020302020302020300A20202020302E3035353320202020302E3030303020202020302E303030302043202020302020302020302020302020302020302020302020302020302020302020302020300A2020202D302E363539322020202D302E3431323520202020302E303030302043202020302020302020302020302020302020302020302020302020302020302020302020300A2020202D312E3337333720202020302E3030303020202020302E303030302043202020302020302020302020302020302020302020302020302020302020302020302020300A2020202D322E303838312020202D302E3431323520202020302E303030302043202020302020302020302020302020302020302020302020302020302020302020302020300A2020202D322E303838312020202D312E3233373520202020302E303030302043202020302020302020302020302020302020302020302020302020302020302020302020300A2020202D312E333733372020202D312E3635303020202020302E303030302043202020302020302020302020302020302020302020302020302020302020302020302020300A2020202D302E363539322020202D312E3233373520202020302E303030302043202020302020302020302020302020302020302020302020302020302020302020302020300A20202020322E313938372020202D302E3431323520202020302E30303030204F202020302020302020302020302020302020302020302020302020302020302020302020300A20202020312E3438343220202020302E3832353020202020302E30303030204F202020302020302020302020302020302020302020302020302020302020302020302020300A2020202D312E3337333720202020302E3832353020202020302E303030302043202020302020302020302020302020302020302020302020302020302020302020302020300A2020202D302E3534383720202020302E3832353020202020302E303030302046202020302020302020302020302020302020302020302020302020302020302020302020300A2020202D312E3337333720202020312E3635303020202020302E303030302046202020302020302020302020302020302020302020302020302020302020302020302020300A2020202D322E3139383720202020302E3832353020202020302E303030302046202020302020302020302020302020302020302020302020302020302020302020302020300A2020312020322020312020302020202020200A2020322020332020322020302020202020200A2020332020342020312020302020202020200A2020342020352020312020302020202020200A2020352020362020322020302020202020200A2020362020372020312020302020202020200A2020372020382020322020302020202020200A2020382020392020312020302020202020200A2020342020392020322020302020202020200A2020312031302020322020302020202020200A2020312031312020312020302020202020200A2031322031332020312020312020202020200A2031322031342020312020302020202020200A2031322031352020312020312020202020200A2020352031322020312020302020202020200A4D2020454E44
Contributor: MASS SPECTROSCOPY SOC. OF JAPAN (MSSJ)
InstType: EI
InstName: SHIMADZU QP-1000EX
IoniMethod: _ENERGY 20 eV
IonPolarity: pos
Date: 2010-10-09 19:48:36+02:00
Num Peaks: 31
45 16 71 15 77 14 91 74 101 22 102 22 103 131 104 15 119 11 120 18 
125 9 127 12 133 31 140 22 145 11 147 999 148 126 149 29 151 413 152 44 
155 15 159 12 167 12 168 28 169 34 170 29 171 26 199 36 215 42 216 167 
217 20 
