Name: (D3)METHYL A-D-GLUCOSIDE
MW: 194
Formula: C7H14O6
Synonym: MassBank: JP011454
Synonym: (D3)METHYL A-D-GLUCOSIDE
Structure: 284433294D455448594C20412D442D474C55434F534944452E6D6F6C0A20204368656D447261773130323230393035313832440A2032312032312020302020302020302020302020302020302020302020303939392056323030300A2020202D312E3139323620202020302E3336383820202020302E303030302043202020302020302020302020302020302020302020302020302020302020302020302020300A2020202D322E333832342020202D302E3533373320202020302E303030302043202020302020302020302020302020302020302020302020302020302020302020302020300A2020202D312E313932362020202D312E3433313420202020302E303030302043202020302020302020302020302020302020302020302020302020302020302020302020300A20202020302E363639362020202D312E3433313420202020302E303030302043202020302020302020302020302020302020302020302020302020302020302020302020300A20202020312E393037312020202D302E3533373320202020302E303030302043202020302020302020302020302020302020302020302020302020302020302020302020300A20202020302E3636393620202020302E3336383820202020302E30303030204F202020302020302020302020302020302020302020302020302020302020302020302020300A2020202D322E3338323420202020302E3232333420202020302E30303030204F202020302020302020302020302020302020302020302020302020302020302020302020300A2020202D322E333832342020202D312E3433313420202020302E303030302048202020302020302020302020302020302020302020302020302020302020302020302020300A20202020312E3930373120202020302E3331383720202020302E303030302048202020302020302020302020302020302020302020302020302020302020302020302020300A20202020312E393037312020202D312E3335303320202020302E303030302043202020302020302020302020302020302020302020302020302020302020302020302020300A20202020302E363639362020202D302E3633323620202020302E30303030204F202020302020302020302020302020302020302020302020302020302020302020302020300A20202020302E363639362020202D322E3235363420202020302E303030302048202020302020302020302020302020302020302020302020302020302020302020302020300A2020202D312E313932362020202D322E3235363420202020302E30303030204F202020302020302020302020302020302020302020302020302020302020302020302020300A2020202D312E313932362020202D302E3638303320202020302E303030302048202020302020302020302020302020302020302020302020302020302020302020302020300A2020202D312E3139323620202020312E3132393420202020302E30303030204F202020302020302020302020302020302020302020302020302020302020302020302020300A2020202D312E323034352020202D302E3232373320202020302E303030302048202020302020302020302020302020302020302020302020302020302020302020302020300A20202020322E363231362020202D312E3736323820202020302E30303030204F202020302020302020302020302020302020302020302020302020302020302020302020300A2020202D312E3930373120202020312E3534313920202020302E303030302043202020302020302020302020302020302020302020302020302020302020302020302020300A2020202D322E3632313620202020312E3935343420202020302E303030302048202020322020302020302020302020302020302020302020302020302020302020302020300A2020202D312E3439343620202020322E3235363420202020302E303030302048202020322020302020302020302020302020302020302020302020302020302020302020300A2020202D322E3331393620202020302E3832373520202020302E303030302048202020322020302020302020302020302020302020302020302020302020302020302020300A2020312020322020312020302020202020200A2020322020332020312020302020202020200A2020332020342020312020302020202020200A2020342020352020312020302020202020200A2020352020362020312020302020202020200A2020312020362020312020302020202020200A2020322020372020312020302020202020200A2020322020382020312020302020202020200A2020352020392020312020302020202020200A2020352031302020312020302020202020200A2020342031312020312020302020202020200A2020342031322020312020302020202020200A2020332031332020312020302020202020200A2020332031342020312020302020202020200A2020312031352020312020302020202020200A2020312031362020312020302020202020200A2031302031372020312020302020202020200A2031352031382020312020302020202020200A2031382031392020312020302020202020200A2031382032302020312020302020202020200A2031382032312020312020302020202020200A4D202049534F2020332020313920202033202032302020203320203231202020330A4D2020454E44
Contributor: FUJISE Y, HAMAMATSU UNIV. SCHOOL OF MEDICINE
InstType: EI
InstName: JEOL JMS-DX-300
IoniMethod: _ENERGY 70 eV
IonPolarity: pos
Date: 2010-10-09 19:48:36+02:00
Num Peaks: 101
33 116 34 11 35 18 36 454 37 23 38 16 39 204 40 61 41 370 42 662 
43 717 44 772 45 545 46 134 47 105 48 428 49 18 51 15 52 11 53 74 
54 80 55 492 56 539 57 836 58 213 59 505 60 999 61 657 62 116 63 24 
64 772 65 70 66 11 67 21 68 48 69 431 70 414 71 752 72 150 73 910 
74 81 75 180 76 63 77 890 78 509 79 56 80 16 81 63 82 27 83 59 
84 28 85 307 86 116 87 213 88 115 89 64 90 181 91 69 92 11 93 13 
94 18 95 16 96 13 97 311 98 454 99 116 100 11 101 52 102 20 103 43 
104 12 106 129 107 165 108 26 109 23 113 19 115 31 116 233 117 33 119 188 
120 43 123 28 124 123 125 20 126 15 127 68 131 181 132 32 133 16 136 74 
137 26 144 325 145 205 146 30 148 45 149 48 163 72 164 13 166 72 167 33 
198 4 
