Name: (+)-17-METHYLTESTOSTERONE
CAS: 58-18-4
MW: 302
Formula: C20H30O2
Synonym: MassBank: JP011930
Synonym: (+)-17-METHYLTESTOSTERONE
Synonym: 17-HYDROXY-17-METHYLANDROST-4-EN-3-ONE
Structure: 282B292D31372D4D455448594C544553544F535445524F4E452E6D6F6C0A20204368656D447261773130303630393133333632440A2032362032392020302020302020302020302020302020302020302020303939392056323030300A2020202D322E313935312020202D302E3934303220202020302E303030302043202020302020302020302020302020302020302020302020302020302020302020302020300A2020202D322E313935312020202D302E3131353220202020302E303030302043202020302020302020302020302020302020302020302020302020302020302020302020300A2020202D312E3438303620202020302E3239373320202020302E303030302043202020302020302020302020302020302020302020302020302020302020302020302020300A2020202D322E393039362020202D312E3335323720202020302E30303030204F202020302020302020302020302020302020302020302020302020302020302020302020300A2020202D312E343830362020202D312E3335323720202020302E303030302043202020302020302020302020302020302020302020302020302020302020302020302020300A2020202D302E373636312020202D302E3934303220202020302E303030302043202020302020302020302020302020302020302020302020302020302020302020302020300A2020202D302E303531362020202D312E3335323720202020302E303030302043202020302020302020302020302020302020302020302020302020302020302020302020300A20202020302E363632382020202D302E3934303220202020302E303030302043202020302020302020302020302020302020302020302020302020302020302020302020300A20202020302E363632382020202D302E3131353220202020302E303030302043202020302020302020302020302020302020302020302020302020302020302020302020300A20202020312E3337373320202020302E3239373320202020302E303030302043202020302020302020302020302020302020302020302020302020302020302020302020300A20202020322E3136313920202020302E3034323320202020302E303030302043202020302020302020302020302020302020302020302020302020302020302020302020300A20202020322E3634363820202020302E3730393820202020302E303030302043202020302020302020302020302020302020302020302020302020302020302020302020300A20202020322E3136313920202020312E3337373220202020302E303030302043202020302020302020302020302020302020302020302020302020302020302020302020300A20202020312E3337373320202020312E3132323320202020302E303030302043202020302020302020302020302020302020302020302020302020302020302020302020300A20202020302E3636323820202020312E3533343820202020302E303030302043202020302020302020302020302020302020302020302020302020302020302020302020300A2020202D302E3035313620202020312E3132323320202020302E303030302043202020302020302020302020302020302020302020302020302020302020302020302020300A2020202D302E3035313620202020302E3239373320202020302E303030302043202020302020302020302020302020302020302020302020302020302020302020302020300A2020202D302E373636312020202D302E3131353220202020302E303030302043202020302020302020302020302020302020302020302020302020302020302020302020300A2020202D312E343830362020202D322E3137373720202020302E303030302048202020302020302020302020302020302020302020302020302020302020302020302020300A20202020312E383035392020202D302E3737353220202020302E303030302052312020302020302020302020302020302020302020302020302020302020302020302020300A20202020312E3936323320202020322E3137373720202020302E30303030204F202020302020302020302020302020302020302020302020302020302020302020302020300A2020202D312E3139343820202020302E3935373320202020302E303030302048202020302020302020302020302020302020302020302020302020302020302020302020300A20202020312E353135322020202D312E3031353520202020302E303030302048202020302020302020302020302020302020302020302020302020302020302020302020300A2020202D302E303532392020202D302E3532363420202020302E303030302043202020302020302020302020302020302020302020302020302020302020302020302020300A20202020312E3331393720202020312E3934353320202020302E303030302043202020302020302020302020302020302020302020302020302020302020302020302020300A20202020322E3930393620202020312E3732353920202020302E303030302043202020302020302020302020302020302020302020302020302020302020302020302020300A2020312020322020312020302020202020200A2020322020332020312020302020202020200A2020312020342020322020302020202020200A2020312020352020312020302020202020200A2020352020362020322020302020202020200A2020362020372020312020302020202020200A2020372020382020312020302020202020200A2020382020392020312020302020202020200A2020392031302020312020302020202020200A2031302031312020312020302020202020200A2031312031322020312020302020202020200A2031322031332020312020302020202020200A2031332031342020312020302020202020200A2031302031342020312020302020202020200A2031342031352020312020302020202020200A2031352031362020312020302020202020200A2031362031372020312020302020202020200A2020392031372020312020302020202020200A2031372031382020312020302020202020200A2020332031382020312020302020202020200A2020362031382020312020302020202020200A2020352031392020312020302020202020200A2020392032302020312020312020202020200A2031332032312020312020312020202020200A2031372032322020312020362020202020200A2031302032332020312020362020202020200A2031382032342020312020312020202020200A2031342032352020312020302020202020200A2031332032362020312020302020202020200A4D202053545920203120202031205355500A4D2020534C4220203120202031202020310A4D202053414C20202031202031202032340A4D202053424C20202031202031202032370A4D2020534D5420202031204D650A4D2020534256202020312032372020202D362E3731333920202020352E323839390A4D202053545920203120202032205355500A4D2020534C4220203120202032202020320A4D202053414C20202032202031202032350A4D202053424C20202032202031202032380A4D2020534D5420202032204D650A4D2020534256202020322032382020202D372E3438343620202020362E353234300A4D202053545920203120202033205355500A4D2020534C4220203120202033202020330A4D202053414C20202033202031202032360A4D202053424C20202033202031202032390A4D2020534D5420202033204D650A4D2020534256202020332032392020202D362E3637393420202020362E303439370A4D2020454E44
Contributor: YAMAMOTO M, DEP. CHEMISTRY, FAC. SCIENCE, NARA WOMEN'S UNIV.
InstType: EI
InstName: HITACHI M-2500
IoniMethod: _ENERGY 70 eV
IonPolarity: pos
Date: 2010-10-09 19:48:36+02:00
Num Peaks: 125
15 32 26 10 27 104 28 50 29 189 31 27 39 132 40 35 41 342 42 53 
43 999 44 34 45 80 51 33 52 36 53 166 54 47 55 355 56 28 57 180 
58 263 59 86 63 14 65 85 66 64 67 209 68 77 69 61 71 743 72 76 
77 235 78 69 79 320 80 88 81 94 82 24 83 34 85 38 89 10 91 353 
92 64 93 159 94 80 95 72 96 21 97 40 103 43 104 30 105 176 106 46 
107 103 108 38 109 47 110 10 111 18 115 66 116 27 117 77 118 24 119 94 
120 40 121 73 122 38 123 43 124 49 127 11 128 41 129 49 130 19 131 61 
132 24 133 67 134 49 135 29 136 12 137 16 141 21 142 14 143 27 144 13 
145 49 146 25 147 51 148 27 149 25 155 12 157 19 158 11 159 47 160 25 
161 38 162 13 163 12 171 16 173 30 174 19 175 14 179 14 185 11 187 32 
188 14 189 16 199 18 200 12 201 16 202 28 203 12 213 15 217 17 226 10 
227 15 229 34 231 10 242 14 244 13 245 31 260 12 269 15 284 27 285 21 
287 15 302 165 303 56 304 96 305 35 
