Name: 1-DEHYDROTESTOSTERONE BENZOATE
MW: 390
Formula: C26H30O3
Synonym: MassBank: JP011423
Synonym: 1-DEHYDROTESTOSTERONE BENZOATE
Structure: 312D4445485944524F544553544F535445524F4E452042454E5A4F4154452E6D6F6C0A20204368656D447261773131313830393031323232440A2033362034302020302020302020302020302020302020302020302020303939392056323030300A2020202D322E353335372020202D312E3537313220202020302E303030302043202020302020302020302020302020302020302020302020302020302020302020302020300A2020202D322E353335372020202D322E3339363220202020302E303030302043202020302020302020302020302020302020302020302020302020302020302020302020300A2020202D312E383231332020202D322E3830383720202020302E303030302043202020302020302020302020302020302020302020302020302020302020302020302020300A2020202D312E313036382020202D322E3339363220202020302E303030302043202020302020302020302020302020302020302020302020302020302020302020302020300A2020202D312E313036382020202D312E3537313220202020302E303030302043202020302020302020302020302020302020302020302020302020302020302020302020300A2020202D312E383231332020202D312E3135383720202020302E303030302043202020302020302020302020302020302020302020302020302020302020302020302020300A2020202D302E333932332020202D322E3830383720202020302E303030302043202020302020302020302020302020302020302020302020302020302020302020302020300A20202020302E333232322020202D322E3339363220202020302E303030302043202020302020302020302020302020302020302020302020302020302020302020302020300A20202020302E333232322020202D312E3537313220202020302E303030302043202020302020302020302020302020302020302020302020302020302020302020302020300A2020202D302E333932332020202D312E3135383720202020302E303030302043202020302020302020302020302020302020302020302020302020302020302020302020300A20202020312E303336362020202D312E3135383720202020302E303030302043202020302020302020302020302020302020302020302020302020302020302020302020300A20202020312E303336362020202D302E3333333720202020302E303030302043202020302020302020302020302020302020302020302020302020302020302020302020300A20202020302E3332323220202020302E3037383820202020302E303030302043202020302020302020302020302020302020302020302020302020302020302020302020300A2020202D302E333932332020202D302E3333333720202020302E303030302043202020302020302020302020302020302020302020302020302020302020302020302020300A20202020312E383231332020202D312E3431333720202020302E303030302043202020302020302020302020302020302020302020302020302020302020302020302020300A20202020322E333036322020202D302E3734363220202020302E303030302043202020302020302020302020302020302020302020302020302020302020302020302020300A20202020312E383231332020202D302E3037383820202020302E303030302043202020302020302020302020302020302020302020302020302020302020302020302020300A2020202D312E383231332020202D302E3333333720202020302E303030302048202020302020302020302020302020302020302020302020302020302020302020302020300A2020202D332E323530322020202D312E3135383720202020302E303030302048202020302020302020302020302020302020302020302020302020302020302020302020300A2020202D312E383231332020202D332E3633333720202020302E303030302048202020302020302020302020302020302020302020302020302020302020302020302020300A2020202D332E323530322020202D322E3830383720202020302E30303030204F202020302020302020302020302020302020302020302020302020302020302020302020300A2020202D302E353233342020202D322E3135343620202020302E303030302043202020302020302020302020302020302020302020302020302020302020302020302020300A20202020312E303336362020202D312E3938333720202020302E303030302048202020302020302020302020302020302020302020302020302020302020302020302020300A20202020312E3132323920202020302E3438363820202020302E303030302043202020302020302020302020302020302020302020302020302020302020302020302020300A20202020312E3832313320202020302E3734363220202020302E30303030204F202020302020302020302020302020302020302020302020302020302020302020302020300A2020202D302E393735372020202D302E3537353420202020302E303030302048202020302020302020302020302020302020302020302020302020302020302020302020300A20202020312E343439312020202D312E3837333220202020302E303030302048202020302020302020302020302020302020302020302020302020302020302020302020300A20202020322E3630353920202020302E3137363220202020302E303030302048202020302020302020302020302020302020302020302020302020302020302020302020300A20202020322E3533353720202020312E3135383720202020302E303030302043202020302020302020302020302020302020302020302020302020302020302020302020300A20202020332E3235303220202020302E3734363220202020302E30303030204F202020302020302020302020302020302020302020302020302020302020302020302020300A20202020322E3533353720202020312E3938333720202020302E303030302043202020302020302020302020302020302020302020302020302020302020302020302020300A20202020332E3235303220202020322E3339363220202020302E303030302043202020302020302020302020302020302020302020302020302020302020302020302020300A20202020332E3235303220202020332E3232313220202020302E303030302043202020302020302020302020302020302020302020302020302020302020302020302020300A20202020322E3533353720202020332E3633333720202020302E303030302043202020302020302020302020302020302020302020302020302020302020302020302020300A20202020312E3832313320202020332E3232313220202020302E303030302043202020302020302020302020302020302020302020302020302020302020302020302020300A20202020312E3832313320202020322E3339363220202020302E303030302043202020302020302020302020302020302020302020302020302020302020302020302020300A2020312020322020312020302020202020200A2020322020332020312020302020202020200A2020332020342020322020302020202020200A2020342020352020312020302020202020200A2020352020362020312020302020202020200A2020362020312020322020302020202020200A2020342020372020312020302020202020200A2020372020382020312020302020202020200A2020382020392020312020302020202020200A2020392031302020312020302020202020200A2031302020352020312020302020202020200A2020392031312020312020302020202020200A2031312031322020312020302020202020200A2031322031332020312020302020202020200A2031332031342020312020302020202020200A2031342031302020312020302020202020200A2031312031352020312020302020202020200A2031352031362020312020302020202020200A2031362031372020312020302020202020200A2031372031322020312020302020202020200A2020362031382020312020302020202020200A2020312031392020312020302020202020200A2020332032302020312020302020202020200A2020322032312020322020302020202020200A2020352032322020312020312020202020200A2020392032332020312020312020202020200A2031322032342020312020312020202020200A2031372032352020312020312020202020200A2031302032362020312020362020202020200A2031312032372020312020362020202020200A2031372032382020312020362020202020200A2032352032392020312020302020202020200A2032392033302020322020302020202020200A2032392033312020312020302020202020200A2033312033322020322020302020202020200A2033322033332020312020302020202020200A2033332033342020322020302020202020200A2033342033352020312020302020202020200A2033352033362020322020302020202020200A2033362033312020312020302020202020200A4D2020454E44
Contributor: HASHIMOTO K, KYOTO COLLEGE OF PHARMACY
InstType: EI
InstName: HITACHI M-80
IoniMethod: _ENERGY 20 eV
IonPolarity: pos
Date: 2010-10-09 19:48:36+02:00
Num Peaks: 39
77 16 81 13 91 24 93 27 105 686 106 61 107 24 108 57 109 56 110 10 
119 23 121 53 122 999 123 102 131 20 132 13 133 73 134 73 135 23 136 22 
144 12 145 27 146 37 147 237 148 37 159 31 160 56 161 45 172 11 173 21 
174 11 225 12 227 15 253 21 268 85 269 39 375 12 390 59 391 22 
