Name: MassBank: JP010546
CAS: 34874-78-7
MW: 210
Formula: C11H14O4
Synonym: MassBank: JP010546
Synonym: METHYL 2,4-DIHYDROXY-3,5,6-TRIMETHYLBENZOATE
Structure: 4D455448594C20322C342D4449485944524F58592D332C352C362D5452494D455448594C42454E5A4F4154452E6D6F6C0A20204368656D447261773038313131303233343432440A2031352031352020302020302020302020302020302020302020302020303939392056323030300A2020202D312E3434333720202020302E3030303020202020302E303030302043202020302020302020302020302020302020302020302020302020302020302020302020300A2020202D302E3631383720202020302E3030303020202020302E303030302043202020302020302020302020302020302020302020302020302020302020302020302020300A2020202D302E3230363220202020302E3731343520202020302E303030302043202020302020302020302020302020302020302020302020302020302020302020302020300A20202020302E3631383820202020302E3731343520202020302E303030302043202020302020302020302020302020302020302020302020302020302020302020302020300A20202020312E303331332020202D302E3030303020202020302E303030302043202020302020302020302020302020302020302020302020302020302020302020302020300A20202020302E363138382020202D302E3731343520202020302E303030302043202020302020302020302020302020302020302020302020302020302020302020302020300A2020202D302E323036322020202D302E3731343520202020302E303030302043202020302020302020302020302020302020302020302020302020302020302020302020300A2020202D312E3835363320202020302E3731343520202020302E30303030204F202020302020302020302020302020302020302020302020302020302020302020302020300A2020202D312E383536332020202D302E3731343520202020302E30303030204F202020302020302020302020302020302020302020302020302020302020302020302020300A2020202D302E363138372020202D312E3432383920202020302E303030302043202020302020302020302020302020302020302020302020302020302020302020302020300A20202020312E303331332020202D312E3432383920202020302E303030302043202020302020302020302020302020302020302020302020302020302020302020302020300A20202020312E3033313320202020312E3432383920202020302E303030302043202020302020302020302020302020302020302020302020302020302020302020302020300A20202020312E383536332020202D302E3030303020202020302E30303030204F202020302020302020302020302020302020302020302020302020302020302020302020300A2020202D302E3631383720202020312E3432383920202020302E30303030204F202020302020302020302020302020302020302020302020302020302020302020302020300A2020202D312E343433372020202D312E3432383920202020302E303030302043202020302020302020302020302020302020302020302020302020302020302020302020300A2020312020322020312020302020202020200A2020322020332020312020302020202020200A2020332020342020322020302020202020200A2020342020352020312020302020202020200A2020352020362020322020302020202020200A2020362020372020312020302020202020200A2020322020372020322020302020202020200A2020312020382020322020302020202020200A2020312020392020312020302020202020200A2020372031302020312020302020202020200A2020362031312020312020302020202020200A2020342031322020312020302020202020200A2020352031332020312020302020202020200A2020332031342020312020302020202020200A2020392031352020312020302020202020200A4D2020454E44
Contributor: NARA WOMEN'S UNIVERSITY
InstType: EI
InstName: HITACHI M-80
IoniMethod: _ENERGY 70 eV
IonPolarity: pos
Date: 2010-10-09 19:48:36+02:00
Num Peaks: 57
15 81 18 34 27 65 28 20 29 31 31 34 33 32 39 103 40 19 41 61 
43 69 50 12 51 52 52 25 53 80 54 13 55 72 59 11 63 35 64 14 
65 80 66 40 67 102 69 17 77 176 78 50 79 110 80 15 81 16 83 85 
89 16 91 119 92 25 93 75 94 36 95 21 103 21 104 17 105 37 107 155 
108 24 120 11 121 97 122 63 123 29 135 26 149 177 150 999 151 109 152 11 
176 11 177 69 178 791 179 236 180 27 210 361 211 45 
