Name: METHYL ALPHA-D-GLUCOPYRANOSIDE
MW: 194
Formula: C7H14O6
Synonym: MassBank: JP011144
Synonym: METHYL ALPHA-D-GLUCOPYRANOSIDE
Structure: 313031345F4D455448594C20414C5048412D442D474C55434F505952414E4F534944452E6D6F6C0A20204368656D447261773130323031303139343732440A2031382031382020302020302020302020302020302020302020302020303939392056323030300A2020202D312E3331323220202020302E3732363020202020302E303030302043202020302020302020302020302020302020302020302020302020302020302020302020300A2020202D322E353032302020202D302E3138303020202020302E303030302043202020302020302020302020302020302020302020302020302020302020302020302020300A2020202D312E333132322020202D312E3037343220202020302E303030302043202020302020302020302020302020302020302020302020302020302020302020302020300A20202020302E353530302020202D312E3037343220202020302E303030302043202020302020302020302020302020302020302020302020302020302020302020302020300A20202020312E373837352020202D302E3138303020202020302E303030302043202020302020302020302020302020302020302020302020302020302020302020302020300A20202020302E3535303020202020302E3732363020202020302E30303030204F202020302020302020302020302020302020302020302020302020302020302020302020300A2020202D322E3530323020202020302E3538303620202020302E30303030204F202020302020302020302020302020302020302020302020302020302020302020302020300A2020202D322E353032302020202D312E3037343220202020302E303030302048202020302020302020302020302020302020302020302020302020302020302020302020300A20202020312E3738373520202020302E3637363020202020302E303030302048202020302020302020302020302020302020302020302020302020302020302020302020300A20202020312E373837352020202D302E3939333120202020302E303030302043202020302020302020302020302020302020302020302020302020302020302020302020300A20202020302E353530302020202D302E3237353420202020302E30303030204F202020302020302020302020302020302020302020302020302020302020302020302020300A20202020302E353530302020202D312E3839393220202020302E303030302048202020302020302020302020302020302020302020302020302020302020302020302020300A2020202D312E333132322020202D312E3839393220202020302E30303030204F202020302020302020302020302020302020302020302020302020302020302020302020300A2020202D312E333132322020202D302E3332333120202020302E303030302048202020302020302020302020302020302020302020302020302020302020302020302020300A2020202D312E3331323220202020312E3438363720202020302E30303030204F202020302020302020302020302020302020302020302020302020302020302020302020300A2020202D312E3332343120202020302E3132393920202020302E303030302048202020302020302020302020302020302020302020302020302020302020302020302020300A20202020322E353032302020202D312E3430353620202020302E30303030204F202020302020302020302020302020302020302020302020302020302020302020302020300A2020202D322E3032363720202020312E3839393220202020302E303030302043202020302020302020302020302020302020302020302020302020302020302020302020300A2020312020322020312020302020202020200A2020322020332020312020312020202020200A2020332020342020312020312020202020200A2020352020342020312020312020202020200A2020352020362020312020302020202020200A2020312020362020312020302020202020200A2020322020372020312020302020202020200A2020322020382020312020302020202020200A2020352020392020312020302020202020200A2020352031302020312020302020202020200A2020342031312020312020302020202020200A2020342031322020312020302020202020200A2020332031332020312020302020202020200A2020332031342020312020302020202020200A2020312031352020312020302020202020200A2020312031362020312020302020202020200A2031302031372020312020302020202020200A2031352031382020312020302020202020200A4D2020454E44
Contributor: SAWADA M, THE INST. OF SCIENTIFIC AND INDUSTRIALRESEARCH OSAKA UNIV.
InstType: EI
InstName: JEOL JMS-DX-300
IoniMethod: _ENERGY 70 eV
IonPolarity: pos
Date: 2010-10-09 19:48:36+02:00
Num Peaks: 50
27 68 33 79 34 17 39 31 40 294 41 70 42 74 43 178 44 297 45 183 
47 13 53 12 54 13 55 78 56 124 57 431 58 30 59 92 60 999 61 458 
62 17 69 102 70 84 71 213 72 39 73 677 74 707 75 135 81 13 85 100 
86 28 87 94 88 18 89 15 91 20 97 77 98 114 99 28 101 18 103 46 
104 49 116 111 117 12 121 40 127 21 131 52 133 28 144 91 145 75 163 28 
