Name: MassBank: JP010839
MW: 330
Formula: C22H34O2
Synonym: MassBank: JP010839
Synonym: (1S,2E,4E,7E,10R,11E)-10-ACETOXYCEMBRA-2,4,7,11-TETRAENE
Structure: 2831532C32452C34452C37452C3130522C313145292D31302D414345544F585943454D4252412D322C342C372C31312D5445545241454E452E6D6F6C0A20204368656D447261773130313930393134313032440A2033312033312020302020302020302020302020302020302020302020303939392056323030300A2020202D312E3139343820202020302E3333363320202020302E303030302043202020302020302020302020302020302020302020302020302020302020302020302020300A2020202D312E313934382020202D302E3438383720202020302E303030302043202020302020302020302020302020302020302020302020302020302020302020302020300A2020202D302E363131352020202D312E3037323120202020302E303030302043202020302020302020302020302020302020302020302020302020302020302020302020300A20202020302E323133352020202D312E3037323120202020302E303030302043202020302020302020302020302020302020302020302020302020302020302020302020300A20202020302E373936392020202D302E3438383720202020302E303030302043202020302020302020302020302020302020302020302020302020302020302020302020300A20202020302E3739363920202020302E3333363320202020302E303030302043202020302020302020302020302020302020302020302020302020302020302020302020300A20202020302E3231333520202020302E3931393620202020302E303030302043202020302020302020302020302020302020302020302020302020302020302020302020300A2020202D302E3631313520202020302E3931393620202020302E303030302043202020302020302020302020302020302020302020302020302020302020302020302020300A20202020312E333830332020202D312E3037323120202020302E303030302043202020302020302020302020302020302020302020302020302020302020302020302020300A20202020322E323035332020202D312E3037323120202020302E303030302043202020302020302020302020302020302020302020302020302020302020302020302020300A20202020322E373838362020202D302E3438383720202020302E303030302043202020302020302020302020302020302020302020302020302020302020302020302020300A20202020322E3738383620202020302E3333363320202020302E303030302043202020302020302020302020302020302020302020302020302020302020302020302020300A20202020322E3230353320202020302E3931393620202020302E303030302043202020302020302020302020302020302020302020302020302020302020302020302020300A20202020312E3338303320202020302E3931393620202020302E303030302043202020302020302020302020302020302020302020302020302020302020302020302020300A2020202D312E3935333120202020302E3634383220202020302E303030302048202020302020302020302020302020302020302020302020302020302020302020302020300A20202020322E353232332020202D312E3834303020202020302E303030302048202020302020302020302020302020302020302020302020302020302020302020302020300A20202020312E363234342020202D302E3438383720202020302E303030302048202020302020302020302020302020302020302020302020302020302020302020302020300A20202020322E3532323320202020312E3637373920202020302E303030302048202020302020302020302020302020302020302020302020302020302020302020302020300A20202020312E3937313220202020302E3333363320202020302E303030302048202020302020302020302020302020302020302020302020302020302020302020302020300A20202020302E3739363920202020312E3530333020202020302E303030302043202020302020302020302020302020302020302020302020302020302020302020302020300A2020202D312E343034312020202D312E3239313020202020302E30303030204F202020302020302020302020302020302020302020302020302020302020302020302020300A2020202D322E303132382020202D302E3438383720202020302E303030302048202020302020302020302020302020302020302020302020302020302020302020302020300A20202020312E3630313720202020312E3731343820202020302E303030302048202020302020302020302020302020302020302020302020302020302020302020302020300A20202020302E3030303020202020312E3238393520202020302E303030302043202020302020302020302020302020302020302020302020302020302020302020302020300A20202020312E3031303420202020322E3239393920202020302E303030302043202020302020302020302020302020302020302020302020302020302020302020302020300A2020202D322E323035332020202D312E3439393120202020302E303030302043202020302020302020302020302020302020302020302020302020302020302020302020300A2020202D322E373838362020202D302E3931353820202020302E303030302043202020302020302020302020302020302020302020302020302020302020302020302020300A2020202D322E343133302020202D322E3239393920202020302E30303030204F202020302020302020302020302020302020302020302020302020302020302020302020300A20202020302E353238342020202D312E3833333520202020302E303030302043202020302020302020302020302020302020302020302020302020302020302020302020300A2020202D302E3139393020202020302E3230353720202020302E303030302043202020302020302020302020302020302020302020302020302020302020302020302020300A20202020322E303733392020202D302E3037363220202020302E303030302043202020302020302020302020302020302020302020302020302020302020302020302020300A2020312020322020312020302020202020200A2020322020332020312020302020202020200A2020332020342020312020302020202020200A2020342020352020322020302020202020200A2020362020372020312020302020202020200A2020372020382020312020302020202020200A2020382020312020322020302020202020200A2020352020392020312020302020202020200A2020392031302020312020302020202020200A2031302031312020322020302020202020200A2031312031322020312020302020202020200A2031322031332020322020302020202020200A2031332031342020312020302020202020200A2031342020362020312020302020202020200A2020312031352020312020302020202020200A2031302031362020312020302020202020200A2020352031372020312020302020202020200A2031332031382020312020302020202020200A2031322031392020312020302020202020200A2031342032302020312020312020202020200A2020322032312020312020312020202020200A2020322032322020312020362020202020200A2031342032332020312020362020202020200A2032302032342020312020302020202020200A2032302032352020312020302020202020200A2032312032362020312020302020202020200A2032362032372020312020302020202020200A2032362032382020322020302020202020200A2020342032392020312020302020202020200A2020382033302020312020302020202020200A2031312033312020312020302020202020200A4D202053545920203120202031205355500A4D2020534C4220203120202031202020310A4D202053414C20202031202031202032390A4D202053424C20202031202031202032390A4D2020534D5420202031204D650A4D2020534256202020312032392020202D372E3038323220202020352E363138300A4D202053545920203120202032205355500A4D2020534C4220203120202032202020320A4D202053414C20202032202031202033300A4D202053424C20202032202031202033300A4D2020534D5420202032204D650A4D2020534256202020322033302020202D362E3938343620202020352E363635340A4D202053545920203120202033205355500A4D2020534C4220203120202033202020330A4D202053414C20202033202031202033310A4D202053424C20202033202031202033310A4D2020534D5420202033204D650A4D2020534256202020332033312020202D382E3131313820202020362E373931390A4D2020454E44
Contributor: HAMAMATSU UNIV. SCHOOL OF MEDICINE
InstType: EI
InstName: HITACHI RMU-6L
IoniMethod: _ENERGY 70 eV
IonPolarity: pos
Date: 2010-10-09 19:48:36+02:00
Num Peaks: 111
41 533 42 41 43 999 44 3 45 68 53 161 55 463 56 5 57 99 60 58 
65 82 66 3 67 196 68 44 69 358 70 5 71 109 77 236 78 59 79 35 
80 172 81 552 82 102 83 18 84 164 85 45 91 388 92 11 93 577 94 131 
95 283 96 6 97 206 98 48 103 41 105 43 106 153 107 478 108 149 109 28 
110 67 111 63 115 52 117 10 119 421 120 215 121 323 122 11 123 218 124 51 
126 50 129 7 131 163 132 163 133 365 134 18 135 259 136 139 137 133 143 8 
145 291 146 127 147 244 148 9 149 132 150 50 151 51 157 13 158 54 159 238 
160 85 161 24 162 81 163 78 164 121 165 6 171 118 173 71 175 105 177 7 
179 50 185 97 186 48 187 9 188 61 189 174 190 143 191 8 199 55 201 74 
202 60 203 7 205 37 206 30 215 75 217 3 227 311 228 82 229 26 243 5 
244 17 245 30 255 116 256 3 270 269 271 87 272 16 287 3 288 26 330 121 
331 31 
