Name: 4-CHLOROBENZYLALCOHOL
MW: 142
Formula: C7H7ClO
Synonym: MassBank: JP011476
Synonym: 4-CHLOROBENZYLALCOHOL
Structure: 310A32330A342D43484C4F524F42454E5A594C414C434F484F4C2E6D6F6C0A20204368656D447261773033323531303131333432440A2020392020392020302020302020302020302020302020302020302020303939392056323030300A2020202D312E343433372020202D302E3030303020202020302E303030302043202020302020302020302020302020302020302020302020302020302020302020302020300A2020202D302E363138372020202D302E3030303020202020302E303030302043202020302020302020302020302020302020302020302020302020302020302020302020300A2020202D302E3230363220202020302E3731343520202020302E303030302043202020302020302020302020302020302020302020302020302020302020302020302020300A20202020302E3631383720202020302E3731343520202020302E303030302043202020302020302020302020302020302020302020302020302020302020302020302020300A20202020312E303331332020202D302E3030303020202020302E303030302043202020302020302020302020302020302020302020302020302020302020302020302020300A20202020302E363138382020202D302E3731343520202020302E303030302043202020302020302020302020302020302020302020302020302020302020302020302020300A2020202D302E323036322020202D302E3731343520202020302E303030302043202020302020302020302020302020302020302020302020302020302020302020302020300A2020202D312E3835363320202020302E3731343520202020302E30303030204F202020302020302020302020302020302020302020302020302020302020302020302020300A20202020312E383536332020202D302E3030303020202020302E3030303020436C2020302020302020302020302020302020302020302020302020302020302020302020300A2020312020322020312020302020202020200A2020322020332020312020302020202020200A2020332020342020322020302020202020200A2020342020352020312020302020202020200A2020352020362020322020302020202020200A2020362020372020312020302020202020200A2020322020372020322020302020202020200A2020312020382020312020302020202020200A2020352020392020312020302020202020200A4D2020454E44
Contributor: FUJISE Y, HAMAMATSU UNIV. SCHOOL OF MEDICINE
InstType: EI
InstName: JEOL JMS-DX-300
IoniMethod: _ENERGY 70 eV
IonPolarity: pos
Date: 2010-10-09 19:48:36+02:00
Num Peaks: 60
35 61 36 26 37 146 38 242 39 364 40 32 42 21 43 22 47 31 48 16 
49 107 50 691 51 727 52 169 53 103 55 56 60 49 61 128 62 213 63 389 
64 52 65 21 66 11 68 10 72 39 73 174 74 357 75 553 76 167 77 999 
78 305 79 981 80 92 84 39 85 98 86 65 87 62 88 15 89 282 90 56 
97 22 99 46 101 17 105 165 106 43 107 701 108 60 111 191 112 60 113 190 
114 26 115 42 125 151 126 12 127 49 139 22 141 66 142 299 143 40 144 98 
