Name: CHLORO(ORTHO-TOLYL)METHYLSILANE
MW: 170
Formula: C8H11ClSi
Synonym: MassBank: JP011760
Synonym: CHLORO(ORTHO-TOLYL)METHYLSILANE
Structure: 43484C4F524F284F5254484F2D544F4C594C294D455448594C53494C414E452E6D6F6C0A20204368656D447261773130313831303137333132440A2031302031302020302020302020302020302020302020302020302020303939392056323030300A2020202D312E303331332020202D302E3335373220202020302E303030302053692020302020302020302020302020302020302020302020302020302020302020302020300A2020202D312E343433382020202D312E3037313720202020302E303030302043202020302020302020302020302020302020302020302020302020302020302020302020300A2020202D302E323036332020202D302E3335373220202020302E303030302043202020302020302020302020302020302020302020302020302020302020302020302020300A20202020302E3230363220202020302E3335373220202020302E303030302043202020302020302020302020302020302020302020302020302020302020302020302020300A20202020312E343433382020202D302E3335373220202020302E303030302043202020302020302020302020302020302020302020302020302020302020302020302020300A20202020302E323036332020202D312E3037313720202020302E303030302043202020302020302020302020302020302020302020302020302020302020302020302020300A20202020312E3033313220202020302E3335373220202020302E303030302043202020302020302020302020302020302020302020302020302020302020302020302020300A20202020312E303331322020202D312E3037313720202020302E303030302043202020302020302020302020302020302020302020302020302020302020302020302020300A2020202D302E3230363320202020312E3037313720202020302E303030302043202020302020302020302020302020302020302020302020302020302020302020302020300A2020202D312E3434333820202020302E3335373220202020302E3030303020436C2020302020302020302020302020302020302020302020302020302020302020302020300A2020312020322020312020302020202020200A2020332020342020312020302020202020200A2020332020362020322020302020202020200A2020342020372020322020302020202020200A2020352020372020312020302020202020200A2020352020382020322020302020202020200A2020362020382020312020302020202020200A2020342020392020312020302020202020200A2020312020332020312020302020202020200A2020312031302020312020302020202020200A4D2020454E44
Contributor: FAC. TECHNOLOGY, HIROSHIMA UNIV.
InstType: EI
InstName: SHIMADZU QP-1000
IoniMethod: _ENERGY 70 eV
IonPolarity: pos
Date: 2010-10-09 19:48:36+02:00
Num Peaks: 60
36 98 38 56 39 238 41 77 43 212 45 44 50 45 51 86 53 165 54 24 
55 25 56 18 57 31 61 14 63 999 65 528 67 65 69 11 73 29 78 489 
79 272 80 187 84 17 85 12 88 47 89 66 91 822 92 801 94 133 95 20 
103 48 104 13 105 119 107 31 109 16 117 27 119 102 120 14 121 11 122 20 
124 21 131 23 133 31 134 34 135 57 136 18 137 16 138 12 141 26 153 16 
154 16 155 719 156 94 157 249 158 30 169 259 176 469 171 158 172 166 173 24 
