Name: 2-BROMOMETHYLPROPENOIC ACID ETHYL ESTER
MW: 191
Formula: C6H9BrO2
Synonym: MassBank: JP012077
Synonym: 2-BROMOMETHYLPROPENOIC ACID ETHYL ESTER
Structure: 310A32320A322D42524F4D4F4D455448594C50524F50454E4F4943204143494420455448594C2045535445522E6D6F6C0A20204368656D447261773132323130393232353932440A2020392020382020302020302020302020302020302020302020302020303939392056323030300A2020202D302E323036322020202D302E3335373220202020302E303030302043202020302020302020302020302020302020302020302020302020302020302020302020300A2020202D302E3631383820202020302E3335373220202020302E303030302043202020302020302020302020302020302020302020302020302020302020302020302020300A2020202D302E3230363220202020312E3037313720202020302E303030302043202020302020302020302020302020302020302020302020302020302020302020302020300A2020202D302E363138382020202D312E3037313720202020302E30303030204F202020302020302020302020302020302020302020302020302020302020302020302020300A20202020302E363138382020202D302E3335373220202020302E30303030204F202020302020302020302020302020302020302020302020302020302020302020302020300A2020202D312E3434333820202020302E3335373220202020302E303030302043202020302020302020302020302020302020302020302020302020302020302020302020300A2020202D312E383536332020202D302E3335373220202020302E303030302042722020302020302020302020302020302020302020302020302020302020302020302020300A20202020312E303331332020202D312E3037313720202020302E303030302043202020302020302020302020302020302020302020302020302020302020302020302020300A20202020312E383536332020202D312E3037313720202020302E303030302043202020302020302020302020302020302020302020302020302020302020302020302020300A2020312020322020312020302020202020200A2020322020332020322020302020202020200A2020312020342020322020302020202020200A2020312020352020312020302020202020200A2020362020372020312020302020202020200A2020322020362020312020302020202020200A2020382020392020312020302020202020200A2020352020382020312020302020202020200A4D2020454E44
Contributor: SUMITA Y, KYOTO COLLEGE OF PHARMACY
InstType: EI
InstName: HITACHI M-80
IoniMethod: _ENERGY 20 eV
IonPolarity: pos
Date: 2010-10-09 19:48:36+02:00
Num Peaks: 48
27 80 28 125 29 999 30 25 31 27 32 23 39 282 40 389 41 229 42 21 
43 19 45 130 55 17 57 119 59 19 67 66 68 117 69 79 71 11 83 41 
85 782 86 61 95 170 101 13 107 12 109 12 113 680 114 46 118 27 119 255 
120 36 121 253 122 15 129 12 146 30 147 524 148 52 149 514 150 21 164 838 
165 44 166 798 167 46 179 13 192 197 193 29 194 187 195 34 
