Name: MassBank: JP011744
MW: 462
Formula: C26H38Si4
Synonym: MassBank: JP011744
Synonym: 1,3-BIS(1-PHENYLTETRAMETHYLDISILANYL)BENZENE
Structure: 312C332D42495328312D5048454E594C54455452414D455448594C444953494C414E594C2942454E5A454E452E6D6F6C0A20204368656D447261773131313130393230343532440A2033302033322020302020302020302020302020302020302020302020303939392056323030300A20202020302E3832353020202020302E3030303020202020302E303030302043202020302020302020302020302020302020302020302020302020302020302020302020300A20202020312E3635303020202020302E3030303020202020302E303030302053692020302020302020302020302020302020302020302020302020302020302020302020300A20202020322E3437353020202020302E3030303020202020302E303030302053692020302020302020302020302020302020302020302020302020302020302020302020300A20202020312E3635303020202020302E3832353020202020302E303030302043202020302020302020302020302020302020302020302020302020302020302020302020300A20202020312E363530302020202D302E3832353020202020302E303030302043202020302020302020302020302020302020302020302020302020302020302020302020300A20202020332E3330303020202020302E3030303020202020302E303030302043202020302020302020302020302020302020302020302020302020302020302020302020300A20202020322E3437353020202020302E3832353020202020302E303030302043202020302020302020302020302020302020302020302020302020302020302020302020300A20202020322E343735302020202D302E3832353020202020302E303030302043202020302020302020302020302020302020302020302020302020302020302020302020300A20202020302E3431323520202020302E3731343520202020302E303030302043202020302020302020302020302020302020302020302020302020302020302020302020300A2020202D302E3431323520202020302E3731343520202020302E303030302043202020302020302020302020302020302020302020302020302020302020302020302020300A2020202D302E3832353020202020302E3030303020202020302E303030302043202020302020302020302020302020302020302020302020302020302020302020302020300A2020202D302E343132352020202D302E3731343520202020302E303030302043202020302020302020302020302020302020302020302020302020302020302020302020300A20202020302E343132352020202D302E3731343520202020302E303030302043202020302020302020302020302020302020302020302020302020302020302020302020300A20202020332E373132352020202D302E3731343520202020302E303030302043202020302020302020302020302020302020302020302020302020302020302020302020300A20202020342E353337352020202D302E3731343520202020302E303030302043202020302020302020302020302020302020302020302020302020302020302020302020300A20202020342E3935303020202020302E3030303020202020302E303030302043202020302020302020302020302020302020302020302020302020302020302020302020300A20202020342E3533373520202020302E3731343520202020302E303030302043202020302020302020302020302020302020302020302020302020302020302020302020300A20202020332E3731323520202020302E3731343520202020302E303030302043202020302020302020302020302020302020302020302020302020302020302020302020300A2020202D312E3635303020202020302E3030303020202020302E303030302053692020302020302020302020302020302020302020302020302020302020302020302020300A2020202D322E3437353020202020302E3030303020202020302E303030302053692020302020302020302020302020302020302020302020302020302020302020302020300A2020202D332E3330303020202020302E3030303020202020302E303030302043202020302020302020302020302020302020302020302020302020302020302020302020300A2020202D312E3635303020202020302E3832353020202020302E303030302043202020302020302020302020302020302020302020302020302020302020302020302020300A2020202D312E363530302020202D302E3832353020202020302E303030302043202020302020302020302020302020302020302020302020302020302020302020302020300A2020202D322E3437353020202020302E3832353020202020302E303030302043202020302020302020302020302020302020302020302020302020302020302020302020300A2020202D322E343735302020202D302E3832353020202020302E303030302043202020302020302020302020302020302020302020302020302020302020302020302020300A2020202D332E3731323520202020302E3731343520202020302E303030302043202020302020302020302020302020302020302020302020302020302020302020302020300A2020202D342E3533373520202020302E3731343520202020302E303030302043202020302020302020302020302020302020302020302020302020302020302020302020300A2020202D342E3935303020202020302E3030303020202020302E303030302043202020302020302020302020302020302020302020302020302020302020302020302020300A2020202D342E353337352020202D302E3731343520202020302E303030302043202020302020302020302020302020302020302020302020302020302020302020302020300A2020202D332E373132352020202D302E3731343520202020302E303030302043202020302020302020302020302020302020302020302020302020302020302020302020300A2020312020322020312020302020202020200A2020322020332020312020302020202020200A2020322020342020312020302020202020200A2020322020352020312020302020202020200A2020332020362020312020302020202020200A2020332020372020312020302020202020200A2020332020382020312020302020202020200A2020312020392020322020302020202020200A2020392031302020312020302020202020200A2031302031312020322020302020202020200A2031312031322020312020302020202020200A2031322031332020322020302020202020200A2031332020312020312020302020202020200A2020362031342020322020302020202020200A2031342031352020312020302020202020200A2031352031362020322020302020202020200A2031362031372020312020302020202020200A2031372031382020322020302020202020200A2031382020362020312020302020202020200A2031312031392020312020302020202020200A2031392032302020312020302020202020200A2032302032312020312020302020202020200A2031392032322020312020302020202020200A2031392032332020312020302020202020200A2032302032342020312020302020202020200A2032302032352020312020302020202020200A2032312032362020322020302020202020200A2032362032372020312020302020202020200A2032372032382020322020302020202020200A2032382032392020312020302020202020200A2032392033302020322020302020202020200A2033302032312020312020302020202020200A4D2020454E44
Contributor: FAC. TECHNOLOGY, HIROSHIMA UNIV.
InstType: EI
InstName: SHIMADZU QP-1000
IoniMethod: _ENERGY 20 eV
IonPolarity: pos
Date: 2010-10-09 19:48:36+02:00
Num Peaks: 46
116 13 135 69 163 15 177 67 178 253 179 51 180 19 193 33 197 57 198 11 
225 11 235 11 238 10 239 85 240 116 241 28 242 10 250 39 251 13 253 11 
265 18 269 189 270 58 271 20 297 70 298 23 299 12 310 12 311 16 312 999 
313 331 314 146 315 35 327 10 331 10 389 224 390 94 391 42 392 13 447 56 
448 23 449 14 462 241 463 111 464 63 465 16 
