Name: MassBank: JP011508
MW: 430
Formula: C21H22F4OS2
Synonym: MassBank: JP011508
Synonym: SYN-15-TERT-BUTYL-18-METHOXY-2,11-DITHIA-5,6,7,9-TETRAFLUORO(3.3)METACYCLOPHANE
Structure: 303532305F53594E2D31352D544552542D425554594C2D31382D4D4554484F58592D322C31312D4449544849412D352C362C372C392D5445545241464C554F524F28332E33294D4554414359434C4F5048414E452E6D6F6C0A20204368656D447261773038323031303035303232440A2032382033302020302020302020302020302020302020302020302020303939392056323030300A2020202D302E3830363120202020312E3637303520202020302E303030302043202020302020302020302020302020302020302020302020302020302020302020302020300A20202020302E3437313820202020312E3637303620202020302E303030302053202020302020302020302020302020302020302020302020302020302020302020302020300A20202020322E323637312020202D302E3030333920202020302E303030302043202020302020302020302020302020302020302020302020302020302020302020302020300A20202020322E3638303820202020302E3731303920202020302E303030302043202020302020302020302020302020302020302020302020302020302020302020302020300A20202020302E343532312020202D312E3635303020202020302E303030302053202020302020302020302020302020302020302020302020302020302020302020302020300A20202020332E3931393220202020312E3432353420202020302E303030302046202020302020302020302020302020302020302020302020302020302020302020302020300A20202020342E373435332020202D302E3030333920202020302E303030302046202020302020302020302020302020302020302020302020302020302020302020302020300A20202020322E363830382020202D302E3731393620202020302E303030302043202020302020302020302020302020302020302020302020302020302020302020302020300A20202020332E353036372020202D302E3731393620202020302E303030302043202020302020302020302020302020302020302020302020302020302020302020302020300A20202020332E393230332020202D302E3030333920202020302E303030302043202020302020302020302020302020302020302020302020302020302020302020302020300A20202020332E3530363720202020302E3731303920202020302E303030302043202020302020302020302020302020302020302020302020302020302020302020302020300A20202020312E383735312020202D312E3637303620202020302E303030302043202020302020302020302020302020302020302020302020302020302020302020302020300A2020202D322E3638323820202020302E3739363920202020302E303030302043202020302020302020302020302020302020302020302020302020302020302020302020300A2020202D332E3039353320202020302E3038323420202020302E303030302043202020302020302020302020302020302020302020302020302020302020302020302020300A2020202D322E363832382020202D302E3633323020202020302E303030302043202020302020302020302020302020302020302020302020302020302020302020302020300A2020202D312E383537382020202D302E3633323020202020302E303030302043202020302020302020302020302020302020302020302020302020302020302020302020300A2020202D312E3434353420202020302E3038323420202020302E303030302043202020302020302020302020302020302020302020302020302020302020302020302020300A2020202D312E3835373820202020302E3739363920202020302E303030302043202020302020302020302020302020302020302020302020302020302020302020302020300A2020202D302E383236372020202D312E3635303020202020302E303030302043202020302020302020302020302020302020302020302020302020302020302020302020300A20202020312E3831333220202020312E3632393320202020302E303030302043202020302020302020302020302020302020302020302020302020302020302020302020300A20202020312E343432322020202D302E3030333920202020302E303030302046202020302020302020302020302020302020302020302020302020302020302020302020300A2020202D332E3932303320202020302E3038323420202020302E303030302043202020302020302020302020302020302020302020302020302020302020302020302020300A2020202D332E3730363820202020302E3837393320202020302E303030302043202020302020302020302020302020302020302020302020302020302020302020302020300A2020202D332E373036382020202D302E3731343420202020302E303030302043202020302020302020302020302020302020302020302020302020302020302020302020300A2020202D342E3734353320202020302E3038323420202020302E303030302043202020302020302020302020302020302020302020302020302020302020302020302020300A2020202D302E3730323920202020302E3038323420202020302E30303030204F202020302020302020302020302020302020302020302020302020302020302020302020300A20202020302E303131352020202D302E3333303120202020302E303030302043202020302020302020302020302020302020302020302020302020302020302020302020300A20202020332E393139302020202D312E3433343120202020302E303030302046202020302020302020302020302020302020302020302020302020302020302020302020300A2020332020342020322020302020202020200A2020332020382020312020302020202020200A2020382020392020322020302020202020200A2020392031302020312020302020202020200A2031302031312020322020302020202020200A2031312020342020312020302020202020200A2020382031322020312020302020202020200A2031322020352020312020302020202020200A2020362031312020312020302020202020200A2031302020372020312020302020202020200A2031332031342020322020302020202020200A2031342031352020312020302020202020200A2031352031362020322020302020202020200A2031362031372020312020302020202020200A2031372031382020322020302020202020200A2031382031332020312020302020202020200A2031392020352020312020302020202020200A2020312020322020312020302020202020200A2020312031382020312020302020202020200A2031362031392020312020302020202020200A2020322032302020312020302020202020200A2032302020342020312020302020202020200A2020332032312020312020302020202020200A2031342032322020312020302020202020200A2032322032332020312020302020202020200A2032322032342020312020302020202020200A2032322032352020312020302020202020200A2031372032362020312020302020202020200A2032362032372020312020302020202020200A2020392032382020312020302020202020200A4D2020454E44
Contributor: TASHIRO M, INST. OF ADVANCED MATERIAL STUDY KYUSHU UNIV.
InstType: EI
InstName: JEOL JMS-01-SG-2
IoniMethod: _ENERGY 75 eV
IonPolarity: pos
Date: 2010-10-09 19:48:36+02:00
Num Peaks: 32
30 379 33 204 39 243 41 648 43 383 44 177 45 505 55 336 57 999 77 243 
91 415 105 194 115 385 116 194 117 259 129 222 131 298 145 198 161 248 163 278 
165 278 175 326 176 553 177 340 191 297 207 331 209 186 221 487 415 749 416 211 
430 660 431 245 
