Name: MassBank: JP011167
MW: 287
Formula: C15H17N3O3
Synonym: MassBank: JP011167
Synonym: 2,4-DIETHYL-4,4A-DIHYDRO-1H-(1,3,5)TRIAZINO(1,2-A)QUINOLINE-1,3,6(2H,5H)-TRIONE
Structure: 322C342D4449455448594C2D342C34412D4449485944524F2D31482D28312C332C3529545249415A494E4F28312C322D41295155494E4F4C494E452D312C332C362832482C3548292D5452494F4E452E6D6F6C0A20204368656D447261773132323030393138333332440A2032312032332020302020302020302020302020302020302020302020303939392056323030300A2020202D312E3037313720202020302E3431323520202020302E30303030204E202020302020302020302020302020302020302020302020302020302020302020302020300A2020202D312E303731372020202D302E3431323520202020302E303030302043202020302020302020302020302020302020302020302020302020302020302020302020300A2020202D302E333537322020202D302E3832353020202020302E30303030204E202020302020302020302020302020302020302020302020302020302020302020302020300A20202020302E333537322020202D302E3431323520202020302E303030302043202020302020302020302020302020302020302020302020302020302020302020302020300A20202020302E3335373220202020302E3431323520202020302E30303030204E202020302020302020302020302020302020302020302020302020302020302020302020300A2020202D302E3335373220202020302E3832353020202020302E303030302043202020302020302020302020302020302020302020302020302020302020302020302020300A20202020312E303731372020202D302E3832353020202020302E303030302043202020302020302020302020302020302020302020302020302020302020302020302020300A20202020312E373836322020202D302E3431323520202020302E303030302043202020302020302020302020302020302020302020302020302020302020302020302020300A20202020312E3738363220202020302E3431323520202020302E303030302043202020302020302020302020302020302020302020302020302020302020302020302020300A20202020312E3037313720202020302E3832353020202020302E303030302043202020302020302020302020302020302020302020302020302020302020302020302020300A20202020322E3530303620202020302E3832353020202020302E303030302043202020302020302020302020302020302020302020302020302020302020302020302020300A20202020322E3530303620202020312E3635303020202020302E303030302043202020302020302020302020302020302020302020302020302020302020302020302020300A20202020312E3738363220202020322E3036323520202020302E303030302043202020302020302020302020302020302020302020302020302020302020302020302020300A20202020312E3037313720202020312E3635303020202020302E303030302043202020302020302020302020302020302020302020302020302020302020302020302020300A2020202D302E3335373220202020312E3635303020202020302E30303030204F202020302020302020302020302020302020302020302020302020302020302020302020300A2020202D312E3738363220202020302E3832353020202020302E303030302043202020302020302020302020302020302020302020302020302020302020302020302020300A2020202D322E3530303620202020302E3431323520202020302E303030302043202020302020302020302020302020302020302020302020302020302020302020302020300A2020202D312E373836322020202D302E3832353020202020302E30303030204F202020302020302020302020302020302020302020302020302020302020302020302020300A2020202D302E333537322020202D312E3635303020202020302E303030302043202020302020302020302020302020302020302020302020302020302020302020302020300A20202020302E333537322020202D322E3036323520202020302E303030302043202020302020302020302020302020302020302020302020302020302020302020302020300A20202020322E353030362020202D302E3832353020202020302E30303030204F202020302020302020302020302020302020302020302020302020302020302020302020300A2020312020322020312020302020202020200A2020322020332020312020302020202020200A2020332020342020312020302020202020200A2020342020352020312020302020202020200A2020352020362020312020302020202020200A2020362020312020312020302020202020200A2020342020372020312020302020202020200A2020372020382020312020302020202020200A2020382020392020312020302020202020200A2020392031302020322020302020202020200A2031302020352020312020302020202020200A2020392031312020312020302020202020200A2031312031322020322020302020202020200A2031322031332020312020302020202020200A2031332031342020322020302020202020200A2031342031302020312020302020202020200A2020362031352020322020302020202020200A2020312031362020312020302020202020200A2031362031372020312020302020202020200A2020322031382020322020302020202020200A2020332031392020312020302020202020200A2031392032302020312020302020202020200A2020382032312020322020302020202020200A4D2020454E44
Contributor: SAWADA M, THE INST. OF SCIENTIFIC AND INDUSTRIALRESEARCH OSAKA UNIV.
InstType: EI
InstName: JEOL JMS-DX-300
IoniMethod: _ENERGY 70 eV
IonPolarity: pos
Date: 2010-10-09 19:48:36+02:00
Num Peaks: 122
34 10 38 29 39 139 40 107 41 73 42 128 43 157 44 172 45 51 46 56 
47 19 50 49 51 90 52 36 53 24 54 26 55 129 56 311 57 88 58 27 
59 11 60 30 61 26 62 20 63 97 64 109 65 201 66 49 67 15 68 15 
69 41 70 166 71 37 72 42 73 49 74 56 75 29 76 119 77 255 78 48 
79 32 80 13 83 57 84 10 85 11 87 52 88 15 89 143 90 478 91 154 
92 109 93 296 94 32 97 21 98 12 99 10 101 58 102 19 103 47 104 102 
105 51 106 126 107 16 115 19 116 153 117 299 118 187 119 87 120 36 123 45 
124 49 126 10 127 14 128 17 129 17 130 87 131 28 132 73 133 92 134 22 
135 27 136 12 143 11 144 110 145 843 146 616 147 104 148 11 149 15 155 28 
157 184 158 30 159 28 160 26 161 54 162 18 173 57 174 33 175 12 187 51 
188 51 189 27 201 110 202 20 215 62 216 73 217 42 218 10 230 17 244 72 
245 58 246 10 249 229 250 43 251 13 258 114 259 49 260 17 272 17 286 102 
287 999 288 267 
