Name: MassBank: JP010924
MW: 152
Formula: C10H16O
Synonym: MassBank: JP010924
Synonym: 5,5-DIMETHYL-6-METHYLENEBICYCLO(2.2.1)HEPTAN-2-OL
Structure: 352C352D44494D455448594C2D362D4D455448594C454E4542494359434C4F28322E322E312948455054414E2D322D4F4C2E6D6F6C0A20204368656D447261773034323331303032313932440A2031312031322020302020302020302020302020302020302020302020303939392056323030300A2020202D302E3636323720202020302E3030303020202020302E303030302043202020302020302020302020302020302020302020302020302020302020302020302020300A2020202D302E363632372020202D302E3832353020202020302E303030302043202020302020302020302020302020302020302020302020302020302020302020302020300A20202020302E303531372020202D312E3233373520202020302E303030302043202020302020302020302020302020302020302020302020302020302020302020302020300A20202020302E373636322020202D302E3832353020202020302E303030302043202020302020302020302020302020302020302020302020302020302020302020302020300A20202020302E3736363220202020302E3030303020202020302E303030302043202020302020302020302020302020302020302020302020302020302020302020302020300A20202020302E3035313720202020302E3431323520202020302E303030302043202020302020302020302020302020302020302020302020302020302020302020302020300A2020202D302E303739342020202D302E3234313620202020302E303030302043202020302020302020302020302020302020302020302020302020302020302020302020300A20202020302E3035313720202020312E3233373520202020302E303030302043202020302020302020302020302020302020302020302020302020302020302020302020300A20202020312E343830372020202D312E3233373520202020302E30303030204F202020302020302020302020302020302020302020302020302020302020302020302020300A2020202D302E3837363320202020302E3739363920202020302E303030302043202020302020302020302020302020302020302020302020302020302020302020302020300A2020202D312E343830372020202D302E3130373720202020302E303030302043202020302020302020302020302020302020302020302020302020302020302020302020300A2020312020322020312020302020202020200A2020322020332020312020302020202020200A2020332020342020312020302020202020200A2020342020352020312020302020202020200A2020352020362020312020302020202020200A2020362020312020312020302020202020200A2020322020372020312020302020202020200A2020372020352020312020302020202020200A2020362020382020322020302020202020200A2020342020392020312020302020202020200A2020312031302020312020312020202020200A2020312031312020312020362020202020200A4D2020454E44
Contributor: KURARAY CO., LTD.
InstType: EI
InstName: JEOL JMS-D-300
IoniMethod: _ENERGY 70 eV
IonPolarity: pos
Date: 2010-10-09 19:48:36+02:00
Num Peaks: 35
27 46 29 35 49 115 51 23 53 56 55 63 65 40 66 33 67 111 68 30 
69 50 77 117 78 21 79 96 80 21 81 82 82 51 83 29 91 203 92 46 
93 532 94 53 95 117 96 17 105 47 106 35 107 189 108 999 109 182 110 20 
119 145 121 85 123 14 134 21 137 40 
