Name: MassBank: JP010295
MW: 226
Formula: C13H10N2O2
Synonym: MassBank: JP010295
Synonym: (E)-3-CYANOMETHYLENE-1-PARA-TOLYL-2,5-PYRROLIDINEDIONE
Structure: 2845292D332D4359414E4F4D455448594C454E452D312D504152412D544F4C594C2D322C352D505952524F4C4944494E4544494F4E452E6D6F6C0A20204368656D447261773130323230393136333732440A2031382031392020302020302020302020302020302020302020302020303939392056323030300A20202020312E323334322020202D302E3534353420202020302E303030302043202020302020302020302020302020302020302020302020302020302020302020302020300A20202020312E3233343220202020302E3237393620202020302E303030302043202020302020302020302020302020302020302020302020302020302020302020302020300A20202020302E3434393620202020302E3533343520202020302E303030302043202020302020302020302020302020302020302020302020302020302020302020302020300A2020202D302E303335332020202D302E3133323920202020302E30303030204E202020302020302020302020302020302020302020302020302020302020302020302020300A20202020302E343439362020202D302E3830303420202020302E303030302043202020302020302020302020302020302020302020302020302020302020302020302020300A20202020302E313934372020202D312E3538353020202020302E30303030204F202020302020302020302020302020302020302020302020302020302020302020302020300A2020202D302E383630332020202D302E3133323920202020302E303030302043202020302020302020302020302020302020302020302020302020302020302020302020300A20202020302E3139343720202020312E3331393120202020302E30303030204F202020302020302020302020302020302020302020302020302020302020302020302020300A2020202D312E3237323820202020302E3538313520202020302E303030302043202020302020302020302020302020302020302020302020302020302020302020302020300A2020202D322E3039373820202020302E3538313520202020302E303030302043202020302020302020302020302020302020302020302020302020302020302020302020300A2020202D322E353130332020202D302E3133323920202020302E303030302043202020302020302020302020302020302020302020302020302020302020302020302020300A2020202D322E303937382020202D302E3834373420202020302E303030302043202020302020302020302020302020302020302020302020302020302020302020302020300A2020202D312E323732382020202D302E3834373420202020302E303030302043202020302020302020302020302020302020302020302020302020302020302020302020300A2020202D332E333335332020202D302E3133323920202020302E303030302043202020302020302020302020302020302020302020302020302020302020302020302020300A20202020312E3930313720202020302E3736343520202020302E303030302043202020302020302020302020302020302020302020302020302020302020302020302020300A20202020312E3831353420202020312E3538353020202020302E303030302048202020302020302020302020302020302020302020302020302020302020302020302020300A20202020322E3635343720202020302E3432393520202020302E303030302043202020302020302020302020302020302020302020302020302020302020302020302020300A20202020332E3333353320202020302E3432393520202020302E30303030204E202020302020302020302020302020302020302020302020302020302020302020302020300A2020312020322020312020302020202020200A2020322020332020312020302020202020200A2020332020342020312020302020202020200A2020342020352020312020302020202020200A2020352020312020312020302020202020200A2020352020362020322020302020202020200A2020342020372020312020302020202020200A2020332020382020322020302020202020200A2020372020392020322020302020202020200A2020392031302020312020302020202020200A2031302031312020322020302020202020200A2031312031322020312020302020202020200A2031322031332020322020302020202020200A2031332020372020312020302020202020200A2031312031342020312020302020202020200A2020322031352020322020302020202020200A2031352031362020312020302020202020200A2031372031382020332020302020202020200A2031352031372020312020302020202020200A4D202053545920203120202031205355500A4D2020534C4220203120202031202020310A4D202053414C2020203120203220203137202031380A4D202053424C20202031202031202031390A4D2020534D542020203120434E0A4D2020534256202020312031392020202D362E3138393720202020372E343534320A4D2020454E44
Contributor: KANEMASA S, INST. OF ADVANCED MATERIAL STUDY KYUSHU UNIV.
InstType: EI
InstName: JEOL JMS-01-SG-2
IoniMethod: _ENERGY 75 eV
IonPolarity: pos
Date: 2010-10-09 19:48:36+02:00
Num Peaks: 26
38 90 39 91 51 84 52 51 64 121 65 399 75 129 76 79 77 52 86 123 
87 333 96 81 98 99 99 60 133 130 135 73 161 161 169 63 170 55 183 157 
197 65 198 195 211 98 225 74 226 999 227 154 
