Name: MassBank: JP010131
MW: 246
Formula: C17H26O
Synonym: MassBank: JP010131
Synonym: 1,1,2,3,3-PENTAMETHYL-5-(1-METHYL-2-HYDROXYETHYL)-INDAN
Structure: 312C312C322C332C332D50454E54414D455448594C2D352D28312D4D455448594C2D322D485944524F5859455448594C292D494E44414E2E6D6F6C0A20204368656D447261773130323330393031333332440A2031382031392020302020302020302020302020302020302020302020303939392056323030300A20202020312E3136363320202020302E3938383120202020302E303030302043202020302020302020302020302020302020302020302020302020302020302020302020300A20202020312E3635313220202020302E3332303720202020302E303030302043202020302020302020302020302020302020302020302020302020302020302020302020300A20202020312E313636332020202D302E3334363720202020302E303030302043202020302020302020302020302020302020302020302020302020302020302020302020300A20202020302E333831372020202D302E3039313820202020302E303030302043202020302020302020302020302020302020302020302020302020302020302020302020300A2020202D302E333332382020202D302E3530343320202020302E303030302043202020302020302020302020302020302020302020302020302020302020302020302020300A2020202D312E303437332020202D302E3039313820202020302E303030302043202020302020302020302020302020302020302020302020302020302020302020302020300A2020202D312E3034373320202020302E3733333220202020302E303030302043202020302020302020302020302020302020302020302020302020302020302020302020300A2020202D302E3333323820202020312E3134353720202020302E303030302043202020302020302020302020302020302020302020302020302020302020302020302020300A20202020302E3338313720202020302E3733333220202020302E303030302043202020302020302020302020302020302020302020302020302020302020302020302020300A2020202D312E373631372020202D302E3530343320202020302E303030302043202020302020302020302020302020302020302020302020302020302020302020302020300A2020202D312E373631372020202D312E3332393320202020302E303030302043202020302020302020302020302020302020302020302020302020302020302020302020300A2020202D312E303437332020202D312E3734313820202020302E30303030204F202020302020302020302020302020302020302020302020302020302020302020302020300A2020202D322E343736322020202D302E3039313820202020302E303030302043202020302020302020302020302020302020302020302020302020302020302020302020300A20202020312E383830382020202D302E3735393220202020302E303030302043202020302020302020302020302020302020302020302020302020302020302020302020300A20202020302E383330372020202D312E3130303420202020302E303030302043202020302020302020302020302020302020302020302020302020302020302020302020300A20202020322E3437363220202020302E3332303720202020302E303030302043202020302020302020302020302020302020302020302020302020302020302020302020300A20202020302E3833303720202020312E3734313820202020302E303030302043202020302020302020302020302020302020302020302020302020302020302020302020300A20202020312E3838303820202020312E3430303620202020302E303030302043202020302020302020302020302020302020302020302020302020302020302020302020300A2020312020322020312020302020202020200A2020322020332020312020302020202020200A2020332020342020312020302020202020200A2020342020352020312020302020202020200A2020352020362020322020302020202020200A2020362020372020312020302020202020200A2020372020382020322020302020202020200A2020382020392020312020302020202020200A2020312020392020312020302020202020200A2020342020392020322020302020202020200A2031302031312020312020302020202020200A2031312031322020312020302020202020200A2031302031332020312020302020202020200A2020362031302020312020302020202020200A2020332031342020312020362020202020200A2020332031352020312020312020202020200A2020322031362020312020302020202020200A2020312031372020312020362020202020200A2020312031382020312020312020202020200A4D2020454E44
Contributor: KURARAY CO., LTD.
InstType: EI
InstName: JEOL JMS-D-300
IoniMethod: _ENERGY 70 eV
IonPolarity: pos
Date: 2010-10-09 19:48:36+02:00
Num Peaks: 10
43 100 57 60 71 130 129 4 131 150 143 30 159 40 173 999 174 150 229 40 
