Name: BUTYL 1-METHYLPYRROLIDINE-3-CARBOXYLATE
MW: 185
Formula: C10H19NO2
Synonym: MassBank: JP010166
Synonym: BUTYL 1-METHYLPYRROLIDINE-3-CARBOXYLATE
Structure: 425554594C20312D4D455448594C505952524F4C4944494E452D332D434152424F58594C4154452E6D6F6C0A20204368656D447261773039303631303032313732440A2031332031332020302020302020302020302020302020302020302020303939392056323030300A2020202D302E3332313020202020322E3135373320202020302E30303030204E202020302020302020302020302020302020302020302020302020302020302020302020300A2020202D302E3537363020202020312E3337323720202020302E303030302043202020302020302020302020302020302020302020302020302020302020302020302020300A20202020302E3039313520202020302E3838373820202020302E303030302043202020302020302020302020302020302020302020302020302020302020302020302020300A20202020302E3735383920202020312E3337323720202020302E303030302043202020302020302020302020302020302020302020302020302020302020302020302020300A20202020302E3530343020202020322E3135373320202020302E303030302043202020302020302020302020302020302020302020302020302020302020302020302020300A20202020302E3039313520202020302E3036323820202020302E303030302043202020302020302020302020302020302020302020302020302020302020302020302020300A20202020302E383035392020202D302E3334393720202020302E30303030204F202020302020302020302020302020302020302020302020302020302020302020302020300A2020202D302E363233302020202D302E3334393720202020302E30303030204F202020302020302020302020302020302020302020302020302020302020302020302020300A2020202D302E3830353920202020322E3832343720202020302E303030302043202020302020302020302020302020302020302020302020302020302020302020302020300A2020202D302E363233302020202D312E3137343720202020302E303030302043202020302020302020302020302020302020302020302020302020302020302020302020300A20202020302E303931352020202D312E3538373220202020302E303030302043202020302020302020302020302020302020302020302020302020302020302020302020300A20202020302E303931352020202D322E3431323220202020302E303030302043202020302020302020302020302020302020302020302020302020302020302020302020300A20202020302E383035392020202D322E3832343720202020302E303030302043202020302020302020302020302020302020302020302020302020302020302020302020300A2020312020322020312020302020202020200A2020322020332020312020302020202020200A2020332020342020312020302020202020200A2020342020352020312020302020202020200A2020312020352020312020302020202020200A2020362020372020322020302020202020200A2020362020382020312020302020202020200A2020332020362020312020302020202020200A2020312020392020312020302020202020200A2031302031312020312020302020202020200A2031312031322020312020302020202020200A2031322031332020312020302020202020200A2020382031302020312020302020202020200A4D2020454E44
Contributor: KANEMASA S, INST. OF ADVANCED MATERIAL STUDY KYUSHU UNIV.
InstType: EI
InstName: JEOL JMS-01-SG-2
IoniMethod: _ENERGY 75 eV
IonPolarity: pos
Date: 2010-10-09 19:48:36+02:00
Num Peaks: 33
39 21 40 333 41 60 42 687 43 999 44 194 45 89 52 21 53 14 54 48 
55 50 56 130 57 58 58 423 59 30 67 99 68 63 69 86 80 30 81 22 
82 568 83 282 84 236 85 37 100 44 101 24 110 30 112 99 128 563 129 56 
184 38 185 72 186 18 
