Name: MassBank: JP011596
MW: 172
Formula: C8H20Si2
Synonym: MassBank: JP011596
Synonym: 1,1,3,3-TETRAMETHYL-1,3-DISILACYCLOHEXANE
Structure: 312C312C332C332D54455452414D455448594C2D312C332D444953494C414359434C4F484558414E452E6D6F6C0A20204368656D447261773130323330393031353432440A2031302031302020302020302020302020302020302020302020302020303939392056323030300A2020202D302E3430363220202020302E3639303420202020302E303030302053692020302020302020302020302020302020302020302020302020302020302020302020300A20202020302E3330383220202020302E3237373920202020302E303030302043202020302020302020302020302020302020302020302020302020302020302020302020300A20202020302E333038322020202D302E3534373120202020302E303030302053692020302020302020302020302020302020302020302020302020302020302020302020300A2020202D302E343036322020202D302E3935393620202020302E303030302043202020302020302020302020302020302020302020302020302020302020302020302020300A2020202D312E313230372020202D302E3534373120202020302E303030302043202020302020302020302020302020302020302020302020302020302020302020302020300A2020202D312E3132303720202020302E3237373920202020302E303030302043202020302020302020302020302020302020302020302020302020302020302020302020300A20202020312E313230372020202D302E3430333920202020302E303030302043202020302020302020302020302020302020302020302020302020302020302020302020300A20202020302E353930342020202D312E3332323420202020302E303030302043202020302020302020302020302020302020302020302020302020302020302020302020300A2020202D302E3933363520202020312E3332323420202020302E303030302043202020302020302020302020302020302020302020302020302020302020302020302020300A20202020302E3132343120202020312E3332323420202020302E303030302043202020302020302020302020302020302020302020302020302020302020302020302020300A2020312020322020312020302020202020200A2020322020332020312020302020202020200A2020332020342020312020302020202020200A2020342020352020312020302020202020200A2020352020362020312020302020202020200A2020312020362020312020302020202020200A2020332020372020312020362020202020200A2020332020382020312020312020202020200A2020312020392020312020362020202020200A2020312031302020312020312020202020200A4D2020454E44
Contributor: YAMAMOTO M, DEP. CHEMISTRY, FAC. SCIENCE, NARA WOMEN'S UNIV.
InstType: EI
InstName: HITACHI RMU-6M
IoniMethod: _ENERGY 70 eV
IonPolarity: pos
Date: 2010-10-09 19:48:36+02:00
Num Peaks: 41
28 45 29 28 31 33 43 152 44 42 45 116 51 32 53 20 55 31 57 60 
58 38 59 237 64 59 65 81 69 27 71 49 72 27 73 210 74 21 83 31 
85 46 97 41 99 56 101 35 113 53 115 99 117 66 129 539 130 119 131 276 
132 47 133 22 141 34 144 25 155 29 157 999 158 189 159 82 172 277 173 62 
174 33 
