Name: CALAMENENE
MW: 202
Formula: C15H22
Synonym: MassBank: JP010688
Synonym: CALAMENENE
Structure: 43414C414D454E454E452E6D6F6C0A20204368656D447261773039303631303039343532440A2031372031382020302020302020302020302020302020302020302020303939392056323030300A2020202D312E3738363220202020302E3736393720202020302E303030302043202020302020302020302020302020302020302020302020302020302020302020302020300A2020202D312E373836322020202D302E3035353320202020302E303030302043202020302020302020302020302020302020302020302020302020302020302020302020300A2020202D312E303731372020202D302E3436373820202020302E303030302043202020302020302020302020302020302020302020302020302020302020302020302020300A2020202D302E333537322020202D302E3035353320202020302E303030302043202020302020302020302020302020302020302020302020302020302020302020302020300A2020202D302E3335373220202020302E3736393720202020302E303030302043202020302020302020302020302020302020302020302020302020302020302020302020300A2020202D312E3037313720202020312E3138323220202020302E303030302043202020302020302020302020302020302020302020302020302020302020302020302020300A20202020302E333537322020202D302E3436373820202020302E303030302043202020302020302020302020302020302020302020302020302020302020302020302020300A20202020312E303731372020202D302E3035353320202020302E303030302043202020302020302020302020302020302020302020302020302020302020302020302020300A20202020312E3037313720202020302E3736393720202020302E303030302043202020302020302020302020302020302020302020302020302020302020302020302020300A20202020302E3335373220202020312E3138323220202020302E303030302043202020302020302020302020302020302020302020302020302020302020302020302020300A20202020312E373836322020202D302E3436373820202020302E303030302043202020302020302020302020302020302020302020302020302020302020302020302020300A2020202D302E3438383320202020312E3736353620202020302E303030302048202020302020302020302020302020302020302020302020302020302020302020302020300A2020202D312E343834322020202D312E3138323220202020302E303030302048202020302020302020302020302020302020302020302020302020302020302020302020300A2020202D302E363539322020202D312E3138323220202020302E303030302043202020302020302020302020302020302020302020302020302020302020302020302020300A2020202D312E3438343220202020312E3839363720202020302E303030302043202020302020302020302020302020302020302020302020302020302020302020302020300A2020202D312E303731372020202D312E3839363720202020302E303030302043202020302020302020302020302020302020302020302020302020302020302020302020300A20202020302E313635382020202D312E3138323220202020302E303030302043202020302020302020302020302020302020302020302020302020302020302020302020300A2020312020322020312020302020202020200A2020322020332020312020302020202020200A2020332020342020312020302020202020200A2020342020352020322020302020202020200A2020352020362020312020302020202020200A2020362020312020312020302020202020200A2020342020372020312020302020202020200A2020372020382020322020302020202020200A2020382020392020312020302020202020200A2020392031302020322020302020202020200A2031302020352020312020302020202020200A2020382031312020312020302020202020200A2020362031322020312020312020202020200A2020332031332020312020312020202020200A2020332031342020312020362020202020200A2020362031352020312020362020202020200A2031342031362020312020302020202020200A2031342031372020312020302020202020200A4D2020454E44
Contributor: EGUCHI S, FAC. OF SCIENCE, HIROSHIMA UNIV.
InstType: EI
InstName: HITACHI RMU-6L
IoniMethod: _ENERGY 70 eV
IonPolarity: pos
Date: 2010-10-09 19:48:36+02:00
Num Peaks: 62
41 230 42 20 43 110 44 10 51 40 53 70 55 120 56 3 57 40 63 30 
65 80 68 7 69 80 71 20 77 110 78 4 79 70 81 50 82 10 83 7 
91 220 92 60 93 70 95 5 103 40 104 40 105 300 106 5 107 40 109 30 
115 220 116 8 117 190 118 60 119 330 120 11 121 30 127 70 128 240 129 23 
130 90 131 510 132 999 133 18 141 100 142 70 143 140 144 14 145 360 146 100 
147 30 149 3 157 40 158 50 159 980 160 29 161 70 187 70 188 10 202 57 
203 100 204 30 
