Name: PATA-TOLUENESULFONAMIDE
MW: 171
Formula: C7H9NO2S
Synonym: MassBank: JP010819
Synonym: PATA-TOLUENESULFONAMIDE
Structure: 303936385F504154412D544F4C55454E4553554C464F4E414D4944452E6D6F6C0A20204368656D447261773038323031303132303432440A2031312031312020302020302020302020302020302020302020302020303939392056323030300A2020202D302E3736303220202020302E3030303120202020302E303030302043202020302020302020302020302020302020302020302020302020302020302020302020300A2020202D302E373630322020202D302E3832343920202020302E303030302043202020302020302020302020302020302020302020302020302020302020302020302020300A2020202D302E303435372020202D312E3233373420202020302E303030302043202020302020302020302020302020302020302020302020302020302020302020302020300A20202020302E363638372020202D302E3832343920202020302E303030302043202020302020302020302020302020302020302020302020302020302020302020302020300A20202020302E3636383720202020302E3030303120202020302E303030302043202020302020302020302020302020302020302020302020302020302020302020302020300A2020202D302E3034353720202020302E3431323620202020302E303030302043202020302020302020302020302020302020302020302020302020302020302020302020300A2020202D302E303435372020202D322E3036323420202020302E303030302043202020302020302020302020302020302020302020302020302020302020302020302020300A2020202D302E3034353720202020312E3233373620202020302E303030302053202020302020302020302020302020302020302020302020302020302020302020302020300A2020202D302E3032373020202020322E3036323420202020302E30303030204F202020302020302020302020302020302020302020302020302020302020302020302020300A2020202D302E3837303720202020312E3234373020202020302E30303030204F202020302020302020302020302020302020302020302020302020302020302020302020300A20202020302E3837303720202020312E3233373620202020302E30303030204E202020302020302020302020302020302020302020302020302020302020302020302020300A2020312020322020322020302020202020200A2020322020332020312020302020202020200A2020332020342020322020302020202020200A2020342020352020312020302020202020200A2020352020362020322020302020202020200A2020362020312020312020302020202020200A2020332020372020312020302020202020200A2020362020382020312020302020202020200A2020382020392020322020302020202020200A2020382031302020322020302020202020200A2020382031312020312020302020202020200A4D2020454E44
Contributor: FUJISE Y, HAMAMATSU UNIV. SCHOOL OF MEDICINE
InstType: EI
InstName: JEOL JMS-D-3000
IoniMethod: _ENERGY 70 eV
IonPolarity: pos
Date: 2010-10-09 19:48:36+02:00
Num Peaks: 28
41 28 44 47 50 29 51 43 52 14 53 10 62 21 63 66 64 31 65 216 
66 13 77 33 78 12 79 19 89 57 90 32 91 999 92 83 106 37 107 150 
108 129 109 11 155 392 156 34 157 21 171 455 172 43 173 24 
