Name: MassBank: JP011555
MW: 118
Formula: C4H14Si2
Synonym: MassBank: JP011555
Synonym: 1,1,2,2-TETRAMETHYLDISILANE (1,2-D2)
Structure: 310A32310A312C312C322C322D54455452414D455448594C444953494C414E452028312C322D4432292E6D6F6C0A20204368656D447261773130323330393031323732440A2020382020372020302020302020302020302020302020302020302020303939392056323030300A2020202D302E3431323520202020302E3030303020202020302E303030302053692020302020302020302020302020302020302020302020302020302020302020302020300A20202020302E3431323520202020302E3030303020202020302E303030302053692020302020302020302020302020302020302020302020302020302020302020302020300A20202020302E343132352020202D302E3832353020202020302E303030302048202020312020302020302020302020302020302020302020302020302020302020302020300A2020202D302E3431323520202020302E3832353020202020302E303030302048202020312020302020302020302020302020302020302020302020302020302020302020300A20202020312E3233373520202020302E3030303020202020302E303030302043202020302020302020302020302020302020302020302020302020302020302020302020300A20202020302E3431323520202020302E3832353020202020302E303030302043202020302020302020302020302020302020302020302020302020302020302020302020300A2020202D312E3233373520202020302E3030303020202020302E303030302043202020302020302020302020302020302020302020302020302020302020302020302020300A2020202D302E343132352020202D302E3832353020202020302E303030302043202020302020302020302020302020302020302020302020302020302020302020302020300A2020312020322020312020302020202020200A2020322020332020312020302020202020200A2020312020342020312020302020202020200A2020322020352020312020302020202020200A2020322020362020312020302020202020200A2020312020372020312020302020202020200A2020312020382020312020302020202020200A4D202049534F202032202020332020203220202034202020320A4D2020454E44
Contributor: YAMAMOTO M, DEP. CHEMISTRY, FAC. SCIENCE, NARA WOMEN'S UNIV.
InstType: EI
InstName: HITACHI RMU-6M
IoniMethod: _ENERGY 20 eV
IonPolarity: pos
Date: 2010-10-09 19:48:36+02:00
Num Peaks: 33
28 11 31 15 32 11 43 166 44 29 45 22 52 13 57 14 58 759 59 104 
60 999 61 74 62 37 72 17 73 874 74 113 75 40 77 13 86 14 88 16 
101 32 102 29 103 112 104 24 105 311 106 42 107 28 116 11 118 53 119 18 
120 461 121 68 122 34 
