Name: PROPYL ACETOACETATE
MW: 144
Formula: C7H12O3
Synonym: MassBank: JP010477
Synonym: PROPYL ACETOACETATE
Synonym: ACETOACETIC ACID PROPYL ESTER
Structure: 50524F50594C20414345544F414345544154452E6D6F6C0A20204368656D447261773036323431303137353232440A2031302020392020302020302020302020302020302020302020302020303939392056323030300A20202020302E333537322020202D302E3230363220202020302E303030302043202020302020302020302020302020302020302020302020302020302020302020302020300A20202020312E303731372020202D302E3631383820202020302E303030302043202020302020302020302020302020302020302020302020302020302020302020302020300A20202020312E373836322020202D302E3230363220202020302E303030302043202020302020302020302020302020302020302020302020302020302020302020302020300A20202020312E3738363220202020302E3631383820202020302E30303030204F202020302020302020302020302020302020302020302020302020302020302020302020300A20202020322E353030362020202D302E3631383720202020302E303030302043202020302020302020302020302020302020302020302020302020302020302020302020300A20202020302E3335373220202020302E3631383720202020302E30303030204F202020302020302020302020302020302020302020302020302020302020302020302020300A2020202D302E333537322020202D302E3631383820202020302E30303030204F202020302020302020302020302020302020302020302020302020302020302020302020300A2020202D312E303731372020202D302E3230363320202020302E303030302043202020302020302020302020302020302020302020302020302020302020302020302020300A2020202D312E373836322020202D302E3631383820202020302E303030302043202020302020302020302020302020302020302020302020302020302020302020302020300A2020202D322E353030362020202D302E3230363320202020302E303030302043202020302020302020302020302020302020302020302020302020302020302020302020300A2020312020322020312020302020202020200A2020322020332020312020302020202020200A2020332020342020322020302020202020200A2020332020352020312020302020202020200A2020312020362020322020302020202020200A2020312020372020312020302020202020200A2020382020392020312020302020202020200A2020392031302020312020302020202020200A2020372020382020312020302020202020200A4D2020454E44
Contributor: TAJIMA S, GUNMA COLLEGE OF TECHNOLOGY
InstType: EI
InstName: HITACHI M-80A
IoniMethod: _ENERGY 70 eV
IonPolarity: pos
Date: 2010-10-09 19:48:36+02:00
Num Peaks: 28
26 64 27 295 28 43 29 149 30 15 31 129 37 15 38 25 39 123 40 23 
41 243 43 999 44 30 45 11 55 14 57 12 58 31 59 17 60 85 61 59 
69 68 73 12 84 58 85 148 87 21 102 49 103 66 144 11 
