Name: CHLORODIMETHYL-2-THIENYLSILANE
MW: 175
Formula: C6H9ClSSi
Synonym: MassBank: JP011731
Synonym: CHLORODIMETHYL-2-THIENYLSILANE
Structure: 310A32330A43484C4F524F44494D455448594C2D322D544849454E594C53494C414E452E6D6F6C0A20204368656D447261773039303731303034323632440A2020392020392020302020302020302020302020302020302020302020303939392056323030300A20202020302E3633343820202020302E3030303020202020302E303030302053692020302020302020302020302020302020302020302020302020302020302020302020300A2020202D302E3139303220202020302E3030303020202020302E303030302043202020302020302020302020302020302020302020302020302020302020302020302020300A2020202D302E363735322020202D302E3636373420202020302E303030302043202020302020302020302020302020302020302020302020302020302020302020302020300A2020202D312E343539382020202D302E3431323520202020302E303030302043202020302020302020302020302020302020302020302020302020302020302020302020300A2020202D312E3435393820202020302E3431323520202020302E303030302043202020302020302020302020302020302020302020302020302020302020302020302020300A2020202D302E3637353220202020302E3636373420202020302E303030302053202020302020302020302020302020302020302020302020302020302020302020302020300A20202020302E3633343820202020302E3832353020202020302E303030302043202020302020302020302020302020302020302020302020302020302020302020302020300A20202020312E3435393820202020302E3030303020202020302E303030302043202020302020302020302020302020302020302020302020302020302020302020302020300A20202020302E363334382020202D302E3832353020202020302E3030303020436C2020302020302020302020302020302020302020302020302020302020302020302020300A2020322020332020322020302020202020200A2020332020342020312020302020202020200A2020342020352020322020302020202020200A2020352020362020312020302020202020200A2020322020362020312020302020202020200A2020312020322020312020302020202020200A2020312020372020312020302020202020200A2020312020382020312020302020202020200A2020312020392020312020302020202020200A4D2020454E44
Contributor: FAC. TECHNOLOGY, HIROSHIMA UNIV.
InstType: EI
InstName: SHIMADZU QP-1000
IoniMethod: _ENERGY 70 eV
IonPolarity: pos
Date: 2010-10-09 19:48:36+02:00
Num Peaks: 50
52 74 53 326 54 32 55 358 56 63 57 42 58 147 59 95 60 11 61 21 
62 32 63 21 64 999 65 642 66 74 67 116 69 53 71 53 73 11 75 126 
76 11 77 63 78 32 79 42 81 126 82 42 83 32 85 32 89 11 93 137 
95 63 97 168 98 11 99 11 103 126 105 32 111 63 117 32 120 11 135 84 
137 32 136 63 161 821 162 95 163 316 164 32 165 11 176 147 177 11 178 53 
