Name: MassBank: JP010182
MW: 472
Formula: C27H28N4O4
Synonym: MassBank: JP010182
Synonym: 5,5'-METHYLENEDI(2-PARA-TOLYLPERHYDROPYRROLO(3,4-C)PYRROLE-1,3-DIONE)
Structure: 352C35272D4D455448594C454E45444928322D504152412D544F4C594C504552485944524F505952524F4C4F28332C342D4329505952524F4C452D312C332D44494F4E45292E6D6F6C0A20204368656D447261773034323331303032313532440A2033352034302020302020302020302020302020302020302020302020303939392056323030300A2020202D302E3039313120202020312E3831343820202020302E303030302043202020302020302020302020302020302020302020302020302020302020302020302020300A20202020322E3832323220202020302E3133323720202020302E30303030204E202020302020302020302020302020302020302020302020302020302020302020302020300A20202020322E3733363020202020302E3935333220202020302E303030302043202020302020302020302020302020302020302020302020302020302020302020302020300A20202020312E3932393020202020312E3132343720202020302E303030302043202020302020302020302020302020302020302020302020302020302020302020302020300A20202020312E3531363520202020302E3431303320202020302E303030302043202020302020302020302020302020302020302020302020302020302020302020302020300A20202020322E303638362020202D302E3230323820202020302E303030302043202020302020302020302020302020302020302020302020302020302020302020302020300A20202020302E3632333320202020312E3430323320202020302E30303030204E202020302020302020302020302020302020302020302020302020302020302020302020300A20202020312E3337373020202020312E3733373820202020302E303030302043202020302020302020302020302020302020302020302020302020302020302020302020300A20202020302E3730393620202020302E3538313820202020302E303030302043202020302020302020302020302020302020302020302020302020302020302020302020300A20202020332E3334393120202020312E3530353220202020302E30303030204F202020302020302020302020302020302020302020302020302020302020302020302020300A20202020312E383937302020202D312E3030393820202020302E30303030204F202020302020302020302020302020302020302020302020302020302020302020302020300A20202020332E353336372020202D302E3237393820202020302E303030302043202020302020302020302020302020302020302020302020302020302020302020302020300A20202020342E3235313220202020302E3133323720202020302E303030302043202020302020302020302020302020302020302020302020302020302020302020302020300A20202020342E393635372020202D312E3130343820202020302E303030302043202020302020302020302020302020302020302020302020302020302020302020302020300A20202020332E353336372020202D312E3130343820202020302E303030302043202020302020302020302020302020302020302020302020302020302020302020302020300A20202020342E393635372020202D302E3237393820202020302E303030302043202020302020302020302020302020302020302020302020302020302020302020302020300A20202020342E323531322020202D312E3531373320202020302E303030302043202020302020302020302020302020302020302020302020302020302020302020302020300A20202020352E363830312020202D312E3531373320202020302E303030302043202020302020302020302020302020302020302020302020302020302020302020302020300A2020202D322E393132352020202D302E3031373520202020302E30303030204E202020302020302020302020302020302020302020302020302020302020302020302020300A2020202D322E313432332020202D302E3331333120202020302E303030302043202020302020302020302020302020302020302020302020302020302020302020302020300A2020202D312E3632333120202020302E3332383020202020302E303030302043202020302020302020302020302020302020302020302020302020302020302020302020300A2020202D322E3037323420202020312E3031393920202020302E303030302043202020302020302020302020302020302020302020302020302020302020302020302020300A2020202D322E3836393320202020302E3830363420202020302E303030302043202020302020302020302020302020302020302020302020302020302020302020302020300A2020202D302E3738333120202020312E3336353420202020302E30303030204E202020302020302020302020302020302020302020302020302020302020302020302020300A2020202D302E3832363220202020302E3534313620202020302E303030302043202020302020302020302020302020302020302020302020302020302020302020302020300A2020202D312E3535333320202020312E3636313120202020302E303030302043202020302020302020302020302020302020302020302020302020302020302020302020300A2020202D312E393238382020202D312E3131303020202020302E30303030204F202020302020302020302020302020302020302020302020302020302020302020302020300A2020202D332E3531303520202020312E3332353620202020302E30303030204F202020302020302020302020302020302020302020302020302020302020302020302020300A2020202D332E363034342020202D302E3436363820202020302E303030302043202020302020302020302020302020302020302020302020302020302020302020302020300A2020202D332E353631322020202D312E3239303620202020302E303030302043202020302020302020302020302020302020302020302020302020302020302020302020300A2020202D342E393838322020202D312E3336353420202020302E303030302043202020302020302020302020302020302020302020302020302020302020302020302020300A2020202D342E333339352020202D302E3039323220202020302E303030302043202020302020302020302020302020302020302020302020302020302020302020302020300A2020202D342E323533312020202D312E3734303020202020302E303030302043202020302020302020302020302020302020302020302020302020302020302020302020300A2020202D352E303331342020202D302E3534313620202020302E303030302043202020302020302020302020302020302020302020302020302020302020302020302020300A2020202D352E363830312020202D312E3831343820202020302E303030302043202020302020302020302020302020302020302020302020302020302020302020302020300A2020322020332020312020302020202020200A2020332020342020312020302020202020200A2020342020352020312020302020202020200A2020352020362020312020302020202020200A2020322020362020312020302020202020200A2020372020382020312020302020202020200A2020372020392020312020302020202020200A2020342020382020312020302020202020200A2020352020392020312020302020202020200A2020332031302020322020302020202020200A2020362031312020322020302020202020200A2031322031332020312020302020202020200A2031322031352020322020302020202020200A2031332031362020322020302020202020200A2031342031362020312020302020202020200A2031342031372020322020302020202020200A2031352031372020312020302020202020200A2031342031382020312020302020202020200A2020322031322020312020302020202020200A2020312020372020312020302020202020200A2031392032302020312020302020202020200A2032302032312020312020302020202020200A2032312032322020312020302020202020200A2032322032332020312020302020202020200A2031392032332020312020302020202020200A2032342032352020312020302020202020200A2032342032362020312020302020202020200A2032312032352020312020302020202020200A2032322032362020312020302020202020200A2032302032372020322020302020202020200A2032332032382020322020302020202020200A2032392033302020312020302020202020200A2032392033322020322020302020202020200A2033302033332020322020302020202020200A2033312033332020312020302020202020200A2033312033342020322020302020202020200A2033322033342020312020302020202020200A2033312033352020312020302020202020200A2031392032392020312020302020202020200A2020312032342020312020302020202020200A4D2020454E44
Contributor: KANEMASA S, INST. OF ADVANCED MATERIAL STUDY KYUSHU UNIV.
InstType: EI
InstName: JEOL JMS-01-SG-2
IoniMethod: _ENERGY 75 eV
IonPolarity: pos
Date: 2010-10-09 19:48:36+02:00
Num Peaks: 31
39 78 40 123 41 255 42 291 43 415 51 59 53 106 54 60 55 367 57 63 
65 72 67 80 68 880 69 82 78 62 80 203 81 428 82 162 91 119 96 236 
97 63 104 99 107 63 132 135 133 156 160 69 187 161 230 88 242 104 243 999 
244 180 
