Name: SILACYCLOBUTANE
MW: 72
Formula: C3H8Si
Synonym: MassBank: JP011999
Synonym: SILACYCLOBUTANE
Structure: 310A31330A53494C414359434C4F425554414E452E6D6F6C0A20204368656D447261773038313231303036343532440A2020342020342020302020302020302020302020302020302020302020303939392056323030300A20202020302E343132352020202D302E3431323520202020302E303030302053692020302020302020302020302020302020302020302020302020302020302020302020300A2020202D302E343132352020202D302E3431323520202020302E303030302043202020302020302020302020302020302020302020302020302020302020302020302020300A2020202D302E3431323520202020302E3431323520202020302E303030302043202020302020302020302020302020302020302020302020302020302020302020302020300A20202020302E3431323520202020302E3431323520202020302E303030302043202020302020302020302020302020302020302020302020302020302020302020302020300A2020312020322020312020302020202020200A2020322020332020312020302020202020200A2020332020342020312020302020202020200A2020312020342020312020302020202020200A4D2020454E44
Contributor: YAMAMOTO M, DEP. CHEMISTRY, FAC. SCIENCE, NARA WOMEN'S UNIV.
InstType: EI
InstName: HITACHI RMU-6M
IoniMethod: _ENERGY 20 eV
IonPolarity: pos
Date: 2010-10-09 19:48:36+02:00
Num Peaks: 20
28 143 29 27 31 24 39 15 41 33 42 36 43 220 44 999 45 122 46 46 
55 56 56 37 57 81 68 13 69 21 70 234 71 219 72 699 73 66 74 30 
