Name: MassBank: JP012008
MW: 160
Formula: C7H20Si2
Synonym: MassBank: JP012008
Synonym: 1,3-BIS(DIMETHYLSILYL)PROPANE (2D)
Structure: 312C332D4249532844494D455448594C53494C594C2950524F50414E4520283244292E6D6F6C0A20204368656D447261773131313130393230343732440A2031312031302020302020302020302020302020302020302020302020303939392056323030300A2020202D312E3138323220202020302E3635393220202020302E303030302053692020302020302020302020302020302020302020302020302020302020302020302020300A2020202D302E3335373220202020302E3635393220202020302E303030302043202020302020302020302020302020302020302020302020302020302020302020302020300A20202020302E303535332020202D302E3035353320202020302E303030302043202020302020302020302020302020302020302020302020302020302020302020302020300A20202020302E383830332020202D302E3035353320202020302E303030302043202020302020302020302020302020302020302020302020302020302020302020302020300A20202020312E323932382020202D302E3736393720202020302E303030302053692020302020302020302020302020302020302020302020302020302020302020302020300A2020202D312E3138323220202020312E3438343220202020302E303030302048202020312020302020302020302020302020302020302020302020302020302020302020300A2020202D322E3030373220202020302E3635393220202020302E303030302043202020302020302020302020302020302020302020302020302020302020302020302020300A2020202D312E313832322020202D302E3136353820202020302E303030302043202020302020302020302020302020302020302020302020302020302020302020302020300A20202020312E373035332020202D312E3438343220202020302E303030302043202020302020302020302020302020302020302020302020302020302020302020302020300A20202020322E303037322020202D302E3335373220202020302E303030302043202020302020302020302020302020302020302020302020302020302020302020302020300A20202020302E353738332020202D312E3138323220202020302E303030302048202020312020302020302020302020302020302020302020302020302020302020302020300A2020312020322020312020302020202020200A2020322020332020312020302020202020200A2020332020342020312020302020202020200A2020342020352020312020302020202020200A2020312020362020312020302020202020200A2020312020372020312020302020202020200A2020312020382020312020302020202020200A2020352020392020312020302020202020200A2020352031302020312020302020202020200A2020352031312020312020302020202020200A4D202049534F202032202020362020203220203131202020320A4D2020454E44
Contributor: YAMAMOTO M, DEP. CHEMISTRY, FAC. SCIENCE, NARA WOMEN'S UNIV.
InstType: EI
InstName: HITACHI RMU-6M
IoniMethod: _ENERGY 70 eV
IonPolarity: pos
Date: 2010-10-09 19:48:36+02:00
Num Peaks: 60
28 27 29 61 30 11 31 129 32 84 39 16 42 26 43 264 44 126 45 82 
46 85 47 10 53 13 55 27 56 14 57 31 58 109 59 456 60 999 61 93 
62 47 69 10 70 13 71 23 72 421 75 19 83 10 84 10 85 127 86 281 
87 89 88 108 89 12 98 16 99 58 100 456 101 95 102 66 103 21 104 14 
115 12 116 50 117 36 118 61 119 47 120 10 130 28 131 37 132 12 133 14 
143 12 144 16 147 342 148 54 149 27 158 48 159 67 160 76 161 16 162 19 
