Name: MassBank: JP010470
MW: 229
Formula: C7H3ClN2O5
Synonym: MassBank: JP010470
Synonym: 3,5-DINITROBENZOYL CHLORIDE
Structure: 332C352D44494E4954524F42454E5A4F594C2043484C4F524944452E6D6F6C0A20204368656D447261773032323231303031343632440A2031352031352020302020302020302020302020302020302020302020303939392056323030300A2020202D312E343433372020202D302E3030303020202020302E303030302043202020302020302020302020302020302020302020302020302020302020302020302020300A2020202D302E363138372020202D302E3030303020202020302E303030302043202020302020302020302020302020302020302020302020302020302020302020302020300A2020202D302E3230363220202020302E3731343520202020302E303030302043202020302020302020302020302020302020302020302020302020302020302020302020300A20202020302E3631383720202020302E3731343520202020302E303030302043202020302020302020302020302020302020302020302020302020302020302020302020300A20202020312E303331332020202D302E3030303020202020302E303030302043202020302020302020302020302020302020302020302020302020302020302020302020300A20202020302E363138382020202D302E3731343520202020302E303030302043202020302020302020302020302020302020302020302020302020302020302020302020300A2020202D302E323036322020202D302E3731343520202020302E303030302043202020302020302020302020302020302020302020302020302020302020302020302020300A2020202D312E383536332020202D302E3731343520202020302E30303030204F202020302020302020302020302020302020302020302020302020302020302020302020300A2020202D312E3835363320202020302E3731343520202020302E3030303020436C2020302020302020302020302020302020302020302020302020302020302020302020300A20202020312E303331332020202D312E3432383920202020302E30303030204E202020302020332020302020302020302020302020302020302020302020302020302020300A20202020312E383536332020202D312E3432383920202020302E30303030204F202020302020302020302020302020302020302020302020302020302020302020302020300A20202020302E363138382020202D322E3134333420202020302E30303030204F202020302020352020302020302020302020302020302020302020302020302020302020300A20202020312E3033313320202020312E3432383920202020302E30303030204E202020302020332020302020302020302020302020302020302020302020302020302020300A20202020302E3631383720202020322E3134333420202020302E30303030204F202020302020302020302020302020302020302020302020302020302020302020302020300A20202020312E3835363220202020312E3432383920202020302E30303030204F202020302020352020302020302020302020302020302020302020302020302020302020300A2020312020322020312020302020202020200A2020322020332020312020302020202020200A2020332020342020322020302020202020200A2020342020352020312020302020202020200A2020352020362020322020302020202020200A2020362020372020312020302020202020200A2020322020372020322020302020202020200A2020312020382020322020302020202020200A2020312020392020312020302020202020200A2031302031312020322020302020202020200A2031302031322020312020302020202020200A2020362031302020312020302020202020200A2031332031342020322020302020202020200A2031332031352020312020302020202020200A2020342031332020312020302020202020200A4D202043484720203420203130202020312020313220202D3120203133202020312020313520202D310A4D2020454E44
Contributor: TAJIMA S, GUNMA COLLEGE OF TECHNOLOGY
InstType: EI
InstName: HITACHI M-80A
IoniMethod: _ENERGY 70 eV
IonPolarity: pos
Date: 2010-10-09 19:48:36+02:00
Num Peaks: 32
30 226 37 37 38 41 46 69 49 15 50 34 53 23 61 35 62 56 63 120 
73 62 74 388 75 843 76 61 87 11 91 33 101 21 103 123 104 11 110 20 
119 28 120 27 137 38 138 11 139 13 148 15 149 224 150 19 179 15 195 999 
196 87 197 14 
