Name: TRIFLUOROMETHOXYBENZENE
MW: 162
Formula: C7H5F3O
Synonym: MassBank: JP011267
Synonym: TRIFLUOROMETHOXYBENZENE
Structure: 545249464C554F524F4D4554484F585942454E5A454E452E6D6F6C0A20204368656D447261773038313231303038333732440A2031312031312020302020302020302020302020302020302020302020303939392056323030300A20202020302E333537322020202D302E3236313520202020302E303030302043202020302020302020302020302020302020302020302020302020302020302020302020300A20202020302E3335373220202020302E3536333520202020302E303030302043202020302020302020302020302020302020302020302020302020302020302020302020300A20202020312E3037313720202020302E3937363020202020302E303030302043202020302020302020302020302020302020302020302020302020302020302020302020300A20202020312E3738363220202020302E3536333520202020302E303030302043202020302020302020302020302020302020302020302020302020302020302020302020300A20202020312E373836322020202D302E3236313520202020302E303030302043202020302020302020302020302020302020302020302020302020302020302020302020300A20202020312E303731372020202D302E3637343020202020302E303030302043202020302020302020302020302020302020302020302020302020302020302020302020300A2020202D302E333537322020202D302E3637343020202020302E30303030204F202020302020302020302020302020302020302020302020302020302020302020302020300A2020202D312E303731372020202D302E3236313520202020302E303030302043202020302020302020302020302020302020302020302020302020302020302020302020300A2020202D312E343834322020202D302E3937363020202020302E303030302046202020302020302020302020302020302020302020302020302020302020302020302020300A2020202D312E3738363220202020302E3135313020202020302E303030302046202020302020302020302020302020302020302020302020302020302020302020302020300A2020202D302E3635393220202020302E3435333020202020302E303030302046202020302020302020302020302020302020302020302020302020302020302020302020300A2020312020322020312020302020202020200A2020322020332020322020302020202020200A2020332020342020312020302020202020200A2020342020352020322020302020202020200A2020352020362020312020302020202020200A2020312020362020322020302020202020200A2020372020382020312020302020202020200A2020382020392020312020302020202020200A2020382031302020312020302020202020200A2020382031312020312020302020202020200A2020312020372020312020302020202020200A4D2020454E44
Contributor: TAJIMA S, GUNMA COLLEGE OF TECHNOLOGY
InstType: EI
InstName: HITACHI M-80A
IoniMethod: _ENERGY 70 eV
IonPolarity: pos
Date: 2010-10-09 19:48:36+02:00
Num Peaks: 39
26 34 27 29 31 22 37 70 38 170 39 548 40 22 43 11 47 17 49 26 
50 168 51 151 52 10 53 24 61 37 62 69 63 162 64 82 65 999 66 64 
67 12 69 349 70 23 73 13 74 48 75 43 76 33 77 242 78 16 84 19 
92 19 93 163 94 14 95 28 96 173 97 12 114 20 162 842 163 67 
