Name: MassBank: JP011399
MW: 212
Formula: C12H24OSi
Synonym: MassBank: JP011399
Synonym: 2,2-DIMETHYL-4-(TRIMETHYLSILYL)METHYL-5-HEXEN-3-ONE
Structure: 322C322D44494D455448594C2D342D285452494D455448594C53494C594C294D455448594C2D352D484558454E2D332D4F4E452E6D6F6C0A20204368656D447261773132323030393036343732440A2031342031332020302020302020302020302020302020302020302020303939392056323030300A2020202D322E303037322020202D302E3635393220202020302E303030302043202020302020302020302020302020302020302020302020302020302020302020302020300A2020202D312E313832322020202D302E3635393220202020302E303030302053692020302020302020302020302020302020302020302020302020302020302020302020300A2020202D302E333537322020202D302E3635393220202020302E303030302043202020302020302020302020302020302020302020302020302020302020302020302020300A2020202D312E3138323220202020302E3136353820202020302E303030302043202020302020302020302020302020302020302020302020302020302020302020302020300A2020202D312E313832322020202D312E3438343220202020302E303030302043202020302020302020302020302020302020302020302020302020302020302020302020300A20202020302E3035353320202020302E3035353320202020302E303030302043202020302020302020302020302020302020302020302020302020302020302020302020300A20202020302E3838303320202020302E3035353320202020302E303030302043202020302020302020302020302020302020302020302020302020302020302020302020300A2020202D302E3335373220202020302E3736393720202020302E303030302043202020302020302020302020302020302020302020302020302020302020302020302020300A20202020302E3035353320202020312E3438343220202020302E303030302043202020302020302020302020302020302020302020302020302020302020302020302020300A20202020312E3239323820202020302E3736393720202020302E30303030204F202020302020302020302020302020302020302020302020302020302020302020302020300A20202020312E323932382020202D302E3635393220202020302E303030302043202020302020302020302020302020302020302020302020302020302020302020302020300A20202020312E373035332020202D312E3337333720202020302E303030302043202020302020302020302020302020302020302020302020302020302020302020302020300A20202020322E303037322020202D302E3234363720202020302E303030302043202020302020302020302020302020302020302020302020302020302020302020302020300A20202020302E353738332020202D312E3037313720202020302E303030302043202020302020302020302020302020302020302020302020302020302020302020302020300A2020312020322020312020302020202020200A2020322020332020312020302020202020200A2020322020342020312020312020202020200A2020322020352020312020312020202020200A2020332020362020312020302020202020200A2020362020372020312020302020202020200A2020362020382020312020302020202020200A2020382020392020322020302020202020200A2020372031302020322020302020202020200A2020372031312020312020302020202020200A2031312031322020312020302020202020200A2031312031332020312020312020202020200A2031312031342020312020312020202020200A4D2020454E44
Contributor: HISAHIRO HAGIWARA, INSTITUTE FOR CHEMICAL REACTION SCIENCE TOHOKU UNIV.
InstType: EI
InstName: JEOL JMS-DX-300
IoniMethod: _ENERGY 70 eV
IonPolarity: pos
Date: 2010-10-09 19:48:36+02:00
Num Peaks: 23
39 27 41 111 43 35 44 26 45 115 57 584 58 43 59 50 73 999 74 124 
75 224 85 87 97 35 127 117 141 23 143 171 144 26 155 303 156 53 157 20 
158 67 197 38 212 3 
