Name: 2-CHLORO-3-METHYL-3-BUTENYL ACETATE
MW: 162
Formula: C7H11ClO2
Synonym: MassBank: JP010940
Synonym: 2-CHLORO-3-METHYL-3-BUTENYL ACETATE
Structure: 322D43484C4F524F2D332D4D455448594C2D332D425554454E594C20414345544154452E6D6F6C0A20204368656D447261773031303331303130333332440A2031302020392020302020302020302020302020302020302020302020303939392056323030300A2020202D312E343238392020202D302E3230363220202020302E303030302043202020302020302020302020302020302020302020302020302020302020302020302020300A2020202D322E3134333420202020302E3230363220202020302E303030302043202020302020302020302020302020302020302020302020302020302020302020302020300A2020202D312E343238392020202D312E3033313320202020302E30303030204F202020302020302020302020302020302020302020302020302020302020302020302020300A2020202D302E3731343520202020302E3230363220202020302E30303030204F202020302020302020302020302020302020302020302020302020302020302020302020300A20202020302E303030302020202D302E3230363220202020302E303030302043202020302020302020302020302020302020302020302020302020302020302020302020300A20202020302E3731343520202020302E3230363220202020302E303030302043202020302020302020302020302020302020302020302020302020302020302020302020300A20202020312E343238392020202D302E3230363220202020302E303030302043202020302020302020302020302020302020302020302020302020302020302020302020300A20202020312E343238392020202D312E3033313220202020302E303030302043202020302020302020302020302020302020302020302020302020302020302020302020300A20202020322E3134333420202020302E3230363320202020302E303030302043202020302020302020302020302020302020302020302020302020302020302020302020300A20202020302E3731343520202020312E3033313320202020302E3030303020436C2020302020302020302020302020302020302020302020302020302020302020302020300A2020312020322020312020302020202020200A2020312020332020322020302020202020200A2020312020342020312020302020202020200A2020352020362020312020302020202020200A2020362020372020312020302020202020200A2020372020382020322020302020202020200A2020372020392020312020302020202020200A2020362031302020312020302020202020200A2020342020352020312020302020202020200A4D2020454E44
Contributor: KURARAY CO., LTD.
InstType: EI
InstName: JEOL JMS-D-300
IoniMethod: _ENERGY 70 eV
IonPolarity: pos
Date: 2010-10-09 19:48:36+02:00
Num Peaks: 62
27 71 28 55 29 36 31 6 32 14 36 13 37 4 38 15 39 123 40 37 
41 227 42 37 43 688 44 26 45 10 49 12 50 17 51 54 52 16 53 91 
54 12 55 65 56 32 57 14 59 13 61 78 62 7 63 31 64 12 65 84 
66 127 67 999 68 71 69 25 71 7 73 15 74 7 75 78 76 7 77 28 
83 67 84 39 85 490 86 36 87 35 89 17 90 16 101 10 102 805 103 201 
104 266 105 84 107 7 117 6 119 32 120 49 121 17 122 16 127 363 128 45 
162 36 163 12 
