Name: MassBank: JP010193
MW: 279
Formula: C19H21NO
Synonym: MassBank: JP010193
Synonym: 1-METHYL-3-PARA-METHYLBENZOYL-4-PHENYLPYRROLIDINE (3,4-TRANS)
Synonym: (3R,4S)-1-METHYL-3-PARA-METHYLBENZOYL-4-PHENYLPYRROLIDINE
Structure: 2833522C3453292D312D4D455448594C2D332D504152412D4D455448594C42454E5A4F594C2D342D5048454E594C505952524F4C4944494E452E6D6F6C0A20204368656D447261773130323130393033343532440A2032332032352020302020302020302020302020302020302020302020303939392056323030300A20202020302E393137302020202D302E3933373320202020302E303030302043202020302020302020302020302020302020302020302020302020302020302020302020300A20202020312E373233392020202D312E3130383920202020302E30303030204E202020302020302020302020302020302020302020302020302020302020302020302020300A20202020322E313336342020202D302E3339343420202020302E303030302043202020302020302020302020302020302020302020302020302020302020302020302020300A20202020312E3538343420202020302E3231383720202020302E303030302043202020302020302020302020302020302020302020302020302020302020302020302020300A20202020302E383330372020202D302E3131363920202020302E303030302043202020302020302020302020302020302020302020302020302020302020302020302020300A20202020302E3537393420202020302E3636363620202020302E303030302048202020302020302020302020302020302020302020302020302020302020302020302020300A20202020312E3034383220202020312E3134373520202020302E303030302043202020302020302020302020302020302020302020302020302020302020302020302020300A20202020302E303233382020202D302E3238383420202020302E303030302043202020302020302020302020302020302020302020302020302020302020302020302020300A20202020322E3235313820202020302E3730323720202020302E303030302048202020302020302020302020302020302020302020302020302020302020302020302020300A2020202D302E3532383320202020302E3332343720202020302E303030302043202020302020302020302020302020302020302020302020302020302020302020302020300A2020202D312E3333353220202020302E3135333220202020302E303030302043202020302020302020302020302020302020302020302020302020302020302020302020300A2020202D312E353930322020202D302E3633313420202020302E303030302043202020302020302020302020302020302020302020302020302020302020302020302020300A2020202D312E303338322020202D312E3234343520202020302E303030302043202020302020302020302020302020302020302020302020302020302020302020302020300A2020202D302E323331322020202D312E3037333020202020302E303030302043202020302020302020302020302020302020302020302020302020302020302020302020300A20202020302E3232333220202020312E3134373520202020302E303030302043202020302020302020302020302020302020302020302020302020302020302020302020300A20202020312E3436303720202020312E3835363920202020302E30303030204F202020302020302020302020302020302020302020302020302020302020302020302020300A2020202D302E3138393320202020312E3836323020202020302E303030302043202020302020302020302020302020302020302020302020302020302020302020302020300A2020202D312E3031343320202020312E3836323020202020302E303030302043202020302020302020302020302020302020302020302020302020302020302020302020300A2020202D312E3432363820202020312E3134373520202020302E303030302043202020302020302020302020302020302020302020302020302020302020302020302020300A2020202D312E3031343320202020302E3433333020202020302E303030302043202020302020302020302020302020302020302020302020302020302020302020302020300A2020202D302E3138393320202020302E3433333020202020302E303030302043202020302020302020302020302020302020302020302020302020302020302020302020300A20202020322E303538362020202D312E3836323020202020302E303030302043202020302020302020302020302020302020302020302020302020302020302020302020300A2020202D322E3235313820202020312E3134373620202020302E303030302043202020302020302020302020302020302020302020302020302020302020302020302020300A2020312020322020312020302020202020200A2020322020332020312020302020202020200A2020332020342020312020302020202020200A2020342020352020312020302020202020200A2020352020312020312020302020202020200A2020352020362020312020312020202020200A2020342020372020312020312020202020200A2020352020382020312020362020202020200A2020342020392020312020362020202020200A2020382031302020322020302020202020200A2031302031312020312020302020202020200A2031312031322020322020302020202020200A2031322031332020312020302020202020200A2031332031342020322020302020202020200A2031342020382020312020302020202020200A2020372031352020312020302020202020200A2020372031362020322020302020202020200A2031352031372020322020302020202020200A2031372031382020312020302020202020200A2031382031392020322020302020202020200A2031392032302020312020302020202020200A2032302032312020322020302020202020200A2032312031352020312020302020202020200A2020322032322020312020302020202020200A2031392032332020312020302020202020200A4D202053545920203120202031205355500A4D2020534C4220203120202031202020310A4D202053414C20202031202031202032320A4D202053424C20202031202031202032340A4D2020534D5420202031204D650A4D2020534256202020312032342020202D382E3030313620202020372E313334380A4D202053545920203120202032205355500A4D2020534C4220203120202032202020320A4D202053414C20202032202031202032330A4D202053424C20202032202031202032350A4D2020534D5420202032204D650A4D2020534256202020322032352020202D392E3136313220202020372E383838300A4D2020454E44
Contributor: KANEMASA S, INST. OF ADVANCED MATERIAL STUDY KYUSHU UNIV.
InstType: EI
InstName: JEOL JMS-01-SG-2
IoniMethod: _ENERGY 75 eV
IonPolarity: pos
Date: 2010-10-09 19:48:36+02:00
Num Peaks: 33
40 60 42 52 43 234 44 218 45 57 56 50 58 321 59 80 65 93 77 52 
82 65 84 93 91 283 92 42 103 47 104 109 115 141 116 57 117 259 119 202 
128 118 133 592 134 75 147 139 158 136 160 76 174 999 175 507 176 56 185 46 
210 148 279 422 280 97 
