Name: MassBank: JP011042
MW: 242
Formula: C12H18O5
Synonym: MassBank: JP011042
Synonym: TRANS-7-HYDROXY-7-METHYL-4A,9A-DIMETHOXYCYCLOHEPTA(1,4)DIOXINE
Structure: 5452414E532D372D485944524F58592D372D4D455448594C2D34412C39412D44494D4554484F58594359434C4F484550544128312C342944494F58494E452E6D6F6C0A20204368656D447261773038313231303038303432440A2031372031382020302020302020302020302020302020302020302020303939392056323030300A2020202D312E3232313420202020302E3832323820202020302E30303030204F202020302020302020302020302020302020302020302020302020302020302020302020300A2020202D302E3530363920202020302E3431303320202020302E303030302043202020302020302020302020302020302020302020302020302020302020302020302020300A2020202D302E353036392020202D302E3431363520202020302E303030302043202020302020302020302020302020302020302020302020302020302020302020302020300A2020202D312E323235332020202D302E3833313220202020302E30303030204F202020302020302020302020302020302020302020302020302020302020302020302020300A2020202D312E393434382020202D302E3431353820202020302E303030302043202020302020302020302020302020302020302020302020302020302020302020302020300A2020202D312E3934343820202020302E3431353620202020302E303030302043202020302020302020302020302020302020302020302020302020302020302020302020300A20202020302E313330332020202D302E3933343120202020302E303030302043202020302020302020302020302020302020302020302020302020302020302020302020300A20202020302E393335362020202D302E3735343520202020302E303030302043202020302020302020302020302020302020302020302020302020302020302020302020300A20202020312E323937322020202D302E3031333020202020302E303030302043202020302020302020302020302020302020302020302020302020302020302020302020300A20202020302E3934333020202020302E3733323020202020302E303030302043202020302020302020302020302020302020302020302020302020302020302020302020300A20202020302E3133393620202020302E3931393620202020302E303030302043202020302020302020302020302020302020302020302020302020302020302020302020300A2020202D302E3536353520202020312E3233313520202020302E30303030204F202020302020302020302020302020302020302020302020302020302020302020302020300A2020202D312E3330373020202020312E3539333120202020302E303030302043202020302020302020302020302020302020302020302020302020302020302020302020300A2020202D302E353737382020202D312E3233383920202020302E30303030204F202020302020302020302020302020302020302020302020302020302020302020302020300A2020202D312E333232392020202D312E3539333120202020302E303030302043202020302020302020302020302020302020302020302020302020302020302020302020300A20202020312E3934343820202020302E3439383120202020302E303030302043202020302020302020302020302020302020302020302020302020302020302020302020300A20202020312E393339372020202D302E3533303620202020302E30303030204F202020302020302020302020302020302020302020302020302020302020302020302020300A2020312020322020312020302020202020200A2020322020332020312020302020202020200A2020332020342020312020302020202020200A2020342020352020312020302020202020200A2020352020362020322020302020202020200A2020312020362020312020302020202020200A2020372020382020322020302020202020200A2020382020392020312020302020202020200A2020392031302020312020302020202020200A2031302031312020322020302020202020200A2020322031312020312020302020202020200A2020332020372020312020302020202020200A2031322031332020312020302020202020200A2020322031322020312020312020202020200A2031342031352020312020302020202020200A2020332031342020312020362020202020200A2020392031362020312020302020202020200A2020392031372020312020302020202020200A4D2020454E44
Contributor: TAKESHITA H, INST. OF ADVANCED MATERIAL STUDY KYUSHU UNIV.
InstType: EI
InstName: JEOL JMS-01-SG-2
IoniMethod: _ENERGY 75 eV
IonPolarity: pos
Date: 2010-10-09 19:48:36+02:00
Num Peaks: 39
38 183 40 174 42 999 53 168 55 221 59 356 65 173 69 184 76 211 78 179 
95 308 97 211 103 647 107 204 111 241 123 253 124 172 125 197 137 156 139 235 
151 235 154 178 167 453 179 443 180 58 181 42 182 12 183 11 193 32 195 168 
196 22 197 23 198 13 199 20 210 415 211 121 212 17 227 37 242 29 
