Name: MassBank: JP011368
MW: 114
Formula: C6H14Si
Synonym: MassBank: JP011368
Synonym: 1-METHYLSILACYCLOHEXANE (2,2,6,6-D4)
Structure: 312D4D455448594C53494C414359434C4F484558414E452028322C322C362C362D4434292E6D6F6C0A20204368656D447261773131323130393138333932440A2031312031312020302020302020302020302020302020302020302020303939392056323030300A20202020302E3030303020202020302E3431323520202020302E303030302053692020302020302020302020302020302020302020302020302020302020302020302020300A20202020302E3731343520202020302E3030303020202020302E303030302043202020302020302020302020302020302020302020302020302020302020302020302020300A20202020302E373134352020202D302E3832353020202020302E303030302043202020302020302020302020302020302020302020302020302020302020302020302020300A2020202D302E303030302020202D312E3233373520202020302E303030302043202020302020302020302020302020302020302020302020302020302020302020302020300A2020202D302E373134352020202D302E3832353020202020302E303030302043202020302020302020302020302020302020302020302020302020302020302020302020300A2020202D302E3731343520202020302E3030303020202020302E303030302043202020302020302020302020302020302020302020302020302020302020302020302020300A2020202D312E353236392020202D302E3134333320202020302E303030302048202020312020302020302020302020302020302020302020302020302020302020302020300A2020202D302E3939363620202020302E3737353220202020302E303030302048202020312020302020302020302020302020302020302020302020302020302020302020300A20202020302E3939363620202020302E3737353220202020302E303030302048202020312020302020302020302020302020302020302020302020302020302020302020300A20202020312E353236392020202D302E3134333320202020302E303030302048202020312020302020302020302020302020302020302020302020302020302020302020300A20202020302E3030303020202020312E3233373520202020302E303030302043202020302020302020302020302020302020302020302020302020302020302020302020300A2020312020322020312020302020202020200A2020322020332020312020302020202020200A2020332020342020312020302020202020200A2020342020352020312020302020202020200A2020352020362020312020302020202020200A2020312020362020312020302020202020200A2020362020372020312020312020202020200A2020362020382020312020362020202020200A2020322020392020312020312020202020200A2020322031302020312020362020202020200A2020312031312020312020302020202020200A4D202049534F20203420202037202020322020203820202032202020392020203220203130202020320A4D2020454E44
Contributor: YAMAMOTO M, DEP. CHEMISTRY, FAC. SCIENCE, NARA WOMEN'S UNIV.
InstType: EI
InstName: HITACHI RMU-6M
IoniMethod: _ENERGY 70 eV
IonPolarity: pos
Date: 2010-10-09 19:48:36+02:00
Num Peaks: 55
27 23 28 56 29 60 30 38 31 16 32 25 39 22 40 38 41 32 42 51 
43 369 44 185 45 293 46 136 47 47 48 17 53 21 54 21 55 26 56 40 
57 45 58 295 59 161 60 389 61 149 62 52 63 25 67 12 68 18 69 16 
70 13 71 52 72 96 73 298 74 325 75 114 76 27 77 14 85 21 86 56 
87 257 88 999 89 158 90 109 99 21 100 26 101 65 102 43 103 241 104 32 
116 60 117 257 118 538 119 79 120 27 
