Name: MassBank: JP012123
MW: 180
Formula: C12H20O
Synonym: MassBank: JP012123
Synonym: (1R,2R,(4A)S,(8A)R)-1,2,(4A),5,6,7,8,(8A)-OCTAHYDRO-2-METHYLNAPHTHALEN-1-METHANOL
Structure: 2831522C32522C28344129532C2838412952292D312C322C283441292C352C362C372C382C283841292D4F435441485944524F2D322D4D455448594C4E4150485448414C454E2D312D4D455448414E4F4C2E6D6F6C0A20204368656D447261773130313930393133323132440A2031392032302020302020302020302020302020302020302020302020303939392056323030300A2020202D312E3033303820202020302E3432343120202020302E303030302043202020302020302020302020302020302020302020302020302020302020302020302020300A2020202D312E303330382020202D302E3430303920202020302E303030302043202020302020302020302020302020302020302020302020302020302020302020302020300A2020202D302E333136332020202D302E3831333420202020302E303030302043202020302020302020302020302020302020302020302020302020302020302020302020300A20202020302E333938322020202D302E3430303920202020302E303030302043202020302020302020302020302020302020302020302020302020302020302020302020300A20202020302E3339383220202020302E3432343120202020302E303030302043202020302020302020302020302020302020302020302020302020302020302020302020300A2020202D302E3331363320202020302E3833363620202020302E303030302043202020302020302020302020302020302020302020302020302020302020302020302020300A20202020312E313132372020202D302E3831333420202020302E303030302043202020302020302020302020302020302020302020302020302020302020302020302020300A20202020312E383237312020202D302E3430303920202020302E303030302043202020302020302020302020302020302020302020302020302020302020302020302020300A20202020312E3832373120202020302E3432343120202020302E303030302043202020302020302020302020302020302020302020302020302020302020302020302020300A20202020312E3131323720202020302E3833363620202020302E303030302043202020302020302020302020302020302020302020302020302020302020302020302020300A20202020302E3339393020202020312E3234393120202020302E303030302048202020302020302020302020302020302020302020302020302020302020302020302020300A2020202D312E383237312020202D302E3138373420202020302E303030302048202020302020302020302020302020302020302020302020302020302020302020302020300A2020202D302E393438332020202D312E3334343620202020302E303030302048202020302020302020302020302020302020302020302020302020302020302020302020300A2020202D302E3331363320202020312E3636313620202020302E303030302048202020302020302020302020302020302020302020302020302020302020302020302020300A2020202D312E3734343220202020302E3833363620202020302E303030302048202020302020302020302020302020302020302020302020302020302020302020302020300A20202020312E313935312020202D302E3138373420202020302E303030302048202020302020302020302020302020302020302020302020302020302020302020302020300A2020202D312E343433382020202D312E3131343520202020302E303030302043202020302020302020302020302020302020302020302020302020302020302020302020300A2020202D302E313130342020202D312E3332313320202020302E303030302043202020302020302020302020302020302020302020302020302020302020302020302020300A20202020302E343739312020202D312E3636313620202020302E30303030204F202020302020302020302020302020302020302020302020302020302020302020302020300A2020312020322020312020302020202020200A2020322020332020312020302020202020200A2020332020342020312020302020202020200A2020342020352020312020302020202020200A2020352020362020312020302020202020200A2020362020312020322020302020202020200A2020342020372020312020302020202020200A2020372020382020312020302020202020200A2020382020392020312020302020202020200A2020392031302020312020302020202020200A2031302020352020312020302020202020200A2020352031312020312020312020202020200A2020322031322020312020312020202020200A2020332031332020312020312020202020200A2020362031342020312020302020202020200A2020312031352020312020302020202020200A2020342031362020312020362020202020200A2020322031372020312020302020202020200A2031382031392020312020302020202020200A2020332031382020312020302020202020200A4D202053545920203120202031205355500A4D2020534C4220203120202031202020310A4D202053414C20202031202031202031370A4D202053424C20202031202031202031380A4D2020534D5420202031204D650A4D2020534256202020312031382020202D372E3232323420202020372E323536360A4D202053545920203120202032205355500A4D2020534C4220203120202032202020320A4D202053414C2020203220203220203138202031390A4D202053424C20202032202031202032300A4D2020534D5420202032204348324F480A4D2020534256202020322032302020202D362E3630333520202020372E343632330A4D2020454E44
Contributor: HISAHIRO HAGIWARA, INSTITUTE FOR CHEMICAL REACTION SCIENCE TOHOKU UNIV.
InstType: EI
InstName: JEOL JMS-DX-300
IoniMethod: _ENERGY 70 eV
IonPolarity: pos
Date: 2010-10-09 19:48:36+02:00
Num Peaks: 19
41 83 55 65 67 81 77 70 79 145 81 215 91 157 93 132 95 54 105 171 
107 127 119 111 120 57 133 65 147 132 149 999 150 156 162 96 180 129 
