Name: MassBank: JP010283
MW: 231
Formula: C14H17NO2
Synonym: MassBank: JP010283
Synonym: METHYL 2,3-DIMETHYL-5-PHENYL-1-PYRROLINE-4-CARBOXYLATE (3,4-TRANS-4,5-CIS)
Synonym: METHYL (3R,4R,5S)-2,3-DIMETHYL-5-PHENYL-1-PYRROLINE-4-CARBOXYLATE
Structure: 4D455448594C202833522C34522C3553292D322C332D44494D455448594C2D352D5048454E594C2D312D505952524F4C494E452D342D434152424F58594C4154452E6D6F6C0A20204368656D447261773038313131303233313532440A2031372031382020302020302020302020302020302020302020302020303939392056323030300A20202020302E3737383520202020302E3031303320202020302E30303030204E202020302020302020302020302020302020302020302020302020302020302020302020300A20202020302E393530302020202D302E3739363620202020302E303030302043202020302020302020302020302020302020302020302020302020302020302020302020300A20202020302E323335362020202D312E3230393120202020302E303030302043202020302020302020302020302020302020302020302020302020302020302020302020300A2020202D302E333737352020202D302E3635373120202020302E303030302043202020302020302020302020302020302020302020302020302020302020302020302020300A2020202D302E3034323020202020302E3039363620202020302E303030302043202020302020302020302020302020302020302020302020302020302020302020302020300A2020202D312E313834352020202D302E3832383620202020302E303030302043202020302020302020302020302020302020302020302020302020302020302020302020300A2020202D312E373033372020202D302E3138373520202020302E30303030204F202020302020302020302020302020302020302020302020302020302020302020302020300A2020202D312E343830322020202D312E3539383820202020302E30303030204F202020302020302020302020302020302020302020302020302020302020302020302020300A2020202D302E3435343520202020302E3831313020202020302E303030302043202020302020302020302020302020302020302020302020302020302020302020302020300A2020202D312E3237393520202020302E3831313020202020302E303030302043202020302020302020302020302020302020302020302020302020302020302020302020300A2020202D312E3639323020202020312E3532353520202020302E303030302043202020302020302020302020302020302020302020302020302020302020302020302020300A2020202D312E3237393520202020322E3234303020202020302E303030302043202020302020302020302020302020302020302020302020302020302020302020302020300A2020202D302E3435343520202020322E3234303020202020302E303030302043202020302020302020302020302020302020302020302020302020302020302020302020300A2020202D302E3034323020202020312E3532353520202020302E303030302043202020302020302020302020302020302020302020302020302020302020302020302020300A20202020302E313439332020202D322E3032393620202020302E303030302043202020302020302020302020302020302020302020302020302020302020302020302020300A20202020312E373033372020202D312E3133323220202020302E303030302043202020302020302020302020302020302020302020302020302020302020302020302020300A2020202D302E393631302020202D322E3234303020202020302E303030302043202020302020302020302020302020302020302020302020302020302020302020302020300A2020312020322020322020302020202020200A2020322020332020312020302020202020200A2020332020342020312020302020202020200A2020342020352020312020302020202020200A2020312020352020312020302020202020200A2020362020372020322020302020202020200A2020362020382020312020302020202020200A2020342020362020312020312020202020200A2020392031302020312020302020202020200A2031302031312020322020302020202020200A2031312031322020312020302020202020200A2031322031332020322020302020202020200A2031332031342020312020302020202020200A2020392031342020322020302020202020200A2020352020392020312020312020202020200A2020332031352020312020362020202020200A2020322031362020312020302020202020200A2020382031372020312020302020202020200A4D2020454E44
Contributor: KANEMASA S, INST. OF ADVANCED MATERIAL STUDY KYUSHU UNIV.
InstType: EI
InstName: JEOL JMS-01-SG-2
IoniMethod: _ENERGY 75 eV
IonPolarity: pos
Date: 2010-10-09 19:48:36+02:00
Num Peaks: 18
41 71 69 76 77 52 89 116 90 263 91 102 104 76 115 61 129 62 130 391 
131 999 132 98 171 134 172 297 173 49 200 79 231 446 232 66 
