Name: ISOPROPYL 2-(N-((4S)-4-(1-METHYLETHYL)-2-OXAZOLIDINONE-3-CARBAMOYL)AMINO)-4-PENTENOATE
MW: 312
Formula: C15H24N2O5
Synonym: MassBank: JP011811
Synonym: ISOPROPYL 2-(N-((4S)-4-(1-METHYLETHYL)-2-OXAZOLIDINONE-3-CARBAMOYL)AMINO)-4-PENTENOATE
Structure: 313131325F49534F50524F50594C20322D284E2D28283453292D342D28312D4D455448594C455448594C292D322D4F58415A4F4C4944494E4F4E452D332D43415242414D4F594C29414D494E4F292D342D50454E54454E4F4154452E6D6F6C0A20204368656D447261773130323031303230323532440A2032322032322020302020302020302020302020302020302020302020303939392056323030300A20202020312E343539392020202D302E3030303020202020302E303030302043202020302020302020302020302020302020302020302020302020302020302020302020300A20202020312E3034373420202020302E3731343520202020302E303030302043202020302020302020302020302020302020302020302020302020302020302020302020300A20202020322E323834392020202D302E3030303020202020302E30303030204F202020302020302020302020302020302020302020302020302020302020302020302020300A20202020312E303437342020202D302E3731343520202020302E30303030204F202020302020302020302020302020302020302020302020302020302020302020302020300A20202020302E3232323420202020302E3731343520202020302E30303030204E202020302020302020302020302020302020302020302020302020302020302020302020300A2020202D322E3238333620202020302E3431323920202020302E30303030204F202020302020302020302020302020302020302020302020302020302020302020302020300A2020202D312E3530303320202020302E3636383620202020302E303030302043202020302020302020302020302020302020302020302020302020302020302020302020300A2020202D312E303135312020202D302E3030303020202020302E30303030204E202020302020302020302020302020302020302020302020302020302020302020302020300A2020202D312E353030332020202D302E3636363320202020302E303030302043202020302020302020302020302020302020302020302020302020302020302020302020300A2020202D322E323834392020202D302E3431313320202020302E303030302043202020302020302020302020302020302020302020302020302020302020302020302020300A2020202D312E3234353720202020312E3435333420202020302E30303030204F202020302020302020302020302020302020302020302020302020302020302020302020300A2020202D312E323435362020202D312E3435313020202020302E303030302043202020302020302020302020302020302020302020302020302020302020302020302020300A2020202D302E343438382020202D312E3636343520202020302E303030302043202020302020302020302020302020302020302020302020302020302020302020302020300A2020202D312E383239302020202D322E3033343420202020302E303030302043202020302020302020302020302020302020302020302020302020302020302020302020300A20202020312E343539392020202D312E3432383920202020302E303030302043202020302020302020302020302020302020302020302020302020302020302020302020300A2020202D302E313930312020202D302E3030303020202020302E303030302043202020302020302020302020302020302020302020302020302020302020302020302020300A20202020302E323232342020202D302E3731343520202020302E30303030204F202020302020302020302020302020302020302020302020302020302020302020302020300A20202020312E303437342020202D322E3134333420202020302E303030302043202020302020302020302020302020302020302020302020302020302020302020302020300A20202020322E323834392020202D312E3432383920202020302E303030302043202020302020302020302020302020302020302020302020302020302020302020302020300A20202020312E3435393920202020312E3432383920202020302E303030302043202020302020302020302020302020302020302020302020302020302020302020302020300A20202020312E3034373420202020322E3134333420202020302E303030302043202020302020302020302020302020302020302020302020302020302020302020302020300A20202020302E3232323420202020322E3134333420202020302E303030302043202020302020302020302020302020302020302020302020302020302020302020302020300A2020312020322020312020302020202020200A2020312020332020322020302020202020200A2020312020342020312020302020202020200A2020362020372020312020302020202020200A2020372020382020312020302020202020200A2020382020392020312020302020202020200A2020392031302020312020302020202020200A2020362031302020312020302020202020200A2020372031312020322020302020202020200A2031322031332020312020302020202020200A2031322031342020312020302020202020200A2020392031322020312020312020202020200A2020342031352020312020302020202020200A2020382031362020312020302020202020200A2020352031362020312020302020202020200A2031362031372020322020302020202020200A2031352031382020312020302020202020200A2031352031392020312020302020202020200A2020352020322020312020302020202020200A2020322032302020312020302020202020200A2032302032312020312020302020202020200A2032312032322020322020302020202020200A4D2020454E44
Contributor: YOSHINORI Y, FAC. SCIENCE, TOHOKU UNIV.
InstType: EI
InstName: Unknown
IoniMethod: _ENERGY 20 eV
IonPolarity: pos
Date: 2010-10-09 19:48:36+02:00
Num Peaks: 28
142 13 153 12 155 17 156 13 173 10 174 27 175 21 176 27 182 55 185 275 
186 33 211 18 212 21 213 29 225 999 226 139 227 15 229 268 230 47 253 64 
257 27 271 865 272 183 273 24 309 12 311 35 312 118 313 56 
