Name: MassBank: JP010212
MW: 440
Formula: C27H24N2O4
Synonym: MassBank: JP010212
Synonym: 4-METHOXYCARBONYL-5,6-DIPHENYL-2-(PARA-TOLYL)PERHYDROPYRROLO(3,4-C)PYRROLE-1,3-DIONE(3A,4-CIS-6,6A-TRANS)
Synonym: (4S,6S)-4-METHOXYCARBONYL-5,6-DIPHENYL-2-(PARA-TOLYL)PERHYDROPYRROLO(3,4-C)PYRROLE-1,3-DIONE
Structure: 2834532C3653292D342D4D4554484F5859434152424F4E594C2D352C362D44495048454E594C2D322D28504152412D544F4C594C29504552485944524F505952524F4C4F28332C342D4329505952524F4C452D312C332D44494F4E452E6D6F6C0A20204368656D447261773130323230393034313132440A2033372034312020302020302020302020302020302020302020302020303939392056323030300A2020202D322E3530373320202020302E3534373220202020302E303030302043202020302020302020302020302020302020302020302020302020302020302020302020300A2020202D312E3737393920202020312E3739383420202020302E303030302043202020302020302020302020302020302020302020302020302020302020302020302020300A2020202D302E3431313820202020302E3133343720202020302E303030302043202020302020302020302020302020302020302020302020302020302020302020302020300A2020202D302E3431313820202020302E3935393720202020302E303030302043202020302020302020302020302020302020302020302020302020302020302020302020300A2020202D312E3139363420202020312E3231343620202020302E303030302043202020302020302020302020302020302020302020302020302020302020302020302020300A2020202D312E3638313420202020302E3534373220202020302E30303030204E202020302020302020302020302020302020302020302020302020302020302020302020300A2020202D312E313936342020202D302E3132303320202020302E303030302043202020302020302020302020302020302020302020302020302020302020302020302020300A20202020302E333732382020202D302E3132303320202020302E303030302043202020302020302020302020302020302020302020302020302020302020302020302020300A20202020302E3835373720202020302E3534373220202020302E30303030204E202020302020302020302020302020302020302020302020302020302020302020302020300A20202020302E3337323820202020312E3231343620202020302E303030302043202020302020302020302020302020302020302020302020302020302020302020302020300A20202020302E3632373720202020312E3939393220202020302E30303030204F202020302020302020302020302020302020302020302020302020302020302020302020300A20202020312E3638323720202020302E3534373220202020302E303030302043202020302020302020302020302020302020302020302020302020302020302020302020300A20202020302E363237372020202D302E3930343920202020302E30303030204F202020302020302020302020302020302020302020302020302020302020302020302020300A2020202D302E3431313820202020312E3738343720202020302E303030302048202020302020302020302020302020302020302020302020302020302020302020302020300A2020202D302E343131382020202D302E3639303320202020302E303030302048202020302020302020302020302020302020302020302020302020302020302020302020300A2020202D302E3938323920202020322E3031313520202020302E303030302048202020302020302020302020302020302020302020302020302020302020302020302020300A2020202D312E313936342020202D302E3934353320202020302E303030302043202020302020302020302020302020302020302020302020302020302020302020302020300A2020202D312E373739382020202D302E3730333620202020302E303030302048202020302020302020302020302020302020302020302020302020302020302020302020300A2020202D312E393130392020202D312E3335373820202020302E303030302043202020302020302020302020302020302020302020302020302020302020302020302020300A2020202D312E393130392020202D322E3138323820202020302E303030302043202020302020302020302020302020302020302020302020302020302020302020302020300A2020202D312E313936342020202D322E3539353320202020302E303030302043202020302020302020302020302020302020302020302020302020302020302020302020300A2020202D302E343832302020202D322E3138323820202020302E303030302043202020302020302020302020302020302020302020302020302020302020302020302020300A2020202D302E343832302020202D312E3335373820202020302E303030302043202020302020302020302020302020302020302020302020302020302020302020302020300A20202020322E303935322020202D302E3136373320202020302E303030302043202020302020302020302020302020302020302020302020302020302020302020302020300A20202020322E393230322020202D302E3136373320202020302E303030302043202020302020302020302020302020302020302020302020302020302020302020302020300A20202020332E3333323720202020302E3534373220202020302E303030302043202020302020302020302020302020302020302020302020302020302020302020302020300A20202020322E3932303220202020312E3236313620202020302E303030302043202020302020302020302020302020302020302020302020302020302020302020302020300A20202020322E3039353220202020312E3236313620202020302E303030302043202020302020302020302020302020302020302020302020302020302020302020302020300A2020202D322E3537363920202020312E3538353120202020302E30303030204F202020302020302020302020302020302020302020302020302020302020302020302020300A2020202D312E3536363220202020322E3539353320202020302E30303030204F202020302020302020302020302020302020302020302020302020302020302020302020300A2020202D332E3136303120202020322E3136383620202020302E303030302043202020302020302020302020302020302020302020302020302020302020302020302020300A2020202D322E3931393820202020312E3236313720202020302E303030302043202020302020302020302020302020302020302020302020302020302020302020302020300A2020202D332E3734343820202020312E3236313720202020302E303030302043202020302020302020302020302020302020302020302020302020302020302020302020300A2020202D342E3135373320202020302E3534373220202020302E303030302043202020302020302020302020302020302020302020302020302020302020302020302020300A2020202D332E373434382020202D302E3136373320202020302E303030302043202020302020302020302020302020302020302020302020302020302020302020302020300A2020202D322E393139382020202D302E3136373320202020302E303030302043202020302020302020302020302020302020302020302020302020302020302020302020300A20202020342E3135373320202020302E3534373220202020302E303030302043202020302020302020302020302020302020302020302020302020302020302020302020300A2020332020342020312020302020202020200A2020342020352020312020302020202020200A2020352020362020312020302020202020200A2020362020372020312020302020202020200A2020372020332020312020302020202020200A2020332020382020312020302020202020200A2020382020392020312020302020202020200A2020392031302020312020302020202020200A2031302020342020312020302020202020200A2031302031312020322020302020202020200A2020392031322020312020302020202020200A2020382031332020322020302020202020200A2020342031342020312020362020202020200A2020332031352020312020362020202020200A2020352031362020312020362020202020200A2020372031372020312020312020202020200A2020372031382020312020362020202020200A2031372031392020322020302020202020200A2031392032302020312020302020202020200A2032302032312020322020302020202020200A2032312032322020312020302020202020200A2032322032332020322020302020202020200A2032332031372020312020302020202020200A2031322032342020322020302020202020200A2032342032352020312020302020202020200A2032352032362020322020302020202020200A2032362032372020312020302020202020200A2032372032382020322020302020202020200A2032382031322020312020302020202020200A2020352020322020312020312020202020200A2020322032392020312020302020202020200A2020322033302020322020302020202020200A2032392033312020312020302020202020200A2020362020312020312020302020202020200A2020312033322020322020302020202020200A2033322033332020312020302020202020200A2033332033342020322020302020202020200A2033342033352020312020302020202020200A2033352033362020322020302020202020200A2033362020312020312020302020202020200A2032362033372020312020302020202020200A4D202053545920203120202031205355500A4D2020534C4220203120202031202020310A4D202053414C20202031202031202033370A4D202053424C20202031202031202034310A4D2020534D5420202031204D650A4D2020534256202020312034312020202D352E3831353220202020372E383735340A4D2020454E44
Contributor: KANEMASA S, INST. OF ADVANCED MATERIAL STUDY KYUSHU UNIV.
InstType: EI
InstName: JEOL JMS-01-SG-2
IoniMethod: _ENERGY 75 eV
IonPolarity: pos
Date: 2010-10-09 19:48:36+02:00
Num Peaks: 22
38 30 43 58 51 35 52 25 77 137 78 198 91 47 104 67 115 80 116 30 
117 49 191 51 220 278 221 54 272 149 273 34 287 47 381 999 382 286 383 48 
440 221 441 74 
