Name: 4-NITROPHENYLHYDRAZINE
CAS: 100-16-3
MW: 153
Formula: C6H7N3O2
Synonym: MassBank: JP011885
Synonym: 4-NITROPHENYLHYDRAZINE
Structure: 342D4E4954524F5048454E594C48594452415A494E452E6D6F6C0A20204368656D447261773034323231303137313532440A2031312031312020302020302020302020302020302020302020302020303939392056323030300A20202020312E363530302020202D302E3030303020202020302E30303030204E202020302020302020302020302020302020302020302020302020302020302020302020300A20202020322E3036323520202020302E3731343520202020302E30303030204E202020302020302020302020302020302020302020302020302020302020302020302020300A20202020302E383235302020202D302E3030303020202020302E303030302043202020302020302020302020302020302020302020302020302020302020302020302020300A20202020302E343132352020202D302E3731343520202020302E303030302043202020302020302020302020302020302020302020302020302020302020302020302020300A2020202D302E343132352020202D302E3731343520202020302E303030302043202020302020302020302020302020302020302020302020302020302020302020302020300A2020202D302E3832353020202020302E3030303020202020302E303030302043202020302020302020302020302020302020302020302020302020302020302020302020300A2020202D302E3431323520202020302E3731343520202020302E303030302043202020302020302020302020302020302020302020302020302020302020302020302020300A20202020302E3431323520202020302E3731343520202020302E303030302043202020302020302020302020302020302020302020302020302020302020302020302020300A2020202D312E3635303020202020302E3030303020202020302E30303030204E202020302020332020302020302020302020302020302020302020302020302020302020300A2020202D322E303632352020202D302E3731343520202020302E30303030204F202020302020302020302020302020302020302020302020302020302020302020302020300A2020202D322E3036323520202020302E3731343520202020302E30303030204F202020302020352020302020302020302020302020302020302020302020302020302020300A2020312020322020312020302020202020200A2020332020342020312020302020202020200A2020342020352020322020302020202020200A2020352020362020312020302020202020200A2020362020372020322020302020202020200A2020372020382020312020302020202020200A2020332020382020322020302020202020200A2020392031302020322020302020202020200A2020392031312020312020302020202020200A2020362020392020312020302020202020200A2020312020332020312020302020202020200A4D202043484720203220202039202020312020313120202D310A4D2020454E44
Contributor: YAMAMOTO M, DEP. CHEMISTRY, FAC. SCIENCE, NARA WOMEN'S UNIV.
InstType: EI
InstName: HITACHI M-2500
IoniMethod: _ENERGY 70 eV
IonPolarity: pos
Date: 2010-10-09 19:48:36+02:00
Num Peaks: 58
17 20 18 79 26 11 27 22 28 51 29 31 30 76 31 19 37 27 38 59 
39 113 40 17 41 40 42 11 43 12 46 15 50 146 51 127 52 103 53 99 
54 26 56 11 61 27 62 61 63 269 64 160 65 131 66 23 67 18 73 13 
74 70 75 74 76 96 77 96 78 59 79 41 80 228 81 36 90 322 91 134 
92 50 93 29 105 29 106 54 107 143 108 39 109 45 122 51 123 319 124 24 
137 20 138 37 139 58 150 43 151 70 152 12 153 999 154 80 
