Name: 1-(2-METHOXYPHENYL)ETHANOL
MW: 152
Formula: C9H12O2
Synonym: MassBank: JP010494
Synonym: 1-(2-METHOXYPHENYL)ETHANOL
Structure: 312D28322D4D4554484F58595048454E594C29455448414E4F4C2E6D6F6C0A20204368656D447261773131313730393137303432440A2031312031312020302020302020302020302020302020302020302020303939392056323030300A2020202D302E3731343520202020312E3033313320202020302E303030302043202020302020302020302020302020302020302020302020302020302020302020302020300A2020202D312E3432383920202020312E3434333820202020302E303030302043202020302020302020302020302020302020302020302020302020302020302020302020300A2020202D302E3731343520202020302E3230363320202020302E303030302043202020302020302020302020302020302020302020302020302020302020302020302020300A20202020302E303030302020202D302E3230363220202020302E303030302043202020302020302020302020302020302020302020302020302020302020302020302020300A20202020302E303030302020202D312E3033313220202020302E303030302043202020302020302020302020302020302020302020302020302020302020302020302020300A2020202D302E373134352020202D312E3434333820202020302E303030302043202020302020302020302020302020302020302020302020302020302020302020302020300A2020202D312E343238392020202D312E3033313220202020302E303030302043202020302020302020302020302020302020302020302020302020302020302020302020300A2020202D312E343238392020202D302E3230363220202020302E303030302043202020302020302020302020302020302020302020302020302020302020302020302020300A20202020302E3731343520202020302E3230363320202020302E30303030204F202020302020302020302020302020302020302020302020302020302020302020302020300A20202020312E343238392020202D302E3230363220202020302E303030302043202020302020302020302020302020302020302020302020302020302020302020302020300A20202020302E3030303020202020312E3434333820202020302E30303030204F202020302020302020302020302020302020302020302020302020302020302020302020300A2020312020322020312020302020202020200A2020332020342020312020302020202020200A2020342020352020322020302020202020200A2020352020362020312020302020202020200A2020362020372020322020302020202020200A2020372020382020312020302020202020200A2020332020382020322020302020202020200A2020392031302020312020302020202020200A2020342020392020312020302020202020200A2020312020332020312020302020202020200A2020312031312020312020302020202020200A4D2020454E44
Contributor: TSUNODA T, FACULTY OF PHARMACEUTICAL SCIENCES, TOKUSHIMA BUNRI UNIV.
InstType: EI
InstName: JEOL JMS-AX-500
IoniMethod: _ENERGY 70 eV
IonPolarity: pos
Date: 2010-10-09 19:48:36+02:00
Num Peaks: 94
14 23 15 17 31 13 40 30 41 83 42 21 43 339 44 37 45 57 50 36 
51 90 52 21 53 26 55 87 56 55 57 138 58 12 61 41 62 15 63 51 
64 26 65 114 66 24 67 29 68 17 69 66 70 75 71 84 73 24 74 16 
75 20 76 40 77 276 78 59 79 122 80 14 81 50 82 29 83 53 84 24 
85 44 86 10 88 15 89 28 90 16 91 175 92 50 93 43 94 146 95 49 
96 24 97 48 98 19 99 17 102 11 103 44 104 33 105 127 106 18 107 695 
108 101 109 328 110 39 111 28 112 14 113 13 115 35 116 19 117 47 118 24 
119 99 120 27 121 152 122 58 123 23 125 17 126 12 128 13 131 16 132 90 
133 41 134 49 135 133 136 26 137 999 138 108 139 16 141 13 147 13 149 134 
150 27 151 25 152 301 153 38 
