Name: MassBank: JP010354
MW: 282
Formula: C15H26O3Si
Synonym: MassBank: JP010354
Synonym: METHYL 3,4,4A,5,6,7,8,8A-OCTAHYDRO-4-TRIMETHYLSILYLNAPHTHALEN-1(2H)-ONE-4-CARBOXYLATE
Structure: 303837395F4D455448594C20332C342C34412C352C362C372C382C38412D4F435441485944524F2D342D5452494D455448594C53494C594C4E4150485448414C454E2D31283248292D4F4E452D342D434152424F58594C4154452E6D6F6C0A20204368656D447261773130323031303138333432440A2031392032302020302020302020302020302020302020302020302020303939392056323030300A2020202D302E303138392020202D312E3333373720202020302E303030302043202020302020302020302020302020302020302020302020302020302020302020302020300A2020202D302E373333332020202D302E3932353120202020302E303030302043202020302020302020302020302020302020302020302020302020302020302020302020300A2020202D302E373333332020202D302E3130303220202020302E303030302043202020302020302020302020302020302020302020302020302020302020302020302020300A2020202D302E3030333520202020302E3330393220202020302E303030302043202020302020302020302020302020302020302020302020302020302020302020302020300A20202020302E363935362020202D302E3130303120202020302E303030302043202020302020302020302020302020302020302020302020302020302020302020302020300A20202020312E3431303120202020302E3331323420202020302E303030302043202020302020302020302020302020302020302020302020302020302020302020302020300A20202020322E313234352020202D302E3130303120202020302E303030302043202020302020302020302020302020302020302020302020302020302020302020302020300A20202020322E313234352020202D302E3932353120202020302E303030302043202020302020302020302020302020302020302020302020302020302020302020302020300A20202020312E343130312020202D312E3333373720202020302E303030302043202020302020302020302020302020302020302020302020302020302020302020302020300A20202020302E363935362020202D302E3932353120202020302E303030302043202020302020302020302020302020302020302020302020302020302020302020302020300A2020202D302E303138392020202D322E3136323720202020302E30303030204F202020302020302020302020302020302020302020302020302020302020302020302020300A2020202D302E3736313820202020312E3036373620202020302E303030302043202020302020302020302020302020302020302020302020302020302020302020302020300A2020202D302E3637383720202020312E3839323320202020302E30303030204F202020302020302020302020302020302020302020302020302020302020302020302020300A2020202D312E3534313220202020302E3739313120202020302E30303030204F202020302020302020302020302020302020302020302020302020302020302020302020300A2020202D322E3132343520202020312E3337343520202020302E303030302043202020302020302020302020302020302020302020302020302020302020302020302020300A20202020302E3635343120202020312E3434383220202020302E303030302053692020302020302020302020302020302020302020302020302020302020302020302020300A2020202D302E3035363120202020312E3835383220202020302E303030302043202020302020302020302020302020302020302020302020302020302020302020302020300A20202020312E3036363620202020322E3136323720202020302E303030302043202020302020302020302020302020302020302020302020302020302020302020302020300A20202020312E3337323920202020312E3033333220202020302E303030302043202020302020302020302020302020302020302020302020302020302020302020302020300A2020312020322020312020302020202020200A2020322020332020312020302020202020200A2020332020342020312020302020202020200A2020342020352020312020302020202020200A2020352020362020312020302020202020200A2020362020372020312020302020202020200A2020372020382020312020302020202020200A2020382020392020312020302020202020200A2020392031302020312020302020202020200A2020312031302020312020302020202020200A2020352031302020312020302020202020200A2020312031312020322020302020202020200A2031322031332020322020302020202020200A2031322031342020312020302020202020200A2020342031322020312020302020202020200A2031342031352020312020302020202020200A2020342031362020312020302020202020200A2031362031372020312020302020202020200A2031362031382020312020302020202020200A2031362031392020312020302020202020200A4D2020454E44
Contributor: HISAHIRO HAGIWARA, CHEMICAL RESEARCH INSTITUTE OF NON-AQUEOUSSOLUTIONS TOHOKU UNIV.
InstType: EI
InstName: JEOL JMS-DX-300
IoniMethod: _ENERGY 70 eV
IonPolarity: pos
Date: 2010-10-09 19:48:36+02:00
Num Peaks: 44
39 51 41 94 43 80 45 241 53 60 55 117 59 322 67 81 68 65 73 999 
74 115 75 167 77 72 79 163 80 58 81 64 89 499 91 162 93 90 94 52 
105 74 107 206 108 175 121 86 122 220 123 51 133 131 135 888 136 267 149 217 
150 185 159 111 161 111 172 57 177 80 178 830 179 116 226 68 239 289 240 66 
251 77 267 106 282 556 283 144 
