Name: 3-AMINO-5-PENTYLISOXAZOLE
MW: 154
Formula: C8H14N2O
Synonym: MassBank: JP010592
Synonym: 3-AMINO-5-PENTYLISOXAZOLE
Structure: 332D414D494E4F2D352D50454E54594C49534F58415A4F4C452E6D6F6C0A20204368656D447261773032323231303133343532440A2031312031312020302020302020302020302020302020302020302020303939392056323030300A2020202D302E3233353420202020302E3435383120202020302E30303030204F202020302020302020302020302020302020302020302020302020302020302020302020300A2020202D302E3834383420202020312E3031303120202020302E30303030204E202020302020302020302020302020302020302020302020302020302020302020302020300A2020202D312E3536323920202020302E3539373620202020302E303030302043202020302020302020302020302020302020302020302020302020302020302020302020300A2020202D312E333931342020202D302E3230393420202020302E303030302043202020302020302020302020302020302020302020302020302020302020302020302020300A2020202D302E353730392020202D302E3239353620202020302E303030302043202020302020302020302020302020302020302020302020302020302020302020302020300A2020202D302E313538342020202D312E3031303120202020302E303030302043202020302020302020302020302020302020302020302020302020302020302020302020300A20202020302E363636362020202D312E3031303120202020302E303030302043202020302020302020302020302020302020302020302020302020302020302020302020300A20202020312E303739312020202D302E3239353620202020302E303030302043202020302020302020302020302020302020302020302020302020302020302020302020300A20202020312E393034312020202D302E3239353620202020302E303030302043202020302020302020302020302020302020302020302020302020302020302020302020300A20202020322E3331363620202020302E3431383920202020302E303030302043202020302020302020302020302020302020302020302020302020302020302020302020300A2020202D322E3331363620202020302E3933333120202020302E30303030204E202020302020302020302020302020302020302020302020302020302020302020302020300A2020312020322020312020302020202020200A2020322020332020322020302020202020200A2020332020342020312020302020202020200A2020342020352020322020302020202020200A2020312020352020312020302020202020200A2020362020372020312020302020202020200A2020372020382020312020302020202020200A2020382020392020312020302020202020200A2020392031302020312020302020202020200A2020352020362020312020302020202020200A2020332031312020312020302020202020200A4D2020454E44
Contributor: NARA WOMEN'S UNIVERSITY
InstType: EI
InstName: HITACHI M-80
IoniMethod: _ENERGY 70 eV
IonPolarity: pos
Date: 2010-10-09 19:48:36+02:00
Num Peaks: 56
15 12 18 26 26 35 27 339 28 308 29 343 30 68 38 26 39 231 40 55 
41 424 42 191 43 276 44 81 50 12 51 25 52 31 53 72 54 128 55 305 
56 115 57 57 58 73 65 21 66 64 67 130 68 60 69 66 70 45 71 20 
74 12 79 20 80 61 81 32 82 13 83 64 84 58 85 51 94 17 95 29 
96 15 97 138 98 999 99 60 109 14 110 11 111 450 112 128 113 12 120 26 
122 15 125 30 137 72 153 12 154 411 155 72 
