Name: MassBank: JP011728
MW: 352
Formula: C20H28Si3
Synonym: MassBank: JP011728
Synonym: 1-PHENYL-1,2-BIS(TRIMETHYLSILYL)-1-SILAINDENE
Structure: 312D5048454E594C2D312C322D424953285452494D455448594C53494C594C292D312D53494C41494E44454E452E6D6F6C0A20204368656D447261773131323230393232303632440A2032332032352020302020302020302020302020302020302020302020303939392056323030300A2020202D302E303837362020202D302E3232363020202020302E303030302053692020302020302020302020302020302020302020302020302020302020302020302020300A20202020302E373332382020202D302E3134393120202020302E303030302043202020302020302020302020302020302020302020302020302020302020302020302020300A20202020312E303638342020202D302E3930323820202020302E303030302043202020302020302020302020302020302020302020302020302020302020302020302020300A20202020302E343535332020202D312E3435343820202020302E303030302043202020302020302020302020302020302020302020302020302020302020302020302020300A20202020302E343535332020202D322E3237393820202020302E303030302043202020302020302020302020302020302020302020302020302020302020302020302020300A2020202D302E323539322020202D322E3639323320202020302E303030302043202020302020302020302020302020302020302020302020302020302020302020302020300A2020202D302E393733362020202D322E3237393820202020302E303030302043202020302020302020302020302020302020302020302020302020302020302020302020300A2020202D302E393733362020202D312E3435343820202020302E303030302043202020302020302020302020302020302020302020302020302020302020302020302020300A2020202D302E323539322020202D312E3034323320202020302E303030302043202020302020302020302020302020302020302020302020302020302020302020302020300A20202020312E3236333120202020302E3438323920202020302E303030302053692020302020302020302020302020302020302020302020302020302020302020302020300A20202020302E3630313420202020302E3937353520202020302E303030302043202020302020302020302020302020302020302020302020302020302020302020302020300A20202020312E3937373620202020302E3037303420202020302E303030302043202020302020302020302020302020302020302020302020302020302020302020302020300A20202020312E3731363520202020312E3137323120202020302E303030302043202020302020302020302020302020302020302020302020302020302020302020302020300A2020202D312E313630302020202D302E3232363020202020302E303030302053692020302020302020302020302020302020302020302020302020302020302020302020300A2020202D312E333137342020202D312E3032363520202020302E303030302043202020302020302020302020302020302020302020302020302020302020302020302020300A2020202D312E393737362020202D302E3130363620202020302E303030302043202020302020302020302020302020302020302020302020302020302020302020302020300A2020202D312E3039373620202020302E3630363020202020302E303030302043202020302020302020302020302020302020302020302020302020302020302020302020300A2020202D302E3139373520202020312E3037343320202020302E303030302043202020302020302020302020302020302020302020302020302020302020302020302020300A2020202D312E3037303720202020312E3334393620202020302E303030302043202020302020302020302020302020302020302020302020302020302020302020302020300A2020202D312E3231343020202020322E3136323020202020302E303030302043202020302020302020302020302020302020302020302020302020302020302020302020300A2020202D302E3538323020202020322E3639323320202020302E303030302043202020302020302020302020302020302020302020302020302020302020302020302020300A20202020302E3139333320202020322E3431303220202020302E303030302043202020302020302020302020302020302020302020302020302020302020302020302020300A20202020302E3333313320202020312E3630333020202020302E303030302043202020302020302020302020302020302020302020302020302020302020302020302020300A2020312020322020312020302020202020200A2020322020332020322020302020202020200A2020332020342020312020302020202020200A2020342020352020312020302020202020200A2020352020362020322020302020202020200A2020362020372020312020302020202020200A2020372020382020322020302020202020200A2020382020392020312020302020202020200A2020312020392020312020302020202020200A2020342020392020322020302020202020200A2031302031312020312020302020202020200A2031302031322020312020302020202020200A2031302031332020312020302020202020200A2020322031302020312020302020202020200A2031342031352020312020302020202020200A2031342031362020312020302020202020200A2031342031372020312020302020202020200A2020312031342020312020302020202020200A2031382031392020312020302020202020200A2031392032302020322020302020202020200A2032302032312020312020302020202020200A2032312032322020322020302020202020200A2032322032332020312020302020202020200A2031382032332020322020302020202020200A2020312031382020312020302020202020200A4D2020454E44
Contributor: FAC. TECHNOLOGY, HIROSHIMA UNIV.
InstType: EI
InstName: SHIMADZU QP-1000
IoniMethod: _ENERGY 70 eV
IonPolarity: pos
Date: 2010-10-09 19:48:36+02:00
Num Peaks: 56
55 138 56 53 58 43 59 43 60 128 67 32 69 32 73 999 74 85 75 32 
77 11 79 21 81 11 83 43 91 21 93 32 101 21 103 32 105 181 106 21 
107 43 117 21 119 43 121 32 129 32 131 32 133 32 135 266 136 32 143 53 
145 160 146 21 147 21 159 21 161 11 165 11 175 32 177 43 179 11 195 21 
202 32 217 16 218 43 219 21 249 11 253 11 254 11 277 21 278 11 279 128 
280 32 337 181 338 64 339 21 352 49 353 21 
