Name: MassBank: JP011047
MW: 284
Formula: C15H24O5
Synonym: MassBank: JP011047
Synonym: TRANS-5-BUTYL-7-OXO-5,6-DIHYDRO-4A,9A-DIMETHOXYCYCLOHEPTA(1,4)DIOXINE
Structure: 5452414E532D352D425554594C2D372D4F584F2D352C362D4449485944524F2D34412C39412D44494D4554484F58594359434C4F484550544128312C342944494F58494E452E6D6F6C0A20204368656D447261773038313231303038303332440A2032302032312020302020302020302020302020302020302020302020303939392056323030300A2020202D322E3030333820202020302E3535383620202020302E30303030204F202020302020302020302020302020302020302020302020302020302020302020302020300A2020202D312E3137383820202020302E3535383620202020302E303030302043202020302020302020302020302020302020302020302020302020302020302020302020300A2020202D302E373637322020202D302E3135343320202020302E303030302043202020302020302020302020302020302020302020302020302020302020302020302020300A2020202D312E313737352020202D302E3836353020202020302E30303030204F202020302020302020302020302020302020302020302020302020302020302020302020300A2020202D312E393936372020202D302E3836353020202020302E303030302043202020302020302020302020302020302020302020302020302020302020302020302020300A2020202D322E343036302020202D302E3135363020202020302E303030302043202020302020302020302020302020302020302020302020302020302020302020302020300A20202020302E303632392020202D302E3238303320202020302E303030302043202020302020302020302020302020302020302020302020302020302020302020302020300A20202020302E3634363320202020302E3330333120202020302E303030302043202020302020302020302020302020302020302020302020302020302020302020302020300A20202020302E3538383820202020312E3131373720202020302E303030302043202020302020302020302020302020302020302020302020302020302020302020302020300A2020202D302E3039343120202020312E3537373220202020302E303030302043202020302020302020302020302020302020302020302020302020302020302020302020300A2020202D302E3838313220202020312E3333303120202020302E303030302043202020302020302020302020302020302020302020302020302020302020302020302020300A2020202D312E3634363920202020312E3234303020202020302E30303030204F202020302020302020302020302020302020302020302020302020302020302020302020300A2020202D322E3436393320202020312E3137343220202020302E303030302043202020302020302020302020302020302020302020302020302020302020302020302020300A2020202D302E343031312020202D302E3839333320202020302E30303030204F202020302020302020302020302020302020302020302020302020302020302020302020300A2020202D302E383632342020202D312E3537373220202020302E303030302043202020302020302020302020302020302020302020302020302020302020302020302020300A20202020312E3330333320202020312E3533303220202020302E30303030204F202020302020302020302020302020302020302020302020302020302020302020302020300A20202020302E333030372020202D312E3035373820202020302E303030302043202020302020302020302020302020302020302020302020302020302020302020302020300A20202020312E303933332020202D312E3232353220202020302E303030302043202020302020302020302020302020302020302020302020302020302020302020302020300A20202020312E363736372020202D302E3634313920202020302E303030302043202020302020302020302020302020302020302020302020302020302020302020302020300A20202020322E343639332020202D302E3830393320202020302E303030302043202020302020302020302020302020302020302020302020302020302020302020302020300A2020312020322020312020302020202020200A2020322020332020312020302020202020200A2020332020342020312020302020202020200A2020342020352020312020302020202020200A2020352020362020322020302020202020200A2020312020362020312020302020202020200A2020372020382020312020302020202020200A2020382020392020312020302020202020200A2020392031302020312020302020202020200A2031302031312020322020302020202020200A2020322031312020312020302020202020200A2020332020372020312020302020202020200A2031322031332020312020302020202020200A2020322031322020312020312020202020200A2031342031352020312020302020202020200A2020332031342020312020362020202020200A2020392031362020322020302020202020200A2031372031382020312020302020202020200A2031382031392020312020302020202020200A2031392032302020312020302020202020200A2020372031372020312020302020202020200A4D2020454E44
Contributor: TAKESHITA H, INST. OF ADVANCED MATERIAL STUDY KYUSHU UNIV.
InstType: EI
InstName: JEOL JMS-01-SG-2
IoniMethod: _ENERGY 75 eV
IonPolarity: pos
Date: 2010-10-09 19:48:36+02:00
Num Peaks: 44
39 122 41 318 43 107 45 84 53 93 54 102 55 305 59 309 69 100 81 80 
82 81 85 181 87 80 95 72 99 75 103 353 109 178 111 338 113 999 114 109 
128 138 129 98 137 104 165 148 171 141 181 107 182 21 185 21 192 27 193 23 
195 41 196 52 197 57 209 50 211 51 224 33 225 40 241 44 252 33 253 117 
254 22 269 66 284 235 285 47 
