Name: MassBank: JP010062
MW: 365
Formula: C21H35NO4
Synonym: MassBank: JP010062
Synonym: 6-HYDROXY-3,4-DIHYDRO-2-(3-ISOPROPYLAMINO-2-HYDROXYPROPYLOXY)ETHYL-2H-1-BENZOPYRAN
Structure: 362D485944524F58592D332C342D4449485944524F2D322D28332D49534F50524F50594C414D494E4F2D322D485944524F585950524F50594C4F585929455448594C2D32482D312D42454E5A4F505952414E2E6D6F6C0A20204368656D447261773035313731303138343432440A2032362032372020302020302020302020302020302020302020302020303939392056323030300A20202020302E363735332020202D312E3638323520202020302E303030302043202020302020302020302020302020302020302020302020302020302020302020302020300A20202020302E363735332020202D322E3530373520202020302E303030302043202020302020302020302020302020302020302020302020302020302020302020302020300A2020202D302E303339322020202D322E3932303020202020302E303030302043202020302020302020302020302020302020302020302020302020302020302020302020300A2020202D302E373533372020202D322E3530373520202020302E303030302043202020302020302020302020302020302020302020302020302020302020302020302020300A2020202D302E373533372020202D312E3638323520202020302E303030302043202020302020302020302020302020302020302020302020302020302020302020302020300A2020202D302E303338392020202D312E3237303720202020302E30303030204F202020302020302020302020302020302020302020302020302020302020302020302020300A2020202D312E343638322020202D312E3237303020202020302E303030302043202020302020302020302020302020302020302020302020302020302020302020302020300A2020202D322E313832362020202D312E3638323520202020302E303030302043202020302020302020302020302020302020302020302020302020302020302020302020300A2020202D322E313832362020202D322E3530373520202020302E303030302043202020302020302020302020302020302020302020302020302020302020302020302020300A2020202D312E343638322020202D322E3932303020202020302E303030302043202020302020302020302020302020302020302020302020302020302020302020302020300A20202020302E393537312020202D302E3930373120202020302E303030302043202020302020302020302020302020302020302020302020302020302020302020302020300A20202020302E3137383020202020312E3133313820202020302E303030302043202020302020302020302020302020302020302020302020302020302020302020302020300A20202020302E3435393920202020312E3930373220202020302E303030302043202020302020302020302020302020302020302020302020302020302020302020302020300A20202020312E3237323320202020322E3035303720202020302E303030302043202020302020302020302020302020302020302020302020302020302020302020302020300A2020202D302E3037303720202020322E3533393020202020302E30303030204F202020302020302020302020302020302020302020302020302020302020302020302020300A20202020312E3535343120202020322E3832363120202020302E30303030204E202020302020302020302020302020302020302020302020302020302020302020302020300A20202020322E3336363620202020322E3936393620202020302E303030302043202020302020302020302020302020302020302020302020302020302020302020302020300A20202020322E3839373120202020322E3333373820202020302E303030302043202020302020302020302020302020302020302020302020302020302020302020302020300A20202020322E3634383420202020332E3734353020202020302E303030302043202020302020302020302020302020302020302020302020302020302020302020302020300A2020202D322E383937312020202D322E3932303020202020302E30303030204F202020302020302020302020302020302020302020302020302020302020302020302020300A2020202D322E383937312020202D312E3237303020202020302E303030302043202020302020302020302020302020302020302020302020302020302020302020302020300A2020202D312E343638322020202D302E3434353020202020302E303030302043202020302020302020302020302020302020302020302020302020302020302020302020300A2020202D312E343638322020202D332E3734353020202020302E303030302043202020302020302020302020302020302020302020302020302020302020302020302020300A20202020312E343837382020202D312E3832353620202020302E303030302043202020302020302020302020302020302020302020302020302020302020302020302020300A20202020302E343236362020202D302E3237353320202020302E303030302043202020302020302020302020302020302020302020302020302020302020302020302020300A20202020302E3730383520202020302E3530303020202020302E30303030204F202020302020302020302020302020302020302020302020302020302020302020302020300A2020312020322020312020302020202020200A2020322020332020312020302020202020200A2020332020342020312020302020202020200A2020342020352020312020302020202020200A2020352020362020312020302020202020200A2020312020362020312020302020202020200A2020372020382020312020302020202020200A2020382020392020322020302020202020200A2020392031302020312020302020202020200A2020342031302020322020302020202020200A2020352020372020322020302020202020200A2031322031332020312020302020202020200A2031332031342020312020302020202020200A2031332031352020312020302020202020200A2031372031382020312020302020202020200A2031372031392020312020302020202020200A2031362031372020312020302020202020200A2031342031362020312020302020202020200A2020312031312020312020302020202020200A2020392032302020312020302020202020200A2020382032312020312020302020202020200A2020372032322020312020302020202020200A2031302032332020312020302020202020200A2020312032342020312020302020202020200A2031312032352020312020302020202020200A2032352032362020312020302020202020200A2032362031322020312020302020202020200A4D2020454E44
Contributor: KURARAY CO., LTD.
InstType: EI
InstName: JEOL JMS-D-300
IoniMethod: _ENERGY 70 eV
IonPolarity: pos
Date: 2010-10-09 19:48:36+02:00
Num Peaks: 33
28 11 30 126 41 30 43 4 44 21 56 15 58 56 60 2 69 22 72 999 
73 54 81 2 91 12 102 79 116 18 121 2 134 31 136 20 137 13 160 1 
164 89 165 129 166 19 177 1 189 14 202 171 203 35 205 2 232 31 250 23 
350 27 365 22 366 50 
