Name: MassBank: JP011318
CAS: 7087-68-5
MW: 129
Formula: C8H19N
Synonym: MassBank: JP011318
Synonym: N,N-DIISOPROPYLETHYLAMINE
Synonym: N-ETHYLDIISOPROPYLAMINE
Structure: 310A32320A4E2C4E2D444949534F50524F50594C455448594C414D494E452E6D6F6C0A20204368656D447261773038313231303032333632440A2020392020382020302020302020302020302020302020302020302020303939392056323030300A2020202D302E303030302020202D302E3030303020202020302E30303030204E202020302020302020302020302020302020302020302020302020302020302020302020300A20202020302E383235302020202D302E3030303020202020302E303030302043202020302020302020302020302020302020302020302020302020302020302020302020300A20202020312E3233373520202020302E3731343520202020302E303030302043202020302020302020302020302020302020302020302020302020302020302020302020300A2020202D302E343132352020202D302E3731343520202020302E303030302043202020302020302020302020302020302020302020302020302020302020302020302020300A2020202D312E323337352020202D302E3731343520202020302E303030302043202020302020302020302020302020302020302020302020302020302020302020302020300A2020202D302E303030302020202D312E3432383920202020302E303030302043202020302020302020302020302020302020302020302020302020302020302020302020300A2020202D302E3431323520202020302E3731343520202020302E303030302043202020302020302020302020302020302020302020302020302020302020302020302020300A2020202D312E3233373520202020302E3731343520202020302E303030302043202020302020302020302020302020302020302020302020302020302020302020302020300A2020202D302E3030303020202020312E3432383920202020302E303030302043202020302020302020302020302020302020302020302020302020302020302020302020300A2020322020332020312020302020202020200A2020312020322020312020302020202020200A2020342020352020312020302020202020200A2020342020362020312020302020202020200A2020312020342020312020302020202020200A2020372020382020312020302020202020200A2020372020392020312020302020202020200A2020312020372020312020302020202020200A4D2020454E44
Contributor: YAMAMOTO M, DEP. CHEMISTRY, FAC. SCIENCE, NARA WOMEN'S UNIV.
InstType: EI
InstName: HITACHI M-2500
IoniMethod: _ENERGY 70 eV
IonPolarity: pos
Date: 2010-10-09 19:48:36+02:00
Num Peaks: 24
15 16 18 19 27 73 28 51 29 37 30 139 39 29 41 101 42 139 43 120 
44 275 56 50 58 41 70 85 71 19 72 999 73 48 84 28 86 62 114 872 
115 72 128 12 129 300 130 30 
