Name: 1-METHYL-3-METHOXYCARBONYL-2-TRIMETHYLSILYL-5-PHENYLPYRROLE
MW: 275
Formula: C15H21NO2Si
Synonym: MassBank: JP011853
Synonym: 1-METHYL-3-METHOXYCARBONYL-2-TRIMETHYLSILYL-5-PHENYLPYRROLE
Structure: 312D4D455448594C2D332D4D4554484F5859434152424F4E594C2D322D5452494D455448594C53494C594C2D352D5048454E594C505952524F4C452E6D6F6C0A20204368656D447261773131313930393136333432440A2032312032322020302020302020302020302020302020302020302020303939392056323030300A20202020302E3339353820202020302E3134373620202020302E30303030204E202020302020302020302020302020302020302020302020302020302020302020302020300A20202020302E353637332020202D302E3635393420202020302E303030302043202020302020302020302020302020302020302020302020302020302020302020302020300A2020202D302E313437312020202D312E3037313920202020302E303030302043202020302020302020302020302020302020302020302020302020302020302020302020300A2020202D302E373630322020202D302E3531393820202020302E303030302043202020302020302020302020302020302020302020302020302020302020302020302020300A2020202D302E3432343720202020302E3233333820202020302E303030302043202020302020302020302020302020302020302020302020302020302020302020302020300A2020202D302E3833373220202020302E3934383320202020302E303030302043202020302020302020302020302020302020302020302020302020302020302020302020300A2020202D312E3636323220202020302E3934383320202020302E303030302043202020302020302020302020302020302020302020302020302020302020302020302020300A2020202D322E3037343720202020312E3636323820202020302E303030302043202020302020302020302020302020302020302020302020302020302020302020302020300A2020202D312E3636323220202020322E3337373320202020302E303030302043202020302020302020302020302020302020302020302020302020302020302020302020300A2020202D302E3833373220202020322E3337373320202020302E303030302043202020302020302020302020302020302020302020302020302020302020302020302020300A2020202D302E3432343720202020312E3636323820202020302E303030302043202020302020302020302020302020302020302020302020302020302020302020302020300A20202020312E333231302020202D302E3939343920202020302E303030302053692020302020302020302020302020302020302020302020302020302020302020302020300A20202020312E363536362020202D302E3234313220202020302E303030302043202020302020302020302020302020302020302020302020302020302020302020302020300A20202020322E303734372020202D312E3333303520202020302E303030302043202020302020302020302020302020302020302020302020302020302020302020302020300A20202020302E393835342020202D312E3734383620202020302E303030302043202020302020302020302020302020302020302020302020302020302020302020302020300A2020202D302E323333342020202D312E3839323320202020302E303030302043202020302020302020302020302020302020302020302020302020302020302020302020300A20202020302E343334312020202D322E3337373320202020302E30303030204F202020302020302020302020302020302020302020302020302020302020302020302020300A2020202D302E393837312020202D322E3232373920202020302E30303030204F202020302020302020302020302020302020302020302020302020302020302020302020300A2020202D312E363534352020202D312E3734333020202020302E303030302043202020302020302020302020302020302020302020302020302020302020302020302020300A20202020302E3934373820202020302E3736303720202020302E303030302043202020302020302020302020302020302020302020302020302020302020302020302020300A2020202D312E353637322020202D302E3639313420202020302E303030302048202020302020302020302020302020302020302020302020302020302020302020302020300A2020312020322020312020302020202020200A2020322020332020322020302020202020200A2020332020342020312020302020202020200A2020342020352020322020302020202020200A2020312020352020312020302020202020200A2020362020372020312020302020202020200A2020372020382020322020302020202020200A2020382020392020312020302020202020200A2020392031302020322020302020202020200A2031302031312020312020302020202020200A2020362031312020322020302020202020200A2020352020362020312020302020202020200A2031322031332020312020302020202020200A2031322031342020312020302020202020200A2031322031352020312020302020202020200A2020322031322020312020302020202020200A2031362031372020322020302020202020200A2031382031392020312020302020202020200A2031362031382020312020302020202020200A2020332031362020312020302020202020200A2020312032302020312020302020202020200A2020342032312020312020302020202020200A4D2020454E44
Contributor: YOSHIKI O, FAC, TECHNOLOGY, OSAKA UNIV.
InstType: EI
InstName: Unknown
IoniMethod: _ENERGY 70 eV
IonPolarity: pos
Date: 2010-10-09 19:48:36+02:00
Num Peaks: 34
51 46 53 34 59 219 61 50 73 82 75 57 77 86 85 35 86 35 89 60 
91 65 102 53 115 70 118 50 127 34 128 46 129 31 136 56 140 35 169 31 
170 40 182 50 184 38 198 56 212 39 228 100 242 136 256 64 257 34 272 999 
273 214 274 58 287 190 288 41 
