Name: MassBank: JP010653
MW: 332
Formula: C20H28O4
Synonym: MassBank: JP010653
Synonym: (9E,13E)-6-ACETYL-5-HYDROXY-9,13-DIMETHYL-3-METHYLENE-3,3A,4,5,6,7,8,11,12,14A-DECAHYDRO-2H-CYCLOTRIDECA(B)FURAN-2-ONE
Structure: 2839452C313345292D362D41434554594C2D352D485944524F58592D392C31332D44494D455448594C2D332D4D455448594C454E452D332C33412C342C352C362C372C382C31312C31322C3134412D44454341485944524F2D32482D4359434C4F54524944454341284229465552414E2D322D4F4E452E6D6F6C0A20204368656D447261773130323230393035303332440A2032362032372020302020302020302020302020302020302020302020303939392056323030300A2020202D312E3831343620202020302E3130373920202020302E303030302043202020302020302020302020302020302020302020302020302020302020302020302020300A2020202D312E313030312020202D302E3330343620202020302E303030302043202020302020302020302020302020302020302020302020302020302020302020302020300A2020202D302E333033322020202D302E3039313120202020302E303030302043202020302020302020302020302020302020302020302020302020302020302020302020300A20202020302E3130393320202020302E3632333420202020302E303030302043202020302020302020302020302020302020302020302020302020302020302020302020300A2020202D302E3130343220202020312E3432303320202020302E303030302043202020302020302020302020302020302020302020302020302020302020302020302020300A2020202D302E3831383720202020312E3833323820202020302E303030302043202020302020302020302020302020302020302020302020302020302020302020302020300A2020202D312E3631353620202020312E3631393220202020302E303030302043202020302020302020302020302020302020302020302020302020302020302020302020300A2020202D322E3032383120202020302E3930343820202020302E303030302043202020302020302020302020302020302020302020302020302020302020302020302020300A2020202D312E343330302020202D312E3036303820202020302E303030302043202020302020302020302020302020302020302020302020302020302020302020302020300A2020202D312E303434352020202D312E3739303220202020302E303030302043202020302020302020302020302020302020302020302020302020302020302020302020300A2020202D302E323333392020202D312E3934333620202020302E303030302043202020302020302020302020302020302020302020302020302020302020302020302020300A20202020302E333931342020202D312E3430353420202020302E303030302043202020302020302020302020302020302020302020302020302020302020302020302020300A20202020302E333630362020202D302E3538313020202020302E303030302043202020302020302020302020302020302020302020302020302020302020302020302020300A20202020312E313835302020202D312E3633303820202020302E30303030204F202020302020302020302020302020302020302020302020302020302020302020302020300A20202020312E363434372020202D302E3934353720202020302E303030302043202020302020302020302020302020302020302020302020302020302020302020302020300A20202020312E313335312020202D302E3239363920202020302E303030302043202020302020302020302020302020302020302020302020302020302020302020302020300A20202020322E343639312020202D302E3931343920202020302E30303030204F202020302020302020302020302020302020302020302020302020302020302020302020300A20202020302E393231362020202D312E3039333820202020302E303030302043202020302020302020302020302020302020302020302020302020302020302020302020300A20202020302E3932373220202020302E3531353720202020302E30303030204F202020302020302020302020302020302020302020302020302020302020302020302020300A20202020302E3535303320202020312E3932323520202020302E303030302043202020302020302020302020302020302020302020302020302020302020302020302020300A20202020302E3434323620202020322E3734303420202020302E303030302043202020302020302020302020302020302020302020302020302020302020302020302020300A20202020312E3331323520202020312E3630363820202020302E30303030204F202020302020302020302020302020302020302020302020302020302020302020302020300A2020202D322E343639312020202D302E3339343320202020302E303030302048202020302020302020302020302020302020302020302020302020302020302020302020300A2020202D302E303230342020202D322E3734303420202020302E303030302048202020302020302020302020302020302020302020302020302020302020302020302020300A2020202D302E363332312020202D312E3037343620202020302E303030302043202020302020302020302020302020302020302020302020302020302020302020302020300A2020202D312E3230343120202020302E3930353420202020302E303030302043202020302020302020302020302020302020302020302020302020302020302020302020300A2020312020322020312020302020202020200A2020332020342020312020302020202020200A2020342020352020312020302020202020200A2020352020362020312020302020202020200A2020362020372020312020302020202020200A2020372020382020312020302020202020200A2020382020312020322020302020202020200A2020322020392020312020302020202020200A2020392031302020312020302020202020200A2031302031312020322020302020202020200A2031312031322020312020302020202020200A2031322031332020312020302020202020200A2031332020332020312020302020202020200A2031322031342020312020302020202020200A2031342031352020312020302020202020200A2031352031362020312020302020202020200A2031362031332020312020302020202020200A2031352031372020322020302020202020200A2031362031382020322020302020202020200A2020342031392020312020302020202020200A2020352032302020312020302020202020200A2032302032312020312020302020202020200A2032302032322020322020302020202020200A2020312032332020312020302020202020200A2031312032342020312020302020202020200A2031302032352020312020302020202020200A2020382032362020312020302020202020200A4D202053545920203120202031205355500A4D2020534C4220203120202031202020310A4D202053414C20202031202031202032350A4D202053424C20202031202031202032360A4D2020534D5420202031204D650A4D2020534256202020312032362020202D362E3536343220202020382E373132390A4D202053545920203120202032205355500A4D2020534C4220203120202032202020320A4D202053414C20202032202031202032360A4D202053424C20202032202031202032370A4D2020534D5420202032204D650A4D2020534256202020322032372020202D362E3135323620202020372E393937390A4D2020454E44
Contributor: EGUCHI S, FAC. OF SCIENCE, HIROSHIMA UNIV.
InstType: EI
InstName: HITACHI RMU-6L
IoniMethod: _ENERGY 70 eV
IonPolarity: pos
Date: 2010-10-09 19:48:36+02:00
Num Peaks: 207
40 23 41 169 42 19 43 999 44 31 45 54 47 15 51 2 52 15 53 223 
54 46 55 28 56 27 57 81 58 11 59 2 60 12 65 56 66 31 67 15 
68 85 69 108 70 31 71 12 72 15 73 12 77 108 78 5 79 208 80 69 
81 438 82 10 83 77 84 65 85 85 87 3 88 104 91 185 92 46 93 22 
94 92 95 285 96 31 97 10 98 23 99 19 100 23 101 2 103 23 104 15 
105 185 106 5 107 154 108 62 109 123 110 3 111 58 112 15 113 23 115 2 
116 12 117 46 118 27 119 14 120 62 121 192 122 77 123 12 124 38 125 35 
126 12 127 1 128 15 129 23 130 19 131 8 132 23 133 100 134 58 135 8 
136 54 137 192 138 154 139 6 140 334 141 38 142 15 143 4 144 15 145 77 
146 38 147 11 148 46 149 92 150 62 151 7 152 23 153 19 154 15 155 2 
156 12 157 31 158 23 159 6 160 31 161 73 162 35 163 5 164 50 165 119 
166 38 167 3 169 19 170 12 171 31 172 2 173 54 174 31 175 62 176 5 
177 38 178 23 179 23 180 1 181 15 183 23 184 15 185 3 186 19 187 46 
188 19 189 3 190 19 191 31 192 46 193 2 194 15 195 15 197 15 199 2 
200 12 201 31 202 15 203 4 204 23 205 23 206 12 207 2 211 15 213 12 
215 31 216 2 217 19 218 12 219 23 220 1 221 19 223 12 225 27 226 1 
227 15 228 12 229 15 230 2 231 19 232 19 233 23 234 1 235 12 243 23 
244 15 245 2 251 12 252 8 253 31 254 2 255 8 256 12 257 12 258 1 
259 8 261 19 262 12 263 1 268 12 269 15 270 15 271 6 272 23 273 12 
274 8 275 1 285 8 286 15 287 8 288 1 289 23 290 12 296 19 297 1 
298 5 299 5 314 46 315 2 316 8 332 45 333 10 
