Name: CYCLOHEXENE OXIDE
MW: 98
Formula: C6H10O
Synonym: MassBank: JP011495
Synonym: CYCLOHEXENE OXIDE
Structure: 310A32340A4359434C4F484558454E45204F584944452E6D6F6C0A20204368656D447261773039323031303037343832440A2020392031302020302020302020302020302020302020302020302020303939392056323030300A20202020302E333032302020202D302E3035353320202020302E303030302043202020302020302020302020302020302020302020302020302020302020302020302020300A2020202D302E343132352020202D302E3436373820202020302E303030302043202020302020302020302020302020302020302020302020302020302020302020302020300A2020202D312E313237302020202D302E3035353320202020302E303030302043202020302020302020302020302020302020302020302020302020302020302020302020300A2020202D312E3132373020202020302E3736393720202020302E303030302043202020302020302020302020302020302020302020302020302020302020302020302020300A2020202D302E3431323520202020312E3138323220202020302E303030302043202020302020302020302020302020302020302020302020302020302020302020302020300A20202020302E3330323020202020302E3736393720202020302E303030302043202020302020302020302020302020302020302020302020302020302020302020302020300A20202020302E333032302020202D302E3838303320202020302E30303030204F202020302020302020302020302020302020302020302020302020302020302020302020300A20202020312E313237302020202D302E3035353320202020302E303030302048202020302020302020302020302020302020302020302020302020302020302020302020300A2020202D302E383235302020202D312E3138323220202020302E303030302048202020302020302020302020302020302020302020302020302020302020302020302020300A2020312020322020312020302020202020200A2020322020332020312020302020202020200A2020332020342020312020302020202020200A2020342020352020312020302020202020200A2020352020362020312020302020202020200A2020312020362020312020302020202020200A2020312020372020312020302020202020200A2020322020372020312020302020202020200A2020312020382020312020312020202020200A2020322020392020312020312020202020200A4D2020454E44
Contributor: FUJISE Y, HAMAMATSU UNIV. SCHOOL OF MEDICINE
InstType: EI
InstName: JEOL JMS-DX-300
IoniMethod: _ENERGY 70 eV
IonPolarity: pos
Date: 2010-10-09 19:48:36+02:00
Num Peaks: 55
33 19 34 14 37 17 38 44 39 518 40 110 41 999 42 385 43 507 44 307 
45 182 47 33 50 29 51 52 52 23 53 144 54 142 55 441 56 132 57 684 
58 60 59 20 60 64 61 10 63 13 65 51 66 31 67 426 68 153 69 478 
70 835 71 222 72 22 73 105 74 21 75 25 77 77 78 16 79 401 80 146 
81 565 82 92 83 307 84 66 85 78 86 33 87 60 88 48 89 11 91 10 
95 78 96 53 97 323 98 586 99 153 
