Name: ETHOXYTRIMETHYLSILANE
MW: 118
Formula: C5H14OSi
Synonym: MassBank: JP011953
Synonym: ETHOXYTRIMETHYLSILANE
Structure: 310A31380A4554484F58595452494D455448594C53494C414E452E6D6F6C0A20204368656D447261773038313131303138303132440A2020372020362020302020302020302020302020302020302020302020303939392056323030300A20202020302E3731343520202020302E3030303020202020302E303030302053692020302020302020302020302020302020302020302020302020302020302020302020300A20202020312E3432383920202020302E3431323520202020302E303030302043202020302020302020302020302020302020302020302020302020302020302020302020300A20202020312E313237302020202D302E3731343520202020302E303030302043202020302020302020302020302020302020302020302020302020302020302020302020300A20202020302E3330323020202020302E3731343520202020302E303030302043202020302020302020302020302020302020302020302020302020302020302020302020300A2020202D302E303030302020202D302E3431323520202020302E30303030204F202020302020302020302020302020302020302020302020302020302020302020302020300A2020202D302E373134352020202D302E3030303020202020302E303030302043202020302020302020302020302020302020302020302020302020302020302020302020300A2020202D312E343238392020202D302E3431323520202020302E303030302043202020302020302020302020302020302020302020302020302020302020302020302020300A2020312020322020312020302020202020200A2020312020332020312020302020202020200A2020312020342020312020302020202020200A2020362020372020312020302020202020200A2020352020362020312020302020202020200A2020312020352020312020302020202020200A4D2020454E44
Contributor: ISHIKAWA M, HIROSHIMA UNIV. FAC. TEQUNOLOGY
InstType: EI
InstName: SHIMADZU QP-1000
IoniMethod: _ENERGY 70 eV
IonPolarity: pos
Date: 2010-10-09 19:48:36+02:00
Num Peaks: 18
52 21 53 58 54 11 56 21 58 21 59 116 60 553 61 53 62 121 73 411 
75 999 76 63 77 32 102 11 103 695 104 58 105 21 118 4 
