Name: ETHYLMALONIC ACID
MW: 132
Formula: C5H8O4
Synonym: MassBank: JP011259
Synonym: ETHYLMALONIC ACID
Structure: 310A32320A455448594C4D414C4F4E494320414349442E6D6F6C0A20204368656D447261773038313131303139313732440A2020392020382020302020302020302020302020302020302020302020303939392056323030300A2020202D302E343132352020202D302E3731343520202020302E303030302043202020302020302020302020302020302020302020302020302020302020302020302020300A20202020302E3030303020202020302E3030303020202020302E303030302043202020302020302020302020302020302020302020302020302020302020302020302020300A2020202D302E3431323520202020302E3731343520202020302E303030302043202020302020302020302020302020302020302020302020302020302020302020302020300A2020202D312E323337352020202D302E3731343520202020302E30303030204F202020302020302020302020302020302020302020302020302020302020302020302020300A20202020302E303030302020202D312E3432383920202020302E30303030204F202020302020302020302020302020302020302020302020302020302020302020302020300A2020202D312E3233373520202020302E3731343520202020302E30303030204F202020302020302020302020302020302020302020302020302020302020302020302020300A20202020302E3030303020202020312E3432383920202020302E30303030204F202020302020302020302020302020302020302020302020302020302020302020302020300A20202020302E3832353020202020302E3030303020202020302E303030302043202020302020302020302020302020302020302020302020302020302020302020302020300A20202020312E3233373520202020302E3731343520202020302E303030302043202020302020302020302020302020302020302020302020302020302020302020302020300A2020312020322020312020302020202020200A2020322020332020312020302020202020200A2020312020342020322020302020202020200A2020312020352020312020302020202020200A2020332020362020322020302020202020200A2020332020372020312020302020202020200A2020382020392020312020302020202020200A2020322020382020312020302020202020200A4D2020454E44
Contributor: MASS SPECTROSCOPY SOC. OF JAPAN (MSSJ)
InstType: EI
InstName: SHIMADZU QP-1000EX
IoniMethod: _ENERGY 20 eV
IonPolarity: pos
Date: 2010-10-09 19:48:36+02:00
Num Peaks: 55
14 4 15 22 16 29 17 28 18 237 19 19 26 22 27 416 28 164 29 219 
30 7 31 28 32 4 36 13 38 6 39 98 40 39 41 393 42 396 43 254 
44 545 45 281 46 14 47 8 53 3 54 8 55 559 56 20 57 16 58 30 
60 734 61 19 62 3 68 83 69 170 70 193 71 53 72 5 73 592 74 20 
75 3 85 15 86 825 87 126 88 53 89 5 91 7 99 15 104 999 105 36 
106 10 113 3 114 11 115 25 133 3 
