Name: 6-METHYL-3-(TRIMETHYLSILYL)METHYL-1-HEPTEN-4-ONE
MW: 212
Formula: C12H24OSi
Synonym: MassBank: JP011389
Synonym: 6-METHYL-3-(TRIMETHYLSILYL)METHYL-1-HEPTEN-4-ONE
Structure: 362D4D455448594C2D332D285452494D455448594C53494C594C294D455448594C2D312D48455054454E2D342D4F4E452E6D6F6C0A20204368656D447261773035313731303139343432440A2031342031332020302020302020302020302020302020302020302020303939392056323030300A20202020302E333537322020202D322E3134333420202020302E303030302043202020302020302020302020302020302020302020302020302020302020302020302020300A20202020302E373639372020202D312E3432383920202020302E303030302043202020302020302020302020302020302020302020302020302020302020302020302020300A20202020302E333537322020202D302E3731343520202020302E303030302043202020302020302020302020302020302020302020302020302020302020302020302020300A20202020302E3736393720202020302E3030303020202020302E303030302043202020302020302020302020302020302020302020302020302020302020302020302020300A20202020302E3335373220202020302E3731343520202020302E303030302043202020302020302020302020302020302020302020302020302020302020302020302020300A20202020302E3736393720202020312E3432383920202020302E303030302043202020302020302020302020302020302020302020302020302020302020302020302020300A20202020302E3335373220202020322E3134333420202020302E303030302043202020302020302020302020302020302020302020302020302020302020302020302020300A20202020312E3539343720202020302E3030303020202020302E30303030204F202020302020302020302020302020302020302020302020302020302020302020302020300A20202020312E3539343720202020312E3432383920202020302E303030302043202020302020302020302020302020302020302020302020302020302020302020302020300A2020202D302E343637382020202D302E3731343520202020302E303030302043202020302020302020302020302020302020302020302020302020302020302020302020300A2020202D302E3838303320202020302E3030303020202020302E303030302053692020302020302020302020302020302020302020302020302020302020302020302020300A2020202D312E3239323820202020302E3731343520202020302E303030302043202020302020302020302020302020302020302020302020302020302020302020302020300A2020202D302E3136353820202020302E3431323520202020302E303030302043202020302020302020302020302020302020302020302020302020302020302020302020300A2020202D312E353934372020202D302E3431323520202020302E303030302043202020302020302020302020302020302020302020302020302020302020302020302020300A2020312020322020322020302020202020200A2020322020332020312020302020202020200A2020332020342020312020302020202020200A2020342020352020312020302020202020200A2020352020362020312020302020202020200A2020362020372020312020302020202020200A2020342020382020322020302020202020200A2020362020392020312020302020202020200A2020332031302020312020302020202020200A2031302031312020312020302020202020200A2031312031322020312020302020202020200A2031312031332020312020312020202020200A2031312031342020312020312020202020200A4D2020454E44
Contributor: HISAHIRO HAGIWARA, INSTITUTE FOR CHEMICAL REACTION SCIENCE TOHOKU UNIV.
InstType: EI
InstName: JEOL JMS-DX-300
IoniMethod: _ENERGY 70 eV
IonPolarity: pos
Date: 2010-10-09 19:48:36+02:00
Num Peaks: 45
39 21 41 79 42 12 43 51 44 18 45 92 47 14 53 10 55 15 57 240 
58 22 59 37 61 15 67 16 71 10 72 15 73 999 74 105 75 260 76 21 
77 19 79 16 83 30 85 200 86 13 95 10 97 24 101 16 107 13 111 10 
115 10 116 10 127 82 128 14 130 17 141 47 142 11 155 194 156 31 157 30 
170 22 197 181 198 33 199 11 212 5 
