Name: MassBank: JP010134
MW: 249
Formula: C16H27NO
Synonym: MassBank: JP010134
Synonym: N-(3,7-DIMETHYL-2,6-OCTADIENYL)-CAPROLACTAM
Structure: 4E2D28332C372D44494D455448594C2D322C362D4F4354414449454E594C292D434150524F4C414354414D2E6D6F6C0A20204368656D447261773038313231303031313832440A2031382031382020302020302020302020302020302020302020302020303939392056323030300A2020202D322E363533382020202D302E3532323020202020302E303030302043202020302020302020302020302020302020302020302020302020302020302020302020300A2020202D332E343432322020202D302E3237383820202020302E303030302043202020302020302020302020302020302020302020302020302020302020302020302020300A2020202D332E3734333620202020302E3438393220202020302E303030302043202020302020302020302020302020302020302020302020302020302020302020302020300A2020202D332E3333313120202020312E3230333720202020302E303030302043202020302020302020302020302020302020302020302020302020302020302020302020300A2020202D322E3530343620202020312E3333373720202020302E303030302043202020302020302020302020302020302020302020302020302020302020302020302020300A2020202D312E3932313220202020302E3735343420202020302E303030302043202020302020302020302020302020302020302020302020302020302020302020302020300A2020202D322E353330392020202D312E3333373720202020302E30303030204F202020302020302020302020302020302020302020302020302020302020302020302020300A2020202D312E393732322020202D302E3035373220202020302E30303030204E202020302020302020302020302020302020302020302020302020302020302020302020300A2020202D312E323537372020202D302E3436393720202020302E303030302043202020302020302020302020302020302020302020302020302020302020302020302020300A2020202D302E353433322020202D302E3035373220202020302E303030302043202020302020302020302020302020302020302020302020302020302020302020302020300A20202020302E313731322020202D302E3436393720202020302E303030302043202020302020302020302020302020302020302020302020302020302020302020302020300A20202020302E383835372020202D302E3035373220202020302E303030302043202020302020302020302020302020302020302020302020302020302020302020302020300A20202020312E363030322020202D302E3436393720202020302E303030302043202020302020302020302020302020302020302020302020302020302020302020302020300A20202020322E333134362020202D302E3035373220202020302E303030302043202020302020302020302020302020302020302020302020302020302020302020302020300A20202020332E303239312020202D302E3436393720202020302E303030302043202020302020302020302020302020302020302020302020302020302020302020302020300A20202020332E373433362020202D302E3035373220202020302E303030302043202020302020302020302020302020302020302020302020302020302020302020302020300A20202020332E303239312020202D312E3239343720202020302E303030302043202020302020302020302020302020302020302020302020302020302020302020302020300A20202020302E313731322020202D312E3239343720202020302E303030302043202020302020302020302020302020302020302020302020302020302020302020302020300A2020312020322020312020302020202020200A2020322020332020312020302020202020200A2020332020342020312020302020202020200A2020342020352020312020302020202020200A2020352020362020312020302020202020200A2020312020372020322020302020202020200A2020312020382020312020302020202020200A2020362020382020312020302020202020200A2020392031302020312020302020202020200A2031302031312020322020302020202020200A2031312031322020312020302020202020200A2031322031332020312020302020202020200A2031332031342020312020302020202020200A2031342031352020322020302020202020200A2031352031362020312020302020202020200A2031352031372020312020302020202020200A2031312031382020312020302020202020200A2020382020392020312020302020202020200A4D2020454E44
Contributor: KURARAY CO., LTD.
InstType: EI
InstName: JEOL JMS-D-300
IoniMethod: _ENERGY 70 eV
IonPolarity: pos
Date: 2010-10-09 19:48:36+02:00
Num Peaks: 77
27 40 29 40 30 30 39 5 40 10 41 370 42 70 43 5 44 40 53 60 
54 20 55 22 56 40 57 20 65 10 66 1 67 100 68 70 69 360 70 4 
71 20 77 20 79 40 80 5 81 90 82 40 83 30 84 8 85 70 91 40 
92 20 93 10 94 30 95 40 96 270 97 3 98 200 99 30 105 10 107 3 
108 20 109 10 110 10 112 3 113 10 114 210 115 20 119 1 121 100 122 20 
124 10 126 37 127 60 128 10 135 10 136 9 137 10 138 210 139 20 140 1 
143 20 150 10 152 50 164 1 166 70 167 30 178 20 179 3 180 999 181 140 
182 10 192 3 206 30 207 10 234 10 249 17 250 30 
