Name: MassBank: JP010958
MW: 226
Formula: C11H14O5
Synonym: MassBank: JP010958
Synonym: 4,6-BIS(HYDROXYMETHYL)-2,5-DIMETHOXYTROPONE
Structure: 342C362D42495328485944524F58594D455448594C292D322C352D44494D4554484F585954524F504F4E452E6D6F6C0A20204368656D447261773130313831303137323032440A2031362031362020302020302020302020302020302020302020302020303939392056323030300A2020202D312E3535333220202020302E3737303520202020302E30303030204F202020302020302020302020302020302020302020302020302020302020302020302020300A2020202D302E3830393920202020302E3431323520202020302E303030302043202020302020302020302020302020302020302020302020302020302020302020302020300A2020202D302E3136343920202020302E3932363920202020302E303030302043202020302020302020302020302020302020302020302020302020302020302020302020300A20202020302E3633393420202020302E3734333320202020302E303030302043202020302020302020302020302020302020302020302020302020302020302020302020300A20202020302E3939373420202020302E3030303020202020302E303030302043202020302020302020302020302020302020302020302020302020302020302020302020300A20202020302E363339342020202D302E3734333320202020302E303030302043202020302020302020302020302020302020302020302020302020302020302020302020300A2020202D302E313634392020202D302E3932363920202020302E303030302043202020302020302020302020302020302020302020302020302020302020302020302020300A2020202D302E383039392020202D302E3431323520202020302E303030302043202020302020302020302020302020302020302020302020302020302020302020302020300A20202020312E3832323420202020302E3030303020202020302E30303030204F202020302020302020302020302020302020302020302020302020302020302020302020300A20202020322E323334392020202D302E3731343520202020302E303030302043202020302020302020302020302020302020302020302020302020302020302020302020300A2020202D312E353533322020202D302E3737303520202020302E30303030204F202020302020302020302020302020302020302020302020302020302020302020302020300A2020202D322E323334392020202D302E3330353720202020302E303030302043202020302020302020302020302020302020302020302020302020302020302020302020300A20202020312E3135333820202020312E3338383320202020302E303030302043202020302020302020302020302020302020302020302020302020302020302020302020300A20202020302E3835323420202020322E3135363320202020302E30303030204F202020302020302020302020302020302020302020302020302020302020302020302020300A20202020312E313533382020202D312E3338383320202020302E303030302043202020302020302020302020302020302020302020302020302020302020302020302020300A20202020302E383532342020202D322E3135363320202020302E30303030204F202020302020302020302020302020302020302020302020302020302020302020302020300A2020312020322020322020302020202020200A2020322020332020312020302020202020200A2020332020342020322020302020202020200A2020342020352020312020302020202020200A2020352020362020322020302020202020200A2020362020372020312020302020202020200A2020372020382020322020302020202020200A2020322020382020312020302020202020200A2020392031302020312020302020202020200A2020352020392020312020302020202020200A2031312031322020312020302020202020200A2020382031312020312020302020202020200A2031332031342020312020302020202020200A2020342031332020312020302020202020200A2031352031362020312020302020202020200A2020362031352020312020302020202020200A4D2020454E44
Contributor: TAKESHITA H, INST. OF ADVANCED MATERIAL STUDY KYUSHU UNIV.
InstType: EI
InstName: JEOL JMS-01-SG-2
IoniMethod: _ENERGY 75 eV
IonPolarity: pos
Date: 2010-10-09 19:48:36+02:00
Num Peaks: 34
31 280 32 182 36 193 38 67 39 60 41 60 42 202 43 123 44 839 45 708 
46 148 47 50 50 239 52 72 77 60 90 50 92 218 93 89 135 999 136 240 
165 61 179 561 180 54 181 11 193 47 194 13 195 29 196 11 208 67 209 10 
210 12 212 11 224 10 226 34 
