Name: MassBank: JP011846
MW: 207
Formula: C10H13N3O2
Synonym: MassBank: JP011846
Synonym: 1H,2H,3H,4H-3-TERT-BUTYLPYRRO(1,2-D)(1,2,4)TRIAZINE-1,4-DIONE
Structure: 31482C32482C33482C34482D332D544552542D425554594C505952524F28312C322D442928312C322C3429545249415A494E452D312C342D44494F4E452E6D6F6C0A20204368656D447261773132313130393031323532440A2031382031392020302020302020302020302020302020302020302020303939392056323030300A2020202D302E3338313720202020302E3431323520202020302E30303030204E202020302020302020302020302020302020302020302020302020302020302020302020300A2020202D302E333831372020202D302E3431323520202020302E303030302043202020302020302020302020302020302020302020302020302020302020302020302020300A20202020302E333332382020202D302E3832353020202020302E303030302043202020302020302020302020302020302020302020302020302020302020302020302020300A20202020312E303437332020202D302E3431323520202020302E30303030204E202020302020302020302020302020302020302020302020302020302020302020302020300A20202020312E3034373320202020302E3431323520202020302E30303030204E202020302020302020302020302020302020302020302020302020302020302020302020300A20202020302E3333323820202020302E3832353020202020302E303030302043202020302020302020302020302020302020302020302020302020302020302020302020300A2020202D312E3136363320202020302E3636373420202020302E303030302043202020302020302020302020302020302020302020302020302020302020302020302020300A2020202D312E3635313220202020302E3030303020202020302E303030302043202020302020302020302020302020302020302020302020302020302020302020302020300A2020202D312E313636332020202D302E3636373420202020302E303030302043202020302020302020302020302020302020302020302020302020302020302020302020300A2020202D312E3432313220202020312E3435323120202020302E303030302048202020302020302020302020302020302020302020302020302020302020302020302020300A2020202D322E3437363220202020302E3030303020202020302E303030302048202020302020302020302020302020302020302020302020302020302020302020302020300A2020202D312E343231322020202D312E3435323120202020302E303030302048202020302020302020302020302020302020302020302020302020302020302020302020300A20202020302E3333323820202020312E3635303020202020302E30303030204F202020302020302020302020302020302020302020302020302020302020302020302020300A20202020312E3736313720202020302E3832353020202020302E303030302043202020302020302020302020302020302020302020302020302020302020302020302020300A20202020302E333332382020202D312E3635303020202020302E30303030204F202020302020302020302020302020302020302020302020302020302020302020302020300A20202020322E3437363220202020312E3233373520202020302E303030302043202020302020302020302020302020302020302020302020302020302020302020302020300A20202020312E3334393220202020312E3533393520202020302E303030302043202020302020302020302020302020302020302020302020302020302020302020302020300A20202020322E3137343220202020302E3131303520202020302E303030302043202020302020302020302020302020302020302020302020302020302020302020302020300A2020312020322020312020302020202020200A2020322020332020312020302020202020200A2020332020342020312020302020202020200A2020342020352020312020302020202020200A2020352020362020312020302020202020200A2020362020312020312020302020202020200A2020312020372020312020302020202020200A2020372020382020322020302020202020200A2020382020392020312020302020202020200A2020392020322020322020302020202020200A2020372031302020312020302020202020200A2020382031312020312020302020202020200A2020392031322020312020302020202020200A2020362031332020322020302020202020200A2020352031342020312020302020202020200A2020332031352020322020302020202020200A2031342031362020312020302020202020200A2031342031372020312020302020202020200A2031342031382020312020302020202020200A4D2020454E44
Contributor: YOSHIKI O, FAC, TECHNOLOGY, OSAKA UNIV.
InstType: EI
InstName: Unknown
IoniMethod: _ENERGY 70 eV
IonPolarity: pos
Date: 2010-10-09 19:48:36+02:00
Num Peaks: 40
50 47 51 290 52 25 53 40 54 24 55 59 56 106 57 532 58 38 60 11 
64 27 65 45 66 142 67 46 68 20 70 15 73 18 81 10 83 17 84 430 
85 17 86 279 87 28 88 56 93 50 94 865 95 143 96 13 99 10 101 31 
102 10 107 11 125 18 144 11 151 999 152 95 166 10 181 12 207 81 208 11 
