Name: PHENYLISOCYANATE-CYCLICDIMER
MW: 238
Formula: C14H10N2O2
Synonym: MassBank: JP011204
Synonym: PHENYLISOCYANATE-CYCLICDIMER
Structure: 303830305F5048454E594C49534F4359414E4154452D4359434C494344494D45522E6D6F6C0A20204368656D447261773038323031303130323632440A2031382032302020302020302020302020302020302020302020302020303939392056323030300A2020202D302E3431323520202020302E3431323520202020302E30303030204E202020302020302020302020302020302020302020302020302020302020302020302020300A2020202D302E343132352020202D302E3431323520202020302E303030302043202020302020302020302020302020302020302020302020302020302020302020302020300A20202020302E343132352020202D302E3431323520202020302E30303030204E202020302020302020302020302020302020302020302020302020302020302020302020300A20202020302E3431323520202020302E3431323520202020302E303030302043202020302020302020302020302020302020302020302020302020302020302020302020300A20202020302E3939363620202020302E3939333820202020302E30303030204F202020302020302020302020302020302020302020302020302020302020302020302020300A2020202D302E393933382020202D302E3939363620202020302E30303030204F202020302020302020302020302020302020302020302020302020302020302020302020300A2020202D302E3939353920202020302E3939353920202020302E303030302043202020302020302020302020302020302020302020302020302020302020302020302020300A2020202D302E3738323320202020312E3739323820202020302E303030302043202020302020302020302020302020302020302020302020302020302020302020302020300A2020202D312E3336353720202020322E3337363120202020302E303030302043202020302020302020302020302020302020302020302020302020302020302020302020300A2020202D322E3136323620202020322E3136323620202020302E303030302043202020302020302020302020302020302020302020302020302020302020302020302020300A2020202D322E3337363120202020312E3336353720202020302E303030302043202020302020302020302020302020302020302020302020302020302020302020302020300A2020202D312E3739323820202020302E3738323320202020302E303030302043202020302020302020302020302020302020302020302020302020302020302020302020300A20202020302E393935392020202D302E3939353920202020302E303030302043202020302020302020302020302020302020302020302020302020302020302020302020300A20202020302E373832332020202D312E3739323820202020302E303030302043202020302020302020302020302020302020302020302020302020302020302020302020300A20202020312E333635372020202D322E3337363120202020302E303030302043202020302020302020302020302020302020302020302020302020302020302020302020300A20202020322E313632362020202D322E3136323620202020302E303030302043202020302020302020302020302020302020302020302020302020302020302020302020300A20202020322E333736312020202D312E3336353720202020302E303030302043202020302020302020302020302020302020302020302020302020302020302020302020300A20202020312E373932382020202D302E3738323320202020302E303030302043202020302020302020302020302020302020302020302020302020302020302020302020300A2020312020322020312020302020202020200A2020322020332020312020302020202020200A2020332020342020312020302020202020200A2020342020312020312020302020202020200A2020342020352020322020302020202020200A2020322020362020322020302020202020200A2020332031332020312020302020202020200A2020312020372020312020302020202020200A2020372020382020322020302020202020200A2020382020392020312020302020202020200A2020392031302020322020302020202020200A2031302031312020312020302020202020200A2031312031322020322020302020202020200A2020372031322020312020302020202020200A2031332031342020322020302020202020200A2031342031352020312020302020202020200A2031352031362020322020302020202020200A2031362031372020312020302020202020200A2031372031382020322020302020202020200A2031332031382020312020302020202020200A4D2020454E44
Contributor: SAWADA M, THE INST. OF SCIENTIFIC AND INDUSTRIALRESEARCH OSAKA UNIV.
InstType: EI
InstName: JEOL JMS-DX-300
IoniMethod: _ENERGY 70 eV
IonPolarity: pos
Date: 2010-10-09 19:48:36+02:00
Num Peaks: 26
37 29 38 90 39 130 40 67 41 68 44 23 50 47 51 102 52 62 61 11 
62 28 63 191 64 457 65 109 66 11 76 13 77 39 90 71 91 713 92 72 
93 10 119 999 120 265 121 17 238 285 239 58 
