Name: MassBank: JP010288
MW: 259
Formula: C16H21NO2
Synonym: MassBank: JP010288
Synonym: METHYL 2-ISOPROPYL-3-METHYL-5-PHENYL-1-PYRROLINE-4-CARBOXYLATE (3,4-TRANS-4,5-CIS)
Synonym: METHYL (4R,5S)-2-ISOPROPYL-3-METHYL-5-PHENYL-1-PYRROLINE-4-CARBOXYLATE
Structure: 303836385F4D455448594C20322D49534F50524F50594C2D332D4D455448594C2D352D5048454E594C2D312D505952524F4C494E452D342D434152424F58594C4154452028332C342D5452414E532D342C352D434953292E6D6F6C0A20204368656D447261773130323031303138323632440A2031392032302020302020302020302020302020302020302020302020303939392056323030300A2020202D302E3038303420202020302E3334303120202020302E303030302043202020302020302020302020302020302020302020302020302020302020302020302020300A20202020302E313734352020202D302E3434343520202020302E303030302043202020302020302020302020302020302020302020302020302020302020302020302020300A2020202D302E343932392020202D302E3932393420202020302E30303030204E202020302020302020302020302020302020302020302020302020302020302020302020300A2020202D312E313630342020202D302E3434343520202020302E303030302043202020302020302020302020302020302020302020302020302020302020302020302020300A2020202D302E3930353420202020302E3334303120202020302E303030302043202020302020302020302020302020302020302020302020302020302020302020302020300A2020202D312E393435302020202D302E3639393420202020302E303030302043202020302020302020302020302020302020302020302020302020302020302020302020300A2020202D322E353238342020202D302E3131363020202020302E303030302043202020302020302020302020302020302020302020302020302020302020302020302020300A2020202D322E313538352020202D312E3439363320202020302E303030302043202020302020302020302020302020302020302020302020302020302020302020302020300A20202020302E393539312020202D302E3639393420202020302E303030302043202020302020302020302020302020302020302020302020302020302020302020302020300A20202020312E353732322020202D302E3134373420202020302E303030302043202020302020302020302020302020302020302020302020302020302020302020302020300A20202020322E333536382020202D302E3430323320202020302E303030302043202020302020302020302020302020302020302020302020302020302020302020302020300A20202020322E353238342020202D312E3230393320202020302E303030302043202020302020302020302020302020302020302020302020302020302020302020302020300A20202020312E393135332020202D312E3736313320202020302E303030302043202020302020302020302020302020302020302020302020302020302020302020302020300A20202020312E313330362020202D312E3530363420202020302E303030302043202020302020302020302020302020302020302020302020302020302020302020302020300A20202020302E3430343520202020312E3030373620202020302E303030302043202020302020302020302020302020302020302020302020302020302020302020302020300A2020202D312E3339303320202020312E3030373620202020302E303030302043202020302020302020302020302020302020302020302020302020302020302020302020300A20202020302E3036393020202020312E3736313320202020302E30303030204F202020302020302020302020302020302020302020302020302020302020302020302020300A20202020312E3232353020202020302E3932313320202020302E30303030204F202020302020302020302020302020302020302020302020302020302020302020302020300A20202020312E3730393920202020312E3538383820202020302E303030302043202020302020302020302020302020302020302020302020302020302020302020302020300A2020312020322020312020302020202020200A2020322020332020312020302020202020200A2020332020342020322020302020202020200A2020342020352020312020302020202020200A2020312020352020312020302020202020200A2020362020372020312020302020202020200A2020362020382020312020302020202020200A2020342020362020312020302020202020200A2020392031302020312020302020202020200A2031302031312020322020302020202020200A2031312031322020312020302020202020200A2031322031332020322020302020202020200A2031332031342020312020302020202020200A2020392031342020322020302020202020200A2020322020392020312020312020202020200A2020312031352020312020312020202020200A2020352031362020312020362020202020200A2031352031372020322020302020202020200A2031352031382020312020302020202020200A2031382031392020312020302020202020200A4D2020454E44
Contributor: KANEMASA S, INST. OF ADVANCED MATERIAL STUDY KYUSHU UNIV.
InstType: EI
InstName: JEOL JMS-01-SG-2
IoniMethod: _ENERGY 75 eV
IonPolarity: pos
Date: 2010-10-09 19:48:36+02:00
Num Peaks: 21
41 93 89 124 90 214 91 210 115 103 117 696 118 122 119 123 129 86 130 86 
131 279 144 257 147 213 158 165 159 999 160 129 200 233 206 221 257 122 259 583 
260 131 
