Name: MassBank: JP010420
MW: 299
Formula: C9H11Cl2O3PS
Synonym: MassBank: JP010420
Synonym: PHOSPHOROTHIOIC ACID O-(2,6-DICHLORO-PARA-TOLYL) O,O-DIMETHYL ESTER
Structure: 50484F5350484F524F5448494F49432041434944204F2D28322C362D444943484C4F524F2D504152412D544F4C594C29204F2C4F2D44494D455448594C2045535445522E6D6F6C0A20204368656D447261773038313231303035343032440A2031362031362020302020302020302020302020302020302020302020303939392056323030300A20202020312E3037313720202020302E3030303020202020302E303030302050202020302020302020302020302020302020302020302020302020302020302020302020300A20202020312E373836322020202D302E3431323520202020302E30303030204F202020302020302020302020302020302020302020302020302020302020302020302020300A20202020302E3335373220202020302E3431323520202020302E30303030204F202020302020302020302020302020302020302020302020302020302020302020302020300A20202020312E3438343220202020302E3731343520202020302E30303030204F202020302020302020302020302020302020302020302020302020302020302020302020300A20202020302E363539322020202D302E3731343520202020302E303030302053202020302020302020302020302020302020302020302020302020302020302020302020300A20202020322E3330393220202020302E3731343520202020302E303030302043202020302020302020302020302020302020302020302020302020302020302020302020300A20202020322E3530303620202020302E3030303020202020302E303030302043202020302020302020302020302020302020302020302020302020302020302020302020300A2020202D302E3335373220202020302E3030303020202020302E303030302043202020302020302020302020302020302020302020302020302020302020302020302020300A2020202D302E333537322020202D302E3832353020202020302E303030302043202020302020302020302020302020302020302020302020302020302020302020302020300A2020202D312E373836322020202D302E3832353020202020302E303030302043202020302020302020302020302020302020302020302020302020302020302020302020300A2020202D312E3037313720202020302E3431323520202020302E303030302043202020302020302020302020302020302020302020302020302020302020302020302020300A2020202D312E303731372020202D312E3233373520202020302E303030302043202020302020302020302020302020302020302020302020302020302020302020302020300A2020202D312E3738363220202020302E3030303020202020302E303030302043202020302020302020302020302020302020302020302020302020302020302020302020300A2020202D322E353030362020202D312E3233373520202020302E303030302043202020302020302020302020302020302020302020302020302020302020302020302020300A2020202D312E3037313720202020312E3233373520202020302E3030303020436C2020302020302020302020302020302020302020302020302020302020302020302020300A20202020302E333537322020202D312E3233373520202020302E3030303020436C2020302020302020302020302020302020302020302020302020302020302020302020300A2020312020322020312020302020202020200A2020312020332020312020302020202020200A2020312020342020312020302020202020200A2020312020352020322020302020202020200A2020342020362020312020302020202020200A2020322020372020312020302020202020200A2020382020392020312020302020202020200A2020382031312020322020302020202020200A2020392031322020322020302020202020200A2031302031322020312020302020202020200A2031302031332020322020302020202020200A2031312031332020312020302020202020200A2031302031342020312020302020202020200A2031312031352020312020302020202020200A2020392031362020312020302020202020200A2020332020382020312020302020202020200A4D2020454E44
Contributor: UOEH
InstType: EI
InstName: JEOL JMS-DX-303
IoniMethod: _ENERGY 70 eV
IonPolarity: pos
Date: 2010-10-09 19:48:36+02:00
Num Peaks: 28
47 30 51 15 62 15 63 33 75 21 77 16 79 52 93 117 109 50 111 42 
112 19 113 14 125 193 127 11 141 14 175 32 176 13 177 21 187 15 249 38 
250 101 251 25 252 38 265 999 266 118 267 405 268 49 269 32 
