Name: 4-METHOXYACETOPHENONE (D3)
MW: 150
Formula: C9H10O2
Synonym: MassBank: JP011803
Synonym: 4-METHOXYACETOPHENONE (D3)
Structure: 342D4D4554484F5859414345544F5048454E4F4E4520284433292E6D6F6C0A20204368656D447261773034323031303137313732440A2031342031342020302020302020302020302020302020302020302020303939392056323030300A2020202D312E3037313720202020302E3736393720202020302E303030302043202020302020302020302020302020302020302020302020302020302020302020302020300A2020202D312E303731372020202D302E3035353320202020302E303030302043202020302020302020302020302020302020302020302020302020302020302020302020300A2020202D302E333537322020202D302E3436373820202020302E303030302043202020302020302020302020302020302020302020302020302020302020302020302020300A20202020302E333537322020202D302E3035353320202020302E303030302043202020302020302020302020302020302020302020302020302020302020302020302020300A20202020302E3335373220202020302E3736393720202020302E303030302043202020302020302020302020302020302020302020302020302020302020302020302020300A2020202D302E3335373220202020312E3138323220202020302E303030302043202020302020302020302020302020302020302020302020302020302020302020302020300A2020202D302E3335373220202020322E3030373220202020302E303030302043202020302020302020302020302020302020302020302020302020302020302020302020300A20202020302E3335373220202020322E3431393720202020302E303030302043202020302020302020302020302020302020302020302020302020302020302020302020300A2020202D312E3037313720202020322E3431393720202020302E30303030204F202020302020302020302020302020302020302020302020302020302020302020302020300A2020202D302E333537322020202D312E3239323820202020302E30303030204F202020302020302020302020302020302020302020302020302020302020302020302020300A20202020302E333537322020202D312E3730353320202020302E303030302043202020302020302020302020302020302020302020302020302020302020302020302020300A20202020312E303731372020202D322E3131373820202020302E303030302048202020312020302020302020302020302020302020302020302020302020302020302020300A20202020302E373639372020202D302E3939303820202020302E303030302048202020312020302020302020302020302020302020302020302020302020302020302020300A2020202D302E303535332020202D322E3431393720202020302E303030302048202020312020302020302020302020302020302020302020302020302020302020302020300A2020312020322020322020302020202020200A2020322020332020312020302020202020200A2020332020342020322020302020202020200A2020342020352020312020302020202020200A2020352020362020322020302020202020200A2020362020312020312020302020202020200A2020362020372020312020302020202020200A2020372020382020312020302020202020200A2020372020392020322020302020202020200A2020332031302020312020302020202020200A2031302031312020312020302020202020200A2031312031322020312020302020202020200A2031312031332020312020302020202020200A2031312031342020312020302020202020200A4D202049534F2020332020313220202032202031332020203220203134202020320A4D2020454E44
Contributor: TAJIMA S, GUNMA COLLEGE OF TECHNOLOGY
InstType: EI
InstName: HITACHI M-80A
IoniMethod: _ENERGY 70 eV
IonPolarity: pos
Date: 2010-10-09 19:48:36+02:00
Num Peaks: 34
15 27 18 36 37 11 38 47 39 44 42 18 43 157 50 59 51 52 52 29 
53 16 61 13 62 41 63 143 64 153 65 28 66 11 74 25 75 17 76 23 
77 41 78 255 79 70 80 31 82 16 92 257 93 21 110 102 120 18 124 12 
138 999 139 91 153 338 154 36 
