Name: 3-(1-TRIMETHYLSILYLMETHYL-2-PROPENYL)CYCLOHEXANONE
MW: 224
Formula: C13H24OSi
Synonym: MassBank: JP012092
Synonym: 3-(1-TRIMETHYLSILYLMETHYL-2-PROPENYL)CYCLOHEXANONE
Structure: 332D28312D5452494D455448594C53494C594C4D455448594C2D322D50524F50454E594C294359434C4F484558414E4F4E452E6D6F6C0A20204368656D447261773032323231303039303332440A2031352031352020302020302020302020302020302020302020302020303939392056323030300A2020202D312E383536322020202D302E3330323020202020302E303030302043202020302020302020302020302020302020302020302020302020302020302020302020300A2020202D312E303331322020202D302E3330323020202020302E303030302043202020302020302020302020302020302020302020302020302020302020302020302020300A2020202D302E3631383720202020302E3431323520202020302E303030302043202020302020302020302020302020302020302020302020302020302020302020302020300A2020202D312E3033313220202020312E3132373020202020302E303030302043202020302020302020302020302020302020302020302020302020302020302020302020300A2020202D312E3835363220202020312E3132373020202020302E303030302043202020302020302020302020302020302020302020302020302020302020302020302020300A2020202D322E3236383820202020302E3431323520202020302E303030302043202020302020302020302020302020302020302020302020302020302020302020302020300A20202020302E3230363320202020302E3431323520202020302E303030302043202020302020302020302020302020302020302020302020302020302020302020302020300A20202020302E3631383820202020312E3132373020202020302E303030302043202020302020302020302020302020302020302020302020302020302020302020302020300A20202020312E3434333820202020312E3132373020202020302E303030302043202020302020302020302020302020302020302020302020302020302020302020302020300A20202020302E363138382020202D302E3330323020202020302E303030302043202020302020302020302020302020302020302020302020302020302020302020302020300A20202020312E343433382020202D302E3330323020202020302E303030302053692020302020302020302020302020302020302020302020302020302020302020302020300A20202020312E3434333820202020302E3532333020202020302E303030302043202020302020302020302020302020302020302020302020302020302020302020302020300A20202020312E343433382020202D312E3132373020202020302E303030302043202020302020302020302020302020302020302020302020302020302020302020302020300A20202020322E323638382020202D302E3330323020202020302E303030302043202020302020302020302020302020302020302020302020302020302020302020302020300A2020202D322E323638372020202D312E3031363420202020302E30303030204F202020302020302020302020302020302020302020302020302020302020302020302020300A2020312020322020312020302020202020200A2020322020332020312020302020202020200A2020332020342020312020302020202020200A2020342020352020312020302020202020200A2020352020362020312020302020202020200A2020312020362020312020302020202020200A2020372020382020312020302020202020200A2020382020392020322020302020202020200A2031312031322020312020312020202020200A2031312031332020312020312020202020200A2031312031342020312020302020202020200A2031302031312020312020302020202020200A2020372031302020312020302020202020200A2020332020372020312020302020202020200A2020312031352020322020302020202020200A4D2020454E44
Contributor: HISAHIRO HAGIWARA, INSTITUTE FOR CHEMICAL REACTION SCIENCE TOHOKU UNIV.
InstType: EI
InstName: JEOL JMS-DX-300
IoniMethod: _ENERGY 70 eV
IonPolarity: pos
Date: 2010-10-09 19:48:36+02:00
Num Peaks: 35
37 26 38 31 39 69 41 81 42 108 43 999 44 45 45 60 53 16 54 15 
55 29 57 21 58 436 59 67 67 13 69 24 72 11 73 593 74 62 75 169 
76 14 77 16 79 17 85 10 91 12 97 21 115 15 127 121 128 17 142 20 
155 43 169 40 170 173 171 30 209 23 
