Name: QUININE
CAS: 130-95-0
MW: 324
Formula: C20H24N2O2
Synonym: MassBank: JP011912
Synonym: QUININE
Structure: 5155494E494E452E6D6F6C0A20204368656D447261773038313231303036333032440A2032352032382020302020302020302020302020302020302020302020303939392056323030300A20202020302E343435382020202D302E3833353820202020302E30303030204F202020302020302020302020302020302020302020302020302020302020302020302020300A2020202D302E313932312020202D302E3331323620202020302E303030302043202020302020302020302020302020302020302020302020302020302020302020302020300A2020202D302E393633312020202D302E3630313720202020302E303030302043202020302020302020302020302020302020302020302020302020302020302020302020300A2020202D312E333338332020202D312E3731363920202020302E30303030204E202020302020302020302020302020302020302020302020302020302020302020302020300A2020202D322E303532382020202D322E3132393420202020302E303030302043202020302020302020302020302020302020302020302020302020302020302020302020300A2020202D322E373638332020202D312E3731363320202020302E303030302043202020302020302020302020302020302020302020302020302020302020302020302020300A2020202D312E333338332020202D302E3839333220202020302E303030302043202020302020302020302020302020302020302020302020302020302020302020302020300A2020202D322E303530322020202D302E3438323220202020302E303030302043202020302020302020302020302020302020302020302020302020302020302020302020300A2020202D322E3035303220202020302E3334363820202020302E303030302043202020302020302020302020302020302020302020302020302020302020302020302020300A2020202D322E3736303820202020302E3735373120202020302E303030302043202020302020302020302020302020302020302020302020302020302020302020302020300A2020202D322E373631322020202D302E3839323720202020302E303030302043202020302020302020302020302020302020302020302020302020302020302020302020300A2020202D332E353333392020202D302E3539323620202020302E303030302048202020302020302020302020302020302020302020302020302020302020302020302020300A2020202D312E393831332020202D302E3031333920202020302E303030302043202020302020302020302020302020302020302020302020302020302020302020302020300A2020202D302E3035373920202020302E3530313420202020302E303030302043202020302020302020302020302020302020302020302020302020302020302020302020300A20202020302E3731343120202020302E3739323220202020302E303030302043202020302020302020302020302020302020302020302020302020302020302020302020300A20202020312E3335323020202020302E3236393020202020302E303030302043202020302020302020302020302020302020302020302020302020302020302020302020300A20202020322E3132343020202020302E3535393820202020302E303030302043202020302020302020302020302020302020302020302020302020302020302020302020300A20202020322E3736313920202020302E3033363620202020302E30303030204F202020302020302020302020302020302020302020302020302020302020302020302020300A20202020332E3533333920202020302E3332373520202020302E303030302043202020302020302020302020302020302020302020302020302020302020302020302020300A20202020322E3235383220202020312E3337333920202020302E303030302043202020302020302020302020302020302020302020302020302020302020302020302020300A20202020312E3632303320202020312E3839373120202020302E303030302043202020302020302020302020302020302020302020302020302020302020302020302020300A20202020302E3834383320202020312E3630363220202020302E303030302043202020302020302020302020302020302020302020302020302020302020302020302020300A20202020302E3231303420202020322E3132393420202020302E30303030204E202020302020302020302020302020302020302020302020302020302020302020302020300A2020202D302E3536313620202020312E3833383620202020302E303030302043202020302020302020302020302020302020302020302020302020302020302020302020300A2020202D302E3639353820202020312E3032343620202020302E303030302043202020302020302020302020302020302020302020302020302020302020302020302020300A2020322020312020312020362020202020200A2020322020332020312020302020202020200A2020332020342020312020302020202020200A2020342020352020312020302020202020200A2020352020362020312020302020202020200A2020342020372020312020302020202020200A2020372020382020312020302020202020200A2020382020392020312020362020202020200A2020392031302020322020302020202020200A2020382031312020312020302020202020200A2031312031322020312020312020202020200A2020362031312020312020302020202020200A2031312031332020312020302020202020200A2020332031332020312020362020202020200A2020322031342020312020302020202020200A2031342031352020322020302020202020200A2031352031362020312020302020202020200A2031362031372020322020302020202020200A2031372031382020312020302020202020200A2031382031392020312020302020202020200A2031372032302020312020302020202020200A2032302032312020322020302020202020200A2031352032322020312020302020202020200A2032312032322020312020302020202020200A2032322032332020322020302020202020200A2032332032342020312020302020202020200A2032342032352020322020302020202020200A2031342032352020312020302020202020200A4D2020454E44
Contributor: YAMAMOTO M, DEP. CHEMISTRY, FAC. SCIENCE, NARA WOMEN'S UNIV.
InstType: EI
InstName: HITACHI M-2500
IoniMethod: _ENERGY 70 eV
IonPolarity: pos
Date: 2010-10-09 19:48:36+02:00
Num Peaks: 53
17 16 18 55 27 15 28 22 29 15 39 25 41 65 42 62 43 11 44 10 
53 34 54 19 55 54 56 21 63 12 65 11 67 22 68 14 69 10 77 25 
79 42 80 19 81 78 82 33 89 23 90 17 91 13 94 17 95 28 108 13 
115 12 116 39 117 57 128 13 129 15 130 13 136 999 137 106 138 24 145 33 
154 11 158 31 159 27 160 32 172 30 173 23 174 25 184 10 187 22 188 26 
189 63 324 17 326 14 
