Name: 3-ETHOXY-3-METHYL-1-BUTENE
MW: 114
Formula: C7H14O
Synonym: MassBank: JP010004
Synonym: 3-ETHOXY-3-METHYL-1-BUTENE
Structure: 310A32300A332D4554484F58592D332D4D455448594C2D312D425554454E452E6D6F6C0A20204368656D447261773032323231303137313732440A2020382020372020302020302020302020302020302020302020302020303939392056323030300A2020202D312E3533393520202020302E3030303020202020302E303030302043202020302020302020302020302020302020302020302020302020302020302020302020300A2020202D302E383235302020202D302E3431323520202020302E303030302043202020302020302020302020302020302020302020302020302020302020302020302020300A2020202D302E3131303520202020302E3030303020202020302E303030302043202020302020302020302020302020302020302020302020302020302020302020302020300A20202020302E3630333920202020302E3431323520202020302E303030302043202020302020302020302020302020302020302020302020302020302020302020302020300A2020202D302E3532333020202020302E3731343520202020302E303030302043202020302020302020302020302020302020302020302020302020302020302020302020300A20202020302E333032302020202D302E3731343520202020302E30303030204F202020302020302020302020302020302020302020302020302020302020302020302020300A20202020312E313237302020202D302E3731343520202020302E303030302043202020302020302020302020302020302020302020302020302020302020302020302020300A20202020312E3533393520202020302E3030303020202020302E303030302043202020302020302020302020302020302020302020302020302020302020302020302020300A2020312020322020322020302020202020200A2020322020332020312020302020202020200A2020332020342020312020302020202020200A2020332020352020312020302020202020200A2020372020382020312020302020202020200A2020362020372020312020302020202020200A2020332020362020312020302020202020200A4D2020454E44
Contributor: KURARAY CO., LTD.
InstType: EI
InstName: JEOL JMS-D-300
IoniMethod: _ENERGY 70 eV
IonPolarity: pos
Date: 2010-10-09 19:48:36+02:00
Num Peaks: 27
26 19 27 195 29 155 31 8 39 130 40 32 41 694 42 7 43 457 44 23 
45 36 51 2 53 94 55 72 58 31 59 51 67 68 68 37 69 844 70 6 
71 999 72 58 86 60 87 14 99 942 100 65 114 23 
