Name: 3-METHYLENE-5-OXO-2-PROPIONYLHEPTYLTRIMEHYLSILANE
MW: 254
Formula: C14H26O2Si
Synonym: MassBank: JP010361
Synonym: 3-METHYLENE-5-OXO-2-PROPIONYLHEPTYLTRIMEHYLSILANE
Structure: 332D4D455448594C454E452D352D4F584F2D322D50524F50494F4E594C48455054594C5452494D4548594C53494C414E452E6D6F6C0A20204368656D447261773033323031303135333832440A2031372031362020302020302020302020302020302020302020302020303939392056323030300A2020202D302E3832353020202020312E3337333720202020302E303030302053692020302020302020302020302020302020302020302020302020302020302020302020300A2020202D312E3635303020202020312E3337333720202020302E303030302043202020302020302020302020302020302020302020302020302020302020302020302020300A2020202D302E3832353020202020322E3139383720202020302E303030302043202020302020302020302020302020302020302020302020302020302020302020302020300A2020202D302E3832353020202020302E3534383720202020302E303030302043202020302020302020302020302020302020302020302020302020302020302020302020300A2020202D302E3030303020202020312E3337333720202020302E303030302043202020302020302020302020302020302020302020302020302020302020302020302020300A20202020302E3431323520202020302E3635393220202020302E303030302043202020302020302020302020302020302020302020302020302020302020302020302020300A2020202D302E303030302020202D302E3035353320202020302E303030302043202020302020302020302020302020302020302020302020302020302020302020302020300A20202020302E343132352020202D302E3736393720202020302E303030302043202020302020302020302020302020302020302020302020302020302020302020302020300A2020202D302E303030302020202D312E3438343220202020302E303030302043202020302020302020302020302020302020302020302020302020302020302020302020300A20202020302E343132352020202D322E3139383720202020302E303030302043202020302020302020302020302020302020302020302020302020302020302020302020300A20202020312E323337352020202D322E3139383720202020302E303030302043202020302020302020302020302020302020302020302020302020302020302020302020300A20202020312E3233373520202020302E3635393220202020302E303030302043202020302020302020302020302020302020302020302020302020302020302020302020300A20202020312E363530302020202D302E3035353320202020302E30303030204F202020302020302020302020302020302020302020302020302020302020302020302020300A20202020312E3635303020202020312E3337333720202020302E303030302043202020302020302020302020302020302020302020302020302020302020302020302020300A20202020312E3233373520202020322E3038383120202020302E303030302043202020302020302020302020302020302020302020302020302020302020302020302020300A2020202D302E383235302020202D312E3438343220202020302E30303030204F202020302020302020302020302020302020302020302020302020302020302020302020300A2020202D302E383235302020202D302E3035353320202020302E303030302043202020302020302020302020302020302020302020302020302020302020302020302020300A2020312020322020312020302020202020200A2020312020332020312020302020202020200A2020312020342020312020302020202020200A2020352020362020312020302020202020200A2020362020372020312020302020202020200A2020372020382020312020302020202020200A2020382020392020312020302020202020200A2020392031302020312020302020202020200A2031302031312020312020302020202020200A2031322031332020322020302020202020200A2031322031342020312020302020202020200A2031342031352020312020302020202020200A2020362031322020312020302020202020200A2020392031362020322020302020202020200A2020372031372020322020302020202020200A2020312020352020312020302020202020200A4D2020454E44
Contributor: HISAHIRO HAGIWARA, CHEMICAL RESEARCH INSTITUTE OF NON-AQUEOUSSOLUTIONS TOHOKU UNIV.
InstType: EI
InstName: JEOL JMS-DX-300
IoniMethod: _ENERGY 70 eV
IonPolarity: pos
Date: 2010-10-09 19:48:36+02:00
Num Peaks: 43
31 11 39 12 41 16 43 35 44 17 45 125 47 16 55 1 57 510 58 29 
59 50 61 22 72 11 73 999 74 109 75 221 76 17 77 18 79 36 85 12 
91 23 93 21 103 13 105 13 107 140 108 18 129 12 131 17 135 50 147 10 
164 25 167 13 169 25 181 20 182 12 183 61 184 12 197 135 198 25 225 8 
226 16 239 34 254 6 
