Name: MassBank: JP012038
MW: 102
Formula: C5H14Si
Synonym: MassBank: JP012038
Synonym: BUTYLMETHYLSILANE (5,5-D2)
Structure: 310A32310A425554594C4D455448594C53494C414E452028352C352D4432292E6D6F6C0A20204368656D447261773039303631303034343332440A2020382020372020302020302020302020302020302020302020302020303939392056323030300A2020202D302E3832353020202020302E3330323020202020302E303030302053692020302020302020302020302020302020302020302020302020302020302020302020300A2020202D312E3635303020202020302E3330323020202020302E303030302043202020302020302020302020302020302020302020302020302020302020302020302020300A20202020302E3030303020202020302E3330323020202020302E303030302043202020302020302020302020302020302020302020302020302020302020302020302020300A2020202D302E3832353020202020312E3132373020202020302E303030302048202020312020302020302020302020302020302020302020302020302020302020302020300A2020202D302E383235302020202D302E3532333020202020302E303030302048202020312020302020302020302020302020302020302020302020302020302020302020300A20202020302E343132352020202D302E3431323520202020302E303030302043202020302020302020302020302020302020302020302020302020302020302020302020300A20202020312E323337352020202D302E3431323520202020302E303030302043202020302020302020302020302020302020302020302020302020302020302020302020300A20202020312E363530302020202D312E3132373020202020302E303030302043202020302020302020302020302020302020302020302020302020302020302020302020300A2020312020322020312020302020202020200A2020312020332020312020302020202020200A2020312020342020312020312020202020200A2020312020352020312020312020202020200A2020332020362020312020302020202020200A2020362020372020312020302020202020200A2020372020382020312020302020202020200A4D202049534F202032202020342020203220202035202020320A4D2020454E44
Contributor: YAMAMOTO M, DEP. CHEMISTRY, FAC. SCIENCE, NARA WOMEN'S UNIV.
InstType: EI
InstName: HITACHI RMU-6M
IoniMethod: _ENERGY 70 eV
IonPolarity: pos
Date: 2010-10-09 19:48:36+02:00
Num Peaks: 43
26 19 27 50 28 72 29 70 30 66 31 61 32 27 39 39 40 48 41 46 
42 69 43 226 44 155 45 908 46 146 47 53 53 32 54 22 55 34 56 77 
57 212 58 83 59 184 60 186 61 85 62 20 70 17 71 38 72 82 73 999 
74 176 75 85 76 44 86 27 87 30 88 28 89 37 100 20 101 67 102 51 
103 58 104 63 105 20 
