Name: DIISOBUTYLMETHYLSILANE (D)
MW: 158
Formula: C9H22Si
Synonym: MassBank: JP012047
Synonym: DIISOBUTYLMETHYLSILANE (D)
Structure: 444949534F425554594C4D455448594C53494C414E45202844292E6D6F6C0A20204368656D447261773039323231303030333832440A2031312031302020302020302020302020302020302020302020302020303939392056323030300A20202020302E303030302020202D302E3030303020202020302E303030302043202020302020302020302020302020302020302020302020302020302020302020302020300A20202020302E3030303020202020302E3832353020202020302E303030302048202020312020302020302020302020302020302020302020302020302020302020302020300A20202020302E303030302020202D302E3832353020202020302E303030302043202020302020302020302020302020302020302020302020302020302020302020302020300A20202020302E383235302020202D302E3030303020202020302E303030302043202020302020302020302020302020302020302020302020302020302020302020302020300A2020202D302E383235302020202D302E3030303020202020302E303030302043202020302020302020302020302020302020302020302020302020302020302020302020300A2020202D312E323337352020202D302E3731343520202020302E303030302043202020302020302020302020302020302020302020302020302020302020302020302020300A2020202D322E303632352020202D302E3731343520202020302E303030302043202020302020302020302020302020302020302020302020302020302020302020302020300A2020202D302E383235302020202D312E3432383920202020302E303030302043202020302020302020302020302020302020302020302020302020302020302020302020300A20202020312E3233373520202020302E3731343520202020302E303030302043202020302020302020302020302020302020302020302020302020302020302020302020300A20202020322E3036323520202020302E3731343520202020302E303030302043202020302020302020302020302020302020302020302020302020302020302020302020300A20202020302E3832353020202020312E3432383920202020302E303030302043202020302020302020302020302020302020302020302020302020302020302020302020300A2020312020322020312020302020202020200A2020312020332020312020302020202020200A2020312020342020312020302020202020200A2020312020352020312020302020202020200A2020352020362020312020302020202020200A2020362020372020312020302020202020200A2020362020382020312020302020202020200A2020342020392020312020302020202020200A2020392031302020312020302020202020200A2020392031312020312020302020202020200A4D202049534F20203120202032202020320A4D2020454E44
Contributor: YAMAMOTO M, DEP. CHEMISTRY, FAC. SCIENCE, NARA WOMEN'S UNIV.
InstType: EI
InstName: HITACHI RMU-6M
IoniMethod: _ENERGY 70 eV
IonPolarity: pos
Date: 2010-10-09 19:48:36+02:00
Num Peaks: 40
39 81 40 27 41 151 42 40 43 173 44 94 45 119 46 299 55 43 56 43 
57 40 58 97 59 999 60 782 61 97 62 40 71 38 72 97 73 313 74 135 
75 40 85 59 86 54 87 27 88 164 99 27 100 167 101 108 102 623 103 67 
104 30 135 24 144 226 145 51 146 24 156 135 157 40 158 27 159 40 160 24 
