Name: DICHLORODI(PARA-TOLYL)SILANE
MW: 280
Formula: C14H14Cl2Si
Synonym: MassBank: JP011725
Synonym: DICHLORODI(PARA-TOLYL)SILANE
Structure: 444943484C4F524F444928504152412D544F4C594C2953494C414E452E6D6F6C0A20204368656D447261773039323131303138313632440A2031372031382020302020302020302020302020302020302020302020303939392056323030300A2020202D312E323337352020202D312E3233373520202020302E303030302053692020302020302020302020302020302020302020302020302020302020302020302020300A2020202D312E323337352020202D302E3431323520202020302E303030302043202020302020302020302020302020302020302020302020302020302020302020302020300A2020202D312E393532302020202D302E3030303020202020302E303030302043202020302020302020302020302020302020302020302020302020302020302020302020300A2020202D312E3233373520202020312E3233373520202020302E303030302043202020302020302020302020302020302020302020302020302020302020302020302020300A2020202D302E3532333020202020302E3030303020202020302E303030302043202020302020302020302020302020302020302020302020302020302020302020302020300A2020202D312E3935323020202020302E3832353020202020302E303030302043202020302020302020302020302020302020302020302020302020302020302020302020300A2020202D302E3532333020202020302E3832353020202020302E303030302043202020302020302020302020302020302020302020302020302020302020302020302020300A2020202D312E3233373520202020322E3036323520202020302E303030302043202020302020302020302020302020302020302020302020302020302020302020302020300A2020202D302E343132352020202D312E3233373520202020302E303030302043202020302020302020302020302020302020302020302020302020302020302020302020300A20202020302E303030302020202D302E3532333020202020302E303030302043202020302020302020302020302020302020302020302020302020302020302020302020300A20202020312E323337352020202D312E3233373520202020302E303030302043202020302020302020302020302020302020302020302020302020302020302020302020300A20202020302E303030302020202D312E3935323020202020302E303030302043202020302020302020302020302020302020302020302020302020302020302020302020300A20202020302E383235302020202D302E3532333020202020302E303030302043202020302020302020302020302020302020302020302020302020302020302020302020300A20202020302E383235302020202D312E3935323020202020302E303030302043202020302020302020302020302020302020302020302020302020302020302020302020300A20202020322E303632352020202D312E3233373520202020302E303030302043202020302020302020302020302020302020302020302020302020302020302020302020300A2020202D312E323337352020202D322E3036323520202020302E3030303020436C2020302020302020302020302020302020302020302020302020302020302020302020300A2020202D322E303632352020202D312E3233373520202020302E3030303020436C2020302020302020302020302020302020302020302020302020302020302020302020300A2020322020332020312020302020202020200A2020322020352020322020302020202020200A2020332020362020322020302020202020200A2020342020362020312020302020202020200A2020342020372020322020302020202020200A2020352020372020312020302020202020200A2020342020382020312020302020202020200A2020312020322020312020302020202020200A2020392031302020312020302020202020200A2020392031322020322020302020202020200A2031302031332020322020302020202020200A2031312031332020312020302020202020200A2031312031342020322020302020202020200A2031322031342020312020302020202020200A2031312031352020312020302020202020200A2020312020392020312020302020202020200A2020312031362020312020302020202020200A2020312031372020312020302020202020200A4D2020454E44
Contributor: FAC. TECHNOLOGY, HIROSHIMA UNIV.
InstType: EI
InstName: SHIMADZU QP-1000
IoniMethod: _ENERGY 70 eV
IonPolarity: pos
Date: 2010-10-09 19:48:36+02:00
Num Peaks: 50
50 53 51 85 52 21 53 32 63 426 65 628 76 21 77 21 89 181 90 181 
91 999 92 117 115 32 121 128 122 96 123 32 125 11 128 11 139 11 152 43 
153 53 154 11 155 11 165 138 166 64 167 181 168 21 178 21 179 32 181 138 
182 638 183 96 189 181 190 43 191 128 192 11 193 11 229 55 230 15 231 19 
243 17 244 11 245 26 265 30 267 17 280 89 281 36 282 64 283 21 284 13 
