Name: MassBank: JP010256
MW: 328
Formula: C19H20O5
Synonym: MassBank: JP010256
Synonym: DIMETHYL (3R*,5S*,6S*)-3-PHENYL-2,3,4,5,6,7-HEXAHYDROINDEN-1(H)-ONE-5,6-DICARBOXYLATE
Structure: 303835325F44494D455448594C202833527E2C35537E2C36537E292D332D5048454E594C2D322C332C342C352C362C372D48455841485944524F494E44454E2D312848292D4F4E452D352C362D4449434152424F58594C4154452E6D6F6C0A20204368656D447261773130323031303138313732440A2032342032362020302020302020302020302020302020302020302020303939392056323030300A2020202D312E313632382020202D312E3134363820202020302E303030302043202020302020302020302020302020302020302020302020302020302020302020302020300A2020202D312E363437382020202D302E3437393420202020302E303030302043202020302020302020302020302020302020302020302020302020302020302020302020300A2020202D312E3136323820202020302E3138383020202020302E303030302043202020302020302020302020302020302020302020302020302020302020302020302020300A2020202D302E333738322020202D302E3036363920202020302E303030302043202020302020302020302020302020302020302020302020302020302020302020302020300A20202020302E3333363320202020302E3334353620202020302E303030302043202020302020302020302020302020302020302020302020302020302020302020302020300A20202020312E303530372020202D302E3036363920202020302E303030302043202020302020302020302020302020302020302020302020302020302020302020302020300A20202020312E303530372020202D302E3839313920202020302E303030302043202020302020302020302020302020302020302020302020302020302020302020302020300A20202020302E333336332020202D312E3330343420202020302E303030302043202020302020302020302020302020302020302020302020302020302020302020302020300A2020202D302E333738322020202D302E3839313920202020302E303030302043202020302020302020302020302020302020302020302020302020302020302020302020300A2020202D312E343137382020202D312E3933313520202020302E30303030204F202020302020302020302020302020302020302020302020302020302020302020302020300A20202020312E3736353220202020302E3334353620202020302E303030302043202020302020302020302020302020302020302020302020302020302020302020302020300A20202020322E343739372020202D302E3036363920202020302E30303030204F202020302020302020302020302020302020302020302020302020302020302020302020300A20202020312E3736353220202020312E3137303620202020302E30303030204F202020302020302020302020302020302020302020302020302020302020302020302020300A20202020312E373635322020202D312E3330343420202020302E303030302043202020302020302020302020302020302020302020302020302020302020302020302020300A20202020322E343739372020202D302E3839313920202020302E30303030204F202020302020302020302020302020302020302020302020302020302020302020302020300A20202020312E373635322020202D322E3132393420202020302E30303030204F202020302020302020302020302020302020302020302020302020302020302020302020300A2020202D312E3431373820202020302E3937323720202020302E303030302043202020302020302020302020302020302020302020302020302020302020302020302020300A2020202D322E3232343720202020312E3134343220202020302E303030302043202020302020302020302020302020302020302020302020302020302020302020302020300A2020202D322E3437393720202020312E3932383820202020302E303030302043202020302020302020302020302020302020302020302020302020302020302020302020300A2020202D312E3932373620202020322E3534313920202020302E303030302043202020302020302020302020302020302020302020302020302020302020302020302020300A2020202D312E3132303720202020322E3337303420202020302E303030302043202020302020302020302020302020302020302020302020302020302020302020302020300A2020202D302E3836353720202020312E3538353820202020302E303030302043202020302020302020302020302020302020302020302020302020302020302020302020300A20202020312E3035303720202020312E3538333120202020302E303030302043202020302020302020302020302020302020302020302020302020302020302020302020300A20202020312E303530372020202D322E3534313920202020302E303030302043202020302020302020302020302020302020302020302020302020302020302020302020300A2020312020322020312020302020202020200A2020322020332020312020302020202020200A2020332020342020312020302020202020200A2020342020352020312020302020202020200A2020352020362020312020302020202020200A2020362020372020312020302020202020200A2020372020382020312020302020202020200A2020382020392020312020302020202020200A2020312020392020312020302020202020200A2020342020392020322020302020202020200A2020312031302020322020302020202020200A2031312031322020322020302020202020200A2031312031332020312020302020202020200A2020362031312020312020362020202020200A2031342031352020322020302020202020200A2031342031362020312020302020202020200A2020372031342020312020312020202020200A2031372031382020312020302020202020200A2031382031392020322020302020202020200A2031392032302020312020302020202020200A2032302032312020322020302020202020200A2032312032322020312020302020202020200A2031372032322020322020302020202020200A2020332031372020312020362020202020200A2031332032332020312020302020202020200A2031362032342020312020302020202020200A4D2020454E44
Contributor: KANEMASA S, INST. OF ADVANCED MATERIAL STUDY KYUSHU UNIV.
InstType: EI
InstName: JEOL JMS-01-SG-2
IoniMethod: _ENERGY 75 eV
IonPolarity: pos
Date: 2010-10-09 19:48:36+02:00
Num Peaks: 54
40 81 42 81 44 80 46 71 52 171 53 85 59 999 65 88 77 432 78 286 
79 95 91 204 102 88 103 338 104 288 105 249 115 212 128 124 131 205 141 105 
152 140 153 94 165 375 166 192 167 357 168 65 178 123 179 129 180 92 181 153 
182 29 183 26 189 30 190 13 191 32 192 18 193 21 194 40 195 30 196 12 
206 14 207 38 208 87 209 540 210 99 211 36 237 15 267 14 268 224 269 84 
296 86 297 37 328 55 329 12 
