Name: MassBank: JP012015
MW: 146
Formula: C6H18Si2
Synonym: MassBank: JP012015
Synonym: 1,1-DIETHYL-2,2-DIMETHYLDISILANE (1,2-D2)
Structure: 312C312D4449455448594C2D322C322D44494D455448594C444953494C414E452028312C322D4432292E6D6F6C0A20204368656D447261773130323330393130313632440A2031302020392020302020302020302020302020302020302020302020303939392056323030300A20202020302E323036322020202D302E3230363220202020302E303030302053692020302020302020302020302020302020302020302020302020302020302020302020300A2020202D302E363138382020202D302E3230363220202020302E303030302053692020302020302020302020302020302020302020302020302020302020302020302020300A2020202D312E343433382020202D302E3230363220202020302E303030302043202020302020302020302020302020302020302020302020302020302020302020302020300A20202020302E323036322020202D312E3033313320202020302E303030302048202020312020302020302020302020302020302020302020302020302020302020302020300A2020202D302E3631383820202020302E3631383820202020302E303030302048202020312020302020302020302020302020302020302020302020302020302020302020300A2020202D302E363138382020202D312E3033313320202020302E303030302043202020302020302020302020302020302020302020302020302020302020302020302020300A20202020302E3230363220202020302E3631383820202020302E303030302043202020302020302020302020302020302020302020302020302020302020302020302020300A20202020302E3932303720202020312E3033313320202020302E303030302043202020302020302020302020302020302020302020302020302020302020302020302020300A20202020312E303331322020202D302E3230363220202020302E303030302043202020302020302020302020302020302020302020302020302020302020302020302020300A20202020312E343433382020202D302E3932303720202020302E303030302043202020302020302020302020302020302020302020302020302020302020302020302020300A2020312020322020312020302020202020200A2020322020332020312020302020202020200A2020312020342020312020302020202020200A2020322020352020312020302020202020200A2020322020362020312020302020202020200A2020372020382020312020302020202020200A2020312020372020312020302020202020200A2020392031302020312020302020202020200A2020312020392020312020302020202020200A4D202049534F202032202020342020203220202035202020320A4D2020454E44
Contributor: YAMAMOTO M, DEP. CHEMISTRY, FAC. SCIENCE, NARA WOMEN'S UNIV.
InstType: EI
InstName: HITACHI
IoniMethod: _ENERGY 70 eV
IonPolarity: pos
Date: 2010-10-09 19:48:36+02:00
Num Peaks: 64
27 55 28 49 29 150 30 41 31 171 32 146 33 15 39 11 41 26 42 26 
43 410 44 138 45 146 46 141 47 33 54 41 55 12 56 72 57 55 58 919 
59 516 60 999 61 77 62 27 69 69 70 45 71 53 72 56 73 93 74 35 
75 57 76 75 77 49 78 12 83 12 84 16 85 36 86 991 87 279 88 531 
89 154 90 211 91 286 92 57 93 19 101 85 102 15 103 53 104 40 105 102 
106 13 107 15 117 29 118 15 119 93 120 21 131 27 133 45 134 11 135 11 
146 15 148 389 149 79 150 41 
