Name: MassBank: JP011413
MW: 286
Formula: C19H26O2
Synonym: MassBank: JP011413
Synonym: 4-ANDROSTENE-3,17-DIONE
Structure: 342D414E44524F5354454E452D332C31372D44494F4E452E6D6F6C0A20204368656D447261773033323531303035333032440A2032342032372020302020302020302020302020302020302020302020303939392056323030300A2020202D322E303633372020202D312E3334343820202020302E303030302043202020302020302020302020302020302020302020302020302020302020302020302020300A2020202D322E303633372020202D302E3531393820202020302E303030302043202020302020302020302020302020302020302020302020302020302020302020302020300A2020202D312E333439322020202D302E3130373320202020302E303030302043202020302020302020302020302020302020302020302020302020302020302020302020300A2020202D312E333439322020202D312E3735373320202020302E303030302043202020302020302020302020302020302020302020302020302020302020302020302020300A2020202D302E363334382020202D312E3334343820202020302E303030302043202020302020302020302020302020302020302020302020302020302020302020302020300A20202020302E303739372020202D312E3735373320202020302E303030302043202020302020302020302020302020302020302020302020302020302020302020302020300A20202020302E373934322020202D312E3334343820202020302E303030302043202020302020302020302020302020302020302020302020302020302020302020302020300A20202020302E373934322020202D302E3531393820202020302E303030302043202020302020302020302020302020302020302020302020302020302020302020302020300A20202020312E353038362020202D302E3130373320202020302E303030302043202020302020302020302020302020302020302020302020302020302020302020302020300A20202020322E323933332020202D302E3336323220202020302E303030302043202020302020302020302020302020302020302020302020302020302020302020302020300A20202020322E3737383220202020302E3330353220202020302E303030302043202020302020302020302020302020302020302020302020302020302020302020302020300A20202020322E3239333320202020302E3937323720202020302E303030302043202020302020302020302020302020302020302020302020302020302020302020302020300A20202020312E3530383620202020302E3731373720202020302E303030302043202020302020302020302020302020302020302020302020302020302020302020302020300A20202020312E3530383620202020312E3534323720202020302E303030302043202020302020302020302020302020302020302020302020302020302020302020302020300A20202020302E3739343220202020312E3133303220202020302E303030302043202020302020302020302020302020302020302020302020302020302020302020302020300A20202020302E3037393720202020302E3731373720202020302E303030302043202020302020302020302020302020302020302020302020302020302020302020302020300A20202020302E303739372020202D302E3130373320202020302E303030302043202020302020302020302020302020302020302020302020302020302020302020302020300A2020202D302E363334382020202D302E3531393820202020302E303030302043202020302020302020302020302020302020302020302020302020302020302020302020300A2020202D302E3633343820202020302E3330353220202020302E303030302043202020302020302020302020302020302020302020302020302020302020302020302020300A2020202D322E373738322020202D312E3735373320202020302E30303030204F202020302020302020302020302020302020302020302020302020302020302020302020300A20202020322E3534383220202020312E3735373320202020302E30303030204F202020302020302020302020302020302020302020302020302020302020302020302020300A20202020302E303739372020202D302E3933323320202020302E303030302048202020302020302020302020302020302020302020302020302020302020302020302020300A20202020302E3739343220202020302E3330353220202020302E303030302048202020302020302020302020302020302020302020302020302020302020302020302020300A20202020312E353038362020202D302E3933323320202020302E303030302048202020302020302020302020302020302020302020302020302020302020302020302020300A2020312020322020312020302020202020200A2020322020332020312020302020202020200A2020312020342020312020302020202020200A2020342020352020322020302020202020200A2020352020362020312020302020202020200A2020362020372020312020302020202020200A2020372020382020312020302020202020200A2020382020392020312020302020202020200A2020392031302020312020302020202020200A2031302031312020312020302020202020200A2031312031322020312020302020202020200A2031322031332020312020302020202020200A2020392031332020312020302020202020200A2031332031342020312020312020202020200A2031332031352020312020302020202020200A2031352031362020312020302020202020200A2031362031372020312020302020202020200A2020382031372020312020302020202020200A2031372031382020312020302020202020200A2020332031382020312020302020202020200A2020352031382020312020302020202020200A2031382031392020312020312020202020200A2020312032302020322020302020202020200A2031322032312020322020302020202020200A2031372032322020312020362020202020200A2020382032332020312020312020202020200A2020392032342020312020362020202020200A4D2020454E44
Contributor: HASHIMOTO K, KYOTO COLLEGE OF PHARMACY
InstType: EI
InstName: HITACHI M-80
IoniMethod: _ENERGY 20 eV
IonPolarity: pos
Date: 2010-10-09 19:48:36+02:00
Num Peaks: 122
43 20 55 34 57 12 67 37 69 20 79 54 80 12 81 62 82 15 83 23 
91 38 92 14 93 86 94 58 95 83 96 40 97 216 98 22 105 92 106 68 
107 234 108 68 109 287 110 75 111 51 117 23 118 26 119 94 120 54 121 100 
122 123 123 188 124 656 125 79 129 13 130 11 131 54 132 28 133 76 134 81 
135 89 136 73 137 63 138 23 143 22 144 67 145 108 146 79 147 86 148 400 
149 155 150 172 151 36 155 13 156 12 157 25 158 20 159 53 160 36 161 45 
162 132 163 139 164 56 165 14 169 12 170 21 171 21 172 21 173 66 174 50 
175 29 176 17 177 15 178 11 183 34 184 18 185 24 186 34 187 79 188 66 
189 29 190 28 197 28 198 15 199 17 200 60 201 222 202 69 203 18 204 21 
209 12 211 32 212 33 213 26 214 15 215 50 216 64 217 15 224 11 225 19 
226 27 227 38 228 11 229 74 230 55 231 18 240 14 243 115 244 689 245 123 
246 17 253 24 257 17 258 77 259 14 268 47 269 22 271 66 272 18 286 999 
287 218 288 38 
