Name: 3-(4-NITROBENZYL)TROPOLONE
MW: 257
Formula: C14H11NO4
Synonym: MassBank: JP010984
Synonym: 3-(4-NITROBENZYL)TROPOLONE
Structure: 332D28342D4E4954524F42454E5A594C2954524F504F4C4F4E452E6D6F6C0A20204368656D447261773032323231303130323032440A2031392032302020302020302020302020302020302020302020302020303939392056323030300A2020202D332E323639392020202D302E3535323120202020302E30303030204F202020302020302020302020302020302020302020302020302020302020302020302020300A2020202D322E353838322020202D302E3038373320202020302E303030302043202020302020302020302020302020302020302020302020302020302020302020302020300A2020202D322E3732323320202020302E3733393220202020302E303030302043202020302020302020302020302020302020302020302020302020302020302020302020300A2020202D322E3133383920202020312E3332323520202020302E303030302043202020302020302020302020302020302020302020302020302020302020302020302020300A2020202D312E3332373420202020312E3237313620202020302E303030302043202020302020302020302020302020302020302020302020302020302020302020302020300A2020202D302E3836323620202020302E3538393920202020302E303030302043202020302020302020302020302020302020302020302020302020302020302020302020300A2020202D312E303935312020202D302E3138373320202020302E303030302043202020302020302020302020302020302020302020302020302020302020302020302020300A2020202D312E383733382020202D302E3439393820202020302E303030302043202020302020302020302020302020302020302020302020302020302020302020302020300A2020202D312E393335342020202D312E3332323520202020302E30303030204F202020302020302020302020302020302020302020302020302020302020302020302020300A2020202D302E353131372020202D302E3737303720202020302E303030302043202020302020302020302020302020302020302020302020302020302020302020302020300A20202020302E323935392020202D302E3534363020202020302E303030302043202020302020302020302020302020302020302020302020302020302020302020302020300A20202020302E3530393420202020302E3235303820202020302E303030302043202020302020302020302020302020302020302020302020302020302020302020302020300A20202020312E3330363320202020302E3436343420202020302E303030302043202020302020302020302020302020302020302020302020302020302020302020302020300A20202020312E383839362020202D302E3131393020202020302E303030302043202020302020302020302020302020302020302020302020302020302020302020302020300A20202020312E363736312020202D302E3931353920202020302E303030302043202020302020302020302020302020302020302020302020302020302020302020302020300A20202020302E383739322020202D312E3132393420202020302E303030302043202020302020302020302020302020302020302020302020302020302020302020302020300A20202020322E3638363520202020302E3039343520202020302E30303030204E202020302020332020302020302020302020302020302020302020302020302020302020300A20202020322E3930303020202020302E3839313420202020302E30303030204F202020302020302020302020302020302020302020302020302020302020302020302020300A20202020332E323639392020202D302E3438383820202020302E30303030204F202020302020352020302020302020302020302020302020302020302020302020302020300A2020312020322020322020302020202020200A2020322020332020312020302020202020200A2020332020342020322020302020202020200A2020342020352020312020302020202020200A2020352020362020322020302020202020200A2020362020372020312020302020202020200A2020372020382020322020302020202020200A2020322020382020312020302020202020200A2020382020392020312020302020202020200A2031302031312020312020302020202020200A2031312031322020312020302020202020200A2031322031332020322020302020202020200A2031332031342020312020302020202020200A2031342031352020322020302020202020200A2031352031362020312020302020202020200A2031312031362020322020302020202020200A2031372031382020322020302020202020200A2031372031392020312020302020202020200A2031342031372020312020302020202020200A2020372031302020312020302020202020200A4D202043484720203220203137202020312020313920202D310A4D2020454E44
Contributor: TAKESHITA H, INST. OF ADVANCED MATERIAL STUDY KYUSHU UNIV.
InstType: EI
InstName: JEOL JMS-01-SG-2
IoniMethod: _ENERGY 75 eV
IonPolarity: pos
Date: 2010-10-09 19:48:36+02:00
Num Peaks: 55
39 277 50 151 51 251 63 250 64 114 65 123 75 103 76 124 77 318 78 199 
89 316 90 146 91 120 102 140 107 258 115 412 126 120 127 219 128 280 129 103 
139 219 151 118 152 544 153 567 154 236 155 173 163 155 164 221 165 999 166 206 
168 85 169 62 171 55 181 548 182 461 183 206 184 54 192 40 193 116 194 153 
195 52 197 47 199 55 209 45 210 227 211 190 212 215 213 35 227 52 228 41 
240 82 241 38 256 39 257 945 258 189 
