Name: MassBank: JP010436
MW: 403
Formula: C9H6Cl6O3S
Synonym: MassBank: JP010436
Synonym: 6,7,8,9,10,10-HEXACHLORO-1,5,5A,6,9,9A-HEXAHYDRO-6,9-METHANO-2,4,3-BENZODIOXATHIEPIN3-OXIDE
Synonym: ENDOSULFAN
Structure: 362C372C382C392C31302C31302D4845584143484C4F524F2D312C352C35412C362C392C39412D48455841485944524F2D362C392D4D455448414E4F2D322C342C332D42454E5A4F44494F58415448494550494E20332D4F584944452E6D6F6C0A20204368656D447261773035313331303231303032440A2031392032312020302020302020302020302020302020302020302020303939392056323030300A2020202D312E3637333420202020302E3431323520202020302E303030302043202020302020302020302020302020302020302020302020302020302020302020302020300A2020202D312E363733342020202D302E3431323520202020302E303030302043202020302020302020302020302020302020302020302020302020302020302020302020300A2020202D302E393538392020202D302E3832353020202020302E303030302043202020302020302020302020302020302020302020302020302020302020302020302020300A2020202D302E323434342020202D302E3431323520202020302E303030302043202020302020302020302020302020302020302020302020302020302020302020302020300A2020202D302E3234343420202020302E3431323520202020302E303030302043202020302020302020302020302020302020302020302020302020302020302020302020300A2020202D302E3935383920202020302E3832353020202020302E303030302043202020302020302020302020302020302020302020302020302020302020302020302020300A20202020302E343030362020202D302E3932363920202020302E303030302043202020302020302020302020302020302020302020302020302020302020302020302020300A20202020312E323034392020202D302E3734333320202020302E30303030204F202020302020302020302020302020302020302020302020302020302020302020302020300A20202020312E3536323820202020302E3030303020202020302E303030302053202020302020332020302020302020302020302020302020302020302020302020302020300A20202020312E3230343920202020302E3734333320202020302E30303030204F202020302020302020302020302020302020302020302020302020302020302020302020300A20202020302E3430303620202020302E3932363920202020302E303030302043202020302020302020302020302020302020302020302020302020302020302020302020300A2020202D322E3338373820202020302E3832353020202020302E3030303020436C2020302020302020302020302020302020302020302020302020302020302020302020300A2020202D302E3935383920202020312E3635303020202020302E3030303020436C2020302020302020302020302020302020302020302020302020302020302020302020300A2020202D302E393538392020202D312E3635303020202020302E3030303020436C2020302020302020302020302020302020302020302020302020302020302020302020300A2020202D322E333837382020202D302E3832353020202020302E3030303020436C2020302020302020302020302020302020302020302020302020302020302020302020300A20202020322E3338373820202020302E3030303020202020302E30303030204F202020302020352020302020302020302020302020302020302020302020302020302020300A2020202D302E3734353420202020302E3032383120202020302E303030302043202020302020302020302020302020302020302020302020302020302020302020302020300A20202020302E3037393620202020302E3032383120202020302E3030303020436C2020302020302020302020302020302020302020302020302020302020302020302020300A2020202D312E3534323320202020302E3234313620202020302E3030303020436C2020302020302020302020302020302020302020302020302020302020302020302020300A2020312020322020322020302020202020200A2020322020332020312020302020202020200A2020332020342020312020302020202020200A2020342020352020312020302020202020200A2020352020362020312020302020202020200A2020362020312020312020302020202020200A2020342020372020312020302020202020200A2020372020382020312020302020202020200A2020382020392020312020302020202020200A2020392031302020312020302020202020200A2031302031312020312020302020202020200A2031312020352020312020302020202020200A2020312031322020312020302020202020200A2020362031332020312020302020202020200A2020332031342020312020302020202020200A2020322031352020312020302020202020200A2020392031362020312020302020202020200A2020362031372020312020302020202020200A2031372020332020312020302020202020200A2031372031382020312020312020202020200A2031372031392020312020312020202020200A4D202043484720203220202039202020312020313620202D310A4D2020454E44
Contributor: UOEH
InstType: EI
InstName: JEOL JMS-DX-303
IoniMethod: _ENERGY 70 eV
IonPolarity: pos
Date: 2010-10-09 19:48:36+02:00
Num Peaks: 285
36 44 37 13 38 17 39 130 41 121 42 22 43 54 44 23 47 10 48 53 
49 53 50 54 51 40 52 14 53 53 54 15 55 10 60 19 61 45 62 36 
63 102 64 24 65 73 67 14 68 22 69 197 70 20 72 24 73 100 74 71 
75 232 76 17 77 60 78 153 79 50 81 13 83 74 84 79 85 191 86 84 
87 58 89 224 90 15 91 83 95 11 96 37 97 87 98 40 99 119 100 27 
101 30 102 294 103 229 104 137 105 16 106 21 107 112 108 85 109 176 110 30 
111 59 112 20 113 18 114 13 117 90 118 22 119 164 120 242 121 263 122 63 
123 68 124 22 125 33 126 14 129 12 130 37 131 50 132 36 133 136 134 63 
135 139 136 100 137 115 138 71 139 62 140 14 141 133 142 16 143 181 144 54 
145 155 146 58 147 72 148 46 149 28 150 49 151 13 152 17 153 17 154 11 
155 33 156 15 157 152 158 47 159 422 160 431 161 312 162 327 163 60 164 61 
165 84 167 111 168 38 169 171 170 509 171 201 172 330 173 79 174 70 175 16 
177 19 178 22 179 52 180 88 181 113 182 90 183 128 184 40 185 50 186 26 
187 27 188 11 189 16 190 15 191 154 192 73 193 458 194 159 195 999 196 183 
197 837 198 79 199 246 200 30 201 113 202 16 203 100 204 383 205 457 206 479 
207 674 208 214 209 418 210 74 211 115 212 19 213 35 214 68 215 60 216 147 
217 85 218 96 219 48 220 45 221 66 222 42 223 90 224 21 225 82 226 51 
227 270 228 166 229 498 230 181 231 391 232 109 233 207 234 77 235 473 236 98 
237 699 238 106 239 705 240 349 241 866 242 434 243 691 244 266 245 285 246 85 
247 76 248 62 249 19 250 102 251 60 252 100 253 65 254 84 255 48 256 57 
257 64 258 60 259 53 260 96 261 364 262 75 263 533 264 69 265 626 266 76 
267 541 268 63 269 482 270 261 271 418 272 462 273 186 274 397 275 413 276 219 
277 726 278 109 279 508 280 68 281 220 283 41 285 16 286 42 287 25 288 39 
289 28 290 20 291 30 293 147 294 16 295 208 296 33 297 149 298 35 299 67 
300 18 301 29 303 16 305 212 306 30 307 340 308 47 309 227 310 32 311 113 
312 16 313 39 314 12 315 15 321 148 322 17 323 212 324 28 325 137 326 16 
327 48 329 23 337 352 338 40 339 536 340 49 341 372 342 52 343 130 344 13 
345 24 355 19 357 41 358 16 359 30 362 18 368 20 369 19 370 34 371 16 
373 19 404 21 406 37 408 26 410 11 
