Name: MassBank: JP010300
MW: 257
Formula: C15H15NO3
Synonym: MassBank: JP010300
Synonym: 4-ACETONYL-3-METHYL-1-PARA-TOLYL-3-PYRROLINE-2,5-DIONE
Structure: 342D414345544F4E594C2D332D4D455448594C2D312D504152412D544F4C594C2D332D505952524F4C494E452D322C352D44494F4E452E6D6F6C0A20204368656D447261773033323531303034303832440A2031392032302020302020302020302020302020302020302020302020303939392056323030300A2020202D302E3032393020202020302E3030303020202020302E30303030204E202020302020302020302020302020302020302020302020302020302020302020302020300A20202020302E343535392020202D302E3636373420202020302E303030302043202020302020302020302020302020302020302020302020302020302020302020302020300A20202020312E323430352020202D302E3431323520202020302E303030302043202020302020302020302020302020302020302020302020302020302020302020302020300A20202020312E3234303520202020302E3431323520202020302E303030302043202020302020302020302020302020302020302020302020302020302020302020302020300A20202020302E3435353920202020302E3636373420202020302E303030302043202020302020302020302020302020302020302020302020302020302020302020302020300A20202020302E323030392020202D312E3435323120202020302E30303030204F202020302020302020302020302020302020302020302020302020302020302020302020300A20202020302E3230303920202020312E3435323120202020302E30303030204F202020302020302020302020302020302020302020302020302020302020302020302020300A2020202D302E3835343020202020302E3030303020202020302E303030302043202020302020302020302020302020302020302020302020302020302020302020302020300A2020202D312E323636352020202D302E3731343520202020302E303030302043202020302020302020302020302020302020302020302020302020302020302020302020300A2020202D322E3530343020202020302E3030303020202020302E303030302043202020302020302020302020302020302020302020302020302020302020302020302020300A2020202D312E3236363520202020302E3731343520202020302E303030302043202020302020302020302020302020302020302020302020302020302020302020302020300A2020202D322E303931352020202D302E3731343520202020302E303030302043202020302020302020302020302020302020302020302020302020302020302020302020300A2020202D322E3039313520202020302E3731343520202020302E303030302043202020302020302020302020302020302020302020302020302020302020302020302020300A2020202D332E3332393020202020302E3030303020202020302E303030302043202020302020302020302020302020302020302020302020302020302020302020302020300A20202020312E393037392020202D302E3839373420202020302E303030302043202020302020302020302020302020302020302020302020302020302020302020302020300A20202020312E3930373920202020302E3839373420202020302E303030302043202020302020302020302020302020302020302020302020302020302020302020302020300A20202020322E3636313620202020302E3536313920202020302E303030302043202020302020302020302020302020302020302020302020302020302020302020302020300A20202020322E373930372020202D302E3235333020202020302E30303030204F202020302020302020302020302020302020302020302020302020302020302020302020300A20202020332E3332393020202020312E3034363820202020302E303030302043202020302020302020302020302020302020302020302020302020302020302020302020300A2020312020322020312020302020202020200A2020322020332020312020302020202020200A2020332020342020322020302020202020200A2020342020352020312020302020202020200A2020312020352020312020302020202020200A2020322020362020322020302020202020200A2020352020372020322020302020202020200A2020382020392020312020302020202020200A2020382031312020322020302020202020200A2020392031322020322020302020202020200A2031302031322020312020302020202020200A2031302031332020322020302020202020200A2031312031332020312020302020202020200A2031302031342020312020302020202020200A2020312020382020312020302020202020200A2020332031352020312020302020202020200A2031362031372020312020302020202020200A2031372031382020322020302020202020200A2031372031392020312020302020202020200A2020342031362020312020302020202020200A4D2020454E44
Contributor: KANEMASA S, INST. OF ADVANCED MATERIAL STUDY KYUSHU UNIV.
InstType: EI
InstName: JEOL JMS-01-SG-2
IoniMethod: _ENERGY 75 eV
IonPolarity: pos
Date: 2010-10-09 19:48:36+02:00
Num Peaks: 31
39 76 41 123 42 50 43 551 51 63 52 62 53 244 54 62 55 105 56 46 
57 91 65 57 69 52 76 86 77 54 80 95 81 88 82 84 91 89 104 48 
105 47 132 72 133 58 144 51 172 65 186 63 214 72 215 999 216 152 257 629 
258 110 
