Name: ETHYL 2-FLUORENYLMETHYLCARBOXYLATE
MW: 252
Formula: C17H16O2
Synonym: MassBank: JP011477
Synonym: ETHYL 2-FLUORENYLMETHYLCARBOXYLATE
Structure: 455448594C20322D464C554F52454E594C4D455448594C434152424F58594C4154452E6D6F6C0A20204368656D447261773038313131303138303632440A2031392032312020302020302020302020302020302020302020302020303939392056323030300A2020202D302E383535362020202D312E3136363220202020302E303030302043202020302020302020302020302020302020302020302020302020302020302020302020300A2020202D312E353730302020202D302E3735333720202020302E303030302043202020302020302020302020302020302020302020302020302020302020302020302020300A2020202D312E3537303020202020302E3037313320202020302E30303030204F202020302020302020302020302020302020302020302020302020302020302020302020300A2020202D322E323834352020202D312E3136363220202020302E30303030204F202020302020302020302020302020302020302020302020302020302020302020302020300A20202020322E303732352020202D312E3030383620202020302E303030302043202020302020302020302020302020302020302020302020302020302020302020302020300A20202020312E323837392020202D302E3735333720202020302E303030302043202020302020302020302020302020302020302020302020302020302020302020302020300A20202020302E353733342020202D312E3136363220202020302E303030302043202020302020302020302020302020302020302020302020302020302020302020302020300A2020202D302E313431312020202D302E3735333720202020302E303030302043202020302020302020302020302020302020302020302020302020302020302020302020300A2020202D302E3134313120202020302E3037313320202020302E303030302043202020302020302020302020302020302020302020302020302020302020302020302020300A20202020302E3537333420202020302E3438333820202020302E303030302043202020302020302020302020302020302020302020302020302020302020302020302020300A20202020312E3238373920202020302E3037313320202020302E303030302043202020302020302020302020302020302020302020302020302020302020302020302020300A20202020322E3037323520202020302E3332363320202020302E303030302043202020302020302020302020302020302020302020302020302020302020302020302020300A20202020322E3430383020202020312E3037393920202020302E303030302043202020302020302020302020302020302020302020302020302020302020302020302020300A20202020332E3232383520202020312E3136363220202020302E303030302043202020302020302020302020302020302020302020302020302020302020302020302020300A20202020332E3731333420202020302E3439383720202020302E303030302043202020302020302020302020302020302020302020302020302020302020302020302020300A20202020332E333737392020202D302E3235343920202020302E303030302043202020302020302020302020302020302020302020302020302020302020302020302020300A20202020322E353537342020202D302E3334313220202020302E303030302043202020302020302020302020302020302020302020302020302020302020302020302020300A2020202D322E393939302020202D302E3735333720202020302E303030302043202020302020302020302020302020302020302020302020302020302020302020302020300A2020202D332E373133342020202D312E3136363220202020302E303030302043202020302020302020302020302020302020302020302020302020302020302020302020300A2020322020332020322020302020202020200A2020322020342020312020302020202020200A2020312020322020312020302020202020200A2020352020362020312020302020202020200A2020362020372020312020302020202020200A2020372020382020322020302020202020200A2020382020392020312020302020202020200A2020392031302020322020302020202020200A2031302031312020312020302020202020200A2020362031312020322020302020202020200A2031312031322020312020302020202020200A2031322031332020312020302020202020200A2031332031342020322020302020202020200A2031342031352020312020302020202020200A2031352031362020322020302020202020200A2031362031372020312020302020202020200A2031322031372020322020302020202020200A2020352031372020312020302020202020200A2020312020382020312020302020202020200A2031382031392020312020302020202020200A2020342031382020312020302020202020200A4D2020454E44
Contributor: FUJISE Y, HAMAMATSU UNIV. SCHOOL OF MEDICINE
InstType: EI
InstName: JEOL JMS-DX-300
IoniMethod: _ENERGY 70 eV
IonPolarity: pos
Date: 2010-10-09 19:48:36+02:00
Num Peaks: 33
43 13 45 14 51 10 63 10 76 27 89 41 90 30 126 9 127 7 128 9 
139 14 150 17 151 45 152 92 153 15 163 8 164 6 165 37 166 9 167 7 
175 8 176 82 177 84 178 637 179 999 180 159 181 12 223 43 224 14 251 7 
252 495 253 93 254 10 
