Name: 4-BROMO-2-METHYLBUTENAL
MW: 163
Formula: C5H9BrO
Synonym: MassBank: JP010942
Synonym: 4-BROMO-2-METHYLBUTENAL
Structure: 310A31380A342D42524F4D4F2D322D4D455448594C425554454E414C2E6D6F6C0A20204368656D447261773033323531303038323632440A2020372020362020302020302020302020302020302020302020302020303939392056323030300A2020202D312E303331332020202D302E3030303020202020302E303030302043202020302020302020302020302020302020302020302020302020302020302020302020300A2020202D302E323036322020202D302E3030303020202020302E303030302043202020302020302020302020302020302020302020302020302020302020302020302020300A20202020302E323036332020202D302E3731343520202020302E303030302043202020302020302020302020302020302020302020302020302020302020302020302020300A20202020312E303331332020202D302E3731343520202020302E303030302043202020302020302020302020302020302020302020302020302020302020302020302020300A2020202D312E343433382020202D302E3731343520202020302E30303030204F202020302020302020302020302020302020302020302020302020302020302020302020300A20202020302E3230363220202020302E3731343520202020302E303030302043202020302020302020302020302020302020302020302020302020302020302020302020300A20202020312E3434333820202020302E3030303020202020302E303030302042722020302020302020302020302020302020302020302020302020302020302020302020300A2020312020322020312020302020202020200A2020322020332020312020302020202020200A2020332020342020312020302020202020200A2020312020352020322020302020202020200A2020322020362020312020302020202020200A2020342020372020312020302020202020200A4D2020454E44
Contributor: KURARAY CO., LTD.
InstType: EI
InstName: JEOL JMS-D-300
IoniMethod: _ENERGY 70 eV
IonPolarity: pos
Date: 2010-10-09 19:48:36+02:00
Num Peaks: 50
26 21 27 143 28 143 29 195 30 6 31 5 32 23 37 9 38 14 39 156 
40 20 41 266 42 20 43 71 44 7 50 23 51 24 52 9 53 81 54 30 
55 597 56 214 57 162 58 999 59 39 67 6 69 36 71 8 80 13 82 13 
83 123 84 247 85 125 86 4 93 14 95 13 107 60 109 56 110 1 111 3 
119 2 121 1 122 3 124 3 135 13 136 1 137 12 164 4 165 2 166 4 
