Name: MassBank: JP010153
MW: 262
Formula: C17H26O2
Synonym: MassBank: JP010153
Synonym: 5-(2,2,6-TRIMETHYLCYCLOHEXENEYL)-3-METHYL--2,4-PENTADIENYL ACETATE
Structure: 352D28322C322C362D5452494D455448594C4359434C4F484558454E45594C292D332D4D455448594C2D2D322C342D50454E54414449454E594C20414345544154452E6D6F6C0A20204368656D447261773034323331303032343832440A2031392031392020302020302020302020302020302020302020302020303939392056323030300A2020202D322E3530303620202020312E3231323620202020302E303030302043202020302020302020302020302020302020302020302020302020302020302020302020300A2020202D332E3231353120202020302E3830303120202020302E303030302043202020302020302020302020302020302020302020302020302020302020302020302020300A2020202D322E3530303620202020322E3033373620202020302E30303030204F202020302020302020302020302020302020302020302020302020302020302020302020300A2020202D312E3738363220202020302E3830303120202020302E30303030204F202020302020302020302020302020302020302020302020302020302020302020302020300A2020202D312E373836322020202D302E3032343920202020302E303030302043202020302020302020302020302020302020302020302020302020302020302020302020300A2020202D312E303731372020202D302E3433373420202020302E303030302043202020302020302020302020302020302020302020302020302020302020302020302020300A2020202D302E333537322020202D302E3032343920202020302E303030302043202020302020302020302020302020302020302020302020302020302020302020302020300A20202020302E333537322020202D302E3433373420202020302E303030302043202020302020302020302020302020302020302020302020302020302020302020302020300A20202020312E303731372020202D302E3032343920202020302E303030302043202020302020302020302020302020302020302020302020302020302020302020302020300A2020202D302E3335373220202020302E3830303120202020302E303030302043202020302020302020302020302020302020302020302020302020302020302020302020300A20202020312E373836322020202D302E3433373420202020302E303030302043202020302020302020302020302020302020302020302020302020302020302020302020300A20202020322E353030362020202D302E3032343920202020302E303030302043202020302020302020302020302020302020302020302020302020302020302020302020300A20202020332E323135312020202D302E3433373420202020302E303030302043202020302020302020302020302020302020302020302020302020302020302020302020300A20202020332E323135312020202D312E3236323420202020302E303030302043202020302020302020302020302020302020302020302020302020302020302020302020300A20202020322E353030362020202D312E3637343920202020302E303030302043202020302020302020302020302020302020302020302020302020302020302020302020300A20202020312E373836322020202D312E3236323420202020302E303030302043202020302020302020302020302020302020302020302020302020302020302020302020300A20202020302E393733372020202D312E3131393120202020302E303030302043202020302020302020302020302020302020302020302020302020302020302020302020300A20202020322E3530303620202020302E3830303120202020302E303030302043202020302020302020302020302020302020302020302020302020302020302020302020300A20202020312E353034302020202D322E3033373620202020302E303030302043202020302020302020302020302020302020302020302020302020302020302020302020300A2020312020322020312020302020202020200A2020312020332020322020302020202020200A2020312020342020312020302020202020200A2020352020362020312020302020202020200A2020362020372020322020302020202020200A2020372020382020312020302020202020200A2020382020392020322020302020202020200A2020372031302020312020302020202020200A2031312031322020322020302020202020200A2031322031332020312020302020202020200A2031332031342020312020302020202020200A2031342031352020312020302020202020200A2031352031362020312020302020202020200A2031312031362020312020302020202020200A2031362031372020312020312020202020200A2031322031382020312020302020202020200A2020392031312020312020302020202020200A2020342020352020312020302020202020200A2031362031392020312020362020202020200A4D2020454E44
Contributor: KURARAY CO., LTD.
InstType: EI
InstName: JEOL JMS-D-300
IoniMethod: _ENERGY 70 eV
IonPolarity: pos
Date: 2010-10-09 19:48:36+02:00
Num Peaks: 79
27 40 28 440 29 60 32 9 39 60 41 330 43 580 44 2 45 60 53 80 
55 270 57 3 59 20 65 50 67 80 69 27 71 20 73 40 77 150 78 31 
79 130 80 30 81 190 82 2 83 80 85 30 91 250 92 4 93 150 94 30 
95 170 96 2 97 30 103 30 105 30 106 4 107 160 108 20 109 70 115 5 
116 20 117 130 118 40 119 56 120 110 121 100 122 50 123 5 128 30 129 40 
130 50 131 33 132 250 133 999 134 160 135 5 137 20 143 30 144 30 145 29 
146 310 147 100 157 20 158 2 159 230 160 40 161 40 172 2 173 40 174 20 
175 40 187 42 188 60 189 20 202 110 203 9 247 10 262 80 263 20 
