Name: SEBACOYL DIMETHYL ESTER
MW: 230
Formula: C12H22O4
Synonym: MassBank: JP010111
Synonym: SEBACOYL DIMETHYL ESTER
Synonym: DECANE-1,10-DICARBOXYLIC ACID DIMETHYL ESTER
Structure: 444543414E452D312C31302D4449434152424F58594C494320414349442044494D455448594C2045535445522E6D6F6C0A20204368656D447261773038313131303137323732440A2031382031372020302020302020302020302020302020302020302020303939392056323030300A2020202D332E323135312020202D302E3230363320202020302E303030302043202020302020302020302020302020302020302020302020302020302020302020302020300A2020202D322E3530303620202020302E3230363220202020302E303030302043202020302020302020302020302020302020302020302020302020302020302020302020300A2020202D312E373836322020202D302E3230363320202020302E303030302043202020302020302020302020302020302020302020302020302020302020302020302020300A2020202D312E3037313720202020302E3230363220202020302E303030302043202020302020302020302020302020302020302020302020302020302020302020302020300A2020202D302E333537322020202D302E3230363320202020302E303030302043202020302020302020302020302020302020302020302020302020302020302020302020300A20202020302E3335373220202020302E3230363220202020302E303030302043202020302020302020302020302020302020302020302020302020302020302020302020300A20202020312E303731372020202D302E3230363220202020302E303030302043202020302020302020302020302020302020302020302020302020302020302020302020300A20202020312E3738363220202020302E3230363220202020302E303030302043202020302020302020302020302020302020302020302020302020302020302020302020300A20202020322E353030362020202D302E3230363220202020302E303030302043202020302020302020302020302020302020302020302020302020302020302020302020300A20202020332E3231353120202020302E3230363220202020302E303030302043202020302020302020302020302020302020302020302020302020302020302020302020300A2020202D332E3932393620202020302E3230363220202020302E303030302043202020302020302020302020302020302020302020302020302020302020302020302020300A2020202D332E3932393620202020312E3033313220202020302E30303030204F202020302020302020302020302020302020302020302020302020302020302020302020300A2020202D342E363434312020202D302E3230363320202020302E30303030204F202020302020302020302020302020302020302020302020302020302020302020302020300A20202020332E393239362020202D302E3230363220202020302E303030302043202020302020302020302020302020302020302020302020302020302020302020302020300A20202020332E393239362020202D312E3033313220202020302E30303030204F202020302020302020302020302020302020302020302020302020302020302020302020300A20202020342E3634343120202020302E3230363320202020302E30303030204F202020302020302020302020302020302020302020302020302020302020302020302020300A2020202D342E363434312020202D312E3033313320202020302E303030302043202020302020302020302020302020302020302020302020302020302020302020302020300A20202020342E3634343120202020312E3033313320202020302E303030302043202020302020302020302020302020302020302020302020302020302020302020302020300A2020312020322020312020302020202020200A2020322020332020312020302020202020200A2020332020342020312020302020202020200A2020342020352020312020302020202020200A2020352020362020312020302020202020200A2020362020372020312020302020202020200A2020372020382020312020302020202020200A2020382020392020312020302020202020200A2020392031302020312020302020202020200A2031312031322020322020302020202020200A2031312031332020312020302020202020200A2020312031312020312020302020202020200A2031342031352020322020302020202020200A2031342031362020312020302020202020200A2031302031342020312020302020202020200A2031332031372020312020302020202020200A2031362031382020312020302020202020200A4D2020454E44
Contributor: KURARAY CO., LTD.
InstType: EI
InstName: JEOL JMS-D-300
IoniMethod: _ENERGY 70 eV
IonPolarity: pos
Date: 2010-10-09 19:48:36+02:00
Num Peaks: 78
41 415 42 113 43 481 44 3 45 57 53 42 54 42 55 94 56 104 57 85 
59 415 67 10 68 66 69 377 70 76 71 5 73 94 74 999 75 57 79 6 
80 57 81 123 82 57 83 42 84 557 85 47 87 359 88 4 93 38 94 47 
95 94 96 12 97 519 98 613 99 59 100 1 101 104 102 9 106 9 107 6 
109 28 110 77 111 113 112 8 113 28 114 28 115 108 116 1 120 28 121 113 
122 19 123 5 124 91 125 764 126 47 128 1 129 9 137 28 138 406 139 21 
140 19 141 9 142 9 143 2 144 47 148 57 149 28 154 1 155 9 156 9 
157 462 158 4 166 330 167 59 170 47 198 4 199 547 200 66 
