Name: MassBank: JP010488
MW: 122
Formula: C8H10O
Synonym: MassBank: JP010488
Synonym: 2,4-DIMETHYLPHENOL
Structure: 310A32330A322C342D44494D455448594C5048454E4F4C2E6D6F6C0A20204368656D447261773132323030393139323732440A2020392020392020302020302020302020302020302020302020302020303939392056323030300A20202020302E373134352020202D302E3431323520202020302E303030302043202020302020302020302020302020302020302020302020302020302020302020302020300A20202020302E3731343520202020302E3431323520202020302E303030302043202020302020302020302020302020302020302020302020302020302020302020302020300A2020202D302E3030303020202020302E3832353020202020302E303030302043202020302020302020302020302020302020302020302020302020302020302020302020300A2020202D302E3731343520202020302E3431323520202020302E303030302043202020302020302020302020302020302020302020302020302020302020302020302020300A2020202D302E373134352020202D302E3431323520202020302E303030302043202020302020302020302020302020302020302020302020302020302020302020302020300A20202020302E303030302020202D302E3832353020202020302E303030302043202020302020302020302020302020302020302020302020302020302020302020302020300A2020202D312E3432383920202020302E3832353020202020302E303030302043202020302020302020302020302020302020302020302020302020302020302020302020300A20202020312E3432383920202020302E3832353020202020302E303030302043202020302020302020302020302020302020302020302020302020302020302020302020300A20202020312E343238392020202D302E3832353020202020302E30303030204F202020302020302020302020302020302020302020302020302020302020302020302020300A2020312020322020312020302020202020200A2020322020332020322020302020202020200A2020332020342020312020302020202020200A2020342020352020322020302020202020200A2020352020362020312020302020202020200A2020312020362020322020302020202020200A2020342020372020312020302020202020200A2020322020382020312020302020202020200A2020312020392020312020302020202020200A4D2020454E44
Contributor: TAJIMA S, GUNMA COLLEGE OF TECHNOLOGY
InstType: EI
InstName: HITACHI M-80A
IoniMethod: _ENERGY 70 eV
IonPolarity: pos
Date: 2010-10-09 19:48:36+02:00
Num Peaks: 58
15 135 26 116 27 384 29 116 31 17 37 49 38 161 39 638 40 108 41 173 
42 33 43 67 49 23 50 250 51 438 52 196 53 289 54 39 55 92 60 22 
61 56 62 122 63 277 64 67 65 257 66 101 67 50 68 15 73 14 74 66 
75 50 76 40 77 561 78 202 79 275 80 28 81 31 82 12 86 17 87 17 
89 44 90 20 91 386 92 68 93 63 94 108 95 33 102 31 103 66 104 46 
105 48 107 999 108 87 119 10 120 15 121 451 122 915 123 85 
