Name: 2-HEXYLCYCLOPENTANONE
MW: 168
Formula: C11H20O
Synonym: MassBank: JP010858
Synonym: 2-HEXYLCYCLOPENTANONE
Structure: 322D484558594C4359434C4F50454E54414E4F4E452E6D6F6C0A20204368656D447261773031323131303134313132440A2031322031322020302020302020302020302020302020302020302020303939392056323030300A20202020312E3939303520202020302E3230393420202020302E303030302043202020302020302020302020302020302020302020302020302020302020302020302020300A20202020312E3137303020202020302E3239353620202020302E303030302043202020302020302020302020302020302020302020302020302020302020302020302020300A20202020302E383334342020202D302E3435383120202020302E303030302043202020302020302020302020302020302020302020302020302020302020302020302020300A20202020312E343437352020202D312E3031303120202020302E303030302043202020302020302020302020302020302020302020302020302020302020302020302020300A20202020322E313632302020202D302E3539373620202020302E303030302043202020302020302020302020302020302020302020302020302020302020302020302020300A20202020302E3735373520202020312E3031303120202020302E303030302043202020302020302020302020302020302020302020302020302020302020302020302020300A2020202D302E3036373520202020312E3031303120202020302E303030302043202020302020302020302020302020302020302020302020302020302020302020302020300A2020202D302E3438303020202020302E3239353620202020302E303030302043202020302020302020302020302020302020302020302020302020302020302020302020300A2020202D312E3330353020202020302E3239353620202020302E303030302043202020302020302020302020302020302020302020302020302020302020302020302020300A2020202D312E373137352020202D302E3431383920202020302E303030302043202020302020302020302020302020302020302020302020302020302020302020302020300A2020202D322E353432352020202D302E3431383920202020302E303030302043202020302020302020302020302020302020302020302020302020302020302020302020300A20202020322E3534323520202020302E3832323520202020302E30303030204F202020302020302020302020302020302020302020302020302020302020302020302020300A2020312020322020312020302020202020200A2020322020332020312020302020202020200A2020332020342020312020302020202020200A2020342020352020312020302020202020200A2020312020352020312020302020202020200A2020362020372020312020302020202020200A2020372020382020312020302020202020200A2020382020392020312020302020202020200A2020392031302020312020302020202020200A2031302031312020312020302020202020200A2020322020362020312020302020202020200A2020312031322020322020302020202020200A4D2020454E44
Contributor: SODA AROMATIC CO., LTD.
InstType: EI
InstName: HITACHI M-80B
IoniMethod: _ENERGY 70 eV
IonPolarity: pos
Date: 2010-10-09 19:48:36+02:00
Num Peaks: 23
27 101 29 105 39 94 41 261 42 65 43 99 53 35 54 42 55 171 56 67 
57 17 67 36 68 13 69 58 70 34 79 10 82 11 83 134 84 999 85 53 
97 143 98 14 168 43 
