Name: MassBank: JP011169
MW: 343
Formula: C19H25N3O3
Synonym: MassBank: JP011169
Synonym: 2,4-DIBUTYL-4,4A-DIHYDRO-1H-(1,3,5)TRIAZINO(1,2-A)QUINOLINE-1,3,6(2H,5H)-TRIONE
Structure: 322C342D4449425554594C2D342C34412D4449485944524F2D31482D28312C332C3529545249415A494E4F28312C322D41295155494E4F4C494E452D312C332C362832482C3548292D5452494F4E452E6D6F6C0A20204368656D447261773132323030393133353632440A2032352032372020302020302020302020302020302020302020302020303939392056323030300A2020202D302E3335373220202020312E3033313320202020302E30303030204E202020302020302020302020302020302020302020302020302020302020302020302020300A2020202D302E3335373220202020302E3230363220202020302E303030302043202020302020302020302020302020302020302020302020302020302020302020302020300A20202020302E333537322020202D302E3230363220202020302E30303030204E202020302020302020302020302020302020302020302020302020302020302020302020300A20202020312E3037313720202020302E3230363220202020302E303030302043202020302020302020302020302020302020302020302020302020302020302020302020300A20202020312E3037313720202020312E3033313320202020302E30303030204E202020302020302020302020302020302020302020302020302020302020302020302020300A20202020302E3335373220202020312E3434333820202020302E303030302043202020302020302020302020302020302020302020302020302020302020302020302020300A20202020312E373836332020202D302E3230363220202020302E303030302043202020302020302020302020302020302020302020302020302020302020302020302020300A20202020322E3530303720202020302E3230363220202020302E303030302043202020302020302020302020302020302020302020302020302020302020302020302020300A20202020322E3530303720202020312E3033313320202020302E303030302043202020302020302020302020302020302020302020302020302020302020302020302020300A20202020312E3738363320202020312E3434333820202020302E303030302043202020302020302020302020302020302020302020302020302020302020302020302020300A20202020332E3231353220202020312E3434333820202020302E303030302043202020302020302020302020302020302020302020302020302020302020302020302020300A20202020332E3231353220202020322E3236383820202020302E303030302043202020302020302020302020302020302020302020302020302020302020302020302020300A20202020322E3530303720202020322E3638313320202020302E303030302043202020302020302020302020302020302020302020302020302020302020302020302020300A20202020312E3738363320202020322E3236383820202020302E303030302043202020302020302020302020302020302020302020302020302020302020302020302020300A20202020332E323135322020202D302E3230363220202020302E30303030204F202020302020302020302020302020302020302020302020302020302020302020302020300A20202020302E3335373220202020322E3236383820202020302E30303030204F202020302020302020302020302020302020302020302020302020302020302020302020300A2020202D312E3037313720202020312E3434333820202020302E303030302043202020302020302020302020302020302020302020302020302020302020302020302020300A2020202D312E303731372020202D302E3230363220202020302E30303030204F202020302020302020302020302020302020302020302020302020302020302020302020300A20202020302E333537322020202D312E3033313320202020302E303030302043202020302020302020302020302020302020302020302020302020302020302020302020300A20202020312E303731372020202D312E3434333820202020302E303030302043202020302020302020302020302020302020302020302020302020302020302020302020300A2020202D312E3738363320202020312E3033313320202020302E303030302043202020302020302020302020302020302020302020302020302020302020302020302020300A2020202D322E3530303720202020312E3434333920202020302E303030302043202020302020302020302020302020302020302020302020302020302020302020302020300A2020202D332E3231353220202020312E3033313420202020302E303030302043202020302020302020302020302020302020302020302020302020302020302020302020300A20202020312E303731372020202D322E3236383820202020302E303030302043202020302020302020302020302020302020302020302020302020302020302020302020300A20202020312E373836322020202D322E3638313320202020302E303030302043202020302020302020302020302020302020302020302020302020302020302020302020300A2020312020322020312020302020202020200A2020322020332020312020302020202020200A2020332020342020312020302020202020200A2020342020352020312020302020202020200A2020352020362020312020302020202020200A2020362020312020312020302020202020200A2020342020372020312020302020202020200A2020372020382020312020302020202020200A2020382020392020312020302020202020200A2020392031302020322020302020202020200A2031302020352020312020302020202020200A2020392031312020312020302020202020200A2031312031322020322020302020202020200A2031322031332020312020302020202020200A2031332031342020322020302020202020200A2031342031302020312020302020202020200A2020382031352020322020302020202020200A2020362031362020322020302020202020200A2020312031372020312020302020202020200A2020322031382020322020302020202020200A2020332031392020312020302020202020200A2031392032302020312020302020202020200A2031372032312020312020302020202020200A2032312032322020312020302020202020200A2032322032332020312020302020202020200A2032302032342020312020302020202020200A2032342032352020312020302020202020200A4D2020454E44
Contributor: SAWADA M, THE INST. OF SCIENTIFIC AND INDUSTRIALRESEARCH OSAKA UNIV.
InstType: EI
InstName: JEOL JMS-DX-300
IoniMethod: _ENERGY 70 eV
IonPolarity: pos
Date: 2010-10-09 19:48:36+02:00
Num Peaks: 123
34 16 39 84 40 229 41 309 42 78 43 176 44 496 45 29 50 16 51 20 
53 22 54 33 55 151 56 351 57 216 58 20 60 13 63 36 64 36 65 33 
67 16 68 16 69 56 70 133 71 47 72 27 73 16 76 60 77 89 78 18 
81 16 82 27 83 38 84 42 85 20 89 82 90 356 91 87 92 27 93 18 
95 16 96 16 97 27 98 44 99 27 100 18 103 25 104 84 105 40 111 16 
112 16 113 17 116 104 117 213 118 138 119 56 120 18 126 13 128 27 129 27 
130 27 131 18 132 60 133 47 134 14 135 13 143 36 144 107 145 60 146 778 
147 103 149 67 153 22 155 29 158 62 159 47 160 31 161 38 162 38 167 27 
168 18 169 11 173 31 174 31 186 18 187 58 188 38 189 27 201 271 202 67 
203 13 215 51 216 31 217 16 224 116 225 18 230 62 231 29 232 38 243 14 
244 15 245 62 246 13 258 36 259 27 272 22 273 44 279 18 286 131 287 102 
288 129 289 29 298 36 300 38 301 838 302 216 314 84 315 149 328 56 341 16 
342 44 343 999 344 316 
