Name: MassBank: JP012078
MW: 436
Formula: C26H48O3Si
Synonym: MassBank: JP012078
Synonym: 8-(TRIISOPROPYLSILYL)OXY-2-METHYL-1-((2,2-DIMETHYLPROPANOYLOXY)METHYL)-1BETA,2-ALPHA-(4A)ALPHA,5,6,7,8BETA,(8A)BETA-OCTAHYDRONAPHTHALENE
Structure: 382D2854524949534F50524F50594C53494C594C294F58592D322D4D455448594C2D312D2828322C322D44494D455448594C50524F50414E4F594C4F5859294D455448594C292D31424554412C322D414C5048412D28344129414C5048412C352C362C372C38424554412C28384129424554412D4F435441485944524F4E4150485448414C454E452E6D6F6C0A20204368656D447261773035323431303139343032440A2033312033322020302020302020302020302020302020302020302020303939392056323030300A2020202D312E303936312020202D302E3538333920202020302E303030302043202020302020302020302020302020302020302020302020302020302020302020302020300A2020202D312E303936312020202D312E3430383920202020302E303030302043202020302020302020302020302020302020302020302020302020302020302020302020300A2020202D302E333831362020202D312E3832313420202020302E303030302043202020302020302020302020302020302020302020302020302020302020302020302020300A20202020302E333332392020202D312E3430383920202020302E303030302043202020302020302020302020302020302020302020302020302020302020302020302020300A20202020302E333332392020202D302E3538333920202020302E303030302043202020302020302020302020302020302020302020302020302020302020302020302020300A2020202D302E333831362020202D302E3137313420202020302E303030302043202020302020302020302020302020302020302020302020302020302020302020302020300A20202020312E303437342020202D312E3832313420202020302E303030302043202020302020302020302020302020302020302020302020302020302020302020302020300A20202020312E373631382020202D312E3430383920202020302E303030302043202020302020302020302020302020302020302020302020302020302020302020302020300A20202020312E373631382020202D302E3538333920202020302E303030302043202020302020302020302020302020302020302020302020302020302020302020302020300A20202020312E303437342020202D302E3137313420202020302E303030302043202020302020302020302020302020302020302020302020302020302020302020302020300A20202020302E3033303920202020302E3534333120202020302E303030302048202020302020302020302020302020302020302020302020302020302020302020302020300A2020202D302E3936343920202020302E3431323020202020302E30303030204F202020302020302020302020302020302020302020302020302020302020302020302020300A20202020312E313537392020202D302E3538333920202020302E303030302048202020302020302020302020302020302020302020302020302020302020302020302020300A20202020302E333332392020202D322E3233333920202020302E303030302048202020302020302020302020302020302020302020302020302020302020302020302020300A20202020312E303437342020202D322E3634363420202020302E303030302048202020302020302020302020302020302020302020302020302020302020302020302020300A20202020322E343736332020202D312E3832313420202020302E303030302048202020302020302020302020302020302020302020302020302020302020302020302020300A20202020322E353538372020202D302E3739373420202020302E303030302048202020302020302020302020302020302020302020302020302020302020302020302020300A20202020322E333435322020202D302E3030303520202020302E303030302043202020302020302020302020302020302020302020302020302020302020302020302020300A20202020312E3435393920202020302E3534333120202020302E303030302048202020302020302020302020302020302020302020302020302020302020302020302020300A20202020302E3833333820202020302E3632353520202020302E303030302043202020302020302020302020302020302020302020302020302020302020302020302020300A20202020302E3033363920202020302E3833393120202020302E30303030204F202020302020302020302020302020302020302020302020302020302020302020302020300A2020202D302E3137363620202020312E3633353920202020302E303030302043202020302020302020302020302020302020302020302020302020302020302020302020300A2020202D302E3937333520202020312E3834393520202020302E303030302043202020302020302020302020302020302020302020302020302020302020302020302020300A20202020302E3430363820202020322E3231393320202020302E30303030204F202020302020302020302020302020302020302020302020302020302020302020302020300A2020202D312E3737303420202020322E3036333020202020302E303030302043202020302020302020302020302020302020302020302020302020302020302020302020300A2020202D302E3735393920202020322E3634363420202020302E303030302043202020302020302020302020302020302020302020302020302020302020302020302020300A2020202D312E3138373020202020312E3035323620202020302E303030302043202020302020302020302020302020302020302020302020302020302020302020302020300A2020202D312E3736313820202020302E3139383520202020302E303030302053692020302020302020302020302020302020302020302020302020302020302020302020300A2020202D322E353538372020202D302E3031353020202020302E303030302043202020302020302020302020302020302020302020302020302020302020302020302020300A2020202D312E3937353420202020302E3939353420202020302E303030302043202020302020302020302020302020302020302020302020302020302020302020302020300A2020202D312E353438332020202D302E3539383420202020302E303030302043202020302020302020302020302020302020302020302020302020302020302020302020300A2020312020322020312020302020202020200A2020322020332020312020302020202020200A2020332020342020312020302020202020200A2020342020352020312020302020202020200A2020352020362020312020302020202020200A2020362020312020312020302020202020200A2020342020372020312020302020202020200A2020372020382020322020302020202020200A2020382020392020312020302020202020200A2020392031302020312020302020202020200A2031302020352020312020302020202020200A2020362031312020312020312020202020200A2020362031322020312020362020202020200A2020352031332020312020312020202020200A2020342031342020312020362020202020200A2020372031352020312020302020202020200A2020382031362020312020302020202020200A2020392031372020312020362020202020200A2020392031382020312020312020202020200A2031302031392020312020312020202020200A2031302032302020312020362020202020200A2032302032312020312020302020202020200A2032312032322020312020302020202020200A2032322032332020312020302020202020200A2032322032342020322020302020202020200A2032332032352020312020302020202020200A2032332032362020312020312020202020200A2032332032372020312020312020202020200A2031322032382020312020302020202020200A2032382032392020312020302020202020200A2032382033302020312020302020202020200A2032382033312020312020302020202020200A4D2020454E44
Contributor: HISAHIRO HAGIWARA, INSTITUTE FOR CHEMICAL REACTION SCIENCE TOHOKU UNIV.
InstType: EI
InstName: JEOL JMS-DX-300
IoniMethod: _ENERGY 70 eV
IonPolarity: pos
Date: 2010-10-09 19:48:36+02:00
Num Peaks: 44
39 27 41 101 42 22 43 35 45 31 55 41 57 427 58 27 59 11 61 122 
67 46 69 75 73 64 75 156 77 87 79 42 81 57 85 152 87 50 89 24 
91 78 93 99 103 78 105 152 115 37 117 28 118 22 119 299 120 37 131 53 
133 41 145 69 147 24 159 48 160 49 161 837 162 154 187 20 189 39 215 999 
216 241 217 79 393 189 394 63 
