Name: TRICHLOROACETALDEHYDE
MW: 145
Formula: C2HCl3O
Synonym: MassBank: JP010438
Synonym: TRICHLOROACETALDEHYDE
Synonym: CHLORAL
Structure: 310A31360A54524943484C4F524F41434554414C4445485944452E6D6F6C0A20204368656D447261773038313231303038323332440A2020362020352020302020302020302020302020302020302020302020303939392056323030300A20202020302E3335373220202020302E3431323520202020302E303030302043202020302020302020302020302020302020302020302020302020302020302020302020300A2020202D302E3335373220202020302E3030303020202020302E303030302043202020302020302020302020302020302020302020302020302020302020302020302020300A20202020312E3037313720202020302E3030303020202020302E30303030204F202020302020302020302020302020302020302020302020302020302020302020302020300A20202020302E303535332020202D302E3731343520202020302E3030303020436C2020302020302020302020302020302020302020302020302020302020302020302020300A2020202D312E303731372020202D302E3431323520202020302E3030303020436C2020302020302020302020302020302020302020302020302020302020302020302020300A2020202D302E3736393720202020302E3731343520202020302E3030303020436C2020302020302020302020302020302020302020302020302020302020302020302020300A2020312020322020312020302020202020200A2020312020332020322020302020202020200A2020322020342020312020302020202020200A2020322020352020312020302020202020200A2020322020362020312020302020202020200A4D2020454E44
Contributor: UOEH
InstType: EI
InstName: JEOL JMS-DX-303
IoniMethod: _ENERGY 70 eV
IonPolarity: pos
Date: 2010-10-09 19:48:36+02:00
Num Peaks: 33
35 31 37 13 40 93 44 67 47 249 48 110 49 123 50 28 60 18 61 346 
62 15 82 999 83 329 84 663 85 197 86 117 87 34 107 35 110 149 111 430 
112 128 113 282 114 39 115 55 117 132 118 180 119 143 120 171 121 43 122 53 
146 105 148 107 150 33 
