Name: 1-ACETYLTHIOUREA
MW: 118
Formula: C3H6N2OS
Synonym: MassBank: JP010808
Synonym: 1-ACETYLTHIOUREA
Structure: 310A31380A312D41434554594C5448494F555245412E6D6F6C0A20204368656D447261773131313730393231313432440A2020372020362020302020302020302020302020302020302020302020303939392056323030300A20202020302E303030302020202D302E3631383820202020302E30303030204E202020302020302020302020302020302020302020302020302020302020302020302020300A2020202D302E373134352020202D302E3230363220202020302E303030302043202020302020302020302020302020302020302020302020302020302020302020302020300A2020202D302E3731343520202020302E3631383820202020302E303030302053202020302020302020302020302020302020302020302020302020302020302020302020300A2020202D312E343238392020202D302E3631383820202020302E30303030204E202020302020302020302020302020302020302020302020302020302020302020302020300A20202020302E373134352020202D302E3230363220202020302E303030302043202020302020302020302020302020302020302020302020302020302020302020302020300A20202020302E3731343520202020302E3631383820202020302E30303030204F202020302020302020302020302020302020302020302020302020302020302020302020300A20202020312E343238392020202D302E3631383820202020302E303030302043202020302020302020302020302020302020302020302020302020302020302020302020300A2020312020322020312020302020202020200A2020322020332020322020302020202020200A2020322020342020312020302020202020200A2020352020362020322020302020202020200A2020352020372020312020302020202020200A2020312020352020312020302020202020200A4D2020454E44
Contributor: FUJISE Y, HAMAMATSU UNIV. SCHOOL OF MEDICINE
InstType: EI
InstName: JEOL JMS-D-3000
IoniMethod: _ENERGY 70 eV
IonPolarity: pos
Date: 2010-10-09 19:48:36+02:00
Num Peaks: 19
41 24 42 101 43 999 44 72 47 18 48 25 58 13 59 72 60 147 63 12 
64 15 75 30 76 537 77 20 78 34 90 26 118 910 119 47 120 45 
