Name: PENTAERYTHRITOL TETRAACRYLIC ACID ESTER
MW: 352
Formula: C17H20O8
Synonym: MassBank: JP010050
Synonym: PENTAERYTHRITOL TETRAACRYLIC ACID ESTER
Synonym: PENTAERYTHRITOL TETRAACRYLATE
Structure: 50454E544145525954485249544F4C205445545241414352594C494320414349442045535445522E6D6F6C0A20204368656D447261773038313231303034353132440A2032352032342020302020302020302020302020302020302020302020303939392056323030300A20202020302E303030302020202D302E3832353020202020302E303030302043202020302020302020302020302020302020302020302020302020302020302020302020300A20202020302E3030303020202020302E3030303020202020302E303030302043202020302020302020302020302020302020302020302020302020302020302020302020300A2020202D302E3832353020202020302E3030303020202020302E303030302043202020302020302020302020302020302020302020302020302020302020302020302020300A20202020302E3030303020202020302E3832353020202020302E303030302043202020302020302020302020302020302020302020302020302020302020302020302020300A20202020302E3832353020202020302E3030303020202020302E303030302043202020302020302020302020302020302020302020302020302020302020302020302020300A20202020302E373134352020202D322E3036323520202020302E303030302043202020302020302020302020302020302020302020302020302020302020302020302020300A20202020312E343238392020202D322E3437353020202020302E303030302043202020302020302020302020302020302020302020302020302020302020302020302020300A20202020322E313433342020202D322E3036323520202020302E303030302043202020302020302020302020302020302020302020302020302020302020302020302020300A2020202D302E303030302020202D322E3437353020202020302E30303030204F202020302020302020302020302020302020302020302020302020302020302020302020300A20202020302E373134352020202D312E3233373520202020302E30303030204F202020302020302020302020302020302020302020302020302020302020302020302020300A2020202D322E303632352020202D302E3731343520202020302E303030302043202020302020302020302020302020302020302020302020302020302020302020302020300A2020202D322E343735302020202D312E3432383920202020302E303030302043202020302020302020302020302020302020302020302020302020302020302020302020300A2020202D322E303632352020202D322E3134333420202020302E303030302043202020302020302020302020302020302020302020302020302020302020302020302020300A2020202D322E3437353020202020302E3030303020202020302E30303030204F202020302020302020302020302020302020302020302020302020302020302020302020300A2020202D312E323337352020202D302E3731343520202020302E30303030204F202020302020302020302020302020302020302020302020302020302020302020302020300A2020202D302E3731343520202020322E3036323520202020302E303030302043202020302020302020302020302020302020302020302020302020302020302020302020300A2020202D312E3432383920202020322E3437353020202020302E303030302043202020302020302020302020302020302020302020302020302020302020302020302020300A2020202D322E3134333420202020322E3036323520202020302E303030302043202020302020302020302020302020302020302020302020302020302020302020302020300A20202020302E3030303020202020322E3437353020202020302E30303030204F202020302020302020302020302020302020302020302020302020302020302020302020300A2020202D302E3731343520202020312E3233373520202020302E30303030204F202020302020302020302020302020302020302020302020302020302020302020302020300A20202020322E303632352020202D302E3731343520202020302E303030302043202020302020302020302020302020302020302020302020302020302020302020302020300A20202020322E3437353020202020302E3030303020202020302E303030302043202020302020302020302020302020302020302020302020302020302020302020302020300A20202020322E3036323520202020302E3731343520202020302E303030302043202020302020302020302020302020302020302020302020302020302020302020302020300A20202020322E343735302020202D312E3432383920202020302E30303030204F202020302020302020302020302020302020302020302020302020302020302020302020300A20202020312E323337352020202D302E3731343520202020302E30303030204F202020302020302020302020302020302020302020302020302020302020302020302020300A2020312020322020312020302020202020200A2020322020332020312020302020202020200A2020322020342020312020302020202020200A2020322020352020312020302020202020200A2020362020372020312020302020202020200A2020372020382020322020302020202020200A2020362020392020322020302020202020200A2020362031302020312020302020202020200A2020312031302020312020302020202020200A2031312031322020312020302020202020200A2031322031332020322020302020202020200A2031312031342020322020302020202020200A2031312031352020312020302020202020200A2020332031352020312020302020202020200A2031362031372020312020302020202020200A2031372031382020322020302020202020200A2031362031392020322020302020202020200A2031362032302020312020302020202020200A2020342032302020312020302020202020200A2032312032322020312020302020202020200A2032322032332020322020302020202020200A2032312032342020322020302020202020200A2032312032352020312020302020202020200A2020352032352020312020302020202020200A4D2020454E44
Contributor: KURARAY CO., LTD.
InstType: EI
InstName: JEOL JMS-D-300
IoniMethod: _ENERGY 70 eV
IonPolarity: pos
Date: 2010-10-09 19:48:36+02:00
Num Peaks: 77
26 58 27 919 28 199 29 31 31 32 39 45 40 24 41 46 42 15 43 19 
44 57 53 40 54 130 55 978 56 570 57 78 66 14 67 32 68 54 69 65 
70 33 71 29 72 31 73 46 79 22 80 352 81 913 82 999 83 192 84 26 
85 50 95 359 96 403 97 42 98 19 99 85 105 13 106 49 107 32 108 425 
109 64 110 32 111 74 123 50 124 214 125 307 126 780 127 848 128 58 134 21 
135 15 136 131 137 15 141 150 142 14 152 14 153 112 154 185 155 20 178 15 
181 25 195 21 196 488 197 53 208 28 225 361 226 39 281 179 295 4 296 5 
297 8 298 2 308 6 324 26 325 5 352 10 353 4 
