Name: MassBank: JP010056
MW: 360
Formula: C21H28O5
Synonym: MassBank: JP010056
Synonym: 6-ACETOXY-3,4-DIHYDRO-2,5,7,8-TETRAMETHYL-2H-1-BENZOPYRAN-2-BUTENOIC ACID ETHYL ESTER
Structure: 362D414345544F58592D332C342D4449485944524F2D322C352C372C382D54455452414D455448594C2D32482D312D42454E5A4F505952414E2D322D425554454E4F4943204143494420455448594C2045535445522E6D6F6C0A20204368656D447261773035313731303133303332440A2032362032372020302020302020302020302020302020302020302020303939392056323030300A2020202D322E343139372020202D302E3034303520202020302E303030302043202020302020302020302020302020302020302020302020302020302020302020302020300A2020202D322E343139372020202D302E3836353520202020302E303030302043202020302020302020302020302020302020302020302020302020302020302020302020300A2020202D312E373035332020202D312E3237383020202020302E303030302043202020302020302020302020302020302020302020302020302020302020302020302020300A2020202D302E393930382020202D302E3836353520202020302E303030302043202020302020302020302020302020302020302020302020302020302020302020302020300A2020202D302E393930382020202D302E3034303520202020302E303030302043202020302020302020302020302020302020302020302020302020302020302020302020300A2020202D312E3730353320202020302E3337323020202020302E303030302043202020302020302020302020302020302020302020302020302020302020302020302020300A2020202D302E323736332020202D312E3237383020202020302E303030302043202020302020302020302020302020302020302020302020302020302020302020302020300A20202020302E343338312020202D302E3836353520202020302E303030302043202020302020302020302020302020302020302020302020302020302020302020302020300A20202020302E343338312020202D302E3034303520202020302E303030302043202020302020302020302020302020302020302020302020302020302020302020302020300A2020202D302E3237363320202020302E3337323020202020302E30303030204F202020302020302020302020302020302020302020302020302020302020302020302020300A2020202D312E3730353320202020312E3139373020202020302E303030302043202020302020302020302020302020302020302020302020302020302020302020302020300A2020202D332E3133343220202020302E3337323020202020302E303030302043202020302020302020302020302020302020302020302020302020302020302020302020300A2020202D332E313334322020202D312E3237383020202020302E30303030204F202020302020302020302020302020302020302020302020302020302020302020302020300A2020202D312E373035332020202D322E3130333020202020302E303030302043202020302020302020302020302020302020302020302020302020302020302020302020300A2020202D332E383438372020202D302E3836353520202020302E303030302043202020302020302020302020302020302020302020302020302020302020302020302020300A2020202D342E353633312020202D312E3237383020202020302E30303030204F202020302020302020302020302020302020302020302020302020302020302020302020300A2020202D332E383438372020202D302E3034303520202020302E303030302043202020302020302020302020302020302020302020302020302020302020302020302020300A20202020302E3835303620202020302E3637343020202020302E303030302043202020302020302020302020302020302020302020302020302020302020302020302020300A20202020312E323335302020202D302E3235343020202020302E303030302043202020302020302020302020302020302020302020302020302020302020302020302020300A20202020312E3637353620202020302E3637343020202020302E303030302043202020302020302020302020302020302020302020302020302020302020302020302020300A20202020322E3038383120202020312E3338383520202020302E303030302043202020302020302020302020302020302020302020302020302020302020302020302020300A20202020322E3931333120202020312E3338383520202020302E303030302043202020302020302020302020302020302020302020302020302020302020302020302020300A20202020332E3332353620202020322E3130333020202020302E30303030204F202020302020302020302020302020302020302020302020302020302020302020302020300A20202020332E3332353620202020302E3637343020202020302E30303030204F202020302020302020302020302020302020302020302020302020302020302020302020300A20202020342E3135303620202020302E3637343020202020302E303030302043202020302020302020302020302020302020302020302020302020302020302020302020300A20202020342E3536333120202020312E3338383520202020302E303030302043202020302020302020302020302020302020302020302020302020302020302020302020300A2020312020322020322020302020202020200A2020322020332020312020302020202020200A2020332020342020322020302020202020200A2020342020352020312020302020202020200A2020352020362020322020302020202020200A2020362020312020312020302020202020200A2020342020372020312020302020202020200A2020372020382020312020302020202020200A2020382020392020312020302020202020200A2020392031302020312020302020202020200A2031302020352020312020302020202020200A2020362031312020312020302020202020200A2020312031322020312020302020202020200A2020322031332020312020302020202020200A2020332031342020312020302020202020200A2031332031352020312020302020202020200A2031352031362020322020302020202020200A2031352031372020312020302020202020200A2020392031382020312020302020202020200A2020392031392020312020302020202020200A2031382032302020312020302020202020200A2032302032312020322020302020202020200A2032312032322020312020302020202020200A2032322032332020322020302020202020200A2032322032342020312020302020202020200A2032342032352020312020302020202020200A2032352032362020312020302020202020200A4D2020454E44
Contributor: KURARAY CO., LTD.
InstType: EI
InstName: JEOL JMS-D-300
IoniMethod: _ENERGY 70 eV
IonPolarity: pos
Date: 2010-10-09 19:48:36+02:00
Num Peaks: 39
41 22 43 80 53 27 55 2 67 16 77 18 79 22 81 2 91 38 93 13 
105 18 107 3 109 21 121 45 135 36 136 3 152 33 161 24 163 19 164 29 
165 604 166 67 175 19 176 5 177 25 189 51 190 28 203 6 204 36 205 999 
206 140 207 4 245 17 247 339 248 47 318 55 319 115 360 166 361 37 
