Name: MassBank: JP010086
MW: 424
Formula: C28H56O2
Synonym: MassBank: JP010086
Synonym: 2,6,10,13,17,21-HEXAMETHYL-11-HENICOSEN-10,13-DIOL
Structure: 322C362C31302C31332C31372C32312D484558414D455448594C2D31312D48454E49434F53454E2D31302C31332D44494F4C2E6D6F6C0A20204368656D447261773132323130393031353632440A2033302032392020302020302020302020302020302020302020302020303939392056323030300A2020202D362E343334322020202D312E3031363420202020302E303030302043202020302020302020302020302020302020302020302020302020302020302020302020300A2020202D362E303231372020202D302E3330323020202020302E303030302043202020302020302020302020302020302020302020302020302020302020302020302020300A2020202D352E313936372020202D302E3330323020202020302E303030302043202020302020302020302020302020302020302020302020302020302020302020302020300A2020202D342E373834322020202D312E3031363420202020302E303030302043202020302020302020302020302020302020302020302020302020302020302020302020300A2020202D332E393539322020202D312E3031363420202020302E303030302043202020302020302020302020302020302020302020302020302020302020302020302020300A2020202D332E353436372020202D302E3330323020202020302E303030302043202020302020302020302020302020302020302020302020302020302020302020302020300A2020202D322E373231372020202D302E3330323020202020302E303030302043202020302020302020302020302020302020302020302020302020302020302020302020300A2020202D322E333039322020202D312E3031363420202020302E303030302043202020302020302020302020302020302020302020302020302020302020302020302020300A2020202D312E343834322020202D312E3031363420202020302E303030302043202020302020302020302020302020302020302020302020302020302020302020302020300A2020202D312E303731372020202D302E3330323020202020302E303030302043202020302020302020302020302020302020302020302020302020302020302020302020300A2020202D302E333537322020202D302E3731343520202020302E303030302043202020302020302020302020302020302020302020302020302020302020302020302020300A20202020302E333537322020202D302E3330323020202020302E303030302043202020302020302020302020302020302020302020302020302020302020302020302020300A20202020312E303731372020202D302E3731343520202020302E303030302043202020302020302020302020302020302020302020302020302020302020302020302020300A20202020312E3438343220202020302E3030303020202020302E303030302043202020302020302020302020302020302020302020302020302020302020302020302020300A20202020322E3330393220202020302E3030303020202020302E303030302043202020302020302020302020302020302020302020302020302020302020302020302020300A20202020322E3732313720202020302E3731343520202020302E303030302043202020302020302020302020302020302020302020302020302020302020302020302020300A20202020332E3534363720202020302E3731343520202020302E303030302043202020302020302020302020302020302020302020302020302020302020302020302020300A20202020332E3935393220202020312E3432383920202020302E303030302043202020302020302020302020302020302020302020302020302020302020302020302020300A20202020342E3738343220202020312E3432383920202020302E303030302043202020302020302020302020302020302020302020302020302020302020302020302020300A20202020352E3139363720202020302E3731343520202020302E303030302043202020302020302020302020302020302020302020302020302020302020302020302020300A20202020362E3032313720202020302E3731343520202020302E303030302043202020302020302020302020302020302020302020302020302020302020302020302020300A2020202D312E3738363220202020302E3131303520202020302E30303030204F202020302020302020302020302020302020302020302020302020302020302020302020300A20202020312E373836322020202D312E3132373020202020302E30303030204F202020302020302020302020302020302020302020302020302020302020302020302020300A20202020362E343334322020202D302E3030303020202020302E303030302043202020302020302020302020302020302020302020302020302020302020302020302020300A20202020332E393539322020202D302E3030303020202020302E303030302043202020302020302020302020302020302020302020302020302020302020302020302020300A20202020302E363539322020202D312E3432383920202020302E303030302043202020302020302020302020302020302020302020302020302020302020302020302020300A2020202D302E3635393220202020302E3431323520202020302E303030302043202020302020302020302020302020302020302020302020302020302020302020302020300A2020202D332E3935393220202020302E3431323520202020302E303030302043202020302020302020302020302020302020302020302020302020302020302020302020300A2020202D362E3433343220202020302E3431323520202020302E303030302043202020302020302020302020302020302020302020302020302020302020302020302020300A20202020362E3433343220202020312E3432383920202020302E303030302043202020302020302020302020302020302020302020302020302020302020302020302020300A2020312020322020312020302020202020200A2020322020332020312020302020202020200A2020332020342020312020302020202020200A2020342020352020312020302020202020200A2020352020362020312020302020202020200A2020362020372020312020302020202020200A2020372020382020312020302020202020200A2020382020392020312020302020202020200A2020392031302020312020302020202020200A2031302031312020312020302020202020200A2031312031322020322020302020202020200A2031322031332020312020302020202020200A2031332031342020312020302020202020200A2031342031352020312020302020202020200A2031352031362020312020302020202020200A2031362031372020312020302020202020200A2031372031382020312020302020202020200A2031382031392020312020302020202020200A2031392032302020312020302020202020200A2032302032312020312020302020202020200A2031302032322020312020302020202020200A2031332032332020312020302020202020200A2032312032342020312020302020202020200A2031372032352020312020302020202020200A2031332032362020312020302020202020200A2031302032372020312020302020202020200A2020362032382020312020302020202020200A2020322032392020312020302020202020200A2032312033302020312020302020202020200A4D2020454E44
Contributor: KURARAY CO., LTD.
InstType: EI
InstName: JEOL JMS-D-300
IoniMethod: _ENERGY 70 eV
IonPolarity: pos
Date: 2010-10-09 19:48:36+02:00
Num Peaks: 97
27 48 29 122 39 33 41 321 42 58 43 999 45 37 53 31 55 730 56 283 
57 843 58 216 59 66 67 160 68 223 69 832 70 324 71 583 72 46 79 41 
80 18 81 425 82 233 83 770 84 124 85 308 86 24 93 47 94 30 95 491 
96 131 97 414 98 79 99 128 107 67 108 41 109 410 110 105 111 320 112 71 
113 175 121 57 122 15 123 411 124 107 125 204 126 183 127 67 129 82 135 46 
137 141 138 65 139 115 140 48 141 23 143 30 149 32 151 47 163 21 165 42 
166 13 177 39 179 31 180 80 181 18 182 14 183 81 193 172 194 30 195 13 
196 94 197 25 198 15 199 223 200 24 207 15 208 25 211 140 212 14 223 13 
225 529 226 89 233 221 234 45 239 17 249 18 251 521 252 101 253 20 265 15 
267 16 269 906 270 168 362 16 388 16 391 32 409 17 
