Name: MassBank: JP011630
MW: 193
Formula: C11H12ClN
Synonym: MassBank: JP011630
Synonym: 4-(4-CHLOROPHENYL)-1,2,3,6-TETRAHYDRO PYRIDINE
Structure: 342D28342D43484C4F524F5048454E594C292D312C322C332C362D5445545241485944524F205059524944494E452E6D6F6C0A20204368656D447261773033323431303037353632440A2031332031342020302020302020302020302020302020302020302020303939392056323030300A2020202D322E3036323520202020302E3731343520202020302E303030302043202020302020302020302020302020302020302020302020302020302020302020302020300A2020202D312E3233373520202020302E3731343520202020302E303030302043202020302020302020302020302020302020302020302020302020302020302020302020300A2020202D302E383235302020202D302E3030303020202020302E303030302043202020302020302020302020302020302020302020302020302020302020302020302020300A2020202D312E323337352020202D302E3731343520202020302E303030302043202020302020302020302020302020302020302020302020302020302020302020302020300A2020202D322E303632352020202D302E3731343520202020302E303030302043202020302020302020302020302020302020302020302020302020302020302020302020300A2020202D322E3437353020202020302E3030303020202020302E30303030204E202020302020302020302020302020302020302020302020302020302020302020302020300A20202020302E303030302020202D302E3030303020202020302E303030302043202020302020302020302020302020302020302020302020302020302020302020302020300A20202020302E3431323520202020302E3731343520202020302E303030302043202020302020302020302020302020302020302020302020302020302020302020302020300A20202020312E3233373520202020302E3731343520202020302E303030302043202020302020302020302020302020302020302020302020302020302020302020302020300A20202020312E3635303020202020302E3030303020202020302E303030302043202020302020302020302020302020302020302020302020302020302020302020302020300A20202020312E323337352020202D302E3731343520202020302E303030302043202020302020302020302020302020302020302020302020302020302020302020302020300A20202020302E343132352020202D302E3731343520202020302E303030302043202020302020302020302020302020302020302020302020302020302020302020302020300A20202020322E3437353020202020302E3030303020202020302E3030303020436C2020302020302020302020302020302020302020302020302020302020302020302020300A2020312020322020312020302020202020200A2020322020332020312020302020202020200A2020332020342020322020302020202020200A2020342020352020312020302020202020200A2020352020362020312020302020202020200A2020312020362020312020302020202020200A2020372020382020312020302020202020200A2020382020392020322020302020202020200A2020392031302020312020302020202020200A2031302031312020322020302020202020200A2031312031322020312020302020202020200A2020372031322020322020302020202020200A2031302031332020312020302020202020200A2020332020372020312020302020202020200A4D2020454E44
Contributor: YAMAMOTO M, DEP. CHEMISTRY, FAC. SCIENCE, NARA WOMEN'S UNIV.
InstType: EI
InstName: HITACHI M-2500
IoniMethod: _ENERGY 70 eV
IonPolarity: pos
Date: 2010-10-09 19:48:36+02:00
Num Peaks: 101
17 17 18 113 26 15 27 50 28 119 29 22 30 45 36 48 38 15 39 33 
41 41 42 36 43 17 44 68 45 17 50 38 51 80 52 21 53 47 54 32 
55 30 56 70 57 11 62 16 63 47 64 21 65 19 67 14 68 86 72 26 
73 13 74 32 75 75 76 24 77 88 78 73 79 30 80 137 81 54 82 347 
83 25 87 14 89 29 91 18 98 15 99 22 100 11 101 80 102 65 103 29 
111 10 112 11 113 15 114 24 115 97 116 27 117 12 125 153 126 36 127 178 
128 267 129 670 130 160 131 19 136 41 137 19 138 40 139 14 140 14 141 24 
143 24 149 92 150 19 151 43 152 13 153 11 154 25 155 15 156 62 157 65 
158 346 159 45 162 14 163 19 164 256 165 54 166 91 167 16 175 16 177 25 
178 39 179 11 180 13 189 14 190 64 191 27 192 622 193 999 194 302 195 319 
196 38 
