Name: 4-HYDROXYTROPOLONE
MW: 138
Formula: C7H6O3
Synonym: MassBank: JP011006
Synonym: 4-HYDROXYTROPOLONE
Structure: 342D485944524F585954524F504F4C4F4E452E6D6F6C0A20204368656D447261773034323031303131303132440A2031302031302020302020302020302020302020302020302020302020303939392056323030300A20202020312E3535393820202020302E3634373620202020302E30303030204F202020302020302020302020302020302020302020302020302020302020302020302020300A20202020302E3931343720202020302E3133333220202020302E303030302043202020302020302020302020302020302020302020302020302020302020302020302020300A20202020312E303938332020202D302E3637313120202020302E303030302043202020302020302020302020302020302020302020302020302020302020302020302020300A20202020302E353833392020202D312E3331363120202020302E303030302043202020302020302020302020302020302020302020302020302020302020302020302020300A2020202D302E323431312020202D312E3331363120202020302E303030302043202020302020302020302020302020302020302020302020302020302020302020302020300A2020202D302E373535342020202D302E3637313120202020302E303030302043202020302020302020302020302020302020302020302020302020302020302020302020300A2020202D302E3537313920202020302E3133333220202020302E303030302043202020302020302020302020302020302020302020302020302020302020302020302020300A20202020302E3137313420202020302E3439313120202020302E303030302043202020302020302020302020302020302020302020302020302020302020302020302020300A20202020302E3137313420202020312E3331363120202020302E30303030204F202020302020302020302020302020302020302020302020302020302020302020302020300A2020202D312E353539382020202D302E3835343720202020302E30303030204F202020302020302020302020302020302020302020302020302020302020302020302020300A2020312020322020322020302020202020200A2020322020332020312020302020202020200A2020332020342020322020302020202020200A2020342020352020312020302020202020200A2020352020362020322020302020202020200A2020362020372020312020302020202020200A2020372020382020322020302020202020200A2020322020382020312020302020202020200A2020382020392020312020302020202020200A2020362031302020312020302020202020200A4D2020454E44
Contributor: TAKESHITA H, INST. OF ADVANCED MATERIAL STUDY KYUSHU UNIV.
InstType: EI
InstName: JEOL JMS-01-SG-2
IoniMethod: _ENERGY 75 eV
IonPolarity: pos
Date: 2010-10-09 19:48:36+02:00
Num Peaks: 32
37 155 38 237 39 647 40 155 41 91 42 157 43 175 49 64 50 171 51 189 
52 118 53 322 54 193 55 136 61 64 62 97 63 263 64 174 65 69 66 64 
68 85 69 197 71 46 80 43 82 274 83 507 84 183 110 999 111 324 112 62 
139 112 140 46 
