Name: ISODIOTIGENIN-TRI-TRIMETHYLSILYL ETHER
MW: 664
Formula: C36H68O5Si3
Synonym: MassBank: JP011089
Synonym: ISODIOTIGENIN-TRI-TRIMETHYLSILYL ETHER
Structure: 313030375F49534F44494F544947454E494E2D5452492D5452494D455448594C53494C594C2045544845522E6D6F6C0A20204368656D447261773130323031303139343432440A2035302035352020302020302020302020302020302020302020302020303939392056323030300A2020202D322E373433342020202D302E3038343220202020302E303030302043202020302020302020302020302020302020302020302020302020302020302020302020300A2020202D322E373433372020202D302E3930393220202020302E303030302043202020302020302020302020302020302020302020302020302020302020302020302020300A2020202D322E303239342020202D312E3332313920202020302E303030302043202020302020302020302020302020302020302020302020302020302020302020302020300A2020202D312E333134392020202D302E3930393420202020302E303030302043202020302020302020302020302020302020302020302020302020302020302020302020300A2020202D312E333134322020202D302E3038343420202020302E303030302043202020302020302020302020302020302020302020302020302020302020302020302020300A2020202D322E3032393120202020302E3332383120202020302E303030302043202020302020302020302020302020302020302020302020302020302020302020302020300A2020202D302E363030322020202D312E3332313920202020302E303030302043202020302020302020302020302020302020302020302020302020302020302020302020300A20202020302E313134332020202D302E3930393420202020302E303030302043202020302020302020302020302020302020302020302020302020302020302020302020300A20202020302E313134312020202D302E3038343820202020302E303030302043202020302020302020302020302020302020302020302020302020302020302020302020300A2020202D302E3630303020202020302E3332383420202020302E303030302043202020302020302020302020302020302020302020302020302020302020302020302020300A20202020302E3832383820202020302E3332383120202020302E303030302043202020302020302020302020302020302020302020302020302020302020302020302020300A20202020302E3832383820202020312E3135333120202020302E303030302043202020302020302020302020302020302020302020302020302020302020302020302020300A20202020302E3131343320202020312E3536353620202020302E303030302043202020302020302020302020302020302020302020302020302020302020302020302020300A2020202D302E3630303220202020312E3135333120202020302E303030302043202020302020302020302020302020302020302020302020302020302020302020302020300A20202020312E3631333420202020302E3037333120202020302E303030302043202020302020302020302020302020302020302020302020302020302020302020302020300A20202020322E3039383320202020302E3734303620202020302E303030302043202020302020302020302020302020302020302020302020302020302020302020302020300A20202020312E3631333420202020312E3430383020202020302E303030302043202020302020302020302020302020302020302020302020302020302020302020302020300A20202020322E3838363820202020302E3939343020202020302E30303030204F202020302020302020302020302020302020302020302020302020302020302020302020300A20202020322E3838323920202020312E3832303520202020302E303030302043202020302020302020302020302020302020302020302020302020302020302020302020300A20202020322E3039383520202020322E3037353920202020302E303030302043202020302020302020302020302020302020302020302020302020302020302020302020300A20202020332E3633373620202020312E3438333020202020302E30303030204F202020302020302020302020302020302020302020302020302020302020302020302020300A20202020342E3330343120202020312E3936393920202020302E303030302043202020302020302020302020302020302020302020302020302020302020302020302020300A20202020342E3231373820202020322E3739303420202020302E303030302043202020302020302020302020302020302020302020302020302020302020302020302020300A20202020332E3436343120202020332E3132353920202020302E303030302043202020302020302020302020302020302020302020302020302020302020302020302020300A20202020322E3739363720202020322E3634313020202020302E303030302043202020302020302020302020302020302020302020302020302020302020302020302020300A20202020342E3838353320202020332E3237353320202020302E303030302043202020302020302020302020302020302020302020302020302020302020302020302020300A20202020312E3834343020202020322E3836303720202020302E303030302043202020302020302020302020302020302020302020302020302020302020302020302020300A20202020312E3134363420202020322E3337313020202020302E303030302048202020302020302020302020302020302020302020302020302020302020302020302020300A20202020322E3538363020202020302E3036393120202020302E303030302048202020302020302020302020302020302020302020302020302020302020302020302020300A20202020302E393739352020202D302E3438343220202020302E303030302048202020302020302020302020302020302020302020302020302020302020302020302020300A20202020302E3737313820202020312E3937363120202020302E303030302043202020302020302020302020302020302020302020302020302020302020302020302020300A20202020302E343931322020202D302E3832323320202020302E303030302048202020302020302020302020302020302020302020302020302020302020302020302020300A2020202D312E3330393220202020302E3734303620202020302E303030302043202020302020302020302020302020302020302020302020302020302020302020302020300A2020202D312E333133312020202D312E3733383620202020302E303030302048202020302020302020302020302020302020302020302020302020302020302020302020300A2020202D302E3930383720202020312E3038393820202020302E303030302048202020302020302020302020302020302020302020302020302020302020302020302020300A2020202D322E303236302020202D322E3135313120202020302E30303030204F202020302020302020302020302020302020302020302020302020302020302020302020300A2020202D332E343535342020202D312E3332353120202020302E30303030204F202020302020302020302020302020302020302020302020302020302020302020302020300A2020202D332E3435353620202020302E3332343920202020302E30303030204F202020302020302020302020302020302020302020302020302020302020302020302020300A2020202D322E373432362020202D322E3536313020202020302E303030302053692020302020302020302020302020302020302020302020302020302020302020302020300A2020202D322E333330322020202D332E3237353320202020302E303030302043202020302020302020302020302020302020302020302020302020302020302020302020300A2020202D332E343537322020202D322E3937333320202020302E303030302043202020302020302020302020302020302020302020302020302020302020302020302020300A2020202D332E313535322020202D312E3834363320202020302E303030302043202020302020302020302020302020302020302020302020302020302020302020302020300A2020202D342E313639352020202D302E3931323520202020302E303030302053692020302020302020302020302020302020302020302020302020302020302020302020300A2020202D342E353833332020202D312E3632363020202020302E303030302043202020302020302020302020302020302020302020302020302020302020302020302020300A2020202D342E383835332020202D302E3439393020202020302E303030302043202020302020302020302020302020302020302020302020302020302020302020302020300A2020202D332E373538332020202D302E3139373020202020302E303030302043202020302020302020302020302020302020302020302020302020302020302020302020300A2020202D332E3435353620202020312E3134393820202020302E303030302053692020302020302020302020302020302020302020302020302020302020302020302020300A2020202D322E3633313820202020312E3134393820202020302E303030302043202020302020302020302020302020302020302020302020302020302020302020302020300A2020202D332E3435353620202020312E3937343820202020302E303030302043202020302020302020302020302020302020302020302020302020302020302020302020300A2020202D342E3238313820202020312E3134393820202020302E303030302043202020302020302020302020302020302020302020302020302020302020302020302020300A2020312020322020312020302020202020200A2020322020332020312020302020202020200A2020332020342020312020302020202020200A2020342020352020312020302020202020200A2020352020362020312020302020202020200A2020362020312020312020302020202020200A2020342020372020312020302020202020200A2020372020382020312020302020202020200A2020382020392020312020302020202020200A2020392031302020312020302020202020200A2031302020352020312020302020202020200A2020392031312020312020302020202020200A2031312031322020312020302020202020200A2031322031332020312020302020202020200A2031332031342020312020302020202020200A2031342031302020312020302020202020200A2031312031352020312020302020202020200A2031352031362020312020302020202020200A2031362031372020312020302020202020200A2031372031322020312020302020202020200A2031362031382020312020302020202020200A2031382031392020312020302020202020200A2031392032302020312020302020202020200A2032302031372020312020302020202020200A2031392032312020312020362020202020200A2032312032322020312020302020202020200A2032322032332020312020302020202020200A2032332032342020312020302020202020200A2032342032352020312020302020202020200A2032352031392020312020302020202020200A2032332032362020312020312020202020200A2032302032372020312020362020202020200A2031372032382020312020362020202020200A2031362032392020312020362020202020200A2031312033302020312020362020202020200A2031322033312020312020312020202020200A2020392033322020312020312020202020200A2020352033332020312020312020202020200A2020342033342020312020312020202020200A2031302033352020312020362020202020200A2020332033362020312020312020202020200A2033362033392020312020302020202020200A2020322033372020312020362020202020200A2033372034332020312020302020202020200A2020312033382020312020312020202020200A2033382034372020312020302020202020200A2033392034302020312020302020202020200A2033392034312020312020302020202020200A2033392034322020312020302020202020200A2034332034342020312020302020202020200A2034332034352020312020302020202020200A2034332034362020312020302020202020200A2034372034382020312020302020202020200A2034372034392020312020302020202020200A2034372035302020312020302020202020200A4D2020454E44
Contributor: YAMAMOTO M, DEP. CHEMISTRY, FAC. SCIENCE, NARA WOMEN'S UNIV.
InstType: EI
InstName: HITACHI M-80
IoniMethod: _ENERGY 70 eV
IonPolarity: pos
Date: 2010-10-09 19:48:36+02:00
Num Peaks: 183
40 95 41 69 42 73 44 138 45 19 51 19 53 21 55 183 68 28 69 283 
70 49 71 35 72 21 73 999 74 115 75 135 79 62 81 132 82 28 83 37 
85 43 87 24 89 23 91 49 93 128 95 117 96 26 97 65 99 41 101 47 
103 98 105 129 106 27 107 113 108 35 109 86 111 31 113 19 115 88 116 24 
117 61 119 70 120 24 121 94 122 34 123 33 125 45 126 55 127 22 129 148 
130 37 131 118 132 21 133 139 134 26 135 38 139 925 140 141 141 31 142 43 
143 161 144 28 145 82 146 25 147 801 148 122 149 106 151 24 155 33 157 63 
158 20 159 78 160 142 161 80 162 21 163 26 165 24 167 41 168 26 169 68 
170 25 171 36 172 24 173 49 174 20 175 25 177 45 179 22 180 26 181 56 
182 23 183 22 184 17 185 30 187 105 188 22 189 20 191 204 192 49 193 52 
194 23 195 59 197 32 199 35 201 48 202 25 203 26 204 80 205 64 207 191 
208 47 209 47 211 27 213 52 215 118 217 172 218 91 220 58 225 40 227 25 
228 21 229 44 230 969 231 278 232 122 233 27 239 21 241 34 243 49 244 28 
251 56 252 25 253 20 257 35 265 60 266 22 267 41 269 69 270 20 280 22 
281 105 282 22 305 53 319 23 325 21 341 35 342 21 343 25 344 201 345 69 
346 20 355 34 357 46 370 71 371 39 386 45 388 24 395 87 396 28 415 38 
429 34 445 28 458 668 459 252 460 113 461 52 471 71 472 26 484 127 485 97 
486 46 533 39 550 22 559 28 560 22 561 33 574 91 575 46 637 47 638 28 
664 118 665 66 666 25 
