Name: LOBOHEDLEOLIDE
MW: 330
Formula: C20H26O4
Synonym: MassBank: JP010637
Synonym: LOBOHEDLEOLIDE
Structure: 303932385F4C4F424F4845444C454F4C4944452E6D6F6C0A20204368656D447261773130323031303138343632440A2032362032372020302020302020302020302020302020302020302020303939392056323030300A20202020332E3039343320202020302E3033383520202020302E303030302043202020302020302020302020302020302020302020302020302020302020302020302020300A20202020322E3539373920202020302E3637313920202020302E303030302043202020302020302020302020302020302020302020302020302020302020302020302020300A20202020322E363036352020202D302E3635343820202020302E30303030204F202020302020302020302020302020302020302020302020302020302020302020302020300A20202020312E383237352020202D302E3430363620202020302E303030302043202020302020302020302020302020302020302020302020302020302020302020302020300A20202020312E3832373520202020302E3434303820202020302E303030302043202020302020302020302020302020302020302020302020302020302020302020302020300A20202020312E313038342020202D302E3830383920202020302E303030302043202020302020302020302020302020302020302020302020302020302020302020302020300A2020202D332E313838352020202D302E3832363020202020302E303030302043202020302020302020302020302020302020302020302020302020302020302020302020300A2020202D322E343630392020202D302E3339383020202020302E303030302043202020302020302020302020302020302020302020302020302020302020302020302020300A20202020312E3130383420202020302E3835313720202020302E303030302043202020302020302020302020302020302020302020302020302020302020302020302020300A20202020302E333938302020202D302E3339383020202020302E303030302043202020302020302020302020302020302020302020302020302020302020302020302020300A20202020332E3931363120202020302E3033383520202020302E30303030204F202020302020302020302020302020302020302020302020302020302020302020302020300A2020202D302E3332313020202020302E3835313720202020302E303030302043202020302020302020302020302020302020302020302020302020302020302020302020300A20202020322E3833373620202020312E3435303920202020302E303030302043202020302020302020302020302020302020302020302020302020302020302020302020300A2020202D332E313838352020202D312E3637333520202020302E30303030204F202020302020302020302020302020302020302020302020302020302020302020302020300A2020202D312E373234382020202D302E3830303320202020302E303030302043202020302020302020302020302020302020302020302020302020302020302020302020300A2020202D312E3033313420202020302E3433323320202020302E303030302043202020302020302020302020302020302020302020302020302020302020302020302020300A20202020302E3339383020202020302E3433323320202020302E303030302043202020302020302020302020302020302020302020302020302020302020302020302020300A2020202D332E393136312020202D302E3430363620202020302E30303030204F202020302020302020302020302020302020302020302020302020302020302020302020300A2020202D312E3735303520202020302E3835313720202020302E303030302043202020302020302020302020302020302020302020302020302020302020302020302020300A2020202D312E303430302020202D302E3431353120202020302E303030302043202020302020302020302020302020302020302020302020302020302020302020302020300A2020202D322E3436303920202020302E3433323320202020302E303030302043202020302020302020302020302020302020302020302020302020302020302020302020300A2020202D302E333231302020202D302E3830383920202020302E303030302043202020302020302020302020302020302020302020302020302020302020302020302020300A20202020302E3031323820202020302E3236393620202020302E303030302043202020302020302020302020302020302020302020302020302020302020302020302020300A2020202D302E3332313020202020312E3637333520202020302E303030302043202020302020302020302020302020302020302020302020302020302020302020302020300A20202020312E3832373520202020312E3236323620202020302E303030302048202020302020302020302020302020302020302020302020302020302020302020302020300A20202020312E383237352020202D312E3239363920202020302E303030302048202020302020302020302020302020302020302020302020302020302020302020302020300A2020322020312020312020302020202020200A2020332020312020312020302020202020200A2031312020312020322020302020202020200A2020352020322020312020302020202020200A2031332020322020322020302020202020200A2020342020332020312020302020202020200A2020362020342020312020302020202020200A2020342032362020312020362020202020200A2020342020352020312020302020202020200A2020392020352020312020302020202020200A2020352032352020312020362020202020200A2031302020362020322020302020202020200A2020372020382020312020302020202020200A2031342020372020322020302020202020200A2031382020372020312020302020202020200A2020382031352020322020302020202020200A2020382032312020312020302020202020200A2031372020392020312020302020202020200A2032322031302020312020302020202020200A2032332031302020312020302020202020200A2031322031372020312020302020202020200A2031362031322020322020302020202020200A2032342031322020312020302020202020200A2031352032302020312020302020202020200A2031392031362020312020302020202020200A2032312031392020312020302020202020200A2032302032322020312020302020202020200A4D2020454E44
Contributor: EGUCHI S, FAC. OF SCIENCE, HIROSHIMA UNIV.
InstType: EI
InstName: HITACHI RMU-6L
IoniMethod: _ENERGY 70 eV
IonPolarity: pos
Date: 2010-10-09 19:48:36+02:00
Num Peaks: 223
41 999 42 160 43 570 44 9 45 295 46 68 50 45 51 11 52 68 53 955 
54 159 55 80 56 159 57 364 58 45 59 7 60 205 61 68 63 45 65 21 
66 114 67 364 68 182 69 36 70 114 71 227 72 45 73 25 74 68 75 68 
76 45 77 34 78 91 79 450 80 159 81 95 82 250 83 318 84 159 85 14 
86 45 87 68 91 500 92 11 93 318 94 159 95 250 96 11 97 160 98 114 
99 68 101 7 102 45 103 68 104 38 105 43 106 114 107 318 108 112 109 18 
110 68 111 115 112 40 113 5 114 40 115 115 116 68 117 14 118 115 119 295 
120 160 121 23 122 110 123 115 124 90 125 7 126 45 127 70 128 65 129 18 
130 45 131 205 132 68 133 21 134 136 135 136 136 110 137 12 139 45 140 45 
141 68 142 6 143 114 144 57 145 159 146 7 147 205 148 70 149 227 150 11 
151 136 152 70 153 68 154 5 155 68 156 45 157 114 158 7 159 140 160 70 
161 114 162 7 163 182 164 160 165 91 166 5 167 70 168 45 169 91 170 5 
171 91 172 45 173 114 174 7 175 115 176 90 177 114 178 9 179 68 181 45 
182 30 183 7 184 30 185 136 186 91 187 9 188 70 189 90 190 70 191 7 
192 70 193 91 194 45 195 5 196 45 197 68 198 45 199 9 200 69 201 80 
202 50 203 9 204 50 205 70 206 40 207 5 208 35 209 50 210 40 211 7 
212 40 213 100 214 50 215 7 216 68 217 91 218 60 219 7 220 30 221 30 
222 30 223 3 224 25 225 30 226 25 227 7 228 70 229 70 230 45 231 7 
232 45 233 40 236 20 237 2 238 45 239 70 240 45 241 7 242 50 243 45 
244 30 246 2 247 20 248 20 249 20 251 5 252 40 253 45 254 40 255 4 
256 114 257 45 262 91 265 2 266 68 267 45 268 23 270 5 284 159 285 68 
286 23 294 6 295 23 296 23 297 45 298 2 312 250 313 68 314 23 315 2 
330 68 331 20 332 15 
