Name: MassBank: JP011551
MW: 126
Formula: C8H14O
Synonym: MassBank: JP011551
Synonym: 2,2,5-TRIMETHYLCYCLOPENTANONE
Structure: 310A32330A322C322C352D5452494D455448594C4359434C4F50454E54414E4F4E452E6D6F6C0A20204368656D447261773132323030393036323132440A2020392020392020302020302020302020302020302020302020302020303939392056323030300A20202020302E3234393220202020302E3238333520202020302E303030302043202020302020302020302020302020302020302020302020302020302020302020302020300A2020202D302E3537313320202020302E3139373220202020302E303030302043202020302020302020302020302020302020302020302020302020302020302020302020300A2020202D302E373432382020202D302E3630393720202020302E303030302043202020302020302020302020302020302020302020302020302020302020302020302020300A2020202D302E303238332020202D312E3032323220202020302E303030302043202020302020302020302020302020302020302020302020302020302020302020302020300A20202020302E353834382020202D302E3437303220202020302E303030302043202020302020302020302020302020302020302020302020302020302020302020302020300A20202020312E333931372020202D302E3634313720202020302E303030302043202020302020302020302020302020302020302020302020302020302020302020302020300A2020202D302E3537313320202020312E3032323220202020302E303030302043202020302020302020302020302020302020302020302020302020302020302020302020300A2020202D312E3339313720202020302E3238333520202020302E303030302043202020302020302020302020302020302020302020302020302020302020302020302020300A20202020302E3636313720202020302E3939373920202020302E30303030204F202020302020302020302020302020302020302020302020302020302020302020302020300A2020312020322020312020302020202020200A2020322020332020312020302020202020200A2020332020342020312020302020202020200A2020342020352020312020302020202020200A2020312020352020312020302020202020200A2020352020362020312020302020202020200A2020322020372020312020312020202020200A2020322020382020312020362020202020200A2020312020392020322020302020202020200A4D2020454E44
Contributor: YAMAMOTO M, DEP. CHEMISTRY, FAC. SCIENCE, NARA WOMEN'S UNIV.
InstType: EI
InstName: HITACHI RMU-6M
IoniMethod: _ENERGY 20 eV
IonPolarity: pos
Date: 2010-10-09 19:48:36+02:00
Num Peaks: 19
41 92 42 40 43 40 55 73 56 999 57 186 68 35 69 157 70 87 71 56 
72 40 82 38 83 50 84 41 93 62 108 62 111 76 126 273 127 32 
