Name: BETA-ELEMENE
MW: 204
Formula: C15H24
Synonym: MassBank: JP010686
Synonym: BETA-ELEMENE
Structure: 424554412D454C454D454E452E6D6F6C0A20204368656D447261773039303531303132323932440A2031372031372020302020302020302020302020302020302020302020303939392056323030300A2020202D302E373430312020202D302E3731343520202020302E303030302043202020302020302020302020302020302020302020302020302020302020302020302020300A2020202D302E3332373620202020302E3030303020202020302E303030302043202020302020302020302020302020302020302020302020302020302020302020302020300A20202020302E3439373420202020302E3030303020202020302E303030302043202020302020302020302020302020302020302020302020302020302020302020302020300A20202020302E393039392020202D302E3731343520202020302E303030302043202020302020302020302020302020302020302020302020302020302020302020302020300A20202020302E343937342020202D312E3432383920202020302E303030302043202020302020302020302020302020302020302020302020302020302020302020302020300A2020202D302E333237362020202D312E3432383920202020302E303030302043202020302020302020302020302020302020302020302020302020302020302020302020300A20202020312E373334392020202D302E3731343520202020302E303030302043202020302020302020302020302020302020302020302020302020302020302020302020300A20202020322E313437342020202D312E3432383920202020302E303030302043202020302020302020302020302020302020302020302020302020302020302020302020300A20202020322E3134373420202020302E3030303020202020302E303030302043202020302020302020302020302020302020302020302020302020302020302020302020300A2020202D302E3734303120202020302E3731343520202020302E303030302043202020302020302020302020302020302020302020302020302020302020302020302020300A2020202D312E3536353120202020302E3731343520202020302E303030302043202020302020302020302020302020302020302020302020302020302020302020302020300A2020202D302E3332373620202020312E3432383920202020302E303030302043202020302020302020302020302020302020302020302020302020302020302020302020300A2020202D312E333732312020202D312E3234343820202020302E303030302043202020302020302020302020302020302020302020302020302020302020302020302020300A2020202D322E313437342020202D302E3936323620202020302E303030302043202020302020302020302020302020302020302020302020302020302020302020302020300A2020202D312E333732312020202D302E3138343220202020302E303030302043202020302020302020302020302020302020302020302020302020302020302020302020300A20202020302E3038343920202020302E3731343520202020302E303030302048202020302020302020302020302020302020302020302020302020302020302020302020300A20202020312E343933322020202D312E3239373820202020302E303030302048202020302020302020302020302020302020302020302020302020302020302020302020300A2020312020322020312020302020202020200A2020322020332020312020302020202020200A2020332020342020312020302020202020200A2020342020352020312020302020202020200A2020352020362020312020302020202020200A2020312020362020312020302020202020200A2020372020382020322020302020202020200A2020372020392020312020302020202020200A2020342020372020312020362020202020200A2031302031312020322020302020202020200A2031302031322020312020302020202020200A2020322031302020312020362020202020200A2031332031342020322020302020202020200A2020312031332020312020312020202020200A2020312031352020312020362020202020200A2020322031362020312020312020202020200A2020342031372020312020312020202020200A4D2020454E44
Contributor: EGUCHI S, FAC. OF SCIENCE, HIROSHIMA UNIV.
InstType: EI
InstName: HITACHI RMU-6L
IoniMethod: _ENERGY 70 eV
IonPolarity: pos
Date: 2010-10-09 19:48:36+02:00
Num Peaks: 58
41 740 42 110 43 250 44 2 51 70 52 50 53 565 54 6 55 715 56 45 
57 75 63 2 65 150 66 75 67 635 68 78 69 280 70 25 77 280 78 7 
79 515 80 175 81 999 82 11 83 45 91 330 92 145 93 83 94 290 95 185 
96 40 97 3 106 130 107 515 108 330 109 14 110 25 119 235 120 115 121 34 
122 105 123 110 133 210 134 13 135 165 136 55 147 305 148 15 149 60 161 210 
162 70 163 5 175 50 176 30 189 175 190 3 204 65 205 20 
