Name: DIMETHYL SULFATE
MW: 125
Formula: C2H6O4S
Synonym: MassBank: JP010440
Synonym: DIMETHYL SULFATE
Structure: 310A32320A303839305F4449455448594C2053554C464154452E6D6F6C0A20204368656D447261773130323031303138333432440A2020392020382020302020302020302020302020302020302020302020303939392056323030300A2020202D302E303030302020202D302E3030303020202020302E303030302053202020302020302020302020302020302020302020302020302020302020302020302020300A2020202D302E3431323520202020302E3731343520202020302E30303030204F202020302020302020302020302020302020302020302020302020302020302020302020300A20202020302E343132352020202D302E3731343520202020302E30303030204F202020302020302020302020302020302020302020302020302020302020302020302020300A20202020302E3731343520202020302E3431323520202020302E30303030204F202020302020302020302020302020302020302020302020302020302020302020302020300A2020202D302E373134352020202D302E3431323520202020302E30303030204F202020302020302020302020302020302020302020302020302020302020302020302020300A20202020312E343238392020202D302E3030303020202020302E303030302043202020302020302020302020302020302020302020302020302020302020302020302020300A2020202D312E343238392020202D302E3030303020202020302E303030302043202020302020302020302020302020302020302020302020302020302020302020302020300A2020202D322E313433332020202D302E3431323520202020302E303030302043202020302020302020302020302020302020302020302020302020302020302020302020300A20202020322E3134333320202020302E3431323520202020302E303030302043202020302020302020302020302020302020302020302020302020302020302020302020300A2020312020322020322020302020202020200A2020312020332020322020302020202020200A2020312020342020312020302020202020200A2020312020352020312020302020202020200A2020342020362020312020302020202020200A2020352020372020312020302020202020200A2020372020382020312020302020202020200A2020362020392020312020302020202020200A4D2020454E44
Contributor: UOEH
InstType: EI
InstName: JEOL JMS-DX-303
IoniMethod: _ENERGY 70 eV
IonPolarity: pos
Date: 2010-10-09 19:48:36+02:00
Num Peaks: 18
45 235 48 40 50 17 61 13 64 26 65 82 66 222 68 12 78 43 79 102 
81 15 95 999 96 541 97 80 98 30 125 91 126 73 127 10 
