Name: 2-ANILINESULFONIC ACID
MW: 173
Formula: C6H7NO3S
Synonym: MassBank: JP010471
Synonym: 2-ANILINESULFONIC ACID
Structure: 322D414E494C494E4553554C464F4E494320414349442E6D6F6C0A20204368656D447261773132323130393232333432440A2031312031312020302020302020302020302020302020302020302020303939392056323030300A20202020302E303030302020202D312E3132373020202020302E30303030204E202020302020302020302020302020302020302020302020302020302020302020302020300A2020202D302E343132352020202D302E3431323520202020302E303030302043202020302020302020302020302020302020302020302020302020302020302020302020300A20202020302E3030303020202020302E3330323020202020302E303030302043202020302020302020302020302020302020302020302020302020302020302020302020300A2020202D302E3431323520202020312E3031363420202020302E303030302043202020302020302020302020302020302020302020302020302020302020302020302020300A2020202D312E3233373520202020312E3031363420202020302E303030302043202020302020302020302020302020302020302020302020302020302020302020302020300A2020202D312E3635303020202020302E3330323020202020302E303030302043202020302020302020302020302020302020302020302020302020302020302020302020300A2020202D312E323337352020202D302E3431323520202020302E303030302043202020302020302020302020302020302020302020302020302020302020302020302020300A20202020302E3832353020202020302E3330323020202020302E303030302053202020302020302020302020302020302020302020302020302020302020302020302020300A20202020302E383235302020202D302E3532333020202020302E30303030204F202020302020302020302020302020302020302020302020302020302020302020302020300A20202020302E3832353020202020312E3132373020202020302E30303030204F202020302020302020302020302020302020302020302020302020302020302020302020300A20202020312E3635303020202020302E3330323020202020302E30303030204F202020302020302020302020302020302020302020302020302020302020302020302020300A2020312020322020312020302020202020200A2020322020332020312020302020202020200A2020332020342020322020302020202020200A2020342020352020312020302020202020200A2020352020362020322020302020202020200A2020362020372020312020302020202020200A2020322020372020322020302020202020200A2020382020392020322020302020202020200A2020382031302020322020302020202020200A2020382031312020312020302020202020200A2020332020382020312020302020202020200A4D2020454E44
Contributor: TAJIMA S, GUNMA COLLEGE OF TECHNOLOGY
InstType: EI
InstName: HITACHI M-80A
IoniMethod: _ENERGY 70 eV
IonPolarity: pos
Date: 2010-10-09 19:48:36+02:00
Num Peaks: 62
26 49 27 88 30 21 37 84 38 228 39 525 40 99 41 190 42 50 44 22 
45 34 46 19 47 26 48 393 49 31 50 115 51 117 52 334 53 144 54 87 
55 12 61 54 62 123 63 320 64 696 65 999 66 316 67 42 69 29 70 13 
73 12 74 38 75 31 76 32 77 16 78 44 79 43 80 374 81 108 82 20 
88 11 89 15 90 37 91 948 92 355 93 581 94 49 95 14 96 11 106 49 
108 222 109 47 122 13 138 73 139 12 140 16 155 324 156 52 157 22 173 698 
174 63 175 39 
