Name: 2-CHLORO-5-NITROPYRIDINE
CAS: 4548-45-2
MW: 157
Formula: C5H3ClN2O2
Synonym: MassBank: JP011059
Synonym: 2-CHLORO-5-NITROPYRIDINE
Structure: 322D43484C4F524F2D352D4E4954524F5059524944494E452E6D6F6C0A20204368656D447261773031303331303130343432440A2031302031302020302020302020302020302020302020302020302020303939392056323030300A20202020312E3033313320202020302E3030303020202020302E303030302043202020302020302020302020302020302020302020302020302020302020302020302020300A20202020302E363138382020202D302E3731343520202020302E303030302043202020302020302020302020302020302020302020302020302020302020302020302020300A2020202D302E323036322020202D302E3731343520202020302E303030302043202020302020302020302020302020302020302020302020302020302020302020302020300A2020202D302E3631383820202020302E3030303020202020302E303030302043202020302020302020302020302020302020302020302020302020302020302020302020300A2020202D302E3230363320202020302E3731343520202020302E303030302043202020302020302020302020302020302020302020302020302020302020302020302020300A20202020302E3631383820202020302E3731343520202020302E30303030204E202020302020302020302020302020302020302020302020302020302020302020302020300A2020202D312E3434333720202020302E3030303020202020302E30303030204E202020302020332020302020302020302020302020302020302020302020302020302020300A2020202D312E3835363220202020302E3731343520202020302E30303030204F202020302020302020302020302020302020302020302020302020302020302020302020300A2020202D312E383536332020202D302E3731343520202020302E30303030204F202020302020352020302020302020302020302020302020302020302020302020302020300A20202020312E3835363320202020302E3030303020202020302E3030303020436C2020302020302020302020302020302020302020302020302020302020302020302020300A2020312020322020312020302020202020200A2020322020332020322020302020202020200A2020332020342020312020302020202020200A2020342020352020322020302020202020200A2020352020362020312020302020202020200A2020312020362020322020302020202020200A2020372020382020322020302020202020200A2020372020392020312020302020202020200A2020342020372020312020302020202020200A2020312031302020312020302020202020200A4D202043484720203220202037202020312020203920202D310A4D2020454E44
Contributor: YAMAMOTO M, DEP. CHEMISTRY, FAC. SCIENCE, NARA WOMEN'S UNIV.
InstType: EI
InstName: HITACHI M-80
IoniMethod: _ENERGY 70 eV
IonPolarity: pos
Date: 2010-10-09 19:48:36+02:00
Num Peaks: 50
15 15 24 13 25 47 26 15 27 61 29 537 35 34 36 28 37 116 38 117 
39 45 46 247 47 52 48 24 49 149 50 712 51 274 52 81 60 44 61 45 
62 85 63 54 64 69 65 11 72 16 73 106 74 31 75 165 76 665 77 112 
84 43 85 621 86 64 87 195 88 14 100 265 101 16 102 90 111 10 112 999 
113 64 114 317 115 19 128 20 141 13 142 25 158 781 159 74 160 263 161 24 
