Name: 5-ALPHA-ANDROSTAN-3-ONE
MW: 274
Formula: C19H30O
Synonym: MassBank: JP011411
Synonym: 5-ALPHA-ANDROSTAN-3-ONE
Structure: 352D414C5048412D414E44524F5354414E2D332D4F4E452E6D6F6C0A20204368656D447261773034323331303034313332440A2032342032372020302020302020302020302020302020302020302020303939392056323030300A2020202D322E303633372020202D312E3033313320202020302E303030302043202020302020302020302020302020302020302020302020302020302020302020302020300A2020202D322E303633372020202D302E3230363220202020302E303030302043202020302020302020302020302020302020302020302020302020302020302020302020300A2020202D312E3334393220202020302E3230363320202020302E303030302043202020302020302020302020302020302020302020302020302020302020302020302020300A2020202D312E333439322020202D312E3434333820202020302E303030302043202020302020302020302020302020302020302020302020302020302020302020302020300A2020202D302E363334382020202D312E3033313320202020302E303030302043202020302020302020302020302020302020302020302020302020302020302020302020300A20202020302E303739372020202D312E3434333820202020302E303030302043202020302020302020302020302020302020302020302020302020302020302020302020300A20202020302E373934322020202D312E3033313320202020302E303030302043202020302020302020302020302020302020302020302020302020302020302020302020300A20202020302E373934322020202D302E3230363220202020302E303030302043202020302020302020302020302020302020302020302020302020302020302020302020300A20202020312E3530383620202020302E3230363320202020302E303030302043202020302020302020302020302020302020302020302020302020302020302020302020300A20202020322E323933332020202D302E3034383720202020302E303030302043202020302020302020302020302020302020302020302020302020302020302020302020300A20202020322E3737383220202020302E3631383820202020302E303030302043202020302020302020302020302020302020302020302020302020302020302020302020300A20202020322E3239333320202020312E3238363220202020302E303030302043202020302020302020302020302020302020302020302020302020302020302020302020300A20202020312E3530383620202020312E3033313320202020302E303030302043202020302020302020302020302020302020302020302020302020302020302020302020300A20202020312E3530383620202020312E3835363320202020302E303030302043202020302020302020302020302020302020302020302020302020302020302020302020300A20202020302E3739343220202020312E3434333820202020302E303030302043202020302020302020302020302020302020302020302020302020302020302020302020300A20202020302E3037393720202020312E3033313320202020302E303030302043202020302020302020302020302020302020302020302020302020302020302020302020300A20202020302E3037393720202020302E3230363220202020302E303030302043202020302020302020302020302020302020302020302020302020302020302020302020300A2020202D302E363334382020202D302E3230363220202020302E303030302043202020302020302020302020302020302020302020302020302020302020302020302020300A2020202D302E3633343820202020302E3631383820202020302E303030302043202020302020302020302020302020302020302020302020302020302020302020302020300A2020202D322E373738322020202D312E3434333820202020302E30303030204F202020302020302020302020302020302020302020302020302020302020302020302020300A2020202D302E363334382020202D312E3835363320202020302E303030302048202020302020302020302020302020302020302020302020302020302020302020302020300A20202020302E303739372020202D302E3631383820202020302E303030302048202020302020302020302020302020302020302020302020302020302020302020302020300A20202020302E3739343220202020302E3631383820202020302E303030302048202020302020302020302020302020302020302020302020302020302020302020302020300A20202020312E353038362020202D302E3631383720202020302E303030302048202020302020302020302020302020302020302020302020302020302020302020302020300A2020312020322020312020302020202020200A2020322020332020312020302020202020200A2020312020342020312020302020202020200A2020342020352020312020302020202020200A2020352020362020312020302020202020200A2020362020372020312020302020202020200A2020372020382020312020302020202020200A2020382020392020312020302020202020200A2020392031302020312020302020202020200A2031302031312020312020302020202020200A2031312031322020312020302020202020200A2031322031332020312020302020202020200A2020392031332020312020302020202020200A2031332031342020312020312020202020200A2031332031352020312020302020202020200A2031352031362020312020302020202020200A2031362031372020312020302020202020200A2020382031372020312020302020202020200A2031372031382020312020302020202020200A2020332031382020312020302020202020200A2020352031382020312020302020202020200A2031382031392020312020312020202020200A2020312032302020322020302020202020200A2020352032312020312020362020202020200A2031372032322020312020362020202020200A2020382032332020312020312020202020200A2020392032342020312020362020202020200A4D2020454E44
Contributor: HASHIMOTO K, KYOTO COLLEGE OF PHARMACY
InstType: EI
InstName: HITACHI M-80
IoniMethod: _ENERGY 20 eV
IonPolarity: pos
Date: 2010-10-09 19:48:36+02:00
Num Peaks: 93
43 11 55 28 57 23 67 38 68 34 69 30 79 21 80 18 81 109 82 37 
83 35 91 13 92 11 93 63 94 42 95 194 96 43 97 31 98 11 105 30 
106 61 107 153 108 65 109 119 110 34 111 47 118 13 119 38 120 35 121 114 
122 42 123 91 124 88 125 20 131 21 132 11 133 43 134 22 135 81 136 27 
137 40 145 28 146 19 147 48 148 28 149 84 150 24 151 33 159 28 160 16 
161 48 162 32 163 78 164 20 165 12 173 26 174 16 175 36 176 29 177 24 
179 14 185 15 187 131 188 27 189 64 190 20 199 11 200 16 201 51 202 999 
204 158 205 19 213 19 214 18 216 24 217 75 218 20 219 48 227 11 230 178 
232 80 233 13 241 86 242 16 245 21 246 40 247 10 256 23 259 177 260 35 
274 604 275 121 276 14 
