Name: 5-ALPHA-ANDROST-16-EN-3-ONE
MW: 272
Formula: C19H28O
Synonym: MassBank: JP011414
Synonym: 5-ALPHA-ANDROST-16-EN-3-ONE
Structure: 352D414C5048412D414E44524F53542D31362D454E2D332D4F4E452E6D6F6C0A20204368656D447261773034323331303034313232440A2032342032372020302020302020302020302020302020302020302020303939392056323030300A2020202D322E303633372020202D312E3033313320202020302E303030302043202020302020302020302020302020302020302020302020302020302020302020302020300A2020202D322E303633372020202D302E3230363220202020302E303030302043202020302020302020302020302020302020302020302020302020302020302020302020300A2020202D312E3334393220202020302E3230363320202020302E303030302043202020302020302020302020302020302020302020302020302020302020302020302020300A2020202D312E333439322020202D312E3434333820202020302E303030302043202020302020302020302020302020302020302020302020302020302020302020302020300A2020202D302E363334382020202D312E3033313320202020302E303030302043202020302020302020302020302020302020302020302020302020302020302020302020300A20202020302E303739372020202D312E3434333820202020302E303030302043202020302020302020302020302020302020302020302020302020302020302020302020300A20202020302E373934322020202D312E3033313320202020302E303030302043202020302020302020302020302020302020302020302020302020302020302020302020300A20202020302E373934322020202D302E3230363220202020302E303030302043202020302020302020302020302020302020302020302020302020302020302020302020300A20202020312E3530383620202020302E3230363320202020302E303030302043202020302020302020302020302020302020302020302020302020302020302020302020300A20202020322E323933332020202D302E3034383720202020302E303030302043202020302020302020302020302020302020302020302020302020302020302020302020300A20202020322E3737383220202020302E3631383720202020302E303030302043202020302020302020302020302020302020302020302020302020302020302020302020300A20202020322E3239333320202020312E3238363220202020302E303030302043202020302020302020302020302020302020302020302020302020302020302020302020300A20202020312E3530383620202020312E3033313320202020302E303030302043202020302020302020302020302020302020302020302020302020302020302020302020300A20202020312E3530383620202020312E3835363320202020302E303030302043202020302020302020302020302020302020302020302020302020302020302020302020300A20202020302E3739343220202020312E3434333820202020302E303030302043202020302020302020302020302020302020302020302020302020302020302020302020300A20202020302E3037393720202020312E3033313320202020302E303030302043202020302020302020302020302020302020302020302020302020302020302020302020300A20202020302E3037393720202020302E3230363220202020302E303030302043202020302020302020302020302020302020302020302020302020302020302020302020300A2020202D302E363334382020202D302E3230363320202020302E303030302043202020302020302020302020302020302020302020302020302020302020302020302020300A2020202D302E3633343820202020302E3631383720202020302E303030302043202020302020302020302020302020302020302020302020302020302020302020302020300A2020202D322E373738322020202D312E3434333820202020302E30303030204F202020302020302020302020302020302020302020302020302020302020302020302020300A2020202D302E363334382020202D312E3835363320202020302E303030302048202020302020302020302020302020302020302020302020302020302020302020302020300A20202020302E303739372020202D302E3631383820202020302E303030302048202020302020302020302020302020302020302020302020302020302020302020302020300A20202020302E3739343220202020302E3631383820202020302E303030302048202020302020302020302020302020302020302020302020302020302020302020302020300A20202020312E353038362020202D302E3631383720202020302E303030302048202020302020302020302020302020302020302020302020302020302020302020302020300A2020312020322020312020302020202020200A2020322020332020312020302020202020200A2020312020342020312020302020202020200A2020342020352020312020302020202020200A2020352020362020312020302020202020200A2020362020372020312020302020202020200A2020372020382020312020302020202020200A2020382020392020312020302020202020200A2020392031302020312020302020202020200A2031302031312020312020302020202020200A2031312031322020322020302020202020200A2031322031332020312020302020202020200A2020392031332020312020302020202020200A2031332031342020312020312020202020200A2031332031352020312020302020202020200A2031352031362020312020302020202020200A2031362031372020312020302020202020200A2020382031372020312020302020202020200A2031372031382020312020302020202020200A2020332031382020312020302020202020200A2020352031382020312020302020202020200A2031382031392020312020312020202020200A2020312032302020322020302020202020200A2020352032312020312020362020202020200A2031372032322020312020362020202020200A2020382032332020312020312020202020200A2020392032342020312020362020202020200A4D2020454E44
Contributor: HASHIMOTO K, KYOTO COLLEGE OF PHARMACY
InstType: EI
InstName: HITACHI M-80
IoniMethod: _ENERGY 20 eV
IonPolarity: pos
Date: 2010-10-09 19:48:36+02:00
Num Peaks: 99
43 16 55 42 57 11 67 54 68 15 69 33 77 12 79 192 80 56 81 145 
82 16 83 29 91 88 92 24 93 233 94 642 95 366 96 35 97 32 105 95 
106 53 107 384 108 112 109 84 110 23 111 29 117 20 118 13 119 81 120 34 
121 81 122 64 123 97 124 248 125 31 129 11 131 54 132 17 133 140 134 43 
135 160 136 35 137 67 138 11 143 28 144 30 145 90 146 57 147 442 148 226 
149 473 150 61 157 24 158 17 159 58 160 24 161 131 162 43 163 86 164 18 
171 18 172 12 173 30 174 12 175 42 176 21 177 25 178 14 179 13 183 18 
185 18 187 58 188 14 189 24 197 16 199 61 200 39 201 52 202 30 203 17 
204 11 213 12 214 17 215 56 216 19 217 43 229 11 230 17 239 91 240 17 
243 11 254 10 257 999 258 195 259 22 271 16 272 938 273 192 274 25 
