Name: PARA-ANISOYL FLUORIDE
MW: 154
Formula: C8H7FO2
Synonym: MassBank: JP010460
Synonym: PARA-ANISOYL FLUORIDE
Synonym: 4-METHOXYBENZOYL FLUORIDE
Structure: 504152412D414E49534F594C20464C554F524944452E6D6F6C0A20204368656D447261773034323031303137323232440A2031312031312020302020302020302020302020302020302020302020303939392056323030300A2020202D302E383235302020202D302E3030303020202020302E303030302043202020302020302020302020302020302020302020302020302020302020302020302020300A2020202D302E3431323520202020302E3731343520202020302E303030302043202020302020302020302020302020302020302020302020302020302020302020302020300A20202020302E3431323520202020302E3731343520202020302E303030302043202020302020302020302020302020302020302020302020302020302020302020302020300A20202020302E383235302020202D302E3030303020202020302E303030302043202020302020302020302020302020302020302020302020302020302020302020302020300A20202020302E343132352020202D302E3731343520202020302E303030302043202020302020302020302020302020302020302020302020302020302020302020302020300A2020202D302E343132352020202D302E3731343520202020302E303030302043202020302020302020302020302020302020302020302020302020302020302020302020300A20202020312E363530302020202D302E3030303020202020302E30303030204F202020302020302020302020302020302020302020302020302020302020302020302020300A20202020322E3036323520202020302E3731343520202020302E303030302043202020302020302020302020302020302020302020302020302020302020302020302020300A2020202D312E363530302020202D302E3030303020202020302E303030302043202020302020302020302020302020302020302020302020302020302020302020302020300A2020202D322E303632352020202D302E3731343520202020302E30303030204F202020302020302020302020302020302020302020302020302020302020302020302020300A2020202D322E3036323520202020302E3731343520202020302E303030302046202020302020302020302020302020302020302020302020302020302020302020302020300A2020312020322020312020302020202020200A2020322020332020322020302020202020200A2020332020342020312020302020202020200A2020342020352020322020302020202020200A2020352020362020312020302020202020200A2020312020362020322020302020202020200A2020372020382020312020302020202020200A2020342020372020312020302020202020200A2020312020392020312020302020202020200A2020392031302020322020302020202020200A2020392031312020312020302020202020200A4D2020454E44
Contributor: TAJIMA S, GUNMA COLLEGE OF TECHNOLOGY
InstType: EI
InstName: HITACHI M-80A
IoniMethod: _ENERGY 70 eV
IonPolarity: pos
Date: 2010-10-09 19:48:36+02:00
Num Peaks: 64
27 14 29 68 31 29 37 49 38 106 39 60 40 39 41 11 47 29 49 22 
50 168 51 78 52 15 53 48 56 22 57 234 58 11 61 59 62 146 63 313 
64 134 65 23 66 21 68 22 69 45 70 19 73 45 74 129 75 220 76 72 
77 167 78 34 79 36 81 44 82 48 83 670 84 46 92 128 94 20 95 125 
96 212 97 74 98 14 104 21 105 61 106 35 107 72 111 483 112 39 119 12 
120 12 123 97 124 22 125 13 126 531 127 44 135 274 136 26 139 11 152 12 
153 32 154 999 155 100 156 12 
