Name: PROPYLAMINE
MW: 59
Formula: C3H9N
Synonym: MassBank: JP010322
Synonym: PROPYLAMINE
Structure: 310A31320A50524F50594C414D494E452E6D6F6C0A20204368656D447261773038313231303036313832440A2020342020332020302020302020302020302020302020302020302020303939392056323030300A2020202D312E3037313720202020302E3230363220202020302E30303030204E202020302020302020302020302020302020302020302020302020302020302020302020300A2020202D302E333537322020202D302E3230363220202020302E303030302043202020302020302020302020302020302020302020302020302020302020302020302020300A20202020302E3335373220202020302E3230363220202020302E303030302043202020302020302020302020302020302020302020302020302020302020302020302020300A20202020312E303731372020202D302E3230363220202020302E303030302043202020302020302020302020302020302020302020302020302020302020302020302020300A2020322020332020312020302020202020200A2020332020342020312020302020202020200A2020312020322020312020302020202020200A4D2020454E44
Contributor: TAJIMA S, GUNMA COLLEGE OF TECHNOLOGY
InstType: EI
InstName: HITACHI M-80A
IoniMethod: _ENERGY 70 eV
IonPolarity: pos
Date: 2010-10-09 19:48:36+02:00
Num Peaks: 17
15 23 18 30 26 22 27 60 28 60 29 25 30 999 31 16 39 28 41 58 
42 36 43 28 44 14 56 13 58 27 59 118 60 13 
