Name: MassBank: JP011543
MW: 644
Formula: C38H52N4O3S
Synonym: MassBank: JP011543
Synonym: N-CETYL-4,7-DI(PARA-ETHOXYPHENYL)-1,2,5-THIADIAZOLO(3,4-C)PYRIDINE-6-CARBOXAMIDE
Structure: 313038355F4E2D434554594C2D342C372D444928504152412D4554484F58595048454E594C292D312C322C352D544849414449415A4F4C4F28332C342D43295059524944494E452D362D434152424F58414D4944452E6D6F6C0A20204368656D447261773130323031303230313132440A2033332033362020302020302020302020302020302020302020302020303939392056323030300A2020202D302E343132352020202D312E3037313720202020302E303030302043202020302020302020302020302020302020302020302020302020302020302020302020300A2020202D302E383235302020202D302E3335373220202020302E303030302043202020302020302020302020302020302020302020302020302020302020302020302020300A2020202D302E3431323520202020302E3335373220202020302E303030302043202020302020302020302020302020302020302020302020302020302020302020302020300A20202020302E3431323420202020302E3335373220202020302E303030302043202020302020302020302020302020302020302020302020302020302020302020302020300A20202020302E383234392020202D302E3335373220202020302E303030302043202020302020302020302020302020302020302020302020302020302020302020302020300A20202020302E343132342020202D312E3037313720202020302E30303030204E202020302020302020302020302020302020302020302020302020302020302020302020300A2020202D312E3731383220202020302E3633343720202020302E303030302053202020302020302020302020302020302020302020302020302020302020302020302020300A2020202D312E363331392020202D302E3138353720202020302E30303030204E202020302020302020302020302020302020302020302020302020302020302020302020300A2020202D302E3936343520202020302E3937303320202020302E30303030204E202020302020302020302020302020302020302020302020302020302020302020302020300A20202020312E363439392020202D302E3335373220202020302E303030302043202020302020302020302020302020302020302020302020302020302020302020302020300A20202020322E303632342020202D312E3037313720202020302E30303030204F202020302020302020302020302020302020302020302020302020302020302020302020300A20202020322E3036323520202020302E3335373220202020302E30303030204E202020302020302020302020302020302020302020302020302020302020302020302020300A20202020302E3832343920202020312E3037313620202020302E303030302043202020302020302020302020302020302020302020302020302020302020302020302020300A20202020302E3431323420202020312E3738363120202020302E303030302043202020302020302020302020302020302020302020302020302020302020302020302020300A20202020302E3832343920202020322E3530303620202020302E303030302043202020302020302020302020302020302020302020302020302020302020302020302020300A20202020312E3634393920202020322E3530303620202020302E303030302043202020302020302020302020302020302020302020302020302020302020302020302020300A20202020322E3036323420202020312E3738363120202020302E303030302043202020302020302020302020302020302020302020302020302020302020302020302020300A20202020312E3634393920202020312E3037313620202020302E303030302043202020302020302020302020302020302020302020302020302020302020302020302020300A20202020322E3036323420202020332E3231353120202020302E30303030204F202020302020302020302020302020302020302020302020302020302020302020302020300A20202020312E3634393920202020332E3932393420202020302E303030302043202020302020302020302020302020302020302020302020302020302020302020302020300A20202020322E3036323420202020342E3634333920202020302E303030302043202020302020302020302020302020302020302020302020302020302020302020302020300A2020202D302E383235302020202D312E3738363120202020302E303030302043202020302020302020302020302020302020302020302020302020302020302020302020300A2020202D302E343132352020202D322E3530303620202020302E303030302043202020302020302020302020302020302020302020302020302020302020302020302020300A2020202D302E383235302020202D332E3231353120202020302E303030302043202020302020302020302020302020302020302020302020302020302020302020302020300A2020202D312E363530302020202D332E3231353120202020302E303030302043202020302020302020302020302020302020302020302020302020302020302020302020300A2020202D322E303632352020202D322E3530303620202020302E303030302043202020302020302020302020302020302020302020302020302020302020302020302020300A2020202D312E363530302020202D312E3738363120202020302E303030302043202020302020302020302020302020302020302020302020302020302020302020302020300A2020202D322E303632352020202D332E3932393520202020302E30303030204F202020302020302020302020302020302020302020302020302020302020302020302020300A2020202D322E383837342020202D332E3932393520202020302E303030302043202020302020302020302020302020302020302020302020302020302020302020302020300A2020202D332E323939392020202D342E3634333920202020302E303030302043202020302020302020302020302020302020302020302020302020302020302020302020300A20202020322E3838373420202020302E3335373220202020302E303030302043202020302020302020302020302020302020302020302020302020302020302020302020300A20202020332E323939382020202D302E3335373220202020302E303030302043202020302020302020302020302020302020302020302020302020302020302020302020300A20202020332E3239393920202020312E3037313720202020302E30303030204F202020302020302020302020302020302020302020302020302020302020302020302020300A2020312020322020312020302020202020200A2020322020332020312020302020202020200A2020332020342020312020302020202020200A2020342020352020322020302020202020200A2020352020362020312020302020202020200A2020312020362020322020302020202020200A2020372020382020312020302020202020200A2020372020392020312020302020202020200A2020322020382020322020302020202020200A2020332020392020322020302020202020200A2031302031312020322020302020202020200A2031302031322020312020302020202020200A2020352031302020312020302020202020200A2031332031342020312020302020202020200A2031342031352020322020302020202020200A2031352031362020312020302020202020200A2031362031372020322020302020202020200A2031372031382020312020302020202020200A2031332031382020322020302020202020200A2032302032312020312020302020202020200A2031392032302020312020302020202020200A2031362031392020312020302020202020200A2020342031332020312020302020202020200A2032322032332020312020302020202020200A2032332032342020322020302020202020200A2032342032352020312020302020202020200A2032352032362020322020302020202020200A2032362032372020312020302020202020200A2032322032372020322020302020202020200A2032392033302020312020302020202020200A2032382032392020312020302020202020200A2032352032382020312020302020202020200A2020312032322020312020302020202020200A2033312033322020312020302020202020200A2031322033312020312020302020202020200A2033312033332020322020302020202020200A4D2020454E44
Contributor: INST. OF ADVANCED MATERIAL STUDY KYUSHU UNIV.
InstType: EI
InstName: JEOL JMS-01-SG-2
IoniMethod: _ENERGY 75 eV
IonPolarity: pos
Date: 2010-10-09 19:48:36+02:00
Num Peaks: 23
26 102 28 258 29 354 41 178 43 465 55 131 57 277 69 113 320 116 348 198 
349 74 376 346 377 231 378 93 391 133 405 101 434 65 615 178 616 72 643 440 
644 999 645 372 646 118 
