Name: MassBank: JP010492
MW: 122
Formula: C8H10O
Synonym: MassBank: JP010492
Synonym: 2,3-DIMETHYLPHENOL
Structure: 310A32330A322C332D44494D455448594C5048454E4F4C2E6D6F6C0A20204368656D447261773132323030393132303532440A2020392020392020302020302020302020302020302020302020302020303939392056323030300A2020202D302E303030302020202D302E3731343520202020302E303030302043202020302020302020302020302020302020302020302020302020302020302020302020300A2020202D302E3431323520202020302E3030303020202020302E303030302043202020302020302020302020302020302020302020302020302020302020302020302020300A2020202D302E3030303020202020302E3731343520202020302E303030302043202020302020302020302020302020302020302020302020302020302020302020302020300A20202020302E3832353020202020302E3731343520202020302E303030302043202020302020302020302020302020302020302020302020302020302020302020302020300A20202020312E323337352020202D302E3030303020202020302E303030302043202020302020302020302020302020302020302020302020302020302020302020302020300A20202020302E383235302020202D302E3731343520202020302E303030302043202020302020302020302020302020302020302020302020302020302020302020302020300A2020202D302E3431323520202020312E3432383920202020302E303030302043202020302020302020302020302020302020302020302020302020302020302020302020300A2020202D312E3233373520202020302E3030303020202020302E303030302043202020302020302020302020302020302020302020302020302020302020302020302020300A2020202D302E343132352020202D312E3432383920202020302E30303030204F202020302020302020302020302020302020302020302020302020302020302020302020300A2020312020322020312020302020202020200A2020322020332020322020302020202020200A2020332020342020312020302020202020200A2020342020352020322020302020202020200A2020352020362020312020302020202020200A2020312020362020322020302020202020200A2020332020372020312020302020202020200A2020322020382020312020302020202020200A2020312020392020312020302020202020200A4D2020454E44
Contributor: TAJIMA S, GUNMA COLLEGE OF TECHNOLOGY
InstType: EI
InstName: HITACHI M-80A
IoniMethod: _ENERGY 70 eV
IonPolarity: pos
Date: 2010-10-09 19:48:36+02:00
Num Peaks: 48
15 22 26 23 27 113 29 28 37 14 38 45 39 216 40 33 41 62 43 36 
50 70 51 152 52 61 53 105 54 11 55 38 60 24 61 25 62 33 63 83 
64 20 65 99 66 34 67 25 74 21 75 18 76 13 77 330 78 123 79 211 
80 21 81 13 89 18 91 204 92 30 93 50 94 52 95 12 102 14 103 76 
104 56 105 36 107 999 108 80 120 12 121 310 122 988 123 15 
