Name: MassBank: JP011734
MW: 378
Formula: C14H42Si6
Synonym: MassBank: JP011734
Synonym: 2,3-BIS(TRIMETHYLSILYL)OCTAMETHYLTETRASILANE
Structure: 322C332D424953285452494D455448594C53494C594C294F4354414D455448594C544554524153494C414E452E6D6F6C0A20204368656D447261773132323030393131313432440A2032302031392020302020302020302020302020302020302020302020303939392056323030300A20202020302E3534373420202020312E3332303020202020302E303030302053692020302020302020302020302020302020302020302020302020302020302020302020300A20202020302E3534373420202020302E3030303020202020302E303030302053692020302020302020302020302020302020302020302020302020302020302020302020300A2020202D302E3532353120202020302E3030303020202020302E303030302053692020302020302020302020302020302020302020302020302020302020302020302020300A2020202D302E353235312020202D312E3332303020202020302E303030302053692020302020302020302020302020302020302020302020302020302020302020302020300A2020202D312E3539373620202020302E3030303020202020302E303030302053692020302020302020302020302020302020302020302020302020302020302020302020300A2020202D312E353937362020202D302E3832353020202020302E303030302043202020302020302020302020302020302020302020302020302020302020302020302020300A2020202D322E3432323620202020302E3030303020202020302E303030302043202020302020302020302020302020302020302020302020302020302020302020302020300A2020202D312E3539373620202020302E3832353020202020302E303030302043202020302020302020302020302020302020302020302020302020302020302020302020300A20202020312E3631393920202020302E3030303020202020302E303030302053692020302020302020302020302020302020302020302020302020302020302020302020300A20202020312E3930323020202020302E3737353220202020302E303030302043202020302020302020302020302020302020302020302020302020302020302020302020300A20202020322E343232362020202D302E3139303320202020302E303030302043202020302020302020302020302020302020302020302020302020302020302020302020300A20202020312E353234312020202D302E3831393420202020302E303030302043202020302020302020302020302020302020302020302020302020302020302020302020300A2020202D302E3237373620202020312E3332303020202020302E303030302043202020302020302020302020302020302020302020302020302020302020302020302020300A20202020302E3534373420202020322E3134353020202020302E303030302043202020302020302020302020302020302020302020302020302020302020302020302020300A20202020312E3337323420202020312E3332303020202020302E303030302043202020302020302020302020302020302020302020302020302020302020302020302020300A20202020302E353437342020202D302E3832353020202020302E303030302043202020302020302020302020302020302020302020302020302020302020302020302020300A2020202D302E3532353120202020302E3832353020202020302E303030302043202020302020302020302020302020302020302020302020302020302020302020302020300A20202020302E323939392020202D312E3332303020202020302E303030302043202020302020302020302020302020302020302020302020302020302020302020302020300A2020202D302E353235312020202D322E3134353020202020302E303030302043202020302020302020302020302020302020302020302020302020302020302020302020300A2020202D312E333530312020202D312E3332303020202020302E303030302043202020302020302020302020302020302020302020302020302020302020302020302020300A2020312020322020312020302020202020200A2020322020332020312020302020202020200A2020332020342020312020302020202020200A2020352020362020312020302020202020200A2020352020372020312020302020202020200A2020352020382020312020302020202020200A2020332020352020312020302020202020200A2020392031302020312020302020202020200A2020392031312020312020302020202020200A2020392031322020312020302020202020200A2020322020392020312020302020202020200A2020312031332020312020302020202020200A2020312031342020312020302020202020200A2020312031352020312020302020202020200A2020322031362020312020302020202020200A2020332031372020312020302020202020200A2020342031382020312020302020202020200A2020342031392020312020302020202020200A2020342032302020312020302020202020200A4D2020454E44
Contributor: FAC. TECHNOLOGY, HIROSHIMA UNIV.
InstType: EI
InstName: SHIMADZU QP-1000
IoniMethod: _ENERGY 20 eV
IonPolarity: pos
Date: 2010-10-09 19:48:36+02:00
Num Peaks: 54
56 12 57 14 59 10 73 101 115 22 116 16 129 25 131 35 157 64 158 19 
159 64 160 13 171 54 172 15 173 66 174 999 175 216 176 116 177 16 187 21 
189 387 190 87 191 49 201 20 202 15 215 99 216 64 217 82 218 24 219 12 
229 28 231 560 232 176 233 94 234 22 247 14 289 10 290 198 291 76 292 46 
293 13 305 976 306 351 307 224 308 55 309 22 363 83 364 39 365 25 378 533 
379 248 380 154 381 45 382 17 
