Name: MassBank: JP011053
CAS: 98-07-7
MW: 193
Formula: C7H5Cl3
Synonym: MassBank: JP011053
Synonym: ALPHA,ALPHA,ALPHA-TRICHLOROTOLUENE
Synonym: BENZOTRICHLORIDE
Structure: 414C5048412C414C5048412C414C5048412D54524943484C4F524F544F4C55454E452E6D6F6C0A20204368656D447261773038303631303034353032440A2031302031302020302020302020302020302020302020302020302020303939392056323030300A20202020302E3030303020202020302E3030303020202020302E303030302043202020302020302020302020302020302020302020302020302020302020302020302020300A2020202D302E343132352020202D302E3731343520202020302E303030302043202020302020302020302020302020302020302020302020302020302020302020302020300A2020202D312E3635303020202020302E3030303020202020302E303030302043202020302020302020302020302020302020302020302020302020302020302020302020300A2020202D302E3431323520202020302E3731343520202020302E303030302043202020302020302020302020302020302020302020302020302020302020302020302020300A2020202D312E323337352020202D302E3731343520202020302E303030302043202020302020302020302020302020302020302020302020302020302020302020302020300A2020202D312E3233373520202020302E3731343520202020302E303030302043202020302020302020302020302020302020302020302020302020302020302020302020300A20202020302E3832353020202020302E3030303020202020302E303030302043202020302020302020302020302020302020302020302020302020302020302020302020300A20202020302E3832353020202020302E3832353020202020302E3030303020436C2020302020302020302020302020302020302020302020302020302020302020302020300A20202020312E3635303020202020302E3030303020202020302E3030303020436C2020302020302020302020302020302020302020302020302020302020302020302020300A20202020302E383235302020202D302E3832353020202020302E3030303020436C2020302020302020302020302020302020302020302020302020302020302020302020300A2020312020322020312020302020202020200A2020312020342020322020302020202020200A2020322020352020322020302020202020200A2020332020352020312020302020202020200A2020332020362020322020302020202020200A2020342020362020312020302020202020200A2020312020372020312020302020202020200A2020372020382020312020302020202020200A2020372020392020312020302020202020200A2020372031302020312020302020202020200A4D2020454E44
Contributor: YAMAMOTO M, DEP. CHEMISTRY, FAC. SCIENCE, NARA WOMEN'S UNIV.
InstType: EI
InstName: HITACHI M-80
IoniMethod: _ENERGY 70 eV
IonPolarity: pos
Date: 2010-10-09 19:48:36+02:00
Num Peaks: 55
26 20 27 21 28 19 31 10 32 11 35 33 36 18 37 31 38 35 39 83 
44 12 49 19 50 71 51 84 61 40 62 90 63 161 64 10 72 17 73 48 
74 23 75 25 76 10 77 68 79 21 80 13 84 17 85 19 86 23 87 33 
88 17 89 312 90 23 97 38 99 33 105 93 106 10 107 10 123 95 124 72 
125 41 126 25 133 23 135 14 159 999 160 80 161 656 162 50 163 107 176 16 
177 12 178 58 194 37 196 35 198 11 
