Name: MassBank: JP010837
MW: 346
Formula: C22H34O3
Synonym: MassBank: JP010837
Synonym: (1S,2S,3E,7E,11E)-2-HYDROXY-17-ACETOXYCEMBRA-3,7,11,15-TETRAENE
Structure: 2831532C32532C33452C37452C313145292D322D485944524F58592D31372D414345544F585943454D4252412D332C372C31312C31352D5445545241454E452E6D6F6C0A20204368656D447261773130313930393135303032440A2033302033302020302020302020302020302020302020302020302020303939392056323030300A2020202D312E3539333820202020312E3633303820202020302E303030302043202020302020302020302020302020302020302020302020302020302020302020302020300A2020202D312E3539333820202020302E3830353820202020302E303030302043202020302020302020302020302020302020302020302020302020302020302020302020300A2020202D312E3031303520202020302E3232323320202020302E303030302043202020302020302020302020302020302020302020302020302020302020302020302020300A2020202D302E3138353520202020302E3232323320202020302E303030302043202020302020302020302020302020302020302020302020302020302020302020302020300A20202020302E3339373920202020302E3830353820202020302E303030302043202020302020302020302020302020302020302020302020302020302020302020302020300A20202020302E3339373920202020312E3633303820202020302E303030302043202020302020302020302020302020302020302020302020302020302020302020302020300A2020202D302E3138353520202020322E3231343120202020302E303030302043202020302020302020302020302020302020302020302020302020302020302020302020300A2020202D312E3031303520202020322E3231343120202020302E303030302043202020302020302020302020302020302020302020302020302020302020302020302020300A20202020302E3938313120202020302E3232323320202020302E303030302043202020302020302020302020302020302020302020302020302020302020302020302020300A20202020312E3830363120202020302E3232323320202020302E303030302043202020302020302020302020302020302020302020302020302020302020302020302020300A20202020322E3338393620202020302E3830353820202020302E303030302043202020302020302020302020302020302020302020302020302020302020302020302020300A20202020322E3338393620202020312E3633303820202020302E303030302043202020302020302020302020302020302020302020302020302020302020302020302020300A20202020312E3830363120202020322E3231343120202020302E303030302043202020302020302020302020302020302020302020302020302020302020302020302020300A20202020302E3938313120202020322E3231343120202020302E303030302043202020302020302020302020302020302020302020302020302020302020302020302020300A20202020302E3637353020202020322E3937303420202020302E303030302048202020302020302020302020302020302020302020302020302020302020302020302020300A20202020312E3539353420202020312E3031333720202020302E303030302048202020302020302020302020302020302020302020302020302020302020302020302020300A2020202D322E3335303020202020312E3934313120202020302E303030302048202020302020302020302020302020302020302020302020302020302020302020302020300A2020202D322E3338393620202020302E3538373220202020302E303030302048202020302020302020302020302020302020302020302020302020302020302020302020300A2020202D302E373935302020202D302E3538303120202020302E303030302043202020302020302020302020302020302020302020302020302020302020302020302020300A2020202D312E3939383620202020302E3038343820202020302E30303030204F202020302020302020302020302020302020302020302020302020302020302020302020300A2020202D312E343139342020202D302E3530313320202020302E303030302048202020302020302020302020302020302020302020302020302020302020302020302020300A2020202D312E333830342020202D312E3135373920202020302E303030302043202020302020302020302020302020302020302020302020302020302020302020302020300A20202020302E303035382020202D302E3738383820202020302E303030302043202020302020302020302020302020302020302020302020302020302020302020302020300A20202020302E323134372020202D312E3539333120202020302E30303030204F202020302020302020302020302020302020302020302020302020302020302020302020300A2020202D302E333733322020202D322E3136383920202020302E303030302043202020302020302020302020302020302020302020302020302020302020302020302020300A2020202D312E313638342020202D312E3934393720202020302E303030302043202020302020302020302020302020302020302020302020302020302020302020302020300A2020202D302E313634362020202D322E3937303420202020302E30303030204F202020302020302020302020302020302020302020302020302020302020302020302020300A20202020302E363634332020202D302E3533393020202020302E303030302043202020302020302020302020302020302020302020302020302020302020302020302020300A2020202D302E3539383020202020312E3530303120202020302E303030302043202020302020302020302020302020302020302020302020302020302020302020302020300A20202020312E3539313620202020312E3431373720202020302E303030302043202020302020302020302020302020302020302020302020302020302020302020302020300A2020312020322020312020302020202020200A2020322020332020312020302020202020200A2020332020342020312020302020202020200A2020342020352020312020302020202020200A2020362020372020312020302020202020200A2020372020382020312020302020202020200A2020382020312020322020302020202020200A2020352020392020312020302020202020200A2020392031302020322020302020202020200A2031302031312020312020302020202020200A2031312031322020312020302020202020200A2031322031332020312020302020202020200A2031332031342020322020302020202020200A2031342020362020312020302020202020200A2031342031352020312020302020202020200A2031302031362020312020302020202020200A2020312031372020312020302020202020200A2020322031382020312020312020202020200A2020332031392020312020312020202020200A2020322032302020312020362020202020200A2020332032312020312020362020202020200A2031392032322020312020302020202020200A2031392032332020312020302020202020200A2032332032342020312020302020202020200A2032342032352020312020302020202020200A2032352032362020312020302020202020200A2032352032372020322020302020202020200A2020392032382020312020302020202020200A2020382032392020312020302020202020200A2031332033302020312020302020202020200A4D202053545920203120202031205355500A4D2020534C4220203120202031202020310A4D202053414C20202031202031202032380A4D202053424C20202031202031202032380A4D2020534D5420202031204D650A4D2020534256202020312032382020202D372E3535373620202020372E303734350A4D202053545920203120202032205355500A4D2020534C4220203120202032202020320A4D202053414C20202032202031202032390A4D202053424C20202032202031202032390A4D2020534D5420202032204D650A4D2020534256202020322032392020202D362E3832383220202020372E313231380A4D202053545920203120202033205355500A4D2020534C4220203120202033202020330A4D202053414C20202033202031202033300A4D202053424C20202033202031202033300A4D2020534D5420202033204D650A4D2020534256202020332033302020202D372E3435353320202020372E303339340A4D2020454E44
Contributor: HAMAMATSU UNIV. SCHOOL OF MEDICINE
InstType: EI
InstName: HITACHI RMU-6L
IoniMethod: _ENERGY 70 eV
IonPolarity: pos
Date: 2010-10-09 19:48:36+02:00
Num Peaks: 146
41 570 42 65 43 999 44 4 45 26 51 26 52 26 53 29 54 52 55 519 
56 117 57 8 59 13 61 26 65 91 66 7 67 481 68 493 69 259 70 3 
71 104 77 143 78 52 79 36 80 117 81 610 82 104 83 26 84 779 85 91 
91 247 92 12 93 597 94 156 95 247 96 7 97 104 98 26 103 39 104 3 
105 247 106 129 107 468 108 16 109 208 110 65 111 39 115 4 116 26 117 65 
118 39 119 36 120 117 121 286 122 156 123 12 124 26 125 26 126 26 127 7 
128 26 129 26 131 65 132 9 133 169 134 468 135 805 136 17 137 91 138 39 
139 19 143 4 145 117 146 52 147 156 148 7 149 91 150 65 151 39 152 3 
153 13 157 26 158 13 159 10 160 26 161 78 162 39 163 4 164 26 165 13 
171 13 172 1 173 65 174 39 175 91 176 4 177 39 178 13 185 26 186 1 
187 65 188 26 189 78 190 4 191 19 200 13 201 39 202 12 203 78 204 26 
205 26 206 1 213 26 214 15 215 26 216 1 217 26 218 39 219 13 225 2 
229 19 230 13 231 13 243 4 244 13 245 6 253 6 254 1 255 6 256 4 
257 9 258 1 268 26 269 13 270 6 271 3 272 6 273 6 286 221 287 7 
288 13 304 6 328 6 329 1 346 52 347 13 
