Name: MassBank: JP011827
MW: 433
Formula: C29H39NO2
Synonym: MassBank: JP011827
Synonym: (E)-(3R)-(1'R,2'S,5'R)-8'-PHENYLMENTHYL 3-BENZYLAMINO-4-HEXENOATE
Structure: 2845292D283352292D283127522C3227532C352752292D38272D5048454E594C4D454E5448594C20332D42454E5A594C414D494E4F2D342D484558454E4F4154452E6D6F6C0A20204368656D447261773130323230393131323932440A2033382034302020302020302020302020302020302020302020302020303939392056323030300A2020202D322E3234373320202020312E3834373620202020302E303030302043202020302020302020302020302020302020302020302020302020302020302020302020300A2020202D312E3731373020202020312E3231353720202020302E303030302043202020302020302020302020302020302020302020302020302020302020302020302020300A2020202D302E3930343620202020312E3335383920202020302E303030302043202020302020302020302020302020302020302020302020302020302020302020302020300A2020202D302E3632323420202020322E3133343120202020302E303030302043202020302020302020302020302020302020302020302020302020302020302020302020300A2020202D312E3135323720202020322E3736363120202020302E303030302043202020302020302020302020302020302020302020302020302020302020302020302020300A2020202D312E3936353220202020322E3632323820202020302E303030302043202020302020302020302020302020302020302020302020302020302020302020302020300A2020202D312E3433343820202020332E3534313420202020302E303030302048202020302020302020302020302020302020302020302020302020302020302020302020300A2020202D302E3039323120202020312E3231353620202020302E303030302048202020302020302020302020302020302020302020302020302020302020302020302020300A2020202D322E3433313420202020302E3830333220202020302E303030302048202020302020302020302020302020302020302020302020302020302020302020302020300A2020202D312E3433343820202020302E3434303420202020302E303030302043202020302020302020302020302020302020302020302020302020302020302020302020300A2020202D302E3930343620202020302E3533333920202020302E30303030204F202020302020302020302020302020302020302020302020302020302020302020302020300A2020202D302E3433383220202020332E3137383620202020302E303030302043202020302020302020302020302020302020302020302020302020302020302020302020300A2020202D302E3139303120202020302E3132313420202020302E303030302043202020302020302020302020302020302020302020302020302020302020302020302020300A2020202D302E313930312020202D302E3730333620202020302E303030302043202020302020302020302020302020302020302020302020302020302020302020302020300A20202020302E3532343320202020302E3533333920202020302E30303030204F202020302020302020302020302020302020302020302020302020302020302020302020300A20202020302E353234332020202D312E3131363120202020302E303030302043202020302020302020302020302020302020302020302020302020302020302020302020300A20202020302E383036352020202D302E3334303920202020302E303030302048202020302020302020302020302020302020302020302020302020302020302020302020300A20202020302E353234332020202D312E3934313120202020302E30303030204E202020302020302020302020302020302020302020302020302020302020302020302020300A20202020312E333336382020202D312E3235393420202020302E303030302043202020302020302020302020302020302020302020302020302020302020302020302020300A20202020312E383637312020202D302E3632373420202020302E303030302048202020302020302020302020302020302020302020302020302020302020302020302020300A20202020312E363139302020202D322E3033343620202020302E303030302043202020302020302020302020302020302020302020302020302020302020302020302020300A20202020312E303838372020202D322E3636363620202020302E303030302048202020302020302020302020302020302020302020302020302020302020302020302020300A20202020322E343331342020202D322E3137373920202020302E303030302043202020302020302020302020302020302020302020302020302020302020302020302020300A2020202D302E313930312020202D322E3335333620202020302E303030302043202020302020302020302020302020302020302020302020302020302020302020302020300A2020202D302E313930312020202D332E3137383620202020302E303030302043202020302020302020302020302020302020302020302020302020302020302020302020300A2020202D302E393034352020202D332E3539313120202020302E303030302043202020302020302020302020302020302020302020302020302020302020302020302020300A2020202D302E393034362020202D342E3431363120202020302E303030302043202020302020302020302020302020302020302020302020302020302020302020302020300A2020202D302E313930322020202D342E3832383620202020302E303030302043202020302020302020302020302020302020302020302020302020302020302020302020300A20202020302E353234332020202D342E3431363220202020302E303030302043202020302020302020302020302020302020302020302020302020302020302020302020300A20202020302E353234342020202D332E3539313220202020302E303030302043202020302020302020302020302020302020302020302020302020302020302020302020300A20202020302E3237363320202020332E3539313120202020302E303030302043202020302020302020302020302020302020302020302020302020302020302020302020300A2020202D302E3835303720202020332E3839333120202020302E303030302043202020302020302020302020302020302020302020302020302020302020302020302020300A2020202D302E3032353720202020322E3436343120202020302E303030302043202020302020302020302020302020302020302020302020302020302020302020302020300A20202020302E3939303820202020332E3137383620202020302E303030302043202020302020302020302020302020302020302020302020302020302020302020302020300A20202020312E3730353220202020332E3539313120202020302E303030302043202020302020302020302020302020302020302020302020302020302020302020302020300A20202020312E3730353220202020342E3431363120202020302E303030302043202020302020302020302020302020302020302020302020302020302020302020302020300A20202020302E3939303720202020342E3832383620202020302E303030302043202020302020302020302020302020302020302020302020302020302020302020302020300A20202020302E3237363320202020342E3431363120202020302E303030302043202020302020302020302020302020302020302020302020302020302020302020302020300A2020312020322020312020302020202020200A2020322020332020312020302020202020200A2020332020342020312020302020202020200A2020342020352020312020302020202020200A2020352020362020312020302020202020200A2020362020312020312020302020202020200A2020352020372020312020362020202020200A2020332020382020312020362020202020200A2020322020392020312020362020202020200A2020322031302020312020312020202020200A2020332031312020312020312020202020200A2020352031322020312020312020202020200A2031312031332020312020302020202020200A2031332031342020312020302020202020200A2031332031352020322020302020202020200A2031342031362020312020302020202020200A2031362031372020312020312020202020200A2031362031382020312020312020202020200A2031362031392020312020302020202020200A2031392032302020312020302020202020200A2031392032312020322020302020202020200A2032312032322020312020302020202020200A2032312032332020312020302020202020200A2031382032342020312020302020202020200A2032342032352020312020302020202020200A2032352032362020322020302020202020200A2032362032372020312020302020202020200A2032372032382020322020302020202020200A2032382032392020312020302020202020200A2032392033302020322020302020202020200A2033302032352020312020302020202020200A2031322033312020312020302020202020200A2031322033322020312020302020202020200A2031322033332020312020302020202020200A2033312033342020322020302020202020200A2033342033352020312020302020202020200A2033352033362020322020302020202020200A2033362033372020312020302020202020200A2033372033382020322020302020202020200A2033382033312020312020302020202020200A4D2020454E44
Contributor: YOSHINORI Y, FAC. SCIENCE, TOHOKU UNIV.
InstType: EI
InstName: Unknown
IoniMethod: _ENERGY 20 eV
IonPolarity: pos
Date: 2010-10-09 19:48:36+02:00
Num Peaks: 8
317 43 342 999 343 240 344 13 431 78 432 36 433 418 434 115 
