Name: MassBank: JP011597
MW: 172
Formula: C8H20Si2
Synonym: MassBank: JP011597
Synonym: 1,1,4,4-TETRAMETHYL-1,4-DISILACYCLOHEXANE
Structure: 312C312C342C342D54455452414D455448594C2D312C342D444953494C414359434C4F484558414E452E6D6F6C0A20204368656D447261773130323330393032313032440A2031302031302020302020302020302020302020302020302020302020303939392056323030300A20202020302E3030303020202020302E3832353020202020302E303030302053692020302020302020302020302020302020302020302020302020302020302020302020300A20202020302E3731343520202020302E3431323520202020302E303030302043202020302020302020302020302020302020302020302020302020302020302020302020300A20202020302E373134352020202D302E3431323520202020302E303030302043202020302020302020302020302020302020302020302020302020302020302020302020300A20202020302E303030302020202D302E3832353020202020302E303030302053692020302020302020302020302020302020302020302020302020302020302020302020300A2020202D302E373134352020202D302E3431323520202020302E303030302043202020302020302020302020302020302020302020302020302020302020302020302020300A2020202D302E3731343520202020302E3431323520202020302E303030302043202020302020302020302020302020302020302020302020302020302020302020302020300A20202020302E353330332020202D312E3435373020202020302E303030302043202020302020302020302020302020302020302020302020302020302020302020302020300A2020202D302E353330332020202D312E3435373020202020302E303030302043202020302020302020302020302020302020302020302020302020302020302020302020300A2020202D302E3533303320202020312E3435373020202020302E303030302043202020302020302020302020302020302020302020302020302020302020302020302020300A20202020302E3533303320202020312E3435373020202020302E303030302043202020302020302020302020302020302020302020302020302020302020302020302020300A2020312020322020312020302020202020200A2020322020332020312020302020202020200A2020332020342020312020302020202020200A2020342020352020312020302020202020200A2020352020362020312020302020202020200A2020312020362020312020302020202020200A2020342020372020312020362020202020200A2020342020382020312020312020202020200A2020312020392020312020362020202020200A2020312031302020312020312020202020200A4D2020454E44
Contributor: YAMAMOTO M, DEP. CHEMISTRY, FAC. SCIENCE, NARA WOMEN'S UNIV.
InstType: EI
InstName: HITACHI RMU-6M
IoniMethod: _ENERGY 70 eV
IonPolarity: pos
Date: 2010-10-09 19:48:36+02:00
Num Peaks: 60
28 73 29 71 31 93 32 30 42 30 43 363 44 68 45 205 46 18 47 12 
53 30 55 65 57 49 58 222 59 683 60 65 61 33 67 26 69 33 70 23 
71 98 72 65 73 443 74 45 75 21 81 18 83 54 84 19 85 278 86 80 
87 92 97 561 98 69 99 83 100 30 101 79 102 20 103 33 111 17 113 61 
114 19 115 65 116 822 117 159 118 76 127 31 128 24 129 454 130 75 131 43 
141 22 143 138 144 65 145 25 157 999 158 184 159 99 172 986 173 195 174 98 
