Name: 1-BROMO-2-CHLOROETHANE
CAS: 107-04-0
MW: 141
Formula: C2H4BrCl
Synonym: MassBank: JP010522
Synonym: 1-BROMO-2-CHLOROETHANE
Structure: 310A31320A312D42524F4D4F2D322D43484C4F524F455448414E452E6D6F6C0A20204368656D447261773131313730393233333232440A2020342020332020302020302020302020302020302020302020302020303939392056323030300A2020202D302E333537322020202D302E3230363320202020302E303030302043202020302020302020302020302020302020302020302020302020302020302020302020300A20202020302E3335373220202020302E3230363320202020302E303030302043202020302020302020302020302020302020302020302020302020302020302020302020300A20202020312E303731372020202D302E3230363220202020302E3030303020436C2020302020302020302020302020302020302020302020302020302020302020302020300A2020202D312E3037313720202020302E3230363320202020302E303030302042722020302020302020302020302020302020302020302020302020302020302020302020300A2020312020322020312020302020202020200A2020322020332020312020302020202020200A2020312020342020312020302020202020200A4D2020454E44
Contributor: NARA WOMEN'S UNIVERSITY
InstType: EI
InstName: HITACHI M-80
IoniMethod: _ENERGY 70 eV
IonPolarity: pos
Date: 2010-10-09 19:48:36+02:00
Num Peaks: 27
25 11 26 108 27 488 28 112 31 12 35 11 49 32 51 10 61 41 62 58 
63 999 64 38 65 298 79 30 80 13 81 36 82 14 93 51 95 47 105 15 
106 15 107 65 108 12 109 48 142 110 144 145 146 34 
