Name: MassBank: JP010279
MW: 217
Formula: C13H15NO2
Synonym: MassBank: JP010279
Synonym: METHYL 3-METHYL-5-PHENYL-1-PYRROLINE-4-CARBOXYLATE (3,4-TRANS-4,5-CIS)
Synonym: METHYL (3R,4R,5R)-3-METHYL-5-PHENYL-1-PYRROLINE-4-CARBOXYLATE
Structure: 303835395F4D455448594C202833522C34522C3552292D332D4D455448594C2D352D5048454E594C2D312D505952524F4C494E452D342D434152424F58594C4154452E6D6F6C0A20204368656D447261773130323031303138323232440A2031362031372020302020302020302020302020302020302020302020303939392056323030300A2020202D302E373533392020202D312E3335363820202020302E30303030204E202020302020302020302020302020302020302020302020302020302020302020302020300A2020202D312E353338362020202D312E3130313920202020302E303030302043202020302020302020302020302020302020302020302020302020302020302020302020300A2020202D312E353338362020202D302E3237363920202020302E303030302043202020302020302020302020302020302020302020302020302020302020302020302020300A2020202D302E373533392020202D302E3032313920202020302E303030302043202020302020302020302020302020302020302020302020302020302020302020302020300A2020202D302E323639302020202D302E3638393420202020302E303030302043202020302020302020302020302020302020302020302020302020302020302020302020300A2020202D302E3439393020202020302E3736323720202020302E303030302043202020302020302020302020302020302020302020302020302020302020302020302020300A20202020302E3331353920202020302E3839313820202020302E30303030204F202020302020302020302020302020302020302020302020302020302020302020302020300A2020202D312E3031383220202020312E3430333820202020302E30303030204F202020302020302020302020302020302020302020302020302020302020302020302020300A20202020302E353536302020202D302E3638393420202020302E303030302043202020302020302020302020302020302020302020302020302020302020302020302020300A20202020302E3936383520202020302E3032353120202020302E303030302043202020302020302020302020302020302020302020302020302020302020302020302020300A20202020312E3739333520202020302E3032353120202020302E303030302043202020302020302020302020302020302020302020302020302020302020302020302020300A20202020322E323036302020202D302E3638393420202020302E303030302043202020302020302020302020302020302020302020302020302020302020302020302020300A20202020312E373933352020202D312E3430333820202020302E303030302043202020302020302020302020302020302020302020302020302020302020302020302020300A20202020302E393638352020202D312E3430333820202020302E303030302043202020302020302020302020302020302020302020302020302020302020302020302020300A2020202D322E3230363020202020302E3230383120202020302E303030302043202020302020302020302020302020302020302020302020302020302020302020302020300A2020202D312E3833333020202020312E3237343820202020302E303030302043202020302020302020302020302020302020302020302020302020302020302020302020300A2020312020322020322020302020202020200A2020322020332020312020302020202020200A2020332020342020312020302020202020200A2020342020352020312020302020202020200A2020312020352020312020302020202020200A2020362020372020322020302020202020200A2020362020382020312020302020202020200A2020342020362020312020312020202020200A2020392031302020312020302020202020200A2031302031312020322020302020202020200A2031312031322020312020302020202020200A2031322031332020322020302020202020200A2031332031342020312020302020202020200A2020392031342020322020302020202020200A2020352020392020312020312020202020200A2020332031352020312020362020202020200A2020382031362020312020302020202020200A4D2020454E44
Contributor: KANEMASA S, INST. OF ADVANCED MATERIAL STUDY KYUSHU UNIV.
InstType: EI
InstName: JEOL JMS-01-SG-2
IoniMethod: _ENERGY 75 eV
IonPolarity: pos
Date: 2010-10-09 19:48:36+02:00
Num Peaks: 36
40 559 42 547 51 172 52 476 54 255 59 579 63 436 64 170 65 165 69 784 
77 507 78 154 89 784 90 999 91 541 101 134 102 137 103 227 104 289 115 461 
116 399 117 913 128 248 129 225 130 199 143 124 157 209 158 438 159 43 161 50 
169 24 170 24 174 38 186 30 217 108 218 25 
