Name: MassBank: JP010120
MW: 238
Formula: C15H26O2
Synonym: MassBank: JP010120
Synonym: 1,2-EPOXY-3,7,11-TRIMETHYL-(6E,10)-DODECADIENE-3-OL
Structure: 312C322D45504F58592D332C372C31312D5452494D455448594C2D2836452C3130292D444F444543414449454E452D332D4F4C2E6D6F6C0A20204368656D447261773131303530393133353232440A2031382031382020302020302020302020302020302020302020302020303939392056323030300A20202020322E3835373920202020302E3635393220202020302E30303030204F202020302020302020302020302020302020302020302020302020302020302020302020300A20202020322E343435342020202D302E3035353320202020302E303030302043202020302020302020302020302020302020302020302020302020302020302020302020300A20202020312E3733303920202020302E3335373220202020302E303030302043202020302020302020302020302020302020302020302020302020302020302020302020300A20202020312E303136342020202D302E3035353320202020302E303030302043202020302020302020302020302020302020302020302020302020302020302020302020300A20202020302E3330323020202020302E3335373220202020302E303030302043202020302020302020302020302020302020302020302020302020302020302020302020300A2020202D302E343132352020202D302E3035353320202020302E303030302043202020302020302020302020302020302020302020302020302020302020302020302020300A2020202D312E3132373020202020302E3335373220202020302E303030302043202020302020302020302020302020302020302020302020302020302020302020302020300A2020202D312E383431342020202D302E3035353320202020302E303030302043202020302020302020302020302020302020302020302020302020302020302020302020300A2020202D322E3535353920202020302E3335373220202020302E303030302043202020302020302020302020302020302020302020302020302020302020302020302020300A2020202D332E323730342020202D302E3035353320202020302E303030302043202020302020302020302020302020302020302020302020302020302020302020302020300A2020202D332E3938343920202020302E3335373220202020302E303030302043202020302020302020302020302020302020302020302020302020302020302020302020300A20202020332E313539392020202D302E3436373820202020302E303030302043202020302020302020302020302020302020302020302020302020302020302020302020300A2020202D332E323730342020202D302E3838303320202020302E303030302043202020302020302020302020302020302020302020302020302020302020302020302020300A2020202D302E343132352020202D302E3838303320202020302E303030302043202020302020302020302020302020302020302020302020302020302020302020302020300A20202020322E303332392020202D302E3736393720202020302E303030302043202020302020302020302020302020302020302020302020302020302020302020302020300A20202020332E353732342020202D312E3138323220202020302E30303030204F202020302020302020302020302020302020302020302020302020302020302020302020300A20202020332E393834392020202D302E3436373820202020302E303030302043202020302020302020302020302020302020302020302020302020302020302020302020300A20202020302E3330323020202020312E3138323220202020302E303030302048202020302020302020302020302020302020302020302020302020302020302020302020300A2020312020322020312020302020202020200A2020322020332020312020302020202020200A2020332020342020312020302020202020200A2020342020352020312020302020202020200A2020352020362020322020302020202020200A2020362020372020312020302020202020200A2020372020382020312020302020202020200A2020382020392020312020302020202020200A2020392031302020322020302020202020200A2031302031312020312020302020202020200A2020322031322020312020302020202020200A2031302031332020312020302020202020200A2020362031342020312020302020202020200A2020322031352020312020302020202020200A2031322031362020312020302020202020200A2031362031372020312020302020202020200A2031372031322020312020302020202020200A2020352031382020312020302020202020200A4D2020454E44
Contributor: KURARAY CO., LTD.
InstType: EI
InstName: JEOL JMS-D-300
IoniMethod: _ENERGY 70 eV
IonPolarity: pos
Date: 2010-10-09 19:48:36+02:00
Num Peaks: 57
27 30 29 40 39 40 41 47 42 20 43 540 53 60 55 19 57 40 59 80 
67 180 68 10 69 999 70 70 71 130 77 2 79 80 81 450 82 210 83 8 
84 20 87 50 91 50 93 19 94 40 95 150 96 30 97 3 105 60 107 150 
108 20 109 17 110 20 113 20 119 20 121 10 122 30 123 140 125 20 133 2 
135 50 136 80 137 60 139 2 147 20 149 20 150 40 151 2 159 20 177 90 
195 60 202 1 205 13 209 10 220 10 221 1 238 5 
