Name: 5-ACETOXY-2-CHLOROTROPONE
MW: 198
Formula: C9H7ClO3
Synonym: MassBank: JP011010
Synonym: 5-ACETOXY-2-CHLOROTROPONE
Structure: 352D414345544F58592D322D43484C4F524F54524F504F4E452E6D6F6C0A20204368656D447261773034323331303033343232440A2031332031332020302020302020302020302020302020302020302020303939392056323030300A20202020312E323033362020202D312E3539383320202020302E30303030204F202020302020302020302020302020302020302020302020302020302020302020302020300A20202020302E353232302020202D312E3133333620202020302E303030302043202020302020302020302020302020302020302020302020302020302020302020302020300A20202020302E363536312020202D302E3330373120202020302E303030302043202020302020302020302020302020302020302020302020302020302020302020302020300A20202020302E3037323720202020302E3237363320202020302E303030302043202020302020302020302020302020302020302020302020302020302020302020302020300A2020202D302E3733383920202020302E3232353320202020302E303030302043202020302020302020302020302020302020302020302020302020302020302020302020300A2020202D312E323033362020202D302E3435363320202020302E303030302043202020302020302020302020302020302020302020302020302020302020302020302020300A2020202D302E393630352020202D312E3234343720202020302E303030302043202020302020302020302020302020302020302020302020302020302020302020302020300A2020202D302E313932352020202D312E3534363120202020302E303030302043202020302020302020302020302020302020302020302020302020302020302020302020300A2020202D302E313330382020202D322E3336383820202020302E3030303020436C2020302020302020302020302020302020302020302020302020302020302020302020300A2020202D312E3135313420202020302E3933393820202020302E30303030204F202020302020302020302020302020302020302020302020302020302020302020302020300A2020202D302E3733383920202020312E3635343320202020302E303030302043202020302020302020302020302020302020302020302020302020302020302020302020300A20202020302E3038363120202020312E3635343320202020302E30303030204F202020302020302020302020302020302020302020302020302020302020302020302020300A2020202D312E3135313420202020322E3336383820202020302E303030302043202020302020302020302020302020302020302020302020302020302020302020302020300A2020312020322020322020302020202020200A2020322020332020312020302020202020200A2020332020342020322020302020202020200A2020342020352020312020302020202020200A2020352020362020322020302020202020200A2020362020372020312020302020202020200A2020372020382020322020302020202020200A2020322020382020312020302020202020200A2020382020392020312020302020202020200A2031312031322020322020302020202020200A2031312031332020312020302020202020200A2031302031312020312020302020202020200A2020352031302020312020302020202020200A4D2020454E44
Contributor: TAKESHITA H, INST. OF ADVANCED MATERIAL STUDY KYUSHU UNIV.
InstType: EI
InstName: JEOL JMS-01-SG-2
IoniMethod: _ENERGY 75 eV
IonPolarity: pos
Date: 2010-10-09 19:48:36+02:00
Num Peaks: 37
37 24 38 50 39 52 42 24 43 999 44 24 45 32 50 29 53 32 54 28 
60 27 61 39 62 44 63 86 64 88 65 90 69 22 73 80 74 31 75 37 
82 22 83 27 99 28 121 32 128 598 129 43 130 172 138 49 144 49 156 300 
158 140 172 76 174 27 180 25 198 232 199 23 200 82 
