Name: 1-VINYLPYRROLIDINE-2-ONE
MW: 111
Formula: C6H9NO
Synonym: MassBank: JP012059
Synonym: 1-VINYLPYRROLIDINE-2-ONE
Structure: 310A32310A312D56494E594C505952524F4C4944494E452D322D4F4E452E6D6F6C0A20204368656D447261773131323230393233303132440A2020382020382020302020302020302020302020302020302020302020303939392056323030300A2020202D302E303136302020202D302E3336383820202020302E30303030204E202020302020302020302020302020302020302020302020302020302020302020302020300A20202020302E3436383920202020302E3239383620202020302E303030302043202020302020302020302020302020302020302020302020302020302020302020302020300A20202020312E3235333520202020302E3034333720202020302E303030302043202020302020302020302020302020302020302020302020302020302020302020302020300A20202020312E323533352020202D302E3738313320202020302E303030302043202020302020302020302020302020302020302020302020302020302020302020302020300A20202020302E343638392020202D312E3033363220202020302E303030302043202020302020302020302020302020302020302020302020302020302020302020302020300A20202020302E3231343020202020312E3038333320202020302E30303030204F202020302020302020302020302020302020302020302020302020302020302020302020300A2020202D302E383431302020202D302E3336383820202020302E303030302043202020302020302020302020302020302020302020302020302020302020302020302020300A2020202D312E323533352020202D312E3038333320202020302E303030302043202020302020302020302020302020302020302020302020302020302020302020302020300A2020312020322020312020302020202020200A2020322020332020312020302020202020200A2020332020342020312020302020202020200A2020342020352020312020302020202020200A2020312020352020312020302020202020200A2020322020362020322020302020202020200A2020372020382020322020302020202020200A2020312020372020312020302020202020200A4D2020454E44
Contributor: SUMITA Y, KYOTO COLLEGE OF PHARMACY
InstType: EI
InstName: HITACHI M-80
IoniMethod: _ENERGY 20 eV
IonPolarity: pos
Date: 2010-10-09 19:48:36+02:00
Num Peaks: 20
27 27 28 194 29 17 30 18 39 16 40 10 41 93 42 68 54 86 55 72 
56 999 57 38 68 87 69 19 82 96 83 81 110 24 111 718 112 57 113 3 
