Name: ORTHO-FLUOROPHENOL
MW: 112
Formula: C6H5FO
Synonym: MassBank: JP011768
Synonym: ORTHO-FLUOROPHENOL
Synonym: 2-FLUOROPHENOL
Structure: 310A32310A4F5254484F2D464C554F524F5048454E4F4C2E6D6F6C0A20204368656D447261773031303331303133353132440A2020382020382020302020302020302020302020302020302020302020303939392056323030300A20202020302E3335373220202020302E3431323520202020302E303030302043202020302020302020302020302020302020302020302020302020302020302020302020300A2020202D302E3335373220202020302E3030303020202020302E303030302043202020302020302020302020302020302020302020302020302020302020302020302020300A2020202D302E333537322020202D302E3832353020202020302E303030302043202020302020302020302020302020302020302020302020302020302020302020302020300A20202020302E333537322020202D312E3233373520202020302E303030302043202020302020302020302020302020302020302020302020302020302020302020302020300A20202020312E303731372020202D302E3832353020202020302E303030302043202020302020302020302020302020302020302020302020302020302020302020302020300A20202020312E3037313720202020302E3030303020202020302E303030302043202020302020302020302020302020302020302020302020302020302020302020302020300A2020202D312E3037313720202020302E3431323520202020302E303030302046202020302020302020302020302020302020302020302020302020302020302020302020300A20202020302E3335373220202020312E3233373520202020302E30303030204F202020302020302020302020302020302020302020302020302020302020302020302020300A2020312020322020312020302020202020200A2020322020332020322020302020202020200A2020332020342020312020302020202020200A2020342020352020322020302020202020200A2020352020362020312020302020202020200A2020312020362020322020302020202020200A2020322020372020312020302020202020200A2020312020382020312020302020202020200A4D2020454E44
Contributor: TAJIMA S, GUNMA COLLEGE OF TECHNOLOGY
InstType: EI
InstName: HITACHI M-80A
IoniMethod: _ENERGY 70 eV
IonPolarity: pos
Date: 2010-10-09 19:48:36+02:00
Num Peaks: 55
26 31 27 31 29 61 31 103 33 13 37 79 38 141 39 145 40 13 41 12 
42 20 43 83 44 16 45 30 49 36 50 107 51 70 52 16 53 100 55 40 
56 174 57 420 58 74 60 20 61 90 62 131 63 529 64 678 65 111 66 34 
68 42 69 34 70 16 71 10 73 69 74 47 75 49 76 17 77 11 79 15 
80 24 81 124 82 52 83 497 84 92 86 12 91 13 92 436 93 40 94 22 
95 14 110 14 111 56 112 999 113 232 
