Name: MassBank: JP012027
MW: 146
Formula: C6H18Si2
Synonym: MassBank: JP012027
Synonym: 1,1,2-TRIMETHYL-2-PROPYLDISILANE
Structure: 310A32300A312C312C322D5452494D455448594C2D322D50524F50594C444953494C414E452E6D6F6C0A20204368656D447261773130323330393031343032440A2020382020372020302020302020302020302020302020302020302020303939392056323030300A2020202D312E3033313320202020302E3335373220202020302E303030302053692020302020302020302020302020302020302020302020302020302020302020302020300A2020202D302E3230363220202020302E3335373220202020302E303030302053692020302020302020302020302020302020302020302020302020302020302020302020300A20202020302E323036332020202D302E3335373220202020302E303030302043202020302020302020302020302020302020302020302020302020302020302020302020300A20202020312E303331332020202D302E3335373220202020302E303030302043202020302020302020302020302020302020302020302020302020302020302020302020300A20202020312E343433382020202D312E3037313720202020302E303030302043202020302020302020302020302020302020302020302020302020302020302020302020300A20202020302E3230363320202020312E3037313720202020302E303030302043202020302020302020302020302020302020302020302020302020302020302020302020300A2020202D312E343433382020202D302E3335373220202020302E303030302043202020302020302020302020302020302020302020302020302020302020302020302020300A2020202D312E3434333820202020312E3037313720202020302E303030302043202020302020302020302020302020302020302020302020302020302020302020302020300A2020312020322020312020302020202020200A2020332020342020312020302020202020200A2020342020352020312020302020202020200A2020322020332020312020302020202020200A2020322020362020312020302020202020200A2020312020372020312020302020202020200A2020312020382020312020302020202020200A4D2020454E44
Contributor: YAMAMOTO M, DEP. CHEMISTRY, FAC. SCIENCE, NARA WOMEN'S UNIV.
InstType: EI
InstName: HITACHI RMU-6M
IoniMethod: _ENERGY 70 eV
IonPolarity: pos
Date: 2010-10-09 19:48:36+02:00
Num Peaks: 44
17 17 18 76 27 17 28 22 29 43 31 87 39 13 41 13 42 26 43 416 
44 74 45 346 46 22 47 13 53 17 55 26 57 22 58 632 59 999 60 87 
61 35 69 43 70 17 71 100 72 17 73 247 74 26 85 43 86 481 87 216 
88 95 89 121 90 17 99 13 101 65 102 48 103 203 104 39 105 13 130 22 
131 26 146 234 147 35 148 17 
