Name: MassBank: JP011767
MW: 162
Formula: C7H5F3O
Synonym: MassBank: JP011767
Synonym: 2,2,2-TRIFLUORO-META-CRESOL
Synonym: META-HYDROXYBENZOTRIFLUORIDE
Structure: 322C322C322D545249464C554F524F2D4D4554412D435245534F4C2E6D6F6C0A20204368656D447261773132313930393034343832440A2031312031312020302020302020302020302020302020302020302020303939392056323030300A20202020302E343132352020202D302E3431323520202020302E303030302043202020302020302020302020302020302020302020302020302020302020302020302020300A2020202D302E3330323020202020302E3030303020202020302E303030302043202020302020302020302020302020302020302020302020302020302020302020302020300A2020202D312E303136342020202D302E3431323520202020302E303030302043202020302020302020302020302020302020302020302020302020302020302020302020300A2020202D312E303136342020202D312E3233373520202020302E303030302043202020302020302020302020302020302020302020302020302020302020302020302020300A2020202D302E333032302020202D312E3635303020202020302E303030302043202020302020302020302020302020302020302020302020302020302020302020302020300A20202020302E343132352020202D312E3233373520202020302E303030302043202020302020302020302020302020302020302020302020302020302020302020302020300A20202020312E3132373020202020302E3030303020202020302E30303030204F202020302020302020302020302020302020302020302020302020302020302020302020300A2020202D302E3330323020202020302E3832353020202020302E303030302043202020302020302020302020302020302020302020302020302020302020302020302020300A2020202D302E3330323020202020312E3635303020202020302E303030302046202020302020302020302020302020302020302020302020302020302020302020302020300A20202020302E3532333020202020302E3832353020202020302E303030302046202020302020302020302020302020302020302020302020302020302020302020302020300A2020202D312E3132373020202020302E3832353020202020302E303030302046202020302020302020302020302020302020302020302020302020302020302020302020300A2020312020322020312020302020202020200A2020322020332020322020302020202020200A2020332020342020312020302020202020200A2020342020352020322020302020202020200A2020352020362020312020302020202020200A2020312020362020322020302020202020200A2020312020372020312020302020202020200A2020322020382020312020302020202020200A2020382020392020312020302020202020200A2020382031302020312020312020202020200A2020382031312020312020312020202020200A4D2020454E44
Contributor: TAJIMA S, GUNMA COLLEGE OF TECHNOLOGY
InstType: EI
InstName: HITACHI M-80A
IoniMethod: _ENERGY 70 eV
IonPolarity: pos
Date: 2010-10-09 19:48:36+02:00
Num Peaks: 58
27 26 29 56 31 39 37 68 38 152 39 345 40 15 42 14 49 17 50 107 
51 55 53 81 55 16 56 18 57 93 61 58 62 110 63 301 64 97 65 209 
66 29 67 11 68 19 69 140 70 13 72 17 73 16 74 52 75 117 76 15 
81 36 83 122 84 77 87 16 88 83 89 18 92 23 93 27 94 16 95 65 
99 21 112 318 113 122 114 421 115 50 123 18 125 21 132 26 133 75 134 17 
141 39 142 11 143 471 144 45 145 73 161 95 162 999 163 81 
