Name: MassBank: JP012025
MW: 176
Formula: C6H20Si3
Synonym: MassBank: JP012025
Synonym: 1,1,2,2,3,3-HEXAMETHYLTRISILANE
Structure: 310A32320A312C312C322C322C332C332D484558414D455448594C54524953494C414E452E6D6F6C0A20204368656D447261773130323330393031303132440A2020392020382020302020302020302020302020302020302020302020303939392056323030300A2020202D302E3030303020202020302E3832353020202020302E303030302043202020302020302020302020302020302020302020302020302020302020302020302020300A2020202D302E3030303020202020302E3030303020202020302E303030302053692020302020302020302020302020302020302020302020302020302020302020302020300A20202020302E3832353020202020302E3030303020202020302E303030302053692020302020302020302020302020302020302020302020302020302020302020302020300A20202020312E3233373520202020302E3731343520202020302E303030302043202020302020302020302020302020302020302020302020302020302020302020302020300A20202020312E323337352020202D302E3731343520202020302E303030302043202020302020302020302020302020302020302020302020302020302020302020302020300A2020202D302E303030302020202D302E3832353020202020302E303030302043202020302020302020302020302020302020302020302020302020302020302020302020300A2020202D302E3832353020202020302E3030303020202020302E303030302053692020302020302020302020302020302020302020302020302020302020302020302020300A2020202D312E3233373520202020302E3731343520202020302E303030302043202020302020302020302020302020302020302020302020302020302020302020302020300A2020202D312E323337352020202D302E3731343520202020302E303030302043202020302020302020302020302020302020302020302020302020302020302020302020300A2020312020322020312020302020202020200A2020322020332020312020312020202020200A2020332020342020312020302020202020200A2020332020352020312020302020202020200A2020322020362020312020302020202020200A2020322020372020312020312020202020200A2020372020382020312020302020202020200A2020372020392020312020302020202020200A4D2020454E44
Contributor: YAMAMOTO M, DEP. CHEMISTRY, FAC. SCIENCE, NARA WOMEN'S UNIV.
InstType: EI
InstName: HITACHI RMU-6M
IoniMethod: _ENERGY 70 eV
IonPolarity: pos
Date: 2010-10-09 19:48:36+02:00
Num Peaks: 53
28 12 29 41 31 119 42 23 43 390 44 40 45 202 46 14 54 21 56 23 
57 28 58 51 59 424 60 28 61 14 69 61 70 21 71 34 73 999 74 78 
75 35 81 17 83 19 84 28 85 73 86 21 87 43 97 11 99 47 100 18 
101 190 102 86 103 40 113 15 115 61 116 867 117 800 118 161 119 54 121 15 
129 12 131 29 145 15 157 12 159 31 160 37 161 121 162 32 163 14 175 23 
176 81 177 18 178 12 
