Name: CHOLIC ACID
CAS: 81-25-4
MW: 408
Formula: C24H40O5
Synonym: MassBank: JP011901
Synonym: CHOLIC ACID
Synonym: 3ALPHA,7ALPHA,12ALPHA-TRIHYDROXY-5BETA-CHOLAN-24-OIC ACID
Structure: 43484F4C494320414349442E6D6F6C0A20204368656D447261773039303731303131343232440A2033382034312020302020302020302020302020302020302020302020303939392056323030300A2020202D322E353832352020202D302E3239393520202020302E303030302043202020302020302020302020302020302020302020302020302020302020302020302020300A2020202D332E323937302020202D302E3731323020202020302E303030302043202020302020302020302020302020302020302020302020302020302020302020302020300A2020202D332E323937302020202D312E3533373020202020302E303030302043202020302020302020302020302020302020302020302020302020302020302020302020300A2020202D332E383830332020202D322E3132303320202020302E30303030204F202020302020302020302020302020302020302020302020302020302020302020302020300A2020202D322E353832352020202D312E3934393520202020302E303030302043202020302020302020302020302020302020302020302020302020302020302020302020300A2020202D312E383638302020202D312E3533373020202020302E303030302043202020302020302020302020302020302020302020302020302020302020302020302020300A2020202D312E383638302020202D322E3336323020202020302E303030302048202020302020302020302020302020302020302020302020302020302020302020302020300A2020202D312E313533362020202D312E3934393520202020302E303030302043202020302020302020302020302020302020302020302020302020302020302020302020300A2020202D302E343339312020202D312E3533373020202020302E303030302043202020302020302020302020302020302020302020302020302020302020302020302020300A20202020302E323735342020202D312E3934393520202020302E30303030204F202020302020302020302020302020302020302020302020302020302020302020302020300A2020202D302E343339312020202D302E3731323020202020302E303030302043202020302020302020302020302020302020302020302020302020302020302020302020300A20202020302E323735342020202D302E3239393520202020302E303030302043202020302020302020302020302020302020302020302020302020302020302020302020300A20202020312E303630302020202D302E3535343420202020302E303030302043202020302020302020302020302020302020302020302020302020302020302020302020300A20202020312E3534343920202020302E3131333020202020302E303030302043202020302020302020302020302020302020302020302020302020302020302020302020300A20202020312E3036303020202020302E3738303520202020302E303030302043202020302020302020302020302020302020302020302020302020302020302020302020300A20202020312E3331343920202020312E3536353120202020302E303030302043202020302020302020302020302020302020302020302020302020302020302020302020300A20202020302E3237353420202020302E3532353520202020302E303030302043202020302020302020302020302020302020302020302020302020302020302020302020300A20202020302E3237353420202020312E3335303520202020302E303030302043202020302020302020302020302020302020302020302020302020302020302020302020300A2020202D302E3433393120202020302E3933383020202020302E303030302043202020302020302020302020302020302020302020302020302020302020302020302020300A2020202D302E3635323620202020312E3733343920202020302E30303030204F202020302020302020302020302020302020302020302020302020302020302020302020300A2020202D312E3135333620202020302E3532353520202020302E303030302043202020302020302020302020302020302020302020302020302020302020302020302020300A2020202D312E313533362020202D302E3239393520202020302E303030302043202020302020302020302020302020302020302020302020302020302020302020302020300A2020202D312E383638302020202D302E3731323020202020302E303030302043202020302020302020302020302020302020302020302020302020302020302020302020300A2020202D312E313533362020202D312E3132343520202020302E303030302043202020302020302020302020302020302020302020302020302020302020302020302020300A2020202D312E3836383020202020302E3131333020202020302E303030302048202020302020302020302020302020302020302020302020302020302020302020302020300A20202020302E323735342020202D312E3132343520202020302E303030302048202020302020302020302020302020302020302020302020302020302020302020302020300A20202020302E363837392020202D312E3031333920202020302E303030302048202020302020302020302020302020302020302020302020302020302020302020302020300A2020202D342E303933392020202D312E3332333420202020302E303030302048202020302020302020302020302020302020302020302020302020302020302020302020300A2020202D302E323235362020202D322E3333333920202020302E303030302048202020302020302020302020302020302020302020302020302020302020302020302020300A2020202D302E3032363620202020312E3635323520202020302E303030302048202020302020302020302020302020302020302020302020302020302020302020302020300A20202020312E3838353020202020302E3738303520202020302E303030302048202020302020302020302020302020302020302020302020302020302020302020302020300A20202020312E3532383520202020322E3336323020202020302E303030302048202020302020302020302020302020302020302020302020302020302020302020302020300A20202020322E3130363020202020312E3333303820202020302E303030302043202020302020302020302020302020302020302020302020302020302020302020302020300A20202020302E3532333920202020312E3739393420202020302E303030302043202020302020302020302020302020302020302020302020302020302020302020302020300A20202020322E3730343420202020312E3839383720202020302E303030302043202020302020302020302020302020302020302020302020302020302020302020302020300A20202020332E3439353420202020312E3636343420202020302E303030302043202020302020302020302020302020302020302020302020302020302020302020302020300A20202020342E3039333920202020322E3233323220202020302E30303030204F202020302020302020302020302020302020302020302020302020302020302020302020300A20202020332E3638383020202020302E3836323120202020302E30303030204F202020302020302020302020302020302020302020302020302020302020302020302020300A2020312020322020312020302020202020200A2020322020332020312020302020202020200A2020332020342020312020362020202020200A2020332020352020312020302020202020200A2020352020362020312020302020202020200A2020362020372020312020312020202020200A2020362020382020312020302020202020200A2020382020392020312020302020202020200A2020392031302020312020362020202020200A2020392031312020312020302020202020200A2031312031322020312020302020202020200A2031322031332020312020302020202020200A2031332031342020312020302020202020200A2031342031352020312020302020202020200A2031352031362020312020302020202020200A2031352031372020312020302020202020200A2031322031372020312020302020202020200A2031372031382020312020312020202020200A2031372031392020312020302020202020200A2031392032302020312020362020202020200A2031392032312020312020302020202020200A2032312032322020312020302020202020200A2031312032322020312020302020202020200A2032322032332020312020302020202020200A2020312032332020312020302020202020200A2020362032332020312020302020202020200A2032332032342020312020312020202020200A2032322032352020312020362020202020200A2031312032362020312020312020202020200A2031322032372020312020362020202020200A2020332032382020312020312020202020200A2020392032392020312020312020202020200A2031392033302020312020312020202020200A2031352033312020312020362020202020200A2031362033322020312020312020202020200A2031362033332020312020302020202020200A2031362033342020312020302020202020200A2033332033352020312020302020202020200A2033352033362020312020302020202020200A2033362033372020322020302020202020200A2033362033382020312020302020202020200A4D2020454E44
Contributor: YAMAMOTO M, DEP. CHEMISTRY, FAC. SCIENCE, NARA WOMEN'S UNIV.
InstType: EI
InstName: HITACHI M-2500
IoniMethod: _ENERGY 70 eV
IonPolarity: pos
Date: 2010-10-09 19:48:36+02:00
Num Peaks: 263
18 18 27 34 28 13 29 74 31 17 39 40 41 190 42 19 43 124 44 21 
45 24 53 58 54 16 55 325 56 27 57 81 59 38 60 66 65 23 66 14 
67 170 68 45 69 106 70 24 71 45 73 19 77 74 79 163 80 46 81 280 
82 46 83 97 84 40 85 39 91 161 92 41 93 220 94 96 95 205 96 36 
97 50 99 27 101 26 103 14 104 12 105 185 106 62 107 193 108 65 109 141 
110 34 111 35 112 10 115 24 116 13 117 59 118 43 119 139 120 57 121 132 
122 41 123 57 124 18 125 18 127 20 128 24 129 45 130 23 131 110 132 46 
133 122 134 45 135 78 136 24 137 36 138 11 139 12 140 21 141 27 142 26 
143 90 144 50 145 172 146 55 147 121 148 35 149 46 150 16 151 18 153 14 
154 10 155 38 156 21 157 100 158 54 159 130 160 45 161 73 162 33 163 48 
164 19 165 22 167 15 169 45 170 22 171 82 172 59 173 80 174 31 175 47 
176 16 177 23 178 14 179 13 180 12 181 44 182 20 183 44 184 21 185 69 
186 26 187 58 188 18 189 35 190 19 191 17 193 25 194 36 195 38 196 13 
197 60 198 29 199 98 200 39 201 99 202 27 203 37 204 11 205 12 207 17 
209 23 210 12 211 104 212 52 213 74 214 37 215 81 216 40 217 50 218 21 
219 20 221 10 223 13 225 37 226 247 227 150 228 49 229 99 230 33 231 35 
232 30 233 43 234 19 235 24 236 12 237 20 238 12 239 20 240 13 241 17 
242 11 243 28 244 110 245 68 246 82 247 226 248 70 249 28 250 11 251 28 
252 19 253 648 254 145 255 44 256 14 257 16 258 20 259 34 260 42 261 26 
262 16 263 15 265 18 269 52 270 23 271 862 272 196 273 39 274 13 278 11 
279 14 281 57 282 19 283 16 285 13 287 29 288 16 289 118 290 32 295 25 
297 18 298 16 299 68 300 127 301 41 302 16 310 12 311 16 312 22 313 65 
314 21 315 19 316 11 317 10 318 19 321 10 325 14 326 15 327 11 328 47 
329 38 330 17 331 19 337 16 338 11 339 166 340 48 341 39 342 17 343 292 
345 18 346 12 352 12 353 16 354 530 355 167 356 45 357 173 358 48 359 13 
361 21 362 12 370 24 371 17 372 999 373 294 374 50 375 18 388 25 390 55 
391 15 406 13 408 11 
