Name: TEREPHTHALIC ACID
CAS: 100-21-0
MW: 166
Formula: C8H6O4
Synonym: MassBank: JP011623
Synonym: TEREPHTHALIC ACID
Structure: 5445524550485448414C494320414349442E6D6F6C0A20204368656D447261773131313430393232323832440A2031322031322020302020302020302020302020302020302020302020303939392056323030300A2020202D302E3030303020202020312E3635303020202020302E303030302043202020302020302020302020302020302020302020302020302020302020302020302020300A2020202D302E3030303020202020302E3832353020202020302E303030302043202020302020302020302020302020302020302020302020302020302020302020302020300A20202020302E3731343520202020302E3431323520202020302E303030302043202020302020302020302020302020302020302020302020302020302020302020302020300A20202020302E373134352020202D302E3431323520202020302E303030302043202020302020302020302020302020302020302020302020302020302020302020302020300A2020202D302E303030302020202D302E3832353020202020302E303030302043202020302020302020302020302020302020302020302020302020302020302020302020300A2020202D302E303030302020202D312E3635303020202020302E303030302043202020302020302020302020302020302020302020302020302020302020302020302020300A2020202D302E373134352020202D302E3431323520202020302E303030302043202020302020302020302020302020302020302020302020302020302020302020302020300A2020202D302E3731343520202020302E3431323520202020302E303030302043202020302020302020302020302020302020302020302020302020302020302020302020300A2020202D302E3731343520202020322E3036323520202020302E30303030204F202020302020302020302020302020302020302020302020302020302020302020302020300A20202020302E3731343520202020322E3036323520202020302E30303030204F202020302020302020302020302020302020302020302020302020302020302020302020300A20202020302E373134352020202D322E3036323520202020302E30303030204F202020302020302020302020302020302020302020302020302020302020302020302020300A2020202D302E373134352020202D322E3036323520202020302E30303030204F202020302020302020302020302020302020302020302020302020302020302020302020300A2020312020322020312020302020202020200A2020322020332020312020302020202020200A2020332020342020322020302020202020200A2020342020352020312020302020202020200A2020352020362020312020302020202020200A2020352020372020322020302020202020200A2020372020382020312020302020202020200A2020322020382020322020302020202020200A2020312020392020322020302020202020200A2020312031302020312020302020202020200A2020362031312020322020302020202020200A2020362031322020312020302020202020200A4D2020454E44
Contributor: YAMAMOTO M, DEP. CHEMISTRY, FAC. SCIENCE, NARA WOMEN'S UNIV.
InstType: EI
InstName: HITACHI M-2500
IoniMethod: _ENERGY 70 eV
IonPolarity: pos
Date: 2010-10-09 19:48:36+02:00
Num Peaks: 33
37 18 38 29 39 61 44 11 45 74 49 13 50 125 51 84 52 18 53 25 
63 18 65 261 66 20 73 22 74 105 75 89 76 91 77 57 78 10 93 37 
103 29 104 36 105 29 120 12 121 280 122 29 138 23 148 11 149 999 150 90 
166 918 167 85 168 11 
