Name: MassBank: JP010255
MW: 328
Formula: C19H20O5
Synonym: MassBank: JP010255
Synonym: DIMETHYL (3R*,5S*,6R*)-3-PHENYL-2,3,4,5,6,7-HEXAHYDROINDEN-1(H)-ONE-5,6-DICARBOXYLATE
Structure: 303835315F44494D455448594C202833527E2C35537E2C36527E292D332D5048454E594C2D322C332C342C352C362C372D48455841485944524F494E44454E2D312848292D4F4E452D352C362D4449434152424F58594C4154452E6D6F6C0A20204368656D447261773130323031303138313732440A2032342032362020302020302020302020302020302020302020302020303939392056323030300A2020202D312E313632382020202D312E3134363820202020302E303030302043202020302020302020302020302020302020302020302020302020302020302020302020300A2020202D312E363437382020202D302E3437393420202020302E303030302043202020302020302020302020302020302020302020302020302020302020302020302020300A2020202D312E3136323820202020302E3138383020202020302E303030302043202020302020302020302020302020302020302020302020302020302020302020302020300A2020202D302E333738322020202D302E3036363920202020302E303030302043202020302020302020302020302020302020302020302020302020302020302020302020300A20202020302E3333363320202020302E3334353620202020302E303030302043202020302020302020302020302020302020302020302020302020302020302020302020300A20202020312E303530372020202D302E3036363920202020302E303030302043202020302020302020302020302020302020302020302020302020302020302020302020300A20202020312E303530372020202D302E3839313920202020302E303030302043202020302020302020302020302020302020302020302020302020302020302020302020300A20202020302E333336332020202D312E3330343420202020302E303030302043202020302020302020302020302020302020302020302020302020302020302020302020300A2020202D302E333738322020202D302E3839313920202020302E303030302043202020302020302020302020302020302020302020302020302020302020302020302020300A2020202D312E343137382020202D312E3933313520202020302E30303030204F202020302020302020302020302020302020302020302020302020302020302020302020300A20202020312E3736353220202020302E3334353620202020302E303030302043202020302020302020302020302020302020302020302020302020302020302020302020300A20202020322E343739372020202D302E3036363920202020302E30303030204F202020302020302020302020302020302020302020302020302020302020302020302020300A20202020312E3736353220202020312E3137303620202020302E30303030204F202020302020302020302020302020302020302020302020302020302020302020302020300A20202020312E373635322020202D312E3330343420202020302E303030302043202020302020302020302020302020302020302020302020302020302020302020302020300A20202020322E343739372020202D302E3839313920202020302E30303030204F202020302020302020302020302020302020302020302020302020302020302020302020300A20202020312E373635322020202D322E3132393420202020302E30303030204F202020302020302020302020302020302020302020302020302020302020302020302020300A2020202D312E3431373820202020302E3937323720202020302E303030302043202020302020302020302020302020302020302020302020302020302020302020302020300A2020202D322E3232343720202020312E3134343220202020302E303030302043202020302020302020302020302020302020302020302020302020302020302020302020300A2020202D322E3437393720202020312E3932383820202020302E303030302043202020302020302020302020302020302020302020302020302020302020302020302020300A2020202D312E3932373620202020322E3534313920202020302E303030302043202020302020302020302020302020302020302020302020302020302020302020302020300A2020202D312E3132303720202020322E3337303420202020302E303030302043202020302020302020302020302020302020302020302020302020302020302020302020300A2020202D302E3836353720202020312E3538353820202020302E303030302043202020302020302020302020302020302020302020302020302020302020302020302020300A20202020312E3035303720202020312E3538333120202020302E303030302043202020302020302020302020302020302020302020302020302020302020302020302020300A20202020312E303530372020202D322E3534313920202020302E303030302043202020302020302020302020302020302020302020302020302020302020302020302020300A2020312020322020312020302020202020200A2020322020332020312020302020202020200A2020332020342020312020302020202020200A2020342020352020312020302020202020200A2020352020362020312020302020202020200A2020362020372020312020302020202020200A2020372020382020312020302020202020200A2020382020392020312020302020202020200A2020312020392020312020302020202020200A2020342020392020322020302020202020200A2020312031302020322020302020202020200A2031312031322020322020302020202020200A2031312031332020312020302020202020200A2020362031312020312020362020202020200A2031342031352020322020302020202020200A2031342031362020312020302020202020200A2020372031342020312020362020202020200A2031372031382020312020302020202020200A2031382031392020322020302020202020200A2031392032302020312020302020202020200A2032302032312020322020302020202020200A2032312032322020312020302020202020200A2031372032322020322020302020202020200A2020332031372020312020362020202020200A2031332032332020312020302020202020200A2031362032342020312020302020202020200A4D2020454E44
Contributor: KANEMASA S, INST. OF ADVANCED MATERIAL STUDY KYUSHU UNIV.
InstType: EI
InstName: JEOL JMS-01-SG-2
IoniMethod: _ENERGY 75 eV
IonPolarity: pos
Date: 2010-10-09 19:48:36+02:00
Num Peaks: 34
51 91 59 952 77 217 78 161 79 54 91 137 103 219 104 155 105 292 115 105 
128 67 131 177 132 60 141 76 152 109 153 80 165 282 166 126 167 489 168 86 
178 98 179 119 180 68 181 165 208 90 209 999 210 171 268 297 269 492 270 113 
297 221 298 56 328 858 329 199 
