Name: 1-METHYL-1-PHENYLETHANOL
MW: 136
Formula: C9H12O
Synonym: MassBank: JP011188
Synonym: 1-METHYL-1-PHENYLETHANOL
Structure: 312D4D455448594C2D312D5048454E594C455448414E4F4C2E6D6F6C0A20204368656D447261773131313930393136323132440A2031302031302020302020302020302020302020302020302020302020303939392056323030300A20202020302E3832353020202020302E3030303020202020302E303030302043202020302020302020302020302020302020302020302020302020302020302020302020300A20202020302E3832353020202020302E3832353020202020302E303030302043202020302020302020302020302020302020302020302020302020302020302020302020300A20202020302E3030303020202020302E3030303020202020302E303030302043202020302020302020302020302020302020302020302020302020302020302020302020300A2020202D302E343132352020202D302E3731343520202020302E303030302043202020302020302020302020302020302020302020302020302020302020302020302020300A2020202D312E323337352020202D302E3731343520202020302E303030302043202020302020302020302020302020302020302020302020302020302020302020302020300A2020202D312E3635303020202020302E3030303020202020302E303030302043202020302020302020302020302020302020302020302020302020302020302020302020300A2020202D312E3233373520202020302E3731343520202020302E303030302043202020302020302020302020302020302020302020302020302020302020302020302020300A2020202D302E3431323520202020302E3731343520202020302E303030302043202020302020302020302020302020302020302020302020302020302020302020302020300A20202020302E383235302020202D302E3832353020202020302E303030302043202020302020302020302020302020302020302020302020302020302020302020302020300A20202020312E3635303020202020302E3030303020202020302E30303030204F202020302020302020302020302020302020302020302020302020302020302020302020300A2020312020322020312020302020202020200A2020332020342020312020302020202020200A2020342020352020322020302020202020200A2020352020362020312020302020202020200A2020362020372020322020302020202020200A2020372020382020312020302020202020200A2020332020382020322020302020202020200A2020312020332020312020302020202020200A2020312020392020312020302020202020200A2020312031302020312020302020202020200A4D2020454E44
Contributor: SAWADA M, THE INST. OF SCIENTIFIC AND INDUSTRIALRESEARCH OSAKA UNIV.
InstType: EI
InstName: JEOL JMS-DX-300
IoniMethod: _ENERGY 70 eV
IonPolarity: pos
Date: 2010-10-09 19:48:36+02:00
Num Peaks: 58
34 12 38 17 39 109 40 178 41 78 42 45 43 743 44 172 45 24 50 62 
51 186 52 42 53 17 55 31 56 10 57 30 58 16 59 87 60 28 61 128 
62 20 63 37 64 10 65 51 66 12 67 12 69 18 70 10 74 26 75 26 
76 21 77 269 78 180 79 38 83 12 85 12 89 16 91 128 92 26 93 44 
94 12 95 12 97 10 102 30 103 51 104 12 105 100 106 18 115 31 117 42 
118 79 119 33 120 19 121 999 122 176 123 14 136 345 137 38 
