Name: CHLOROETHYLMETHYL(PARA-TOLYL)SILANE
MW: 198
Formula: C10H15ClSi
Synonym: MassBank: JP011942
Synonym: CHLOROETHYLMETHYL(PARA-TOLYL)SILANE
Structure: 43484C4F524F455448594C4D455448594C28504152412D544F4C594C2953494C414E452E6D6F6C0A20204368656D447261773039303731303034333232440A2031322031322020302020302020302020302020302020302020302020303939392056323030300A2020202D302E3230363220202020312E3233373520202020302E303030302053692020302020302020302020302020302020302020302020302020302020302020302020300A2020202D302E3230363220202020302E3431323520202020302E303030302043202020302020302020302020302020302020302020302020302020302020302020302020300A20202020302E3530383220202020302E3030303020202020302E303030302043202020302020302020302020302020302020302020302020302020302020302020302020300A2020202D302E323036322020202D312E3233373520202020302E303030302043202020302020302020302020302020302020302020302020302020302020302020302020300A2020202D302E393230372020202D302E3030303020202020302E303030302043202020302020302020302020302020302020302020302020302020302020302020302020300A20202020302E353038322020202D302E3832353020202020302E303030302043202020302020302020302020302020302020302020302020302020302020302020302020300A2020202D302E393230372020202D302E3832353020202020302E303030302043202020302020302020302020302020302020302020302020302020302020302020302020300A2020202D302E323036322020202D322E3036323520202020302E303030302043202020302020302020302020302020302020302020302020302020302020302020302020300A2020202D302E3230363220202020322E3036323520202020302E3030303020436C2020302020302020302020302020302020302020302020302020302020302020302020300A20202020302E3631383820202020312E3233373520202020302E303030302043202020302020302020302020302020302020302020302020302020302020302020302020300A2020202D312E3033313320202020312E3233373520202020302E303030302043202020302020302020302020302020302020302020302020302020302020302020302020300A20202020312E3033313320202020302E3532333020202020302E303030302043202020302020302020302020302020302020302020302020302020302020302020302020300A2020322020332020312020302020202020200A2020322020352020322020302020202020200A2020332020362020322020302020202020200A2020342020362020312020302020202020200A2020342020372020322020302020202020200A2020352020372020312020302020202020200A2020342020382020312020302020202020200A2020312020322020312020302020202020200A2020312020392020312020302020202020200A2020312031302020312020302020202020200A2020312031312020312020302020202020200A2031302031322020312020302020202020200A4D2020454E44
Contributor: ISHIKAWA M, HIROSHIMA UNIV. FAC. TEQUNOLOGY
InstType: EI
InstName: SHIMADZU QP-1000
IoniMethod: _ENERGY 70 eV
IonPolarity: pos
Date: 2010-10-09 19:48:36+02:00
Num Peaks: 40
51 42 53 74 63 495 64 32 65 295 66 21 67 32 77 74 78 63 79 158 
80 21 82 32 89 32 91 368 92 32 93 32 103 53 104 11 105 137 106 21 
107 21 117 21 119 63 131 32 135 32 141 21 153 11 155 116 156 11 157 32 
163 11 168 53 169 999 170 137 171 368 172 32 183 21 198 137 199 11 200 42 
