Name: METHYL BETA-D-RIBOFURANOSIDE
MW: 164
Formula: C6H12O5
Synonym: MassBank: JP011153
Synonym: METHYL BETA-D-RIBOFURANOSIDE
Structure: 4D455448594C20424554412D442D5249424F465552414E4F534944452E6D6F6C0A20204368656D447261773038313231303030313332440A2031312031312020302020302020302020302020302020302020302020303939392056323030300A20202020312E3538373220202020302E3736373320202020302E30303030204F202020302020302020302020302020302020302020302020302020302020302020302020300A20202020302E3931393820202020302E3238323420202020302E303030302043202020302020302020302020302020302020302020302020302020302020302020302020300A20202020302E393139382020202D302E3534323620202020302E303030302043202020302020302020302020302020302020302020302020302020302020302020302020300A20202020312E353837322020202D312E3032373520202020302E30303030204F202020302020302020302020302020302020302020302020302020302020302020302020300A20202020302E313335322020202D302E3739373520202020302E303030302043202020302020302020302020302020302020302020302020302020302020302020302020300A2020202D302E313139382020202D312E3538323220202020302E30303030204F202020302020302020302020302020302020302020302020302020302020302020302020300A2020202D302E333439372020202D302E3133303120202020302E303030302043202020302020302020302020302020302020302020302020302020302020302020302020300A20202020302E3133353220202020302E3533373320202020302E30303030204F202020302020302020302020302020302020302020302020302020302020302020302020300A2020202D312E313734372020202D302E3133303120202020302E303030302043202020302020302020302020302020302020302020302020302020302020302020302020300A2020202D312E3538373220202020302E3538343420202020302E30303030204F202020302020302020302020302020302020302020302020302020302020302020302020300A20202020312E3435383220202020312E3538323220202020302E303030302043202020302020302020302020302020302020302020302020302020302020302020302020300A2020322020312020312020312020202020200A2020322020332020312020302020202020200A2020332020342020312020362020202020200A2020332020352020312020302020202020200A2020352020362020312020362020202020200A2020352020372020312020302020202020200A2020372020382020312020302020202020200A2020372020392020312020312020202020200A2020392031302020312020302020202020200A2020322020382020312020302020202020200A2020312031312020312020302020202020200A4D2020454E44
Contributor: SAWADA M, THE INST. OF SCIENTIFIC AND INDUSTRIALRESEARCH OSAKA UNIV.
InstType: EI
InstName: JEOL JMS-DX-300
IoniMethod: _ENERGY 70 eV
IonPolarity: pos
Date: 2010-10-09 19:48:36+02:00
Num Peaks: 42
27 77 30 26 33 104 39 23 40 29 41 52 42 57 43 168 44 61 45 499 
46 12 47 14 54 22 55 90 56 40 57 438 58 119 59 70 60 115 61 243 
68 89 69 41 71 84 72 33 73 999 74 136 75 240 76 10 83 16 85 95 
86 177 87 151 88 12 101 18 103 26 104 76 105 43 115 48 116 14 117 26 
133 347 134 20 
