Name: MassBank: JP010323
MW: 200
Formula: C10H16O4
Synonym: MassBank: JP010323
Synonym: CIS-CYCLOHEXANE-1,2-DICARBOXYLIC ACID DIMETHYL ESTER
Structure: 4349532D4359434C4F484558414E452D312C322D4449434152424F58594C494320414349442044494D455448594C2045535445522E6D6F6C0A20204368656D447261773039313331303133343932440A2031362031362020302020302020302020302020302020302020302020303939392056323030300A2020202D302E313231342020202D302E3339393620202020302E303030302043202020302020302020302020302020302020302020302020302020302020302020302020300A20202020302E3239313120202020302E3331343920202020302E303030302043202020302020302020302020302020302020302020302020302020302020302020302020300A20202020312E3131363120202020302E3331343920202020302E303030302043202020302020302020302020302020302020302020302020302020302020302020302020300A20202020312E353238362020202D302E3339393620202020302E303030302043202020302020302020302020302020302020302020302020302020302020302020302020300A20202020312E313136312020202D312E3131343020202020302E303030302043202020302020302020302020302020302020302020302020302020302020302020302020300A20202020302E323931312020202D312E3131343020202020302E303030302043202020302020302020302020302020302020302020302020302020302020302020302020300A2020202D302E373533342020202D302E3932393920202020302E303030302043202020302020302020302020302020302020302020302020302020302020302020302020300A2020202D312E353238362020202D302E3634373720202020302E30303030204F202020302020302020302020302020302020302020302020302020302020302020302020300A2020202D302E363130312020202D312E3734323320202020302E30303030204F202020302020302020302020302020302020302020302020302020302020302020302020300A2020202D302E3731363720202020302E3638313720202020302E303030302043202020302020302020302020302020302020302020302020302020302020302020302020300A2020202D312E3334383720202020302E3135313420202020302E30303030204F202020302020302020302020302020302020302020302020302020302020302020302020300A2020202D302E3836303020202020312E3439343220202020302E30303030204F202020302020302020302020302020302020302020302020302020302020302020302020300A20202020302E313635312020202D322E3032343520202020302E303030302043202020302020302020302020302020302020302020302020302020302020302020302020300A2020202D302E3232383020202020322E3032343520202020302E303030302043202020302020302020302020302020302020302020302020302020302020302020302020300A2020202D302E3735333420202020302E3133303720202020302E303030302048202020302020302020302020302020302020302020302020302020302020302020302020300A20202020302E3433343420202020312E3132373420202020302E303030302048202020302020302020302020302020302020302020302020302020302020302020302020300A2020312020322020312020302020202020200A2020322020332020312020302020202020200A2020332020342020312020302020202020200A2020342020352020312020302020202020200A2020352020362020312020302020202020200A2020312020362020312020302020202020200A2020372020382020322020302020202020200A2020372020392020312020302020202020200A2020312020372020312020362020202020200A2031302031312020322020302020202020200A2031302031322020312020302020202020200A2020322031302020312020362020202020200A2020392031332020312020302020202020200A2031322031342020312020302020202020200A2020312031352020312020312020202020200A2020322031362020312020312020202020200A4D2020454E44
Contributor: TAJIMA S, GUNMA COLLEGE OF TECHNOLOGY
InstType: EI
InstName: HITACHI M-80A
IoniMethod: _ENERGY 70 eV
IonPolarity: pos
Date: 2010-10-09 19:48:36+02:00
Num Peaks: 68
15 421 26 30 27 202 29 126 30 36 31 84 33 25 38 14 39 267 40 41 
41 313 42 31 43 118 45 57 50 19 51 55 52 35 53 202 54 178 55 132 
56 13 57 11 58 21 59 336 60 10 61 12 65 38 66 65 67 248 68 50 
69 40 71 34 74 35 77 85 78 18 79 206 80 425 81 999 82 118 83 14 
85 20 87 48 94 12 95 12 97 17 98 15 99 20 100 41 101 32 107 15 
108 331 109 169 110 17 111 63 112 21 113 55 114 21 125 35 126 40 127 15 
136 18 139 11 140 569 141 83 142 10 168 198 169 194 170 21 
