Name: MassBank: JP010505
MW: 317
Formula: C19H27NO3
Synonym: MassBank: JP010505
Synonym: N-BENZYL-3-CYCLOHEXAENCARBONYLOXY-2,2-DIMETHYLPROPANAMIDE
Structure: 303930325F4E2D42454E5A594C2D332D4359434C4F48455841454E434152424F4E594C4F58592D322C322D44494D455448594C50524F50414E414D4944452E6D6F6C0A20204368656D447261773130323031303138333532440A2032332032342020302020302020302020302020302020302020302020303939392056323030300A20202020302E3939303820202020302E3034303520202020302E303030302043202020302020302020302020302020302020302020302020302020302020302020302020300A20202020312E373035332020202D302E3337323020202020302E303030302043202020302020302020302020302020302020302020302020302020302020302020302020300A20202020312E323932382020202D312E3038363520202020302E303030302043202020302020302020302020302020302020302020302020302020302020302020302020300A20202020302E3939303820202020302E3836353520202020302E30303030204F202020302020302020302020302020302020302020302020302020302020302020302020300A20202020302E323736332020202D302E3337323020202020302E30303030204E202020302020302020302020302020302020302020302020302020302020302020302020300A20202020322E3131373820202020302E3334323420202020302E303030302043202020302020302020302020302020302020302020302020302020302020302020302020300A20202020322E343139372020202D302E3738343520202020302E303030302043202020302020302020302020302020302020302020302020302020302020302020302020300A2020202D302E3433383120202020302E3034303520202020302E303030302043202020302020302020302020302020302020302020302020302020302020302020302020300A2020202D302E3433383120202020302E3836353520202020302E303030302043202020302020302020302020302020302020302020302020302020302020302020302020300A2020202D312E3135323620202020312E3237383020202020302E303030302043202020302020302020302020302020302020302020302020302020302020302020302020300A2020202D312E3135323620202020322E3130333020202020302E303030302043202020302020302020302020302020302020302020302020302020302020302020302020300A2020202D302E3433383120202020322E3531353520202020302E303030302043202020302020302020302020302020302020302020302020302020302020302020302020300A20202020302E3237363320202020322E3130333020202020302E303030302043202020302020302020302020302020302020302020302020302020302020302020302020300A20202020302E3237363320202020312E3237383020202020302E303030302043202020302020302020302020302020302020302020302020302020302020302020302020300A20202020302E343637382020202D312E3038363520202020302E30303030204F202020302020302020302020302020302020302020302020302020302020302020302020300A20202020302E303535332020202D312E3830313020202020302E303030302043202020302020302020302020302020302020302020302020302020302020302020302020300A20202020302E343637382020202D322E3531353520202020302E30303030204F202020302020302020302020302020302020302020302020302020302020302020302020300A2020202D302E373639372020202D312E3830313020202020302E303030302043202020302020302020302020302020302020302020302020302020302020302020302020300A2020202D312E313832322020202D322E3531353520202020302E303030302043202020302020302020302020302020302020302020302020302020302020302020302020300A2020202D322E303037322020202D322E3531353520202020302E303030302043202020302020302020302020302020302020302020302020302020302020302020302020300A2020202D322E343139372020202D312E3830313020202020302E303030302043202020302020302020302020302020302020302020302020302020302020302020302020300A2020202D322E303037322020202D312E3038363520202020302E303030302043202020302020302020302020302020302020302020302020302020302020302020302020300A2020202D312E313832322020202D312E3038363520202020302E303030302043202020302020302020302020302020302020302020302020302020302020302020302020300A2020312020322020312020302020202020200A2020322020332020312020302020202020200A2020312020342020322020302020202020200A2020312020352020312020302020202020200A2020322020362020312020302020202020200A2020322020372020312020302020202020200A2020382020392020312020302020202020200A2020392031302020312020302020202020200A2031302031312020322020302020202020200A2031312031322020312020302020202020200A2031322031332020322020302020202020200A2031332031342020312020302020202020200A2020392031342020322020302020202020200A2020352020382020312020302020202020200A2031362031372020322020302020202020200A2031382031392020312020302020202020200A2031392032302020312020302020202020200A2032302032312020312020302020202020200A2032312032322020312020302020202020200A2032322032332020312020302020202020200A2031382032332020312020302020202020200A2031362031382020312020302020202020200A2031352031362020312020302020202020200A2020332031352020312020302020202020200A4D2020454E44
Contributor: TSUNODA T, FACULTY OF PHARMACEUTICAL SCIENCES, TOKUSHIMA BUNRI UNIV.
InstType: EI
InstName: SHIMADZU LKB-9000B
IoniMethod: _ENERGY 70 eV
IonPolarity: pos
Date: 2010-10-09 19:48:36+02:00
Num Peaks: 16
28 198 29 52 32 78 41 182 55 267 56 181 65 58 73 97 83 359 91 524 
106 999 107 109 129 109 206 497 207 120 317 27 
