Name: MassBank: JP011350
MW: 118
Formula: C4H14Si2
Synonym: MassBank: JP011350
Synonym: 1,1,2,2-TETRAMETHYLDISILANE (D2)
Structure: 310A32310A312C312C322C322D54455452414D455448594C444953494C414E4520284432292E6D6F6C0A20204368656D447261773130323330393031323832440A2020382020372020302020302020302020302020302020302020302020303939392056323030300A20202020302E3431323520202020302E3030303020202020302E303030302053692020302020302020302020302020302020302020302020302020302020302020302020300A2020202D302E3431323520202020302E3030303020202020302E303030302053692020302020302020302020302020302020302020302020302020302020302020302020300A2020202D302E343132352020202D302E3832353020202020302E303030302043202020302020302020302020302020302020302020302020302020302020302020302020300A2020202D312E3233373520202020302E3030303020202020302E303030302043202020302020302020302020302020302020302020302020302020302020302020302020300A20202020302E3431323520202020302E3832353020202020302E303030302043202020302020302020302020302020302020302020302020302020302020302020302020300A20202020312E3233373520202020302E3030303020202020302E303030302043202020302020302020302020302020302020302020302020302020302020302020302020300A20202020302E343132352020202D302E3832353020202020302E303030302048202020312020302020302020302020302020302020302020302020302020302020302020300A2020202D302E3431323520202020302E3832353020202020302E303030302048202020312020302020302020302020302020302020302020302020302020302020302020300A2020312020322020312020302020202020200A2020322020332020312020302020202020200A2020322020342020312020302020202020200A2020312020352020312020302020202020200A2020312020362020312020302020202020200A2020312020372020312020302020202020200A2020322020382020312020302020202020200A4D202049534F202032202020372020203220202038202020320A4D2020454E44
Contributor: YAMAMOTO M, DEP. CHEMISTRY, FAC. SCIENCE, NARA WOMEN'S UNIV.
InstType: EI
InstName: HITACHI RMU-6M
IoniMethod: _ENERGY 70 eV
IonPolarity: pos
Date: 2010-10-09 19:48:36+02:00
Num Peaks: 55
28 33 29 49 30 10 31 79 32 52 39 12 42 30 43 389 44 104 45 65 
46 33 47 18 50 16 51 17 52 18 53 20 55 18 56 12 57 18 58 679 
59 121 60 999 61 85 62 37 69 42 70 24 71 20 72 18 73 786 74 122 
75 40 76 11 77 18 81 12 83 10 84 12 85 18 86 31 87 18 88 20 
89 16 99 10 101 40 102 35 103 102 104 24 105 312 106 47 107 26 116 10 
118 47 119 18 120 340 121 52 122 29 
