Name: MALIC ANHYDRIDE
MW: 98
Formula: C4H2O3
Synonym: MassBank: JP011564
Synonym: MALIC ANHYDRIDE
Structure: 310A31390A313035305F4D414C45494320414E485944524944452E6D6F6C0A20204368656D447261773130323031303230303132440A2020372020372020302020302020302020302020302020302020302020303939392056323030300A2020202D302E373133362020202D302E3239373520202020302E303030302043202020302020302020302020302020302020302020302020302020302020302020302020300A2020202D302E3731333620202020302E3532373520202020302E303030302043202020302020302020302020302020302020302020302020302020302020302020302020300A20202020302E3037313120202020302E3738323420202020302E303030302043202020302020302020302020302020302020302020302020302020302020302020302020300A20202020302E3535363020202020302E3131353020202020302E303030302043202020302020302020302020302020302020302020302020302020302020302020302020300A2020202D312E333831302020202D302E3738323420202020302E30303030204F202020302020302020302020302020302020302020302020302020302020302020302020300A20202020312E3338313020202020302E3131353020202020302E30303030204F202020302020302020302020302020302020302020302020302020302020302020302020300A20202020302E303731312020202D302E3535323420202020302E30303030204F202020302020302020302020302020302020302020302020302020302020302020302020300A2020312020322020312020302020202020200A2020322020332020322020302020202020200A2020332020342020312020302020202020200A2020312020352020322020302020202020200A2020342020362020322020302020202020200A2020312020372020312020302020202020200A2020342020372020312020302020202020200A4D2020454E44
Contributor: YAMAMOTO M, DEP. CHEMISTRY, FAC. SCIENCE, NARA WOMEN'S UNIV.
InstType: EI
InstName: HITACHI RMU-6M
IoniMethod: _ENERGY 20 eV
IonPolarity: pos
Date: 2010-10-09 19:48:36+02:00
Num Peaks: 15
26 819 27 29 28 136 32 45 42 12 44 25 53 29 54 999 55 48 70 17 
98 399 99 20 100 16 113 19 118 20 
