Name: (E)-1-METHYL-2-(METHYLCARBAMOYL)VINYL DIMETHYL PHOSPHATE
MW: 223
Formula: C7H14NO5P
Synonym: MassBank: JP010426
Synonym: (E)-1-METHYL-2-(METHYLCARBAMOYL)VINYL DIMETHYL PHOSPHATE
Structure: 2845292D312D4D455448594C2D322D284D455448594C43415242414D4F594C2956494E594C2044494D455448594C2050484F5350484154452E6D6F6C0A20204368656D447261773130323230393132303832440A2031352031342020302020302020302020302020302020302020302020303939392056323030300A2020202D322E323638372020202D302E3039353720202020302E30303030204F202020302020302020302020302020302020302020302020302020302020302020302020300A2020202D312E343433382020202D302E3039353720202020302E303030302050202020302020302020302020302020302020302020302020302020302020302020302020300A2020202D322E363831322020202D302E3831303220202020302E303030302043202020302020302020302020302020302020302020302020302020302020302020302020300A2020202D302E363138382020202D302E3039353720202020302E30303030204F202020302020302020302020302020302020302020302020302020302020302020302020300A2020202D312E3434333820202020302E3732393320202020302E30303030204F202020302020302020302020302020302020302020302020302020302020302020302020300A2020202D312E343433382020202D302E3932303720202020302E30303030204F202020302020302020302020302020302020302020302020302020302020302020302020300A2020202D302E373239332020202D312E3333333220202020302E303030302043202020302020302020302020302020302020302020302020302020302020302020302020300A20202020302E323036322020202D302E3039353720202020302E303030302043202020302020302020302020302020302020302020302020302020302020302020302020300A20202020302E363138382020202D302E3831303220202020302E303030302043202020302020302020302020302020302020302020302020302020302020302020302020300A20202020302E3631383820202020302E3631383820202020302E303030302043202020302020302020302020302020302020302020302020302020302020302020302020300A20202020302E3230363220202020312E3333333220202020302E303030302048202020302020302020302020302020302020302020302020302020302020302020302020300A20202020312E3434333820202020302E3631383820202020302E303030302043202020302020302020302020302020302020302020302020302020302020302020302020300A20202020312E3835363320202020312E3333333220202020302E30303030204F202020302020302020302020302020302020302020302020302020302020302020302020300A20202020312E383536332020202D302E3039353720202020302E30303030204E202020302020302020302020302020302020302020302020302020302020302020302020300A20202020322E363831322020202D302E3039353720202020302E303030302043202020302020302020302020302020302020302020302020302020302020302020302020300A2020312020322020312020302020202020200A2020312020332020312020302020202020200A2020322020342020312020302020202020200A2020322020352020322020302020202020200A2020322020362020312020302020202020200A2020362020372020312020302020202020200A2020342020382020312020302020202020200A2020382020392020312020302020202020200A2020382031302020322020302020202020200A2031302031312020312020302020202020200A2031302031322020312020302020202020200A2031322031332020322020302020202020200A2031322031342020312020302020202020200A2031342031352020312020302020202020200A4D2020454E44
Contributor: UOEH
InstType: EI
InstName: JEOL JMS-DX-303
IoniMethod: _ENERGY 70 eV
IonPolarity: pos
Date: 2010-10-09 19:48:36+02:00
Num Peaks: 27
39 26 43 28 44 22 50 12 58 83 66 19 67 198 68 18 69 22 79 26 
82 19 93 10 95 21 96 29 97 184 98 20 109 105 113 11 127 999 128 30 
129 10 164 40 165 11 166 12 192 195 193 118 223 86 
