Name: DIISOPROPYL MALONATE
MW: 188
Formula: C9H16O4
Synonym: MassBank: JP010834
Synonym: DIISOPROPYL MALONATE
Structure: 444949534F50524F50594C204D414C4F4E4154452E6D6F6C0A20204368656D447261773039323231303030343732440A2031332031322020302020302020302020302020302020302020302020303939392056323030300A2020202D302E333537322020202D302E3832353020202020302E303030302043202020302020302020302020302020302020302020302020302020302020302020302020300A20202020302E333537322020202D312E3233373520202020302E303030302043202020302020302020302020302020302020302020302020302020302020302020302020300A20202020312E303731372020202D302E3832353020202020302E303030302043202020302020302020302020302020302020302020302020302020302020302020302020300A2020202D302E3335373220202020302E3030303020202020302E30303030204F202020302020302020302020302020302020302020302020302020302020302020302020300A2020202D312E303731372020202D312E3233373520202020302E30303030204F202020302020302020302020302020302020302020302020302020302020302020302020300A20202020312E373836322020202D312E3233373520202020302E30303030204F202020302020302020302020302020302020302020302020302020302020302020302020300A20202020312E3037313720202020302E3030303020202020302E30303030204F202020302020302020302020302020302020302020302020302020302020302020302020300A2020202D312E373836322020202D302E3832353020202020302E303030302043202020302020302020302020302020302020302020302020302020302020302020302020300A2020202D322E353030362020202D312E3233373520202020302E303030302043202020302020302020302020302020302020302020302020302020302020302020302020300A2020202D312E3738363220202020302E3030303020202020302E303030302043202020302020302020302020302020302020302020302020302020302020302020302020300A20202020312E3738363220202020302E3431323520202020302E303030302043202020302020302020302020302020302020302020302020302020302020302020302020300A20202020312E3738363220202020312E3233373520202020302E303030302043202020302020302020302020302020302020302020302020302020302020302020302020300A20202020322E3530303620202020302E3030303020202020302E303030302043202020302020302020302020302020302020302020302020302020302020302020302020300A2020312020322020312020302020202020200A2020322020332020312020302020202020200A2020312020342020322020302020202020200A2020312020352020312020302020202020200A2020332020362020322020302020202020200A2020332020372020312020302020202020200A2020382020392020312020302020202020200A2020382031302020312020302020202020200A2020352020382020312020302020202020200A2031312031322020312020302020202020200A2031312031332020312020302020202020200A2020372031312020312020302020202020200A4D2020454E44
Contributor: HAMAMATSU UNIV. SCHOOL OF MEDICINE
InstType: EI
InstName: HITACHI RMU-6M
IoniMethod: _ENERGY 70 eV
IonPolarity: pos
Date: 2010-10-09 19:48:36+02:00
Num Peaks: 29
15 25 27 126 28 17 29 2 31 17 39 59 40 13 41 18 42 118 43 999 
44 34 45 12 57 17 59 256 60 143 61 2 69 21 87 370 88 17 102 10 
105 324 106 13 111 147 118 2 129 294 130 21 131 38 147 5 172 21 
