Name: BIS(DIMETHYLSILYL)METHANE (D2)
MW: 132
Formula: C5H16Si2
Synonym: MassBank: JP012006
Synonym: BIS(DIMETHYLSILYL)METHANE (D2)
Structure: 310A32330A4249532844494D455448594C53494C594C294D455448414E4520284432292E6D6F6C0A20204368656D447261773039303631303030333932440A2020392020382020302020302020302020302020302020302020302020303939392056323030300A2020202D302E373134352020202D302E3030303020202020302E303030302053692020302020302020302020302020302020302020302020302020302020302020302020300A20202020302E3030303020202020302E3431323520202020302E303030302043202020302020302020302020302020302020302020302020302020302020302020302020300A20202020302E373134352020202D302E3030303020202020302E303030302053692020302020302020302020302020302020302020302020302020302020302020302020300A2020202D312E343238392020202D302E3431323520202020302E303030302043202020302020302020302020302020302020302020302020302020302020302020302020300A2020202D312E3132373020202020302E3731343520202020302E303030302048202020312020302020302020302020302020302020302020302020302020302020302020300A2020202D302E333032302020202D302E3731343520202020302E303030302043202020302020302020302020302020302020302020302020302020302020302020302020300A20202020312E343238392020202D302E3431323520202020302E303030302043202020302020302020302020302020302020302020302020302020302020302020302020300A20202020312E3132373020202020302E3731343520202020302E303030302043202020302020302020302020302020302020302020302020302020302020302020302020300A20202020302E333032302020202D302E3731343520202020302E303030302048202020312020302020302020302020302020302020302020302020302020302020302020300A2020312020322020312020302020202020200A2020322020332020312020302020202020200A2020312020342020312020302020202020200A2020312020352020312020302020202020200A2020312020362020312020302020202020200A2020332020372020312020302020202020200A2020332020382020312020302020202020200A2020332020392020312020302020202020200A4D202049534F202032202020352020203220202039202020320A4D2020454E44
Contributor: YAMAMOTO M, DEP. CHEMISTRY, FAC. SCIENCE, NARA WOMEN'S UNIV.
InstType: EI
InstName: HITACHI RMU-6M
IoniMethod: _ENERGY 70 eV
IonPolarity: pos
Date: 2010-10-09 19:48:36+02:00
Num Peaks: 50
28 21 29 42 31 50 32 37 42 16 43 140 44 74 45 76 46 53 47 16 
53 16 56 18 57 16 58 24 59 53 60 142 61 34 62 11 69 26 70 16 
71 16 72 66 73 347 74 129 75 29 81 11 83 11 84 11 85 13 86 21 
87 16 88 11 89 11 100 11 101 11 102 29 103 24 104 11 115 21 116 29 
117 21 118 16 119 999 120 163 121 84 122 11 130 18 132 95 133 21 134 11 
