Name: MassBank: JP012024
MW: 174
Formula: C8H22Si2
Synonym: MassBank: JP012024
Synonym: 1,4-BIS(DIMETHYLSILYL)BUTANE (D2)
Structure: 312C342D4249532844494D455448594C53494C594C29425554414E4520284432292E6D6F6C0A20204368656D447261773131313430393232333632440A2031322031312020302020302020302020302020302020302020302020303939392056323030300A2020202D312E3037313720202020302E3230363320202020302E303030302043202020302020302020302020302020302020302020302020302020302020302020302020300A2020202D302E333537322020202D302E3230363320202020302E303030302043202020302020302020302020302020302020302020302020302020302020302020302020300A20202020302E3335373220202020302E3230363320202020302E303030302043202020302020302020302020302020302020302020302020302020302020302020302020300A20202020312E303731372020202D302E3230363220202020302E303030302043202020302020302020302020302020302020302020302020302020302020302020302020300A20202020312E3738363220202020302E3230363320202020302E303030302053692020302020302020302020302020302020302020302020302020302020302020302020300A2020202D312E373836322020202D302E3230363320202020302E303030302053692020302020302020302020302020302020302020302020302020302020302020302020300A2020202D322E353030372020202D302E3631383820202020302E303030302043202020302020302020302020302020302020302020302020302020302020302020302020300A2020202D322E3139383720202020302E3530383120202020302E303030302048202020312020302020302020302020302020302020302020302020302020302020302020300A2020202D312E333733372020202D302E3932303820202020302E303030302043202020302020302020302020302020302020302020302020302020302020302020302020300A20202020322E3530303720202020302E3631383820202020302E303030302043202020302020302020302020302020302020302020302020302020302020302020302020300A20202020312E3337333720202020302E3932303820202020302E303030302043202020302020302020302020302020302020302020302020302020302020302020302020300A20202020322E313938372020202D302E3530383220202020302E303030302048202020312020302020302020302020302020302020302020302020302020302020302020300A2020312020322020312020302020202020200A2020322020332020312020302020202020200A2020332020342020312020302020202020200A2020342020352020312020302020202020200A2020312020362020312020302020202020200A2020362020372020312020302020202020200A2020362020382020312020302020202020200A2020362020392020312020302020202020200A2020352031302020312020302020202020200A2020352031312020312020302020202020200A2020352031322020312020302020202020200A4D202049534F202032202020382020203220203132202020320A4D2020454E44
Contributor: YAMAMOTO M, DEP. CHEMISTRY, FAC. SCIENCE, NARA WOMEN'S UNIV.
InstType: EI
InstName: HITACHI RMU-6M
IoniMethod: _ENERGY 70 eV
IonPolarity: pos
Date: 2010-10-09 19:48:36+02:00
Num Peaks: 45
27 12 28 27 31 78 32 49 43 135 44 76 45 69 46 67 55 19 57 24 
58 102 59 446 60 999 61 97 62 32 71 44 72 55 73 150 74 24 85 36 
86 248 87 40 88 402 89 38 90 15 97 39 98 32 99 340 100 111 101 30 
113 30 114 140 115 27 116 73 117 13 145 26 146 97 147 22 157 19 158 23 
161 105 162 19 174 35 175 57 176 36 
