Name: MassBank: JP011749
MW: 436
Formula: C24H22Cl2Si2
Synonym: MassBank: JP011749
Synonym: 2,7-BIS(CHLOROMETHYLPHENYLSILYL)NAPHTHALENE
Structure: 322C372D4249532843484C4F524F4D455448594C5048454E594C53494C594C294E4150485448414C454E452E6D6F6C0A20204368656D447261773132323130393034353432440A2032382033312020302020302020302020302020302020302020302020303939392056323030300A20202020302E323036322020202D312E3031363420202020302E303030302043202020302020302020302020302020302020302020302020302020302020302020302020300A20202020302E363138372020202D312E3733303920202020302E303030302043202020302020302020302020302020302020302020302020302020302020302020302020300A20202020302E323036322020202D322E3434353420202020302E303030302043202020302020302020302020302020302020302020302020302020302020302020302020300A2020202D302E363138382020202D322E3434353420202020302E303030302043202020302020302020302020302020302020302020302020302020302020302020302020300A2020202D312E303331332020202D312E3733303920202020302E303030302043202020302020302020302020302020302020302020302020302020302020302020302020300A2020202D312E383536332020202D312E3733303920202020302E303030302043202020302020302020302020302020302020302020302020302020302020302020302020300A2020202D322E323638382020202D312E3031363420202020302E303030302043202020302020302020302020302020302020302020302020302020302020302020302020300A2020202D312E383536332020202D302E3330323020202020302E303030302043202020302020302020302020302020302020302020302020302020302020302020302020300A2020202D312E303331332020202D302E3330323020202020302E303030302043202020302020302020302020302020302020302020302020302020302020302020302020300A2020202D302E363138372020202D312E3031363420202020302E303030302043202020302020302020302020302020302020302020302020302020302020302020302020300A2020202D322E3236383820202020302E3431323520202020302E303030302053692020302020302020302020302020302020302020302020302020302020302020302020300A2020202D322E3638313320202020312E3132373020202020302E303030302043202020302020302020302020302020302020302020302020302020302020302020302020300A2020202D322E3236383820202020312E3834313420202020302E303030302043202020302020302020302020302020302020302020302020302020302020302020302020300A2020202D322E3638313320202020322E3535353920202020302E303030302043202020302020302020302020302020302020302020302020302020302020302020302020300A2020202D332E3530363320202020322E3535353920202020302E303030302043202020302020302020302020302020302020302020302020302020302020302020302020300A2020202D332E3931383820202020312E3834313420202020302E303030302043202020302020302020302020302020302020302020302020302020302020302020302020300A2020202D332E3530363220202020312E3132373020202020302E303030302043202020302020302020302020302020302020302020302020302020302020302020302020300A2020202D312E3535343320202020302E3832353020202020302E303030302043202020302020302020302020302020302020302020302020302020302020302020302020300A2020202D322E393833322020202D302E3030303020202020302E3030303020436C2020302020302020302020302020302020302020302020302020302020302020302020300A20202020312E343433372020202D312E3733303920202020302E303030302053692020302020302020302020302020302020302020302020302020302020302020302020300A20202020322E323638382020202D312E3733303920202020302E303030302043202020302020302020302020302020302020302020302020302020302020302020302020300A20202020322E363831332020202D322E3434353420202020302E303030302043202020302020302020302020302020302020302020302020302020302020302020302020300A20202020332E353036332020202D322E3434353420202020302E303030302043202020302020302020302020302020302020302020302020302020302020302020302020300A20202020332E393138382020202D312E3733303920202020302E303030302043202020302020302020302020302020302020302020302020302020302020302020302020300A20202020332E353036332020202D312E3031363420202020302E303030302043202020302020302020302020302020302020302020302020302020302020302020302020300A20202020322E363831332020202D312E3031363420202020302E303030302043202020302020302020302020302020302020302020302020302020302020302020302020300A20202020312E343433372020202D302E3930353920202020302E303030302043202020302020302020302020302020302020302020302020302020302020302020302020300A20202020312E343433372020202D322E3535353920202020302E3030303020436C2020302020302020302020302020302020302020302020302020302020302020302020300A2020312020322020312020302020202020200A2020322020332020322020302020202020200A2020332020342020312020302020202020200A2020342020352020322020302020202020200A2020352020362020312020302020202020200A2020362020372020322020302020202020200A2020372020382020312020302020202020200A2020382020392020322020302020202020200A2020392031302020312020302020202020200A2020312031302020322020302020202020200A2020352031302020312020302020202020200A2031322031332020312020302020202020200A2031332031342020322020302020202020200A2031342031352020312020302020202020200A2031352031362020322020302020202020200A2031362031372020312020302020202020200A2031322031372020322020302020202020200A2031312031322020312020302020202020200A2031312031382020312020302020202020200A2031312031392020312020302020202020200A2020382031312020312020302020202020200A2032312032322020312020302020202020200A2032322032332020322020302020202020200A2032332032342020312020302020202020200A2032342032352020322020302020202020200A2032352032362020312020302020202020200A2032312032362020322020302020202020200A2032302032312020312020302020202020200A2032302032372020312020302020202020200A2032302032382020312020302020202020200A2020322032302020312020302020202020200A4D2020454E44
Contributor: FAC. TECHNOLOGY, HIROSHIMA UNIV.
InstType: EI
InstName: SHIMADZU QP-1000
IoniMethod: _ENERGY 70 eV
IonPolarity: pos
Date: 2010-10-09 19:48:36+02:00
Num Peaks: 109
36 22 43 17 51 23 53 17 63 190 65 79 77 22 78 13 79 16 91 207 
92 17 93 16 103 22 105 36 115 17 119 39 126 11 129 16 139 25 140 12 
141 18 153 26 154 28 155 604 156 77 157 207 158 27 159 15 165 10 166 12 
167 87 168 22 169 62 170 12 172 15 173 11 175 17 177 17 179 25 181 14 
184 13 185 50 186 24 189 37 191 16 192 14 193 14 197 14 200 11 201 16 
202 122 203 217 204 146 205 81 206 14 215 64 216 16 217 53 218 12 219 20 
228 20 229 65 230 32 231 295 232 65 233 17 241 23 242 11 243 18 245 92 
246 57 247 19 265 45 266 28 267 26 268 11 279 11 280 11 281 31 282 11 
283 12 305 18 307 33 308 11 323 171 324 52 325 14 343 29 345 13 358 19 
359 33 360 16 361 23 401 23 403 10 421 999 422 355 423 751 424 245 425 187 
426 54 427 17 436 943 437 355 438 723 439 248 440 177 441 54 442 15 
