Name: BICYCLO(4.3.0)NONAN-8-ONE
MW: 138
Formula: C9H14O
Synonym: MassBank: JP011975
Synonym: BICYCLO(4.3.0)NONAN-8-ONE
Structure: 42494359434C4F28342E332E30294E4F4E414E2D382D4F4E452E6D6F6C0A20204368656D447261773039303531303139303732440A2031302031312020302020302020302020302020302020302020302020303939392056323030300A20202020302E3333323820202020302E3431323520202020302E303030302043202020302020302020302020302020302020302020302020302020302020302020302020300A20202020312E3034373320202020302E3832353020202020302E303030302043202020302020302020302020302020302020302020302020302020302020302020302020300A20202020312E3736313720202020302E3431323520202020302E303030302043202020302020302020302020302020302020302020302020302020302020302020302020300A20202020312E373631372020202D302E3431323520202020302E303030302043202020302020302020302020302020302020302020302020302020302020302020302020300A20202020312E303437332020202D302E3832353020202020302E303030302043202020302020302020302020302020302020302020302020302020302020302020302020300A20202020302E333332382020202D302E3431323520202020302E303030302043202020302020302020302020302020302020302020302020302020302020302020302020300A2020202D302E343531382020202D302E3636373420202020302E303030302043202020302020302020302020302020302020302020302020302020302020302020302020300A2020202D302E393336372020202D302E3030303020202020302E303030302043202020302020302020302020302020302020302020302020302020302020302020302020300A2020202D302E3435313820202020302E3636373420202020302E303030302043202020302020302020302020302020302020302020302020302020302020302020302020300A2020202D312E373631372020202D302E3030303020202020302E30303030204F202020302020302020302020302020302020302020302020302020302020302020302020300A2020312020322020312020302020202020200A2020322020332020312020302020202020200A2020332020342020312020302020202020200A2020342020352020312020302020202020200A2020352020362020312020302020202020200A2020362020372020312020302020202020200A2020372020382020312020302020202020200A2020382020392020312020302020202020200A2020312020392020312020302020202020200A2020312020362020312020302020202020200A2020382031302020322020302020202020200A4D2020454E44
Contributor: YAMAMOTO M, DEP. CHEMISTRY, FAC. SCIENCE, NARA WOMEN'S UNIV.
InstType: EI
InstName: HITACHI RMU-6M
IoniMethod: _ENERGY 20 eV
IonPolarity: pos
Date: 2010-10-09 19:48:36+02:00
Num Peaks: 58
28 23 32 10 39 13 40 18 41 90 42 21 43 24 45 10 53 28 54 239 
55 103 56 59 57 97 58 15 64 20 65 10 66 31 67 320 68 247 69 72 
70 63 71 22 77 13 78 13 79 88 80 86 81 477 82 260 83 49 84 41 
85 10 91 53 92 40 93 49 94 999 95 291 96 277 97 31 98 13 103 12 
105 250 106 38 107 22 109 99 110 49 111 12 116 19 120 44 121 19 122 88 
123 35 133 11 134 133 135 16 137 23 138 533 139 62 140 16 
