Name: MassBank: JP011159
MW: 262
Formula: C13H11ClN2O2
Synonym: MassBank: JP011159
Synonym: TRANS-(4-METHOXY-4'-CHLORO-N,N,O)AZOXYBENZENE
Structure: 303337345F5452414E532D28342D4D4554484F58592D34272D43484C4F524F2D4E2C4E2C4F29415A4F585942454E5A454E452E6D6F6C0A20204368656D447261773038323031303032313432440A2031382031392020302020302020302020302020302020302020302020303939392056323030300A2020202D322E383537392020202D302E3230363320202020302E303030302043202020302020302020302020302020302020302020302020302020302020302020302020300A2020202D322E383537392020202D312E3033313320202020302E303030302043202020302020302020302020302020302020302020302020302020302020302020302020300A2020202D322E313433342020202D312E3434333820202020302E303030302043202020302020302020302020302020302020302020302020302020302020302020302020300A2020202D312E343238392020202D312E3033313320202020302E303030302043202020302020302020302020302020302020302020302020302020302020302020302020300A2020202D312E343238392020202D302E3230363320202020302E303030302043202020302020302020302020302020302020302020302020302020302020302020302020300A2020202D322E3134333420202020302E3230363220202020302E303030302043202020302020302020302020302020302020302020302020302020302020302020302020300A2020202D332E353732342020202D312E3434333820202020302E3030303020436C2020302020302020302020302020302020302020302020302020302020302020302020300A2020202D302E3731343520202020302E3230363220202020302E30303030204E202020302020332020302020302020302020302020302020302020302020302020302020300A20202020302E303030302020202D302E3230363320202020302E30303030204E202020302020352020302020302020302020302020302020302020302020302020302020300A2020202D302E3731343520202020312E3033313220202020302E30303030204F202020302020352020302020302020302020302020302020302020302020302020302020300A20202020302E3731343520202020302E3230363220202020302E303030302043202020302020302020302020302020302020302020302020302020302020302020302020300A20202020312E343238392020202D302E3230363320202020302E303030302043202020302020302020302020302020302020302020302020302020302020302020302020300A20202020322E3134333420202020302E3230363220202020302E303030302043202020302020302020302020302020302020302020302020302020302020302020302020300A20202020322E3134333420202020312E3033313220202020302E303030302043202020302020302020302020302020302020302020302020302020302020302020302020300A20202020312E3432383920202020312E3434333820202020302E303030302043202020302020302020302020302020302020302020302020302020302020302020302020300A20202020302E3731343520202020312E3033313220202020302E303030302043202020302020302020302020302020302020302020302020302020302020302020302020300A20202020322E3835373920202020312E3434333720202020302E30303030204F202020302020302020302020302020302020302020302020302020302020302020302020300A20202020332E3537323420202020312E3033313220202020302E303030302043202020302020302020302020302020302020302020302020302020302020302020302020300A2020312020322020322020302020202020200A2020322020332020312020302020202020200A2020332020342020322020302020202020200A2020342020352020312020302020202020200A2020352020362020322020302020202020200A2020362020312020312020302020202020200A2020322020372020312020302020202020200A2020352020382020312020302020202020200A2020382020392020342020302020202020200A2020382031302020342020302020202020200A2020392031312020312020302020202020200A2031312031322020322020302020202020200A2031322031332020312020302020202020200A2031332031342020322020302020202020200A2031342031352020312020302020202020200A2031352031362020322020302020202020200A2031362031312020312020302020202020200A2031342031372020312020302020202020200A2031372031382020312020302020202020200A4D202043484720203320202038202020312020203920202D312020313020202D310A4D2020454E44
Contributor: SAWADA M, THE INST. OF SCIENTIFIC AND INDUSTRIALRESEARCH OSAKA UNIV.
InstType: EI
InstName: JEOL JMS-DX-300
IoniMethod: _ENERGY 70 eV
IonPolarity: pos
Date: 2010-10-09 19:48:36+02:00
Num Peaks: 130
34 16 36 18 37 35 38 107 39 161 40 219 41 126 42 41 43 160 44 726 
45 54 49 14 50 174 51 177 52 98 53 69 54 18 55 103 56 36 57 74 
58 11 60 25 61 45 62 98 63 449 64 508 65 87 66 61 67 38 68 17 
69 59 70 23 71 34 73 57 74 62 75 274 76 143 77 819 78 212 79 115 
80 145 81 38 82 14 83 27 84 17 85 47 87 20 88 18 89 57 90 221 
91 94 92 724 93 126 94 16 95 49 96 17 97 27 98 30 99 90 100 19 
101 31 102 12 104 14 105 19 106 180 107 999 108 148 109 28 110 14 111 316 
112 37 113 118 114 15 115 24 117 13 120 24 121 627 122 200 123 48 124 17 
125 109 126 28 127 77 128 38 129 19 134 48 135 367 136 37 137 277 138 37 
139 60 140 21 141 17 149 110 150 18 151 17 152 12 153 12 154 19 155 19 
156 17 167 17 168 14 171 81 172 14 175 14 182 14 183 18 184 21 197 12 
198 102 199 67 200 14 203 18 205 18 219 67 220 13 221 21 227 17 233 12 
234 21 246 120 247 23 248 41 249 10 261 12 262 633 263 135 264 216 265 41 
