Name: MassBank: JP010955
MW: 330
Formula: C17H14O7
Synonym: MassBank: JP010955
Synonym: 4-(3,3-DIMETHOXY-4,7-DIOXO-1,5-CYCLOHEPTADIENYL)METHYLCYCLOHEPTA-3,6-DIENE-1,2,5-TRIONE
Structure: 342D28332C332D44494D4554484F58592D342C372D44494F584F2D312C352D4359434C4F48455054414449454E594C294D455448594C4359434C4F48455054412D332C362D4449454E452D312C322C352D5452494F4E452E6D6F6C0A20204368656D447261773033323331303233313732440A2032342032352020302020302020302020302020302020302020302020303939392056323030300A20202020312E383631352020202D312E3435363020202020302E303030302043202020302020302020302020302020302020302020302020302020302020302020302020300A20202020312E303633372020202D312E3234353920202020302E303030302043202020302020302020302020302020302020302020302020302020302020302020302020300A20202020302E373639342020202D302E3436323020202020302E303030302043202020302020302020302020302020302020302020302020302020302020302020302020300A20202020312E3137383820202020302E3235343320202020302E303030302043202020302020302020302020302020302020302020302020302020302020302020302020300A20202020322E3031333320202020302E3337303820202020302E303030302043202020302020302020302020302020302020302020302020302020302020302020302020300A20202020322E363030382020202D302E3138353920202020302E303030302043202020302020302020302020302020302020302020302020302020302020302020302020300A20202020322E353338362020202D312E3030383620202020302E303030302043202020302020302020302020302020302020302020302020302020302020302020302020300A20202020312E393935352020202D322E3237303120202020302E30303030204F202020302020302020302020302020302020302020302020302020302020302020302020300A20202020302E353130372020202D312E3835383220202020302E30303030204F202020302020302020302020302020302020302020302020302020302020302020302020300A20202020322E3236343820202020312E3135363520202020302E30303030204F202020302020302020302020302020302020302020302020302020302020302020302020300A2020202D302E3130363620202020302E3837383520202020302E303030302043202020302020302020302020302020302020302020302020302020302020302020302020300A2020202D302E3431333620202020302E3131313020202020302E303030302043202020302020302020302020302020302020302020302020302020302020302020302020300A2020202D312E323039302020202D302E3133313620202020302E303030302043202020302020302020302020302020302020302020302020302020302020302020302020300A2020202D312E3838363420202020302E3334363720202020302E303030302043202020302020302020302020302020302020302020302020302020302020302020302020300A2020202D312E3932373920202020312E3135303220202020302E303030302043202020302020302020302020302020302020302020302020302020302020302020302020300A2020202D312E3334343620202020312E3733333620202020302E303030302043202020302020302020302020302020302020302020302020302020302020302020302020300A2020202D302E3531393120202020312E3539323920202020302E303030302043202020302020302020302020302020302020302020302020302020302020302020302020300A2020202D302E3034373820202020322E3237303120202020302E30303030204F202020302020302020302020302020302020302020302020302020302020302020302020300A2020202D322E363030382020202D302E3036353820202020302E30303030204F202020302020302020302020302020302020302020302020302020302020302020302020300A2020202D302E373936352020202D302E3834363120202020302E30303030204F202020302020302020302020302020302020302020302020302020302020302020302020300A20202020302E303238352020202D302E3834363120202020302E303030302043202020302020302020302020302020302020302020302020302020302020302020302020300A2020202D312E373839312020202D302E3731313720202020302E30303030204F202020302020302020302020302020302020302020302020302020302020302020302020300A2020202D312E363335372020202D312E3439313820202020302E303030302043202020302020302020302020302020302020302020302020302020302020302020302020300A20202020302E3731363320202020302E3933373420202020302E303030302043202020302020302020302020302020302020302020302020302020302020302020302020300A2020312020322020312020302020202020200A2020322020332020312020302020202020200A2020332020342020322020302020202020200A2020342020352020312020302020202020200A2020352020362020312020302020202020200A2020362020372020322020302020202020200A2020312020372020312020302020202020200A2020312020382020322020302020202020200A2020322020392020322020302020202020200A2020352031302020322020302020202020200A2031312031322020322020302020202020200A2031322031332020312020302020202020200A2031332031342020312020302020202020200A2031342031352020312020302020202020200A2031352031362020322020302020202020200A2031362031372020312020302020202020200A2031312031372020312020302020202020200A2031372031382020322020302020202020200A2031342031392020322020302020202020200A2032302032312020312020302020202020200A2031332032302020312020312020202020200A2032322032332020312020302020202020200A2031332032322020312020362020202020200A2031312032342020312020302020202020200A2032342020342020312020302020202020200A4D2020454E44
Contributor: TAKESHITA H, INST. OF ADVANCED MATERIAL STUDY KYUSHU UNIV.
InstType: EI
InstName: JEOL JMS-01-SG-2
IoniMethod: _ENERGY 75 eV
IonPolarity: pos
Date: 2010-10-09 19:48:36+02:00
Num Peaks: 50
38 378 51 169 53 591 54 999 55 240 59 329 63 310 64 155 65 211 69 108 
77 206 79 280 82 543 89 379 90 216 91 179 92 173 93 120 115 222 117 139 
118 302 144 119 145 119 146 126 171 156 181 139 199 109 200 41 201 20 202 16 
203 15 204 15 205 34 211 18 212 28 214 13 215 50 227 30 228 30 229 10 
231 19 242 15 243 28 244 17 255 24 256 12 259 19 271 21 315 13 330 14 
