Name: MassBank: JP011593
MW: 100
Formula: C5H12Si
Synonym: MassBank: JP011593
Synonym: 1,1-DIMETHYLSILACYCLOBUTANE (D6-DIMETHYL)
Structure: 312C312D44494D455448594C53494C414359434C4F425554414E45202844362D44494D455448594C292E6D6F6C0A20204368656D447261773130323330393131303332440A2031322031322020302020302020302020302020302020302020302020303939392056323030300A2020202D302E343837392020202D302E3438373120202020302E303030302053692020302020302020302020302020302020302020302020302020302020302020302020300A2020202D302E343838362020202D312E3331313420202020302E303030302043202020302020302020302020302020302020302020302020302020302020302020302020300A2020202D312E333133362020202D312E3331313420202020302E303030302043202020302020302020302020302020302020302020302020302020302020302020302020300A2020202D312E333133362020202D302E3438363420202020302E303030302043202020302020302020302020302020302020302020302020302020302020302020302020300A2020202D302E3538303520202020302E3538313420202020302E303030302043202020302020302020302020302020302020302020302020302020302020302020302020300A20202020302E353830352020202D302E3538313420202020302E303030302043202020302020302020302020302020302020302020302020302020302020302020302020300A20202020312E343032332020202D302E3635333320202020302E303030302048202020312020302020302020302020302020302020302020302020302020302020302020300A20202020302E353038362020202D312E3430333320202020302E303030302048202020312020302020302020302020302020302020302020302020302020302020302020300A20202020302E3635323420202020302E3234303420202020302E303030302048202020312020302020302020302020302020302020302020302020302020302020302020300A2020202D302E3635323420202020312E3430333320202020302E303030302048202020312020302020302020302020302020302020302020302020302020302020302020300A20202020302E3234313420202020302E3635333320202020302E303030302048202020312020302020302020302020302020302020302020302020302020302020302020300A2020202D312E3430323320202020302E3530393520202020302E303030302048202020312020302020302020302020302020302020302020302020302020302020302020300A2020312020322020312020302020202020200A2020322020332020312020302020202020200A2020332020342020312020302020202020200A2020312020342020312020302020202020200A2020312020352020312020312020202020200A2020312020362020312020362020202020200A2020362020372020312020302020202020200A2020362020382020312020302020202020200A2020362020392020312020302020202020200A2020352031302020312020302020202020200A2020352031312020312020302020202020200A2020352031322020312020302020202020200A4D202049534F2020362020203720202032202020382020203220202039202020322020313020202032202031312020203220203132202020320A4D2020454E44
Contributor: YAMAMOTO M, DEP. CHEMISTRY, FAC. SCIENCE, NARA WOMEN'S UNIV.
InstType: EI
InstName: HITACHI RMU-6M
IoniMethod: _ENERGY 70 eV
IonPolarity: pos
Date: 2010-10-09 19:48:36+02:00
Num Peaks: 43
27 11 28 30 29 30 30 61 32 10 33 18 34 16 39 14 42 16 43 26 
44 35 45 30 46 232 47 159 48 179 49 28 50 11 53 15 54 14 56 11 
57 16 58 17 60 28 61 13 62 22 63 10 64 30 65 134 66 12 67 11 
74 17 75 24 76 32 77 48 78 999 79 95 80 41 88 43 91 13 105 10 
106 215 107 22 108 9 
