Name: DIETHYLDIIODOSILANE
MW: 339
Formula: C4H10I2Si
Synonym: MassBank: JP011958
Synonym: DIETHYLDIIODOSILANE
Structure: 310A31380A4449455448594C4449494F444F53494C414E452E6D6F6C0A20204368656D447261773039323131303230313232440A2020372020362020302020302020302020302020302020302020302020303939392056323030300A20202020302E3039353720202020302E3030303020202020302E303030302053692020302020302020302020302020302020302020302020302020302020302020302020300A2020202D302E3331363820202020302E3731343520202020302E303030302049202020302020302020302020302020302020302020302020302020302020302020302020300A20202020302E3831303220202020302E3431323520202020302E303030302049202020302020302020302020302020302020302020302020302020302020302020302020300A20202020302E353038322020202D302E3731343520202020302E303030302043202020302020302020302020302020302020302020302020302020302020302020302020300A20202020312E333333322020202D302E3731343520202020302E303030302043202020302020302020302020302020302020302020302020302020302020302020302020300A2020202D302E363138372020202D302E3431323520202020302E303030302043202020302020302020302020302020302020302020302020302020302020302020302020300A2020202D312E3333333220202020302E3030303020202020302E303030302043202020302020302020302020302020302020302020302020302020302020302020302020300A2020312020322020312020302020202020200A2020312020332020312020302020202020200A2020342020352020312020302020202020200A2020312020342020312020302020202020200A2020362020372020312020302020202020200A2020312020362020312020302020202020200A4D2020454E44
Contributor: ISHIKAWA M, HIROSHIMA UNIV. FAC. TEQUNOLOGY
InstType: EI
InstName: SHIMADZU QP-1000
IoniMethod: _ENERGY 70 eV
IonPolarity: pos
Date: 2010-10-09 19:48:36+02:00
Num Peaks: 24
54 253 55 63 56 295 57 95 58 400 59 221 60 32 81 11 127 58 128 53 
155 179 156 32 157 142 185 379 186 21 213 999 214 95 215 32 282 63 283 379 
311 168 340 758 341 74 342 21 
