Name: ORTHO-BROMOBENZOIC ACID
CAS: 88-65-3
MW: 199
Formula: C7H5BrO2
Synonym: MassBank: JP010339
Synonym: ORTHO-BROMOBENZOIC ACID
Synonym: 2-BROMOBENZOIC ACID
Structure: 4F5254484F2D42524F4D4F42454E5A4F494320414349442E6D6F6C0A20204368656D447261773132323130393232353532440A2031302031302020302020302020302020302020302020302020302020303939392056323030300A2020202D312E303331332020202D302E3335373220202020302E303030302043202020302020302020302020302020302020302020302020302020302020302020302020300A2020202D302E323036322020202D302E3335373220202020302E303030302043202020302020302020302020302020302020302020302020302020302020302020302020300A20202020302E3230363320202020302E3335373220202020302E303030302043202020302020302020302020302020302020302020302020302020302020302020302020300A20202020312E3033313320202020302E3335373220202020302E303030302043202020302020302020302020302020302020302020302020302020302020302020302020300A20202020312E343433382020202D302E3335373220202020302E303030302043202020302020302020302020302020302020302020302020302020302020302020302020300A20202020312E303331332020202D312E3037313720202020302E303030302043202020302020302020302020302020302020302020302020302020302020302020302020300A20202020302E323036322020202D312E3037313720202020302E303030302043202020302020302020302020302020302020302020302020302020302020302020302020300A2020202D312E3434333820202020302E3335373220202020302E30303030204F202020302020302020302020302020302020302020302020302020302020302020302020300A2020202D312E343433382020202D312E3037313720202020302E30303030204F202020302020302020302020302020302020302020302020302020302020302020302020300A2020202D302E3230363220202020312E3037313720202020302E303030302042722020302020302020302020302020302020302020302020302020302020302020302020300A2020312020322020312020302020202020200A2020322020332020312020302020202020200A2020332020342020322020302020202020200A2020342020352020312020302020202020200A2020352020362020322020302020202020200A2020362020372020312020302020202020200A2020322020372020322020302020202020200A2020312020382020322020302020202020200A2020312020392020312020302020202020200A2020332031302020312020302020202020200A4D2020454E44
Contributor: TAJIMA S, GUNMA COLLEGE OF TECHNOLOGY
InstType: EI
InstName: HITACHI M-80A
IoniMethod: _ENERGY 70 eV
IonPolarity: pos
Date: 2010-10-09 19:48:36+02:00
Num Peaks: 56
25 15 26 49 27 52 29 37 36 21 37 162 38 217 39 258 44 31 45 277 
48 12 49 113 50 770 51 292 52 25 53 61 60 15 61 39 62 35 63 70 
64 58 65 318 66 30 73 91 74 369 75 478 76 526 77 269 78 31 79 56 
80 21 81 55 82 21 92 51 93 36 104 23 121 24 128 10 129 14 130 10 
131 15 139 15 155 264 156 37 157 256 158 24 172 22 174 20 183 787 184 64 
185 765 186 59 200 999 201 86 202 973 203 83 
