Name: N-METHYL-D-GLUCAMINE
CAS: 6284-40-8
MW: 195
Formula: C7H17NO5
Synonym: MassBank: JP011296
Synonym: N-METHYL-D-GLUCAMINE
Structure: 313034305F4E2D4D455448594C2D442D474C5543414D494E452E6D6F6C0A20204368656D447261773130323031303139353232440A2031372031362020302020302020302020302020302020302020302020303939392056323030300A20202020312E3635303020202020302E3030303020202020302E303030302043202020302020302020302020302020302020302020302020302020302020302020302020300A20202020302E3832353020202020302E3030303020202020302E303030302043202020302020302020302020302020302020302020302020302020302020302020302020300A20202020302E3832353020202020302E3832353020202020302E303030302048202020302020302020302020302020302020302020302020302020302020302020302020300A20202020302E383235302020202D302E3832353020202020302E30303030204F202020302020302020302020302020302020302020302020302020302020302020302020300A20202020302E3030303020202020302E3030303020202020302E303030302043202020302020302020302020302020302020302020302020302020302020302020302020300A2020202D302E3832353020202020302E3030303020202020302E303030302043202020302020302020302020302020302020302020302020302020302020302020302020300A20202020302E3030303020202020302E3832353020202020302E30303030204F202020302020302020302020302020302020302020302020302020302020302020302020300A20202020302E303030302020202D302E3832353020202020302E303030302048202020302020302020302020302020302020302020302020302020302020302020302020300A2020202D312E3635303020202020302E3030303020202020302E303030302043202020302020302020302020302020302020302020302020302020302020302020302020300A2020202D302E3832353020202020302E3832353020202020302E303030302048202020302020302020302020302020302020302020302020302020302020302020302020300A2020202D302E383235302020202D302E3832353020202020302E30303030204F202020302020302020302020302020302020302020302020302020302020302020302020300A2020202D312E3635303020202020302E3832353020202020302E303030302048202020302020302020302020302020302020302020302020302020302020302020302020300A2020202D312E363530302020202D302E3832353020202020302E30303030204F202020302020302020302020302020302020302020302020302020302020302020302020300A2020202D322E3437353020202020302E3030303020202020302E303030302043202020302020302020302020302020302020302020302020302020302020302020302020300A20202020322E3036323520202020302E3731343520202020302E30303030204E202020302020302020302020302020302020302020302020302020302020302020302020300A20202020322E3838373520202020302E3731343520202020302E303030302043202020302020302020302020302020302020302020302020302020302020302020302020300A2020202D322E383837352020202D302E3731343520202020302E30303030204F202020302020302020302020302020302020302020302020302020302020302020302020300A2020312020322020312020302020202020200A2020322020332020312020312020202020200A2020322020342020312020312020202020200A2020322020352020312020302020202020200A2020352020362020312020302020202020200A2020352020372020312020312020202020200A2020352020382020312020312020202020200A2020362020392020312020302020202020200A2020362031302020312020312020202020200A2020362031312020312020312020202020200A2020392031322020312020312020202020200A2020392031332020312020312020202020200A2020392031342020312020302020202020200A2020312031352020312020302020202020200A2031352031362020312020302020202020200A2031342031372020312020302020202020200A4D2020454E44
Contributor: YAMAMOTO M, DEP. CHEMISTRY, FAC. SCIENCE, NARA WOMEN'S UNIV.
InstType: EI
InstName: HITACHI M-2500
IoniMethod: _ENERGY 70 eV
IonPolarity: pos
Date: 2010-10-09 19:48:36+02:00
Num Peaks: 34
15 35 18 11 19 18 27 21 28 45 29 29 30 71 31 58 32 55 41 13 
42 44 43 68 44 999 45 67 55 10 56 35 57 23 58 18 60 23 61 36 
66 10 73 36 74 191 75 35 86 21 87 13 88 12 104 58 105 13 116 45 
134 48 164 26 196 138 197 11 
