Name: MassBank: JP010214
MW: 402
Formula: C24H22N2O4
Synonym: MassBank: JP010214
Synonym: 2-METHOXYCARBONYL-4-NITRO-1,3,5-TRIPHENYLPYRROLIDINE (2,3-CIS-3,4-TRANS-4,5-CIS)
Synonym: (2R,3R,4S,5S)-2-METHOXYCARBONYL-4-NITRO-1,3,5-TRIPHENYLPYRROLIDINE
Structure: 2832522C33522C34532C3553292D322D4D4554484F5859434152424F4E594C2D342D4E495452204F2D312C332C352D5452495048454E594C505952524F4C4944494E452E6D6F6C0A20204368656D447261773130323030393133353032440A2033342033372020302020302020302020302020302020302020302020303939392056323030300A2020202D302E353734302020202D302E3533373920202020302E303030302043202020302020302020302020302020302020302020302020302020302020302020302020300A20202020302E323736302020202D302E3732313820202020302E303030302043202020302020302020302020302020302020302020302020302020302020302020302020300A20202020302E363432372020202D302E3039393220202020302E303030302043202020302020302020302020302020302020302020302020302020302020302020302020300A20202020302E3038393220202020302E3630323320202020302E303030302043202020302020302020302020302020302020302020302020302020302020302020302020300A2020202D302E3539353820202020302E3230313220202020302E30303030204E202020302020302020302020302020302020302020302020302020302020302020302020300A2020202D312E3331303320202020302E3631333720202020302E303030302043202020302020302020302020302020302020302020302020302020302020302020302020300A2020202D302E3431303920202020312E3235323120202020302E303030302048202020302020302020302020302020302020302020302020302020302020302020302020300A20202020312E323937312020202D302E3630353620202020302E303030302048202020302020302020302020302020302020302020302020302020302020302020302020300A20202020312E323531372020202D312E3136373020202020302E303030302043202020302020302020302020302020302020302020302020302020302020302020302020300A2020202D302E373136362020202D312E3630303920202020302E303030302043202020302020302020302020302020302020302020302020302020302020302020302020300A2020202D312E333937392020202D302E3439333720202020302E303030302048202020302020302020302020302020302020302020302020302020302020302020302020300A20202020302E303136302020202D312E3530343720202020302E303030302048202020302020302020302020302020302020302020302020302020302020302020302020300A2020202D312E3332343020202020312E3432383520202020302E303030302043202020302020302020302020302020302020302020302020302020302020302020302020300A2020202D322E3033373720202020312E3833373320202020302E303030302043202020302020302020302020302020302020302020302020302020302020302020302020300A2020202D322E3734393920202020312E3432303920202020302E303030302043202020302020302020302020302020302020302020302020302020302020302020302020300A2020202D322E3734353520202020302E3539353920202020302E303030302043202020302020302020302020302020302020302020302020302020302020302020302020300A2020202D322E3032383820202020302E3138373320202020302E303030302043202020302020302020302020302020302020302020302020302020302020302020302020300A20202020312E333330322020202D312E3932343620202020302E303030302043202020302020302020302020302020302020302020302020302020302020302020302020300A20202020322E303534392020202D322E3330343820202020302E303030302043202020302020302020302020302020302020302020302020302020302020302020302020300A20202020322E373439392020202D312E3836303420202020302E303030302043202020302020302020302020302020302020302020302020302020302020302020302020300A20202020322E373132362020202D312E3033363220202020302E303030302043202020302020302020302020302020302020302020302020302020302020302020302020300A20202020312E393830322020202D302E3635363520202020302E303030302043202020302020302020302020302020302020302020302020302020302020302020302020300A2020202D302E303633332020202D322E3130343720202020302E30303030204F202020302020302020302020302020302020302020302020302020302020302020302020300A2020202D312E343739352020202D312E3931343820202020302E30303030204F202020302020302020302020302020302020302020302020302020302020302020302020300A2020202D302E313732392020202D322E3932323420202020302E303030302043202020302020302020302020302020302020302020302020302020302020302020302020300A20202020312E3032323620202020312E3533353720202020302E303030302043202020302020302020302020302020302020302020302020302020302020302020302020300A20202020312E3831373520202020312E3333323020202020302E303030302043202020302020302020302020302020302020302020302020302020302020302020302020300A20202020322E3339363320202020312E3931393820202020302E303030302043202020302020302020302020302020302020302020302020302020302020302020302020300A20202020322E3137363620202020322E3731353020202020302E303030302043202020302020302020302020302020302020302020302020302020302020302020302020300A20202020312E3337383120202020322E3932323420202020302E303030302043202020302020302020302020302020302020302020302020302020302020302020302020300A20202020302E3739393320202020322E3333343520202020302E303030302043202020302020302020302020302020302020302020302020302020302020302020302020300A20202020312E3433393620202020302E3131343420202020302E303030302043202020302020302020302020302020302020302020302020302020302020302020302020300A20202020312E3635333120202020302E3931313220202020302E30303030204F202020302020302020302020302020302020302020302020302020302020302020302020300A20202020322E303232392020202D302E3436393020202020302E30303030204F202020302020302020302020302020302020302020302020302020302020302020302020300A2020312020322020312020302020202020200A2020322020332020312020302020202020200A2020332020342020312020302020202020200A2020342020352020312020302020202020200A2020352020312020312020302020202020200A2020352020362020312020302020202020200A2020342020372020312020362020202020200A2020332020382020312020362020202020200A2020322020392020312020362020202020200A2020312031302020312020362020202020200A2020312031312020312020312020202020200A2020322031322020312020312020202020200A2020362031332020322020302020202020200A2031332031342020312020302020202020200A2031342031352020322020302020202020200A2031352031362020312020302020202020200A2031362031372020322020302020202020200A2031372020362020312020302020202020200A2020392031382020322020302020202020200A2031382031392020312020302020202020200A2031392032302020322020302020202020200A2032302032312020312020302020202020200A2032312032322020322020302020202020200A2032322020392020312020302020202020200A2031302032332020312020302020202020200A2031302032342020322020302020202020200A2032332032352020312020302020202020200A2020342032362020312020312020202020200A2032362032372020322020302020202020200A2032372032382020312020302020202020200A2032382032392020322020302020202020200A2032392033302020312020302020202020200A2033302033312020322020302020202020200A2033312032362020312020302020202020200A2020332033322020312020312020202020200A2033322033332020312020302020202020200A2033322033342020312020302020202020200A4D2020454E44
Contributor: KANEMASA S, INST. OF ADVANCED MATERIAL STUDY KYUSHU UNIV.
InstType: EI
InstName: JEOL JMS-01-SG-2
IoniMethod: _ENERGY 75 eV
IonPolarity: pos
Date: 2010-10-09 19:48:36+02:00
Num Peaks: 31
43 33 51 41 65 26 77 230 78 36 91 123 104 208 115 148 116 30 148 58 
165 46 178 44 180 43 191 39 193 114 194 74 204 33 217 29 218 33 219 27 
220 51 296 999 297 251 298 34 343 294 344 66 356 230 357 67 402 445 403 109 
404 30 
