Name: MassBank: JP011666
MW: 160
Formula: C6H16OSi2
Synonym: MassBank: JP011666
Synonym: 2,2,5,5-TETRAMETHYL-2,5-DISILAOXOLANE
Structure: 310A32330A322C322C352C352D54455452414D455448594C2D322C352D444953494C414F584F4C414E452E6D6F6C0A20204368656D447261773132313930393134343832440A2020392020392020302020302020302020302020302020302020302020303939392056323030300A2020202D302E363937342020202D302E3539333620202020302E303030302043202020302020302020302020302020302020302020302020302020302020302020302020300A20202020302E313237362020202D302E3539333620202020302E303030302053692020302020302020302020302020302020302020302020302020302020302020302020300A20202020302E3338323620202020302E3139313120202020302E30303030204F202020302020302020302020302020302020302020302020302020302020302020302020300A2020202D302E3238343920202020302E3637363020202020302E303030302053692020302020302020302020302020302020302020302020302020302020302020302020300A2020202D302E3935323320202020302E3139313120202020302E303030302043202020302020302020302020302020302020302020302020302020302020302020302020300A2020202D302E3639373420202020312E3339303520202020302E303030302043202020302020302020302020302020302020302020302020302020302020302020302020300A20202020302E3132373620202020312E3339303520202020302E303030302043202020302020302020302020302020302020302020302020302020302020302020302020300A20202020302E333431312020202D312E3339303520202020302E303030302043202020302020302020302020302020302020302020302020302020302020302020302020300A20202020302E393532332020202D302E3631353220202020302E303030302043202020302020302020302020302020302020302020302020302020302020302020302020300A2020312020322020312020302020202020200A2020322020332020312020302020202020200A2020332020342020312020302020202020200A2020342020352020312020302020202020200A2020352020312020312020302020202020200A2020342020362020312020362020202020200A2020342020372020312020312020202020200A2020322020382020312020312020202020200A2020322020392020312020362020202020200A4D2020454E44
Contributor: FAC. TECHNOLOGY, HIROSHIMA UNIV.
InstType: EI
InstName: SHIMADZU QP-1000
IoniMethod: _ENERGY 70 eV
IonPolarity: pos
Date: 2010-10-09 19:48:36+02:00
Num Peaks: 37
51 319 52 223 53 43 55 53 56 11 57 64 58 489 59 660 60 21 61 21 
65 32 66 64 67 11 70 11 71 21 72 117 73 457 74 191 75 32 85 21 
87 64 101 32 102 21 103 32 105 11 117 999 118 128 119 128 127 21 128 32 
131 21 132 106 133 32 145 755 146 117 147 53 160 64 
