Name: TRIETHOXYMETHYLSILANE
MW: 178
Formula: C7H18O3Si
Synonym: MassBank: JP010347
Synonym: TRIETHOXYMETHYLSILANE
Structure: 5452494554484F58594D455448594C53494C414E452E6D6F6C0A20204368656D447261773038313231303038333032440A2031312031302020302020302020302020302020302020302020302020303939392056323030300A20202020302E323436372020202D302E3436373820202020302E303030302053692020302020302020302020302020302020302020302020302020302020302020302020300A2020202D302E3136353820202020302E3234363720202020302E303030302043202020302020302020302020302020302020302020302020302020302020302020302020300A20202020302E393631322020202D302E3035353320202020302E30303030204F202020302020302020302020302020302020302020302020302020302020302020302020300A20202020302E3936313220202020302E3736393720202020302E303030302043202020302020302020302020302020302020302020302020302020302020302020302020300A20202020302E3234363720202020312E3138323220202020302E303030302043202020302020302020302020302020302020302020302020302020302020302020302020300A20202020302E363539322020202D312E3138323220202020302E30303030204F202020302020302020302020302020302020302020302020302020302020302020302020300A20202020312E343834322020202D312E3138323220202020302E303030302043202020302020302020302020302020302020302020302020302020302020302020302020300A20202020312E383936372020202D302E3436373820202020302E303030302043202020302020302020302020302020302020302020302020302020302020302020302020300A2020202D302E343637382020202D302E3838303320202020302E30303030204F202020302020302020302020302020302020302020302020302020302020302020302020300A2020202D312E313832322020202D302E3436373820202020302E303030302043202020302020302020302020302020302020302020302020302020302020302020302020300A2020202D312E383936372020202D302E3838303320202020302E303030302043202020302020302020302020302020302020302020302020302020302020302020302020300A2020312020322020312020302020202020200A2020342020352020312020302020202020200A2020332020342020312020302020202020200A2020312020332020312020302020202020200A2020372020382020312020302020202020200A2020362020372020312020302020202020200A2020312020362020312020302020202020200A2031302031312020312020302020202020200A2020392031302020312020302020202020200A2020312020392020312020302020202020200A4D2020454E44
Contributor: TAJIMA S, GUNMA COLLEGE OF TECHNOLOGY
InstType: EI
InstName: HITACHI M-80A
IoniMethod: _ENERGY 70 eV
IonPolarity: pos
Date: 2010-10-09 19:48:36+02:00
Num Peaks: 48
14 30 15 115 26 30 27 120 28 20 29 148 31 30 42 19 43 225 45 187 
46 12 47 12 58 56 59 41 60 22 61 130 62 31 63 46 73 49 74 23 
75 18 76 18 77 312 78 20 79 88 81 14 88 18 89 146 90 17 91 62 
103 34 105 134 106 12 107 55 117 23 119 447 120 43 121 25 133 536 134 58 
135 80 149 66 163 999 164 120 165 46 177 28 178 75 179 15 
