Name: MassBank: JP010490
MW: 122
Formula: C8H10O
Synonym: MassBank: JP010490
Synonym: 2,5-DIMETHYLPHENOL
Structure: 310A32330A322C352D44494D455448594C5048454E4F4C2E6D6F6C0A20204368656D447261773132323130393031353032440A2020392020392020302020302020302020302020302020302020302020303939392056323030300A2020202D302E373134352020202D302E3431323520202020302E303030302043202020302020302020302020302020302020302020302020302020302020302020302020300A2020202D302E3731343520202020302E3431323520202020302E303030302043202020302020302020302020302020302020302020302020302020302020302020302020300A20202020302E3030303020202020302E3832353020202020302E303030302043202020302020302020302020302020302020302020302020302020302020302020302020300A20202020302E3731343520202020302E3431323520202020302E303030302043202020302020302020302020302020302020302020302020302020302020302020302020300A20202020302E373134352020202D302E3431323520202020302E303030302043202020302020302020302020302020302020302020302020302020302020302020302020300A2020202D302E303030302020202D302E3832353020202020302E303030302043202020302020302020302020302020302020302020302020302020302020302020302020300A20202020312E343238392020202D302E3832353020202020302E303030302043202020302020302020302020302020302020302020302020302020302020302020302020300A2020202D312E3432383920202020302E3832353020202020302E303030302043202020302020302020302020302020302020302020302020302020302020302020302020300A2020202D312E343238392020202D302E3832353020202020302E30303030204F202020302020302020302020302020302020302020302020302020302020302020302020300A2020312020322020312020302020202020200A2020322020332020322020302020202020200A2020332020342020312020302020202020200A2020342020352020322020302020202020200A2020352020362020312020302020202020200A2020312020362020322020302020202020200A2020352020372020312020302020202020200A2020322020382020312020302020202020200A2020312020392020312020302020202020200A4D2020454E44
Contributor: TAJIMA S, GUNMA COLLEGE OF TECHNOLOGY
InstType: EI
InstName: HITACHI M-80A
IoniMethod: _ENERGY 70 eV
IonPolarity: pos
Date: 2010-10-09 19:48:36+02:00
Num Peaks: 45
15 19 26 18 27 99 29 20 37 11 38 35 39 169 40 24 41 53 43 31 
50 68 51 135 52 54 53 98 54 10 55 27 60 17 61 21 62 23 63 59 
64 14 65 81 66 26 67 20 74 17 75 15 76 11 77 277 78 97 79 164 
80 15 89 14 91 180 92 27 93 41 94 35 102 11 103 56 104 65 105 38 
107 787 108 63 121 355 122 999 123 94 
