Name: MassBank: JP011347
MW: 186
Formula: C10H18O3
Synonym: MassBank: JP011347
Synonym: 1,3,7-TRIHYDROXY-6-METHYLBICYCLO(4.3.0)NONANE
Structure: 312C332C372D545249485944524F58592D362D4D455448594C42494359434C4F28342E332E30294E4F4E414E452E6D6F6C0A20204368656D447261773131313130393138343332440A2031332031342020302020302020302020302020302020302020302020303939392056323030300A2020202D302E343336392020202D302E3532323020202020302E303030302043202020302020302020302020302020302020302020302020302020302020302020302020300A20202020302E323737352020202D302E3933343520202020302E303030302043202020302020302020302020302020302020302020302020302020302020302020302020300A20202020302E393932302020202D302E3532323020202020302E303030302043202020302020302020302020302020302020302020302020302020302020302020302020300A20202020302E3939323020202020302E3330333020202020302E303030302043202020302020302020302020302020302020302020302020302020302020302020302020300A20202020302E3237373520202020302E3731353520202020302E303030302043202020302020302020302020302020302020302020302020302020302020302020302020300A2020202D302E3433363920202020302E3330333020202020302E303030302043202020302020302020302020302020302020302020302020302020302020302020302020300A2020202D312E3232313620202020302E3535373920202020302E303030302043202020302020302020302020302020302020302020302020302020302020302020302020300A2020202D312E373036352020202D302E3130393520202020302E303030302043202020302020302020302020302020302020302020302020302020302020302020302020300A2020202D312E323231362020202D302E3737373020202020302E303030302043202020302020302020302020302020302020302020302020302020302020302020302020300A2020202D302E3532333220202020312E3132333420202020302E303030302043202020302020302020302020302020302020302020302020302020302020302020302020300A2020202D312E3437363520202020312E3334323520202020302E30303030204F202020302020302020302020302020302020302020302020302020302020302020302020300A20202020312E373036352020202D302E3933343520202020302E30303030204F202020302020302020302020302020302020302020302020302020302020302020302020300A2020202D302E353233322020202D312E3334323520202020302E30303030204F202020302020302020302020302020302020302020302020302020302020302020302020300A2020312020322020312020302020202020200A2020322020332020312020302020202020200A2020332020342020312020302020202020200A2020342020352020312020302020202020200A2020352020362020312020302020202020200A2020362020372020312020302020202020200A2020372020382020312020302020202020200A2020382020392020312020302020202020200A2020312020392020312020302020202020200A2020312020362020312020302020202020200A2020362031302020312020302020202020200A2020372031312020312020302020202020200A2020332031322020312020302020202020200A2020312031332020312020302020202020200A4D2020454E44
Contributor: YAMAMOTO M, DEP. CHEMISTRY, FAC. SCIENCE, NARA WOMEN'S UNIV.
InstType: EI
InstName: HITACHI RMU-6M
IoniMethod: _ENERGY 70 eV
IonPolarity: pos
Date: 2010-10-09 19:48:36+02:00
Num Peaks: 97
26 22 27 433 28 136 29 392 30 27 31 174 38 20 39 367 40 89 41 749 
42 65 43 999 44 104 45 79 47 17 50 25 51 79 52 42 53 253 54 82 
55 439 56 79 57 256 58 109 59 35 63 27 64 15 65 94 66 67 67 362 
68 134 69 243 70 69 71 164 72 45 73 20 74 15 77 151 78 55 79 313 
80 124 81 397 82 258 83 184 84 104 85 201 86 32 87 12 91 238 92 99 
93 424 94 216 95 261 96 141 97 159 98 266 99 92 100 32 104 45 105 65 
106 367 107 238 108 290 109 243 110 218 111 387 112 65 113 94 114 203 115 40 
117 119 118 15 119 22 121 99 122 94 123 42 124 112 125 107 126 52 127 45 
128 37 129 20 130 30 131 22 132 129 133 30 135 102 136 15 139 30 140 67 
149 17 150 380 151 60 153 50 166 15 168 114 169 30 
