Name: 8-(TRIMETHYLSILYL)-1-(METHYL(1-NAPHTHYL)SILYL)NAPHTHALENE
MW: 370
Formula: C24H26Si2
Synonym: MassBank: JP011761
Synonym: 8-(TRIMETHYLSILYL)-1-(METHYL(1-NAPHTHYL)SILYL)NAPHTHALENE
Structure: 382D285452494D455448594C53494C594C292D312D284D455448594C28312D4E4150485448594C2953494C594C294E4150485448414C454E452E6D6F6C0A20204368656D447261773035323431303139343732440A2032362032392020302020302020302020302020302020302020302020303939392056323030300A2020202D302E383231362020202D302E3536333520202020302E303030302043202020302020302020302020302020302020302020302020302020302020302020302020300A2020202D302E383231362020202D312E3338383520202020302E303030302043202020302020302020302020302020302020302020302020302020302020302020302020300A2020202D312E353336312020202D312E3830313020202020302E303030302043202020302020302020302020302020302020302020302020302020302020302020302020300A2020202D322E323530362020202D312E3338383520202020302E303030302043202020302020302020302020302020302020302020302020302020302020302020302020300A2020202D322E323530362020202D302E3536333520202020302E303030302043202020302020302020302020302020302020302020302020302020302020302020302020300A2020202D322E393635312020202D302E3135313020202020302E303030302043202020302020302020302020302020302020302020302020302020302020302020302020300A2020202D322E3936353120202020302E3637343020202020302E303030302043202020302020302020302020302020302020302020302020302020302020302020302020300A2020202D322E3235303620202020312E3038363520202020302E303030302043202020302020302020302020302020302020302020302020302020302020302020302020300A2020202D312E3533363120202020302E3637343020202020302E303030302043202020302020302020302020302020302020302020302020302020302020302020302020300A2020202D312E353336312020202D302E3135313020202020302E303030302043202020302020302020302020302020302020302020302020302020302020302020302020300A20202020302E313037322020202D302E3032373220202020302E303030302053692020302020302020302020302020302020302020302020302020302020302020302020300A20202020302E383231362020202D302E3433393720202020302E303030302043202020302020302020302020302020302020302020302020302020302020302020302020300A20202020302E383231362020202D312E3236343720202020302E303030302043202020302020302020302020302020302020302020302020302020302020302020302020300A20202020312E353336312020202D312E3637373220202020302E303030302043202020302020302020302020302020302020302020302020302020302020302020302020300A20202020322E323530362020202D312E3236343720202020302E303030302043202020302020302020302020302020302020302020302020302020302020302020302020300A20202020322E323530362020202D302E3433393720202020302E303030302043202020302020302020302020302020302020302020302020302020302020302020302020300A20202020322E393635312020202D302E3032373220202020302E303030302043202020302020302020302020302020302020302020302020302020302020302020302020300A20202020322E3936353120202020302E3739373820202020302E303030302043202020302020302020302020302020302020302020302020302020302020302020302020300A20202020322E3235303620202020312E3231303320202020302E303030302043202020302020302020302020302020302020302020302020302020302020302020302020300A20202020312E3533363120202020302E3739373820202020302E303030302043202020302020302020302020302020302020302020302020302020302020302020302020300A20202020312E353336312020202D302E3032373220202020302E303030302043202020302020302020302020302020302020302020302020302020302020302020302020300A20202020302E3130373220202020302E3739373820202020302E303030302043202020302020302020302020302020302020302020302020302020302020302020302020300A2020202D302E3832313620202020312E3038363520202020302E303030302053692020302020302020302020302020302020302020302020302020302020302020302020300A2020202D312E3233343120202020312E3830313020202020302E303030302043202020302020302020302020302020302020302020302020302020302020302020302020300A2020202D302E3130373220202020312E3439393020202020302E303030302043202020302020302020302020302020302020302020302020302020302020302020302020300A2020202D302E3430393120202020302E3337323020202020302E303030302043202020302020302020302020302020302020302020302020302020302020302020302020300A2020312020322020312020302020202020200A2020322020332020322020302020202020200A2020332020342020312020302020202020200A2020342020352020322020302020202020200A2020352020362020312020302020202020200A2020362020372020322020302020202020200A2020372020382020312020302020202020200A2020382020392020322020302020202020200A2020392031302020312020302020202020200A2020312031302020322020302020202020200A2020352031302020312020302020202020200A2031322031332020312020302020202020200A2031332031342020322020302020202020200A2031342031352020312020302020202020200A2031352031362020322020302020202020200A2031362031372020312020302020202020200A2031372031382020322020302020202020200A2031382031392020312020302020202020200A2031392032302020322020302020202020200A2032302032312020312020302020202020200A2031322032312020322020302020202020200A2031362032312020312020302020202020200A2031312031322020312020302020202020200A2031312032322020312020302020202020200A2020312031312020312020302020202020200A2032332032342020312020302020202020200A2032332032352020312020302020202020200A2032332032362020312020302020202020200A2020392032332020312020302020202020200A4D2020454E44
Contributor: FAC. TECHNOLOGY, HIROSHIMA UNIV.
InstType: EI
InstName: SHIMADZU QP-1000
IoniMethod: _ENERGY 70 eV
IonPolarity: pos
Date: 2010-10-09 19:48:36+02:00
Num Peaks: 65
43 266 45 225 53 49 55 11 57 14 59 84 73 401 75 16 77 12 103 14 
105 14 115 22 128 18 129 50 130 10 131 13 141 22 143 21 145 60 146 11 
153 17 154 24 155 106 156 18 157 11 167 148 168 48 169 443 170 96 171 89 
172 13 181 22 182 12 183 55 184 16 185 337 186 63 187 17 195 13 197 12 
211 10 227 91 228 24 229 14 252 61 253 22 265 11 278 12 279 19 280 10 
281 43 282 16 293 10 295 75 296 87 297 999 298 354 299 65 300 11 311 16 
355 36 356 14 370 86 371 30 372 11 
