Name: MassBank: JP011028
MW: 322
Formula: C16H18O7
Synonym: MassBank: JP011028
Synonym: 2,4,7-TRIACETOXY-5-ISOPROPYLTROPONE
Structure: 322C342C372D545249414345544F58592D352D49534F50524F50594C54524F504F4E452E6D6F6C0A20204368656D447261773132323030393133343332440A2032332032332020302020302020302020302020302020302020302020303939392056323030300A20202020312E313831362020202D302E3738313820202020302E30303030204F202020302020302020302020302020302020302020302020302020302020302020302020300A20202020302E343338332020202D302E3432333820202020302E303030302043202020302020302020302020302020302020302020302020302020302020302020302020300A2020202D302E323036372020202D302E3933383220202020302E303030302043202020302020302020302020302020302020302020302020302020302020302020302020300A2020202D312E303131312020202D302E3735343620202020302E303030302043202020302020302020302020302020302020302020302020302020302020302020302020300A2020202D312E333639302020202D302E3031313320202020302E303030302043202020302020302020302020302020302020302020302020302020302020302020302020300A2020202D312E3031313120202020302E3733323020202020302E303030302043202020302020302020302020302020302020302020302020302020302020302020302020300A2020202D302E3230363720202020302E3931353620202020302E303030302043202020302020302020302020302020302020302020302020302020302020302020302020300A20202020302E3433383320202020302E3430313220202020302E303030302043202020302020302020302020302020302020302020302020302020302020302020302020300A2020202D322E313934302020202D302E3031313320202020302E303030302043202020302020302020302020302020302020302020302020302020302020302020302020300A2020202D322E363036352020202D302E3732353820202020302E303030302043202020302020302020302020302020302020302020302020302020302020302020302020300A2020202D322E3630363520202020302E3730333220202020302E303030302043202020302020302020302020302020302020302020302020302020302020302020302020300A2020202D302E303233322020202D312E3734323520202020302E30303030204F202020302020302020302020302020302020302020302020302020302020302020302020300A20202020302E373635322020202D312E3938353720202020302E303030302043202020302020302020302020302020302020302020302020302020302020302020302020300A20202020312E333438352020202D312E3430323320202020302E30303030204F202020302020302020302020302020302020302020302020302020302020302020302020300A20202020302E393438382020202D322E3739303020202020302E303030302043202020302020302020302020302020302020302020302020302020302020302020302020300A2020202D312E3532353420202020312E3337373020202020302E30303030204F202020302020302020302020302020302020302020302020302020302020302020302020300A2020202D312E3232343020202020322E3134353020202020302E303030302043202020302020302020302020302020302020302020302020302020302020302020302020300A2020202D312E3733383420202020322E3739303020202020302E30303030204F202020302020302020302020302020302020302020302020302020302020302020302020300A2020202D302E3430383220202020322E3236373920202020302E303030302043202020302020302020302020302020302020302020302020302020302020302020302020300A20202020312E3138313620202020302E3735393120202020302E30303030204F202020302020302020302020302020302020302020302020302020302020302020302020300A20202020312E3836333220202020302E3239343420202020302E303030302043202020302020302020302020302020302020302020302020302020302020302020302020300A20202020312E383031362020202D302E3532383320202020302E30303030204F202020302020302020302020302020302020302020302020302020302020302020302020300A20202020322E3630363520202020302E3635323420202020302E303030302043202020302020302020302020302020302020302020302020302020302020302020302020300A2020312020322020322020302020202020200A2020322020332020312020302020202020200A2020332020342020322020302020202020200A2020342020352020312020302020202020200A2020352020362020322020302020202020200A2020362020372020312020302020202020200A2020372020382020322020302020202020200A2020322020382020312020302020202020200A2020392031302020312020302020202020200A2020392031312020312020302020202020200A2020352020392020312020302020202020200A2031332031342020322020302020202020200A2031332031352020312020302020202020200A2031322031332020312020302020202020200A2020332031322020312020302020202020200A2031372031382020322020302020202020200A2031372031392020312020302020202020200A2031362031372020312020302020202020200A2020362031362020312020302020202020200A2032312032322020322020302020202020200A2032312032332020312020302020202020200A2032302032312020312020302020202020200A2020382032302020312020302020202020200A4D2020454E44
Contributor: TAKESHITA H, INST. OF ADVANCED MATERIAL STUDY KYUSHU UNIV.
InstType: EI
InstName: JEOL JMS-01-SG-2
IoniMethod: _ENERGY 75 eV
IonPolarity: pos
Date: 2010-10-09 19:48:36+02:00
Num Peaks: 28
39 26 41 36 42 28 43 999 44 23 51 16 53 23 67 20 69 77 77 20 
79 16 84 26 121 17 139 22 153 146 154 22 167 29 168 47 181 59 195 21 
196 939 197 115 238 281 239 35 280 72 281 16 322 26 323 18 
