Name: MassBank: JP010090
MW: 432
Formula: C26H40O5
Synonym: MassBank: JP010090
Synonym: 2-ACETOXYETHYL-2,8-DIMETHYL-6-HEXYL-8-(2-HYDROXYETHYL)-3,4,9,10-TETRAHYDRO-2H,8H-BENZO(1,2-B:3,4-B')DIPYRAN
Structure: 322D414345544F5859455448594C2D322C382D44494D455448594C2D362D484558594C2D382D28322D485944524F5859455448594C292D332C342C392C31302D5445545241485944524F2D32482C38482D42454E5A4F28312C322D42332C342D4227294449505952414E2E6D6F6C0A20204368656D447261773132323130393231353632440A2033312033332020302020302020302020302020302020302020302020303939392056323030300A2020202D302E343134332020202D302E3930333720202020302E303030302043202020302020302020302020302020302020302020302020302020302020302020302020300A2020202D302E343134332020202D312E3732383720202020302E303030302043202020302020302020302020302020302020302020302020302020302020302020302020300A20202020302E333030322020202D322E3134313220202020302E303030302043202020302020302020302020302020302020302020302020302020302020302020302020300A20202020312E303134372020202D312E3732383720202020302E303030302043202020302020302020302020302020302020302020302020302020302020302020302020300A20202020312E303134372020202D302E3930333720202020302E303030302043202020302020302020302020302020302020302020302020302020302020302020302020300A20202020302E333030322020202D302E3439313220202020302E303030302043202020302020302020302020302020302020302020302020302020302020302020302020300A2020202D312E313238372020202D302E3439313220202020302E30303030204F202020302020302020302020302020302020302020302020302020302020302020302020300A2020202D312E383433322020202D302E3930333720202020302E303030302043202020302020302020302020302020302020302020302020302020302020302020302020300A2020202D312E383433322020202D312E3732383720202020302E303030302043202020302020302020302020302020302020302020302020302020302020302020302020300A2020202D312E313238372020202D322E3134313220202020302E303030302043202020302020302020302020302020302020302020302020302020302020302020302020300A20202020312E373239312020202D302E3439313220202020302E30303030204F202020302020302020302020302020302020302020302020302020302020302020302020300A20202020312E3732393120202020302E3333333820202020302E303030302043202020302020302020302020302020302020302020302020302020302020302020302020300A20202020312E3031343720202020302E3734363320202020302E303030302043202020302020302020302020302020302020302020302020302020302020302020302020300A20202020302E3330303220202020302E3333333820202020302E303030302043202020302020302020302020302020302020302020302020302020302020302020302020300A20202020312E3934323720202020312E3133303720202020302E303030302043202020302020302020302020302020302020302020302020302020302020302020302020300A20202020322E3534373120202020302E3232363220202020302E303030302043202020302020302020302020302020302020302020302020302020302020302020302020300A20202020322E3733393620202020312E3334343320202020302E303030302043202020302020302020302020302020302020302020302020302020302020302020302020300A20202020322E3935333120202020322E3134313220202020302E30303030204F202020302020302020302020302020302020302020302020302020302020302020302020300A20202020312E373239312020202D322E3134313220202020302E303030302043202020302020302020302020302020302020302020302020302020302020302020302020300A20202020322E343433362020202D312E3732383720202020302E303030302043202020302020302020302020302020302020302020302020302020302020302020302020300A20202020332E313538312020202D322E3134313220202020302E303030302043202020302020302020302020302020302020302020302020302020302020302020302020300A20202020332E383732362020202D312E3732383720202020302E303030302043202020302020302020302020302020302020302020302020302020302020302020302020300A20202020342E353837302020202D322E3134313220202020302E303030302043202020302020302020302020302020302020302020302020302020302020302020302020300A20202020352E333031352020202D312E3732383720202020302E303030302043202020302020302020302020302020302020302020302020302020302020302020302020300A2020202D322E303536372020202D302E3130363820202020302E303030302043202020302020302020302020302020302020302020302020302020302020302020302020300A2020202D322E363631322020202D312E3031313320202020302E303030302043202020302020302020302020302020302020302020302020302020302020302020302020300A2020202D332E313633342020202D302E3335363820202020302E303030302043202020302020302020302020302020302020302020302020302020302020302020302020300A2020202D332E393831332020202D302E3436343520202020302E30303030204F202020302020302020302020302020302020302020302020302020302020302020302020300A2020202D342E3438333620202020302E3139303020202020302E303030302043202020302020302020302020302020302020302020302020302020302020302020302020300A2020202D352E3330313520202020302E3038323320202020302E303030302043202020302020302020302020302020302020302020302020302020302020302020302020300A2020202D342E3136373820202020302E3935323220202020302E30303030204F202020302020302020302020302020302020302020302020302020302020302020302020300A2020312020322020322020302020202020200A2020322020332020312020302020202020200A2020332020342020322020302020202020200A2020342020352020312020302020202020200A2020352020362020322020302020202020200A2020362020312020312020302020202020200A2020312020372020312020302020202020200A2020372020382020312020302020202020200A2020382020392020312020302020202020200A2020392031302020312020302020202020200A2031302020322020312020302020202020200A2020352031312020312020302020202020200A2031312031322020312020302020202020200A2031322031332020312020302020202020200A2031332031342020312020302020202020200A2031342020362020312020302020202020200A2031322031352020312020302020202020200A2031322031362020312020302020202020200A2031352031372020312020302020202020200A2031372031382020312020302020202020200A2020342031392020312020302020202020200A2031392032302020312020302020202020200A2032302032312020312020302020202020200A2032312032322020312020302020202020200A2032322032332020312020302020202020200A2032332032342020312020302020202020200A2020382032352020312020302020202020200A2020382032362020312020302020202020200A2032362032372020312020302020202020200A2032372032382020312020302020202020200A2032382032392020312020302020202020200A2032392033302020312020302020202020200A2032392033312020322020302020202020200A4D2020454E44
Contributor: KURARAY CO., LTD.
InstType: EI
InstName: JEOL JMS-D-300
IoniMethod: _ENERGY 70 eV
IonPolarity: pos
Date: 2010-10-09 19:48:36+02:00
Num Peaks: 154
27 25 28 112 29 73 32 125 39 17 41 209 43 364 53 38 55 191 57 63 
65 31 67 51 69 184 71 21 77 59 79 183 81 175 83 96 85 99 91 112 
93 63 95 54 97 161 98 31 99 56 103 13 105 82 107 48 109 26 115 38 
117 33 119 48 121 57 123 42 128 30 129 35 131 43 133 52 135 65 137 50 
141 16 142 17 143 24 145 40 147 80 149 80 150 14 151 25 157 17 159 47 
161 117 162 14 163 60 165 13 169 17 171 26 173 66 175 171 176 52 177 55 
185 20 187 110 188 68 189 172 190 52 191 47 193 14 197 14 199 25 201 76 
203 186 204 27 205 121 207 294 208 47 213 23 215 175 216 38 217 51 219 249 
220 21 221 98 222 14 227 22 229 44 231 62 232 13 233 184 234 67 235 32 
241 18 243 59 245 86 247 96 248 17 255 23 257 73 258 50 259 332 260 75 
261 94 262 20 269 25 271 130 272 19 273 113 274 50 275 61 276 16 277 13 
283 26 285 32 287 193 288 38 289 175 290 39 292 154 293 38 299 29 301 89 
302 20 303 82 304 21 305 150 306 37 313 15 315 13 317 34 319 312 320 66 
327 33 329 17 331 18 332 16 343 82 344 33 345 89 346 29 347 180 348 48 
357 36 361 145 362 32 372 29 373 21 375 231 376 55 390 999 391 268 392 38 
430 14 432 469 433 132 434 23 
