Name: MassBank: JP010294
MW: 273
Formula: C15H15NO4
Synonym: MassBank: JP010294
Synonym: (E)-3-(ETHOXYCARBONYLMETHYLENE)-1-PARA-TOLYL-2,5-PYRROLIDINEDIONE
Structure: 2845292D332D284554484F5859434152424F4E594C4D455448594C454E45292D312D504152412D544F4C594C2D322C352D505952524F4C4944494E4544494F4E452E6D6F6C0A20204368656D447261773130323230393136323532440A2032312032322020302020302020302020302020302020302020302020303939392056323030300A2020202D332E323135312020202D302E3133323020202020302E303030302043202020302020302020302020302020302020302020302020302020302020302020302020300A2020202D322E383032362020202D302E3834363520202020302E303030302043202020302020302020302020302020302020302020302020302020302020302020302020300A2020202D312E393737362020202D302E3834363520202020302E303030302043202020302020302020302020302020302020302020302020302020302020302020302020300A2020202D312E353635312020202D302E3133323020202020302E303030302043202020302020302020302020302020302020302020302020302020302020302020302020300A2020202D312E3937373620202020302E3538323520202020302E303030302043202020302020302020302020302020302020302020302020302020302020302020302020300A2020202D322E3830323620202020302E3538323520202020302E303030302043202020302020302020302020302020302020302020302020302020302020302020302020300A2020202D302E373430312020202D302E3133323020202020302E30303030204E202020302020302020302020302020302020302020302020302020302020302020302020300A2020202D302E323535322020202D302E3739393420202020302E303030302043202020302020302020302020302020302020302020302020302020302020302020302020300A20202020302E353239342020202D302E3534343520202020302E303030302043202020302020302020302020302020302020302020302020302020302020302020302020300A20202020302E3532393420202020302E3238303520202020302E303030302043202020302020302020302020302020302020302020302020302020302020302020302020300A2020202D302E3235353220202020302E3533353520202020302E303030302043202020302020302020302020302020302020302020302020302020302020302020302020300A2020202D302E3530393420202020312E3331373420202020302E30303030204F202020302020302020302020302020302020302020302020302020302020302020302020300A2020202D302E353039342020202D312E3538343220202020302E30303030204F202020302020302020302020302020302020302020302020302020302020302020302020300A20202020312E3139363820202020302E3736353420202020302E303030302043202020302020302020302020302020302020302020302020302020302020302020302020300A20202020312E3131333420202020312E3538343220202020302E303030302048202020302020302020302020302020302020302020302020302020302020302020302020300A20202020312E3935303520202020302E3432393920202020302E303030302043202020302020302020302020302020302020302020302020302020302020302020302020300A20202020322E303336382020202D302E3339303620202020302E30303030204F202020302020302020302020302020302020302020302020302020302020302020302020300A20202020322E3631383720202020302E3931323920202020302E30303030204F202020302020302020302020302020302020302020302020302020302020302020302020300A20202020332E3337313520202020302E3537353520202020302E303030302043202020302020302020302020302020302020302020302020302020302020302020302020300A20202020342E3034303120202020312E3035383820202020302E303030302043202020302020302020302020302020302020302020302020302020302020302020302020300A2020202D342E303430312020202D302E3133323020202020302E303030302043202020302020302020302020302020302020302020302020302020302020302020302020300A2020312020322020322020302020202020200A2020322020332020312020302020202020200A2020332020342020322020302020202020200A2020342020352020312020302020202020200A2020352020362020322020302020202020200A2020362020312020312020302020202020200A2020342020372020312020302020202020200A2020372020382020312020302020202020200A2020382020392020312020302020202020200A2020392031302020312020302020202020200A2031302031312020312020302020202020200A2031312020372020312020302020202020200A2031312031322020322020302020202020200A2020382031332020322020302020202020200A2031302031342020322020302020202020200A2031342031352020312020302020202020200A2031362031372020322020302020202020200A2031362031382020312020302020202020200A2031342031362020312020302020202020200A2031382031392020312020302020202020200A2031392032302020312020302020202020200A2020312032312020312020302020202020200A4D202053545920203120202031205355500A4D2020534C4220203120202031202020310A4D202053414C20202031202031202032310A4D202053424C20202031202031202032320A4D2020534D5420202031204D650A4D2020534256202020312032322020202D382E3334383520202020372E383335380A4D2020454E44
Contributor: KANEMASA S, INST. OF ADVANCED MATERIAL STUDY KYUSHU UNIV.
InstType: EI
InstName: JEOL JMS-01-SG-2
IoniMethod: _ENERGY 75 eV
IonPolarity: pos
Date: 2010-10-09 19:48:36+02:00
Num Peaks: 30
27 46 29 217 39 224 65 38 66 52 67 251 81 70 82 45 89 64 98 86 
108 64 110 44 111 69 114 50 132 100 133 80 139 95 143 59 144 45 155 54 
156 62 172 109 173 48 199 73 200 53 201 46 227 850 228 264 273 999 274 224 
