Name: MassBank: JP010751
MW: 135
Formula: C9H13N
Synonym: MassBank: JP010751
Synonym: N,N-DIMETHYL-PARA-TOLUIDINE
Structure: 4E2C4E2D44494D455448594C2D504152412D544F4C554944494E452E6D6F6C0A20204368656D447261773038313231303032333832440A2031302031302020302020302020302020302020302020302020302020303939392056323030300A2020202D312E3434333720202020302E3030303020202020302E30303030204E202020302020302020302020302020302020302020302020302020302020302020302020300A2020202D302E3631383720202020302E3030303020202020302E303030302043202020302020302020302020302020302020302020302020302020302020302020302020300A2020202D302E3230363220202020302E3731343520202020302E303030302043202020302020302020302020302020302020302020302020302020302020302020302020300A20202020302E3631383820202020302E3731343520202020302E303030302043202020302020302020302020302020302020302020302020302020302020302020302020300A20202020312E303331332020202D302E3030303020202020302E303030302043202020302020302020302020302020302020302020302020302020302020302020302020300A20202020302E363138382020202D302E3731343520202020302E303030302043202020302020302020302020302020302020302020302020302020302020302020302020300A2020202D302E323036322020202D302E3731343520202020302E303030302043202020302020302020302020302020302020302020302020302020302020302020302020300A20202020312E383536332020202D302E3030303020202020302E303030302043202020302020302020302020302020302020302020302020302020302020302020302020300A2020202D312E383536332020202D302E3731343520202020302E303030302043202020302020302020302020302020302020302020302020302020302020302020302020300A2020202D312E3835363320202020302E3731343520202020302E303030302043202020302020302020302020302020302020302020302020302020302020302020302020300A2020312020322020312020302020202020200A2020322020332020312020302020202020200A2020332020342020322020302020202020200A2020342020352020312020302020202020200A2020352020362020322020302020202020200A2020362020372020312020302020202020200A2020322020372020322020302020202020200A2020352020382020312020302020202020200A2020312020392020312020302020202020200A2020312031302020312020302020202020200A4D2020454E44
Contributor: YAMAMOTO M, DEP. CHEMISTRY, FAC. SCIENCE, NARA WOMEN'S UNIV.
InstType: EI
InstName: HITACHI RMU-6M
IoniMethod: _ENERGY 70 eV
IonPolarity: pos
Date: 2010-10-09 19:48:36+02:00
Num Peaks: 45
15 24 27 20 28 13 38 1 39 67 40 10 41 24 42 6 44 24 50 22 
51 51 52 2 53 13 55 10 58.5 17 62 1 63 44 64 13 65 101 66 2 
66.5 67 67 20 67.5 47 76 1 77 57 78 27 79 17 89 3 90 20 91 192 
92 37 93 2 104 10 105 17 106 10 117 1 118 121 119 135 120 61 121 1 
132 17 133 27 134 999 135 75 136 77 
