Name: METHYL 2-CHLORO-3-METHYL-3-BUTENOATE
MW: 148
Formula: C6H9ClO2
Synonym: MassBank: JP010917
Synonym: METHYL 2-CHLORO-3-METHYL-3-BUTENOATE
Structure: 310A32320A4D455448594C20322D43484C4F524F2D332D4D455448594C2D332D425554454E4F4154452E6D6F6C0A20204368656D447261773038313131303233323932440A2020392020382020302020302020302020302020302020302020302020303939392056323030300A2020202D302E323036322020202D302E3731343520202020302E303030302043202020302020302020302020302020302020302020302020302020302020302020302020300A20202020302E3230363320202020302E3030303020202020302E303030302043202020302020302020302020302020302020302020302020302020302020302020302020300A2020202D302E3230363220202020302E3731343520202020302E303030302043202020302020302020302020302020302020302020302020302020302020302020302020300A20202020302E3230363220202020312E3432383920202020302E303030302043202020302020302020302020302020302020302020302020302020302020302020302020300A2020202D312E303331332020202D302E3731343520202020302E30303030204F202020302020302020302020302020302020302020302020302020302020302020302020300A20202020302E323036332020202D312E3432383920202020302E30303030204F202020302020302020302020302020302020302020302020302020302020302020302020300A2020202D312E3033313320202020302E3731343520202020302E303030302043202020302020302020302020302020302020302020302020302020302020302020302020300A20202020312E3033313320202020302E3030303020202020302E3030303020436C2020302020302020302020302020302020302020302020302020302020302020302020300A20202020312E303331332020202D312E3432383920202020302E303030302043202020302020302020302020302020302020302020302020302020302020302020302020300A2020312020322020312020302020202020200A2020322020332020312020302020202020200A2020332020342020322020302020202020200A2020312020352020322020302020202020200A2020312020362020312020302020202020200A2020332020372020312020302020202020200A2020322020382020312020302020202020200A2020362020392020312020302020202020200A4D2020454E44
Contributor: KURARAY CO., LTD.
InstType: EI
InstName: JEOL JMS-D-300
IoniMethod: _ENERGY 70 eV
IonPolarity: pos
Date: 2010-10-09 19:48:36+02:00
Num Peaks: 64
26 8 27 77 29 26 30 4 31 7 36 6 37 7 38 14 39 117 40 5 
41 64 42 26 43 53 44 2 45 13 49 17 50 40 51 79 52 33 53 547 
54 53 55 52 56 6 57 9 58 27 59 239 60 6 61 14 62 5 63 26 
65 5 66 4 67 55 69 39 71 12 72 5 73 124 74 11 75 12 76 15 
81 73 82 51 83 46 85 41 87 29 88 103 89 368 90 54 91 119 97 28 
105 17 108 11 112 7 113 999 114 117 115 27 116 438 117 530 118 201 119 183 
133 35 135 11 148 448 150 157 
