Name: 4-CHLORO-2-HYDROXYMETHYLPHENOL
MW: 158
Formula: C7H7ClO2
Synonym: MassBank: JP010590
Synonym: 4-CHLORO-2-HYDROXYMETHYLPHENOL
Structure: 342D43484C4F524F2D322D485944524F58594D455448594C5048454E4F4C2E6D6F6C0A20204368656D447261773033323531303039313032440A2031302031302020302020302020302020302020302020302020302020303939392056323030300A20202020302E3335373220202020302E3431323520202020302E303030302043202020302020302020302020302020302020302020302020302020302020302020302020300A20202020302E333537322020202D302E3431323520202020302E303030302043202020302020302020302020302020302020302020302020302020302020302020302020300A2020202D302E333537322020202D302E3832353020202020302E303030302043202020302020302020302020302020302020302020302020302020302020302020302020300A2020202D312E303731372020202D302E3431323520202020302E303030302043202020302020302020302020302020302020302020302020302020302020302020302020300A2020202D312E3037313720202020302E3431323520202020302E303030302043202020302020302020302020302020302020302020302020302020302020302020302020300A2020202D302E3335373220202020302E3832353020202020302E303030302043202020302020302020302020302020302020302020302020302020302020302020302020300A20202020312E303731372020202D302E3832353020202020302E303030302043202020302020302020302020302020302020302020302020302020302020302020302020300A20202020312E373836322020202D302E3431323520202020302E30303030204F202020302020302020302020302020302020302020302020302020302020302020302020300A2020202D312E373836322020202D302E3832353020202020302E3030303020436C2020302020302020302020302020302020302020302020302020302020302020302020300A20202020312E3037313720202020302E3832353020202020302E30303030204F202020302020302020302020302020302020302020302020302020302020302020302020300A2020312020322020312020302020202020200A2020322020332020322020302020202020200A2020332020342020312020302020202020200A2020342020352020322020302020202020200A2020352020362020312020302020202020200A2020312020362020322020302020202020200A2020372020382020312020302020202020200A2020322020372020312020302020202020200A2020342020392020312020302020202020200A2020312031302020312020302020202020200A4D2020454E44
Contributor: NARA WOMEN'S UNIVERSITY
InstType: EI
InstName: HITACHI M-80
IoniMethod: _ENERGY 70 eV
IonPolarity: pos
Date: 2010-10-09 19:48:36+02:00
Num Peaks: 37
32 25 37 46 38 64 46 20 49 27 50 54 51 31 53 68 61 57 62 96 
63 196 64 92 65 196 66 34 73 118 74 44 75 85 99 170 100 44 101 53 
102 14 110 206 111 17 126 15 127 112 128 77 129 44 130 26 138 159 139 13 
140 53 154 17 155 617 156 999 157 379 158 369 159 52 
