Name: 2-METHOXYACETOPHENONE (D3)
MW: 150
Formula: C9H10O2
Synonym: MassBank: JP011805
Synonym: 2-METHOXYACETOPHENONE (D3)
Structure: 322D4D4554484F5859414345544F5048454E4F4E4520284433292E6D6F6C0A20204368656D447261773031323231303032313632440A2031342031342020302020302020302020302020302020302020302020303939392056323030300A2020202D312E373836322020202D302E3230363220202020302E303030302043202020302020302020302020302020302020302020302020302020302020302020302020300A2020202D312E373836322020202D312E3033313320202020302E303030302043202020302020302020302020302020302020302020302020302020302020302020302020300A2020202D312E303731372020202D312E3434333820202020302E303030302043202020302020302020302020302020302020302020302020302020302020302020302020300A2020202D302E333537322020202D312E3033313320202020302E303030302043202020302020302020302020302020302020302020302020302020302020302020302020300A2020202D302E333537322020202D302E3230363220202020302E303030302043202020302020302020302020302020302020302020302020302020302020302020302020300A2020202D312E3037313720202020302E3230363220202020302E303030302043202020302020302020302020302020302020302020302020302020302020302020302020300A2020202D312E3037313720202020312E3033313320202020302E303030302043202020302020302020302020302020302020302020302020302020302020302020302020300A20202020302E3335373220202020302E3230363220202020302E30303030204F202020302020302020302020302020302020302020302020302020302020302020302020300A20202020312E303731372020202D302E3230363220202020302E303030302043202020302020302020302020302020302020302020302020302020302020302020302020300A20202020312E373836322020202D302E3631383820202020302E303030302048202020312020302020302020302020302020302020302020302020302020302020302020300A20202020312E3438343220202020302E3530383220202020302E303030302048202020312020302020302020302020302020302020302020302020302020302020302020300A20202020302E363539322020202D302E3932303720202020302E303030302048202020312020302020302020302020302020302020302020302020302020302020302020300A2020202D312E3738363220202020312E3434333820202020302E30303030204F202020302020302020302020302020302020302020302020302020302020302020302020300A2020202D302E3335373220202020312E3434333820202020302E303030302043202020302020302020302020302020302020302020302020302020302020302020302020300A2020312020322020322020302020202020200A2020322020332020312020302020202020200A2020332020342020322020302020202020200A2020342020352020312020302020202020200A2020352020362020322020302020202020200A2020362020312020312020302020202020200A2020362020372020312020302020202020200A2020352020382020312020302020202020200A2020382020392020312020302020202020200A2020392031302020312020302020202020200A2020392031312020312020302020202020200A2020392031322020312020302020202020200A2020372031332020322020302020202020200A2020372031342020312020302020202020200A4D202049534F2020332020313020202032202031312020203220203132202020320A4D2020454E44
Contributor: TAJIMA S, GUNMA COLLEGE OF TECHNOLOGY
InstType: EI
InstName: HITACHI M-80A
IoniMethod: _ENERGY 70 eV
IonPolarity: pos
Date: 2010-10-09 19:48:36+02:00
Num Peaks: 32
15 28 18 33 38 23 39 46 43 156 50 29 51 39 52 30 53 15 62 17 
63 102 64 54 65 22 76 12 77 24 78 195 79 32 82 28 92 206 93 18 
106 25 108 40 120 25 135 11 136 38 137 13 138 999 139 88 153 413 154 228 
155 137 156 13 
