Name: MassBank: JP011427
MW: 152
Formula: C8H8O3
Synonym: MassBank: JP011427
Synonym: 1-(2,4-DIHYDROXYPHENYL)ETHANONE
Structure: 312D28322C342D4449485944524F58595048454E594C29455448414E4F4E452E6D6F6C0A20204368656D447261773131313730393136323332440A2031312031312020302020302020302020302020302020302020302020303939392056323030300A2020202D312E343433372020202D302E3335373220202020302E303030302043202020302020302020302020302020302020302020302020302020302020302020302020300A2020202D312E383536332020202D312E3037313720202020302E303030302043202020302020302020302020302020302020302020302020302020302020302020302020300A2020202D302E363138372020202D302E3335373220202020302E303030302043202020302020302020302020302020302020302020302020302020302020302020302020300A2020202D302E3230363220202020302E3335373220202020302E303030302043202020302020302020302020302020302020302020302020302020302020302020302020300A20202020302E3631383720202020302E3335373220202020302E303030302043202020302020302020302020302020302020302020302020302020302020302020302020300A20202020312E303331332020202D302E3335373220202020302E303030302043202020302020302020302020302020302020302020302020302020302020302020302020300A20202020302E363138382020202D312E3037313720202020302E303030302043202020302020302020302020302020302020302020302020302020302020302020302020300A2020202D302E323036322020202D312E3037313720202020302E303030302043202020302020302020302020302020302020302020302020302020302020302020302020300A20202020312E383536332020202D302E3335373220202020302E30303030204F202020302020302020302020302020302020302020302020302020302020302020302020300A2020202D302E3631383820202020312E3037313720202020302E30303030204F202020302020302020302020302020302020302020302020302020302020302020302020300A2020202D312E3835363320202020302E3335373220202020302E30303030204F202020302020302020302020302020302020302020302020302020302020302020302020300A2020312020322020312020302020202020200A2020332020342020312020302020202020200A2020342020352020322020302020202020200A2020352020362020312020302020202020200A2020362020372020322020302020202020200A2020372020382020312020302020202020200A2020332020382020322020302020202020200A2020362020392020312020302020202020200A2020342031302020312020302020202020200A2020312020332020312020302020202020200A2020312031312020322020302020202020200A4D2020454E44
Contributor: SUMITA Y, KYOTO COLLEGE OF PHARMACY
InstType: EI
InstName: HITACHI M-80
IoniMethod: _ENERGY 20 eV
IonPolarity: pos
Date: 2010-10-09 19:48:36+02:00
Num Peaks: 10
43 16 53 22 69 21 81 95 109 32 137 999 138 77 152 664 153 62 154 7 
