Name: MassBank: JP011592
MW: 100
Formula: C5H12Si
Synonym: MassBank: JP011592
Synonym: 1,1-DIMETHYLSILACYCLOBUTANE
Structure: 310A31370A312C312D44494D455448594C53494C414359434C4F425554414E452E6D6F6C0A20204368656D447261773130323330393131303132440A2020362020362020302020302020302020302020302020302020302020303939392056323030300A20202020302E303030302020202D302E3030303020202020302E303030302053692020302020302020302020302020302020302020302020302020302020302020302020300A20202020302E303030302020202D302E3832353020202020302E303030302043202020302020302020302020302020302020302020302020302020302020302020302020300A2020202D302E383235302020202D302E3832353020202020302E303030302043202020302020302020302020302020302020302020302020302020302020302020302020300A2020202D302E383235302020202D302E3030303020202020302E303030302043202020302020302020302020302020302020302020302020302020302020302020302020300A20202020302E3030303020202020302E3832353020202020302E303030302043202020302020302020302020302020302020302020302020302020302020302020302020300A20202020302E383235302020202D302E3030303020202020302E303030302043202020302020302020302020302020302020302020302020302020302020302020302020300A2020312020322020312020302020202020200A2020322020332020312020302020202020200A2020332020342020312020302020202020200A2020312020342020312020302020202020200A2020312020352020312020362020202020200A2020312020362020312020312020202020200A4D2020454E44
Contributor: YAMAMOTO M, DEP. CHEMISTRY, FAC. SCIENCE, NARA WOMEN'S UNIV.
InstType: EI
InstName: HITACHI RMU-6M
IoniMethod: _ENERGY 70 eV
IonPolarity: pos
Date: 2010-10-09 19:48:36+02:00
Num Peaks: 30
27 27 28 38 29 95 31 51 39 28 41 12 42 66 43 298 44 339 45 70 
46 17 53 42 54 16 55 51 56 21 57 55 58 44 59 162 60 16 66 15 
67 20 70 55 71 66 72 999 73 97 74 44 85 76 100 180 101 21 102 11 
