Name: MassBank: JP010662
MW: 394
Formula: C22H34O6
Synonym: MassBank: JP010662
Synonym: (1S,2S,3E,7S,8R,11S,12Z)-7-ACETOXY-2,17-DIHYDROXY-8,11-EPIDIOXYCEMBRA-3,12,15-TRIENE
Structure: 2831532C32532C33452C37532C38522C3131532C31325A292D372D414345544F58592D322C31372D4449485944524F58592D382C31312D45504944494F585943454D4252412D332C31322C31352D545249454E452E6D6F6C0A20204368656D447261773130313930393136343232440A2033342033352020302020302020302020302020302020302020302020303939392056323030300A2020202D322E363530382020202D302E3032393020202020302E303030302043202020302020302020302020302020302020302020302020302020302020302020302020300A2020202D322E363530382020202D302E3835343020202020302E303030302043202020302020302020302020302020302020302020302020302020302020302020302020300A2020202D322E303637342020202D312E3433373320202020302E303030302043202020302020302020302020302020302020302020302020302020302020302020302020300A2020202D312E323432342020202D312E3433373320202020302E303030302043202020302020302020302020302020302020302020302020302020302020302020302020300A2020202D302E363539312020202D302E3835343020202020302E303030302043202020302020302020302020302020302020302020302020302020302020302020302020300A2020202D302E363539312020202D302E3032393020202020302E303030302043202020302020302020302020302020302020302020302020302020302020302020302020300A2020202D312E3234323420202020302E3535343420202020302E303030302043202020302020302020302020302020302020302020302020302020302020302020302020300A2020202D322E3036373420202020302E3535343420202020302E303030302043202020302020302020302020302020302020302020302020302020302020302020302020300A2020202D302E303735372020202D312E3433373320202020302E303030302043202020302020302020302020302020302020302020302020302020302020302020302020300A20202020302E373439332020202D312E3433373320202020302E303030302043202020302020302020302020302020302020302020302020302020302020302020302020300A20202020312E333332372020202D302E3835343020202020302E303030302043202020302020302020302020302020302020302020302020302020302020302020302020300A20202020312E333332372020202D302E3032393020202020302E303030302043202020302020302020302020302020302020302020302020302020302020302020302020300A20202020302E3734393320202020302E3535343420202020302E303030302043202020302020302020302020302020302020302020302020302020302020302020302020300A2020202D302E3037353720202020302E3535343420202020302E303030302043202020302020302020302020302020302020302020302020302020302020302020302020300A2020202D322E3036373420202020312E3337333320202020302E303030302048202020302020302020302020302020302020302020302020302020302020302020302020300A2020202D322E3737383720202020302E3936303820202020302E30303030204F202020302020302020302020302020302020302020302020302020302020302020302020300A20202020302E353337372020202D302E3234343920202020302E303030302048202020302020302020302020302020302020302020302020302020302020302020302020300A2020202D302E333833382020202D322E3230343420202020302E303030302048202020302020302020302020302020302020302020302020302020302020302020302020300A2020202D322E3738313920202020312E3739313920202020302E303030302043202020302020302020302020302020302020302020302020302020302020302020302020300A2020202D322E3036373420202020322E3230343420202020302E303030302043202020302020302020302020302020302020302020302020302020302020302020302020300A2020202D332E3439303020202020322E3139383320202020302E30303030204F202020302020302020302020302020302020302020302020302020302020302020302020300A2020202D322E303637342020202D302E3631323420202020302E30303030204F202020302020302020302020302020302020302020302020302020302020302020302020300A2020202D312E343535392020202D302E3634303420202020302E30303030204F202020302020302020302020302020302020302020302020302020302020302020302020300A2020202D302E393236372020202D322E3139393520202020302E303030302048202020302020302020302020302020302020302020302020302020302020302020302020300A20202020312E373435322020202D312E3536383520202020302E303030302048202020302020302020302020302020302020302020302020302020302020302020302020300A20202020322E3132393620202020302E3138343520202020302E303030302048202020302020302020302020302020302020302020302020302020302020302020302020300A20202020312E3734353220202020302E3638353520202020302E30303030204F202020302020302020302020302020302020302020302020302020302020302020302020300A20202020322E313537372020202D302E3835343020202020302E303030302043202020302020302020302020302020302020302020302020302020302020302020302020300A20202020322E353730322020202D312E3536383520202020302E303030302043202020302020302020302020302020302020302020302020302020302020302020302020300A20202020322E373735352020202D302E3038333920202020302E303030302043202020302020302020302020302020302020302020302020302020302020302020302020300A20202020332E343930302020202D302E3439363420202020302E30303030204F202020302020302020302020302020302020302020302020302020302020302020302020300A2020202D332E3336353420202020302E3338333520202020302E303030302043202020302020302020302020302020302020302020302020302020302020302020302020300A2020202D302E3339323720202020312E3331373220202020302E303030302043202020302020302020302020302020302020302020302020302020302020302020302020300A2020202D302E363539342020202D312E3637393020202020302E303030302043202020302020302020302020302020302020302020302020302020302020302020302020300A2020312020322020312020302020202020200A2020322020332020312020302020202020200A2020332020342020312020302020202020200A2020342020352020312020302020202020200A2020362020372020312020302020202020200A2020372020382020312020302020202020200A2020382020312020312020302020202020200A2020352020392020322020302020202020200A2020392031302020312020302020202020200A2031302031312020312020302020202020200A2031312031322020312020302020202020200A2031322031332020312020302020202020200A2031332031342020322020302020202020200A2031342020362020312020302020202020200A2020382031352020312020362020202020200A2020382031362020312020312020202020200A2031332031372020312020302020202020200A2020392031382020312020302020202020200A2031362031392020312020302020202020200A2031392032302020312020302020202020200A2031392032312020322020302020202020200A2020312032322020312020312020202020200A2020342032332020312020312020202020200A2032322032332020312020302020202020200A2020342032342020312020362020202020200A2031312032352020312020312020202020200A2031322032362020312020312020202020200A2031322032372020312020362020202020200A2031312032382020312020362020202020200A2032382032392020322020302020202020200A2032382033302020312020302020202020200A2033302033312020312020302020202020200A2020312033322020312020302020202020200A2031342033332020312020302020202020200A2020352033342020312020302020202020200A4D202053545920203120202031205355500A4D2020534C4220203120202031202020310A4D202053414C2020203120203220203330202033310A4D202053424C20202031202031202033310A4D2020534D5420202031204348324F480A4D2020534256202020312033312020202D362E3138393120202020382E363034350A4D202053545920203120202032205355500A4D2020534C4220203120202032202020320A4D202053414C20202032202031202033320A4D202053424C20202032202031202033330A4D2020534D5420202032204D650A4D2020534256202020322033332020202D372E3532313520202020382E323436390A4D202053545920203120202033205355500A4D2020534C4220203120202033202020330A4D202053414C20202033202031202033330A4D202053424C20202033202031202033340A4D2020534D5420202033204D650A4D2020534256202020332033342020202D372E3132333920202020382E353937330A4D202053545920203120202034205355500A4D2020534C4220203120202034202020340A4D202053414C20202034202031202033340A4D202053424C20202034202031202033350A4D2020534D5420202034204D650A4D2020534256202020342033352020202D362E3830373220202020372E303039340A4D2020454E44
Contributor: EGUCHI S, FAC. OF SCIENCE, HIROSHIMA UNIV.
InstType: EI
InstName: HITACHI RMU-6L
IoniMethod: _ENERGY 70 eV
IonPolarity: pos
Date: 2010-10-09 19:48:36+02:00
Num Peaks: 123
40 24 41 232 42 32 43 999 44 40 45 36 47 20 50 1 51 24 52 16 
53 96 54 3 55 208 56 40 57 64 58 2 59 12 60 16 61 12 65 4 
66 24 67 96 68 32 69 9 70 16 71 96 72 12 77 9 78 32 79 155 
80 48 81 25 82 72 83 128 84 160 85 6 86 16 87 16 91 140 92 4 
93 136 94 32 95 168 96 4 97 112 98 20 99 208 100 2 101 28 103 16 
105 84 106 4 107 124 108 56 109 104 110 3 111 48 112 12 113 24 115 2 
117 28 118 20 119 48 120 3 121 64 122 28 123 40 124 2 125 28 126 16 
127 56 128 2 130 12 131 40 132 24 133 5 134 28 135 68 136 56 137 3 
138 16 139 20 141 12 142 1 143 16 144 12 145 32 146 2 147 44 148 28 
149 52 150 2 151 20 152 16 153 88 154 2 155 20 157 12 159 16 161 2 
162 16 163 16 164 12 165 2 167 12 169 32 175 16 189 2 190 12 191 12 
193 12 207 2 208 8 209 5 213 11 214 0 215 5 225 5 253 6 316 1 
358 2 376 5 394 3 
