Name: MassBank: JP010997
MW: 438
Formula: C25H26O7
Synonym: MassBank: JP010997
Synonym: 2,5-BIS(2,5-DIMETHOXYBENZYLOXY)TROPONE
Structure: 322C352D42495328322C352D44494D4554484F585942454E5A594C4F58592954524F504F4E452E6D6F6C0A20204368656D447261773132323130393030323232440A2033322033342020302020302020302020302020302020302020302020303939392056323030300A20202020302E363830342020202D312E3832393120202020302E30303030204F202020302020302020302020302020302020302020302020302020302020302020302020300A20202020302E313636302020202D312E3138343120202020302E303030302043202020302020302020302020302020302020302020302020302020302020302020302020300A2020202D302E363338332020202D312E3336373720202020302E303030302043202020302020302020302020302020302020302020302020302020302020302020302020300A2020202D312E323833332020202D302E3835333320202020302E303030302043202020302020302020302020302020302020302020302020302020302020302020302020300A2020202D312E323833332020202D302E3032383320202020302E303030302043202020302020302020302020302020302020302020302020302020302020302020302020300A2020202D302E3633383320202020302E3438363120202020302E303030302043202020302020302020302020302020302020302020302020302020302020302020302020300A20202020302E3136363020202020302E3330323520202020302E303030302043202020302020302020302020302020302020302020302020302020302020302020302020300A20202020302E353234302020202D302E3434303820202020302E303030302043202020302020302020302020302020302020302020302020302020302020302020302020300A2020202D322E3032363620202020302E3332393720202020302E30303030204F202020302020302020302020302020302020302020302020302020302020302020302020300A2020202D322E373038332020202D302E3133353120202020302E303030302043202020302020302020302020302020302020302020302020302020302020302020302020300A2020202D332E3435313620202020302E3232323920202020302E303030302043202020302020302020302020302020302020302020302020302020302020302020302020300A2020202D342E313333322020202D302E3234313820202020302E303030302043202020302020302020302020302020302020302020302020302020302020302020302020300A2020202D342E3837363520202020302E3131363120202020302E303030302043202020302020302020302020302020302020302020302020302020302020302020302020300A2020202D342E3933383220202020302E3933383820202020302E303030302043202020302020302020302020302020302020302020302020302020302020302020302020300A2020202D342E3235363520202020312E3430333520202020302E303030302043202020302020302020302020302020302020302020302020302020302020302020302020300A2020202D332E3531333220202020312E3034353620202020302E303030302043202020302020302020302020302020302020302020302020302020302020302020302020300A2020202D342E3331383220202020322E3232363220202020302E30303030204F202020302020302020302020302020302020302020302020302020302020302020302020300A2020202D352E3036313520202020322E3538343220202020302E303030302043202020302020302020302020302020302020302020302020302020302020302020302020300A2020202D342E303731362020202D312E3036343520202020302E30303030204F202020302020302020302020302020302020302020302020302020302020302020302020300A2020202D342E373533322020202D312E3532393320202020302E303030302043202020302020302020302020302020302020302020302020302020302020302020302020300A20202020312E333439302020202D302E3434303820202020302E30303030204F202020302020302020302020302020302020302020302020302020302020302020302020300A20202020312E373631352020202D312E3135353220202020302E303030302043202020302020302020302020302020302020302020302020302020302020302020302020300A20202020322E353836352020202D312E3135353220202020302E303030302043202020302020302020302020302020302020302020302020302020302020302020302020300A20202020322E393939302020202D302E3434303820202020302E303030302043202020302020302020302020302020302020302020302020302020302020302020302020300A20202020332E383234302020202D302E3434303820202020302E303030302043202020302020302020302020302020302020302020302020302020302020302020302020300A20202020342E323336352020202D312E3135353220202020302E303030302043202020302020302020302020302020302020302020302020302020302020302020302020300A20202020332E383234302020202D312E3836393720202020302E303030302043202020302020302020302020302020302020302020302020302020302020302020302020300A20202020322E393939302020202D312E3836393720202020302E303030302043202020302020302020302020302020302020302020302020302020302020302020302020300A20202020342E323336352020202D322E3538343220202020302E30303030204F202020302020302020302020302020302020302020302020302020302020302020302020300A20202020352E303631352020202D322E3538343220202020302E303030302043202020302020302020302020302020302020302020302020302020302020302020302020300A20202020322E3538363520202020302E3237333720202020302E30303030204F202020302020302020302020302020302020302020302020302020302020302020302020300A20202020322E3939393020202020302E3938383220202020302E303030302043202020302020302020302020302020302020302020302020302020302020302020302020300A2020312020322020322020302020202020200A2020322020332020312020302020202020200A2020332020342020322020302020202020200A2020342020352020312020302020202020200A2020352020362020322020302020202020200A2020362020372020312020302020202020200A2020372020382020322020302020202020200A2020322020382020312020302020202020200A2031302031312020312020302020202020200A2031312031322020312020302020202020200A2031322031332020322020302020202020200A2031332031342020312020302020202020200A2031342031352020322020302020202020200A2031352031362020312020302020202020200A2031312031362020322020302020202020200A2020392031302020312020302020202020200A2031372031382020312020302020202020200A2031352031372020312020302020202020200A2031392032302020312020302020202020200A2031322031392020312020302020202020200A2020352020392020312020302020202020200A2032322032332020312020302020202020200A2032332032342020312020302020202020200A2032342032352020322020302020202020200A2032352032362020312020302020202020200A2032362032372020322020302020202020200A2032372032382020312020302020202020200A2032332032382020322020302020202020200A2032312032322020312020302020202020200A2032392033302020312020302020202020200A2032372032392020312020302020202020200A2033312033322020312020302020202020200A2032342033312020312020302020202020200A2020382032312020312020302020202020200A4D2020454E44
Contributor: TAKESHITA H, INST. OF ADVANCED MATERIAL STUDY KYUSHU UNIV.
InstType: EI
InstName: JEOL JMS-01-SG-2
IoniMethod: _ENERGY 75 eV
IonPolarity: pos
Date: 2010-10-09 19:48:36+02:00
Num Peaks: 43
38 84 40 19 50 24 51 85 52 40 53 57 54 36 55 61 63 42 64 25 
65 204 66 23 77 158 78 128 79 46 81 49 89 20 91 195 92 26 93 32 
105 21 106 35 107 22 108 97 109 26 121 480 122 45 123 97 124 12 125 11 
135 16 136 25 137 40 138 33 139 11 152 999 153 109 154 14 168 15 227 14 
288 10 438 43 439 12 
