Name: MassBank: JP011445
MW: 161
Formula: C9H7NO2
Synonym: MassBank: JP011445
Synonym: 3,4-METHYLENEDIOXYBENZENEACETONITRIL
Structure: 332C342D4D455448594C454E4544494F585942454E5A454E45414345544F4E495452494C2E6D6F6C0A20204368656D447261773032323131303233303232440A2031322031332020302020302020302020302020302020302020302020303939392056323030300A2020202D312E3939373120202020312E3237353920202020302E303030302043202020302020302020302020302020302020302020302020302020302020302020302020300A2020202D312E3939373120202020302E3435303920202020302E30303030204F202020302020302020302020302020302020302020302020302020302020302020302020300A2020202D312E3231323420202020302E3139363020202020302E303030302043202020302020302020302020302020302020302020302020302020302020302020302020300A2020202D302E3732373520202020302E3836333420202020302E303030302043202020302020302020302020302020302020302020302020302020302020302020302020300A2020202D312E3231323420202020312E3533303920202020302E30303030204F202020302020302020302020302020302020302020302020302020302020302020302020300A2020202D302E383736392020202D302E3535373720202020302E303030302043202020302020302020302020302020302020302020302020302020302020302020302020300A2020202D302E303536342020202D302E3634333920202020302E303030302043202020302020302020302020302020302020302020302020302020302020302020302020300A20202020302E3432383520202020302E3032333520202020302E303030302043202020302020302020302020302020302020302020302020302020302020302020302020300A20202020302E3039333020202020302E3737373220202020302E303030302043202020302020302020302020302020302020302020302020302020302020302020302020300A20202020312E323439302020202D302E3036323720202020302E303030302043202020302020302020302020302020302020302020302020302020302020302020302020300A20202020312E353834362020202D302E3831363420202020302E303030302043202020302020302020302020302020302020302020302020302020302020302020302020300A20202020312E393937312020202D312E3533303920202020302E30303030204E202020302020302020302020302020302020302020302020302020302020302020302020300A2020312020322020312020302020202020200A2020322020332020312020302020202020200A2020332020342020322020302020202020200A2020342020352020312020302020202020200A2020352020312020312020302020202020200A2020332020362020312020302020202020200A2020362020372020322020302020202020200A2020372020382020312020302020202020200A2020382020392020322020302020202020200A2020392020342020312020302020202020200A2020382031302020312020302020202020200A2031302031312020312020302020202020200A2031312031322020332020302020202020200A4D2020454E44
Contributor: SUMITA Y, KYOTO COLLEGE OF PHARMACY
InstType: EI
InstName: HITACHI M-80
IoniMethod: _ENERGY 20 eV
IonPolarity: pos
Date: 2010-10-09 19:48:36+02:00
Num Peaks: 15
76 32 77 24 78 10 102 12 103 194 104 35 105 24 130 12 131 114 132 20 
135 19 160 606 161 999 162 103 163 9 
