Name: SULFOLANE
MW: 120
Formula: C4H8O2S
Synonym: MassBank: JP010011
Synonym: SULFOLANE
Synonym: TETRAHYDROTHIOPHENE 1,1-DIOXIDE
Structure: 310A31390A5445545241485944524F5448494F5048454E4520312C312D44494F584944452E6D6F6C0A20204368656D447261773038313231303037323632440A2020372020372020302020302020302020302020302020302020302020303939392056323030300A2020202D302E3238333520202020302E3635323720202020302E303030302043202020302020302020302020302020302020302020302020302020302020302020302020300A20202020302E3437303220202020302E3938383320202020302E303030302043202020302020302020302020302020302020302020302020302020302020302020302020300A20202020312E3032323220202020302E3337353220202020302E303030302043202020302020302020302020302020302020302020302020302020302020302020302020300A20202020302E363039372020202D302E3333393320202020302E303030302043202020302020302020302020302020302020302020302020302020302020302020302020300A2020202D302E313937322020202D302E3136373820202020302E303030302053202020302020302020302020302020302020302020302020302020302020302020302020300A2020202D302E323833352020202D302E3938383320202020302E30303030204F202020302020302020302020302020302020302020302020302020302020302020302020300A2020202D312E303232322020202D302E3136373820202020302E30303030204F202020302020302020302020302020302020302020302020302020302020302020302020300A2020312020322020312020302020202020200A2020322020332020312020302020202020200A2020332020342020312020302020202020200A2020342020352020312020302020202020200A2020312020352020312020302020202020200A2020352020362020322020302020202020200A2020352020372020322020302020202020200A4D2020454E44
Contributor: KURARAY CO., LTD.
InstType: EI
InstName: JEOL JMS-D-300
IoniMethod: _ENERGY 70 eV
IonPolarity: pos
Date: 2010-10-09 19:48:36+02:00
Num Peaks: 17
26 55 27 181 28 468 29 13 39 161 40 47 41 999 42 4 43 36 48 35 
53 32 55 87 56 906 57 54 120 542 121 3 122 25 
