Name: 5-CYANO-2-METHOXYTROPONE
MW: 161
Formula: C9H7NO2
Synonym: MassBank: JP010961
Synonym: 5-CYANO-2-METHOXYTROPONE
Structure: 352D4359414E4F2D322D4D4554484F585954524F504F4E452E6D6F6C0A20204368656D447261773034323331303034353432440A2031322031322020302020302020302020302020302020302020302020303939392056323030300A2020202D312E3138343620202020312E3235383420202020302E30303030204F202020302020302020302020302020302020302020302020302020302020302020302020300A2020202D302E3637303220202020302E3631333320202020302E303030302043202020302020302020302020302020302020302020302020302020302020302020302020300A20202020302E3133343120202020302E3739363920202020302E303030302043202020302020302020302020302020302020302020302020302020302020302020302020300A20202020302E3737393120202020302E3238323520202020302E303030302043202020302020302020302020302020302020302020302020302020302020302020302020300A20202020302E373739312020202D302E3534323520202020302E303030302043202020302020302020302020302020302020302020302020302020302020302020302020300A20202020302E313334312020202D312E3035363820202020302E303030302043202020302020302020302020302020302020302020302020302020302020302020302020300A2020202D302E363730322020202D302E3837333320202020302E303030302043202020302020302020302020302020302020302020302020302020302020302020302020300A2020202D312E303238322020202D302E3133303020202020302E303030302043202020302020302020302020302020302020302020302020302020302020302020302020300A2020202D312E383533322020202D302E3133303020202020302E30303030204F202020302020302020302020302020302020302020302020302020302020302020302020300A2020202D322E323635372020202D302E3834343420202020302E303030302043202020302020302020302020302020302020302020302020302020302020302020302020300A20202020312E353232342020202D302E3930303420202020302E303030302043202020302020302020302020302020302020302020302020302020302020302020302020300A20202020322E323635372020202D312E3235383420202020302E30303030204E202020302020302020302020302020302020302020302020302020302020302020302020300A2020312020322020322020302020202020200A2020322020332020312020302020202020200A2020332020342020322020302020202020200A2020342020352020312020302020202020200A2020352020362020322020302020202020200A2020362020372020312020302020202020200A2020372020382020322020302020202020200A2020322020382020312020302020202020200A2020392031302020312020302020202020200A2020382020392020312020302020202020200A2031312031322020332020302020202020200A2020352031312020312020302020202020200A4D2020454E44
Contributor: TAKESHITA H, INST. OF ADVANCED MATERIAL STUDY KYUSHU UNIV.
InstType: EI
InstName: JEOL JMS-01-SG-2
IoniMethod: _ENERGY 75 eV
IonPolarity: pos
Date: 2010-10-09 19:48:36+02:00
Num Peaks: 29
32 108 37 112 38 84 39 194 41 50 43 57 49 63 50 91 51 85 57 62 
62 93 63 273 64 264 75 79 76 97 84 60 90 431 102 192 103 371 104 152 
105 52 115 153 118 66 130 873 131 204 132 302 133 276 161 999 162 10 
