Name: MassBank: JP010136
MW: 252
Formula: C14H20O4
Synonym: MassBank: JP010136
Synonym: 5-(1-HYDROXY-2-METHYL-3-BUTENYL)-1,2,3-TRIMETHOXYBENZENE
Synonym: 2-METHYL-1-(3,4,5-TRIMETHOXYPHENYL)-3-BUTENE-1-OL
Structure: 352D28312D485944524F58592D322D4D455448594C2D332D425554454E594C292D312C322C332D5452494D4554484F585942454E5A454E452E6D6F6C0A20204368656D447261773031323231303032353432440A2031382031382020302020302020302020302020302020302020302020303939392056323030300A20202020302E3832353020202020302E3731343520202020302E303030302043202020302020302020302020302020302020302020302020302020302020302020302020300A20202020312E323337352020202D302E3030303020202020302E303030302043202020302020302020302020302020302020302020302020302020302020302020302020300A20202020302E383235302020202D302E3731343520202020302E303030302043202020302020302020302020302020302020302020302020302020302020302020302020300A2020202D302E303030302020202D302E3731343520202020302E303030302043202020302020302020302020302020302020302020302020302020302020302020302020300A2020202D302E3431323520202020302E3030303020202020302E303030302043202020302020302020302020302020302020302020302020302020302020302020302020300A2020202D302E3030303020202020302E3731343520202020302E303030302043202020302020302020302020302020302020302020302020302020302020302020302020300A20202020312E323337352020202D312E3432383920202020302E30303030204F202020302020302020302020302020302020302020302020302020302020302020302020300A20202020302E383235302020202D322E3134333420202020302E303030302043202020302020302020302020302020302020302020302020302020302020302020302020300A20202020322E303632352020202D302E3030303020202020302E30303030204F202020302020302020302020302020302020302020302020302020302020302020302020300A20202020322E343735302020202D302E3731343520202020302E303030302043202020302020302020302020302020302020302020302020302020302020302020302020300A20202020312E3233373520202020312E3432383920202020302E30303030204F202020302020302020302020302020302020302020302020302020302020302020302020300A20202020302E3832353020202020322E3134333420202020302E303030302043202020302020302020302020302020302020302020302020302020302020302020302020300A2020202D312E3233373520202020302E3030303020202020302E303030302043202020302020302020302020302020302020302020302020302020302020302020302020300A2020202D312E363530302020202D302E3731343520202020302E303030302043202020302020302020302020302020302020302020302020302020302020302020302020300A2020202D312E323337352020202D312E3432383920202020302E303030302043202020302020302020302020302020302020302020302020302020302020302020302020300A2020202D302E343132352020202D312E3432383920202020302E303030302043202020302020302020302020302020302020302020302020302020302020302020302020300A2020202D322E343735302020202D302E3731343520202020302E303030302043202020302020302020302020302020302020302020302020302020302020302020302020300A2020202D312E3635303020202020302E3731343520202020302E30303030204F202020302020302020302020302020302020302020302020302020302020302020302020300A2020312020322020312020302020202020200A2020322020332020322020302020202020200A2020332020342020312020302020202020200A2020342020352020322020302020202020200A2020352020362020312020302020202020200A2020312020362020322020302020202020200A2020372020382020312020302020202020200A2020332020372020312020302020202020200A2020392031302020312020302020202020200A2020322020392020312020302020202020200A2031312031322020312020302020202020200A2020312031312020312020302020202020200A2031332031342020312020302020202020200A2031342031352020312020302020202020200A2031352031362020322020302020202020200A2031342031372020312020302020202020200A2031332031382020312020302020202020200A2020352031332020312020302020202020200A4D2020454E44
Contributor: KURARAY CO., LTD.
InstType: EI
InstName: JEOL JMS-D-300
IoniMethod: _ENERGY 70 eV
IonPolarity: pos
Date: 2010-10-09 19:48:36+02:00
Num Peaks: 27
27 20 29 30 39 40 53 2 55 60 65 20 77 30 93 2 95 30 109 20 
111 20 123 3 125 20 138 290 139 70 154 23 155 20 169 530 170 50 181 2 
196 20 197 999 198 100 203 3 219 8 234 21 252 33 
