Name: MassBank: JP011849
MW: 135
Formula: C6H5N3O
Synonym: MassBank: JP011849
Synonym: 3H,4H-PYRRO(1,2-D)(1,2,4)TRIAZIN-4-ONE
Structure: 313132355F33482C34482D505952524F28312C322D442928312C322C3429545249415A494E2D342D4F4E452E6D6F6C0A20204368656D447261773130323031303230333632440A2031302031312020302020302020302020302020302020302020302020303939392056323030300A2020202D312E323132392020202D302E3239383020202020302E303030302043202020302020302020302020302020302020302020302020302020302020302020302020300A2020202D312E323132392020202D312E3132333020202020302E303030302043202020302020302020302020302020302020302020302020302020302020302020302020300A2020202D302E343238332020202D312E3337383020202020302E303030302043202020302020302020302020302020302020302020302020302020302020302020302020300A20202020302E303536372020202D302E3731303520202020302E303030302043202020302020302020302020302020302020302020302020302020302020302020302020300A2020202D302E343237332020202D302E3034333920202020302E30303030204E202020302020302020302020302020302020302020302020302020302020302020302020300A20202020302E383737312020202D302E3632343320202020302E303030302043202020302020302020302020302020302020302020302020302020302020302020302020300A20202020312E3231323920202020302E3132393220202020302E30303030204E202020302020302020302020302020302020302020302020302020302020302020302020300A20202020302E3732383420202020302E3739353820202020302E30303030204E202020302020302020302020302020302020302020302020302020302020302020302020300A2020202D302E3039323720202020302E3731303620202020302E303030302043202020302020302020302020302020302020302020302020302020302020302020302020300A2020202D302E3537373520202020312E3337383020202020302E30303030204F202020302020302020302020302020302020302020302020302020302020302020302020300A2020312020322020322020302020202020200A2020322020332020312020302020202020200A2020332020342020322020302020202020200A2020342020352020312020302020202020200A2020352020312020312020302020202020200A2020342020362020312020302020202020200A2020362020372020322020302020202020200A2020372020382020312020302020202020200A2020382020392020312020302020202020200A2020392020352020312020302020202020200A2020392031302020322020302020202020200A4D2020454E44
Contributor: YOSHIKI O, FAC, TECHNOLOGY, OSAKA UNIV.
InstType: EI
InstName: Unknown
IoniMethod: _ENERGY 70 eV
IonPolarity: pos
Date: 2010-10-09 19:48:36+02:00
Num Peaks: 22
50 207 51 412 52 754 53 104 55 10 56 32 62 25 63 55 64 115 65 111 
66 43 67 30 68 29 75 14 76 18 77 11 78 87 79 461 80 31 106 14 
135 999 136 85 
