Name: MassBank: JP011362
MW: 100
Formula: C5H12Si
Synonym: MassBank: JP011362
Synonym: SILACYCLOHEXANE (1,1-D2)
Structure: 310A32320A53494C414359434C4F484558414E452028312C312D4432292E6D6F6C0A20204368656D447261773038313231303036343632440A2020382020382020302020302020302020302020302020302020302020303939392056323030300A20202020302E3530393020202020302E3030303020202020302E303030302053692020302020302020302020302020302020302020302020302020302020302020302020300A20202020302E303936352020202D302E3731343520202020302E303030302043202020302020302020302020302020302020302020302020302020302020302020302020300A2020202D302E373238352020202D302E3731343520202020302E303030302043202020302020302020302020302020302020302020302020302020302020302020302020300A2020202D312E3134313020202020302E3030303020202020302E303030302043202020302020302020302020302020302020302020302020302020302020302020302020300A2020202D302E3732383520202020302E3731343520202020302E303030302043202020302020302020302020302020302020302020302020302020302020302020302020300A20202020302E3039363520202020302E3731343520202020302E303030302043202020302020302020302020302020302020302020302020302020302020302020302020300A20202020312E3134313020202020302E3533303320202020302E303030302048202020312020302020302020302020302020302020302020302020302020302020302020300A20202020312E313431302020202D302E3533303320202020302E303030302048202020312020302020302020302020302020302020302020302020302020302020302020300A2020312020322020312020302020202020200A2020322020332020312020302020202020200A2020332020342020312020302020202020200A2020342020352020312020302020202020200A2020352020362020312020302020202020200A2020312020362020312020302020202020200A2020312020372020312020302020202020200A2020312020382020312020302020202020200A4D202049534F202032202020372020203220202038202020320A4D2020454E44
Contributor: YAMAMOTO M, DEP. CHEMISTRY, FAC. SCIENCE, NARA WOMEN'S UNIV.
InstType: EI
InstName: HITACHI RMU-6M
IoniMethod: _ENERGY 70 eV
IonPolarity: pos
Date: 2010-10-09 19:48:36+02:00
Num Peaks: 52
27 52 28 60 29 44 30 25 31 28 32 45 33 32 38 6 39 57 40 16 
41 59 42 28 43 119 44 225 45 228 46 183 47 39 48 7 53 28 54 10 
55 37 56 39 57 39 58 59 59 105 60 63 61 90 62 11 66 12 67 18 
68 12 69 19 70 46 71 85 72 192 73 418 74 999 75 104 76 39 83 20 
84 13 86 19 87 23 96 6 97 28 98 68 99 39 100 77 101 23 102 589 
103 61 104 20 
