Name: 2-(1-HYDROXY-2-OXO-2-PHENETHYL)TROPONE
MW: 240
Formula: C15H12O3
Synonym: MassBank: JP010980
Synonym: 2-(1-HYDROXY-2-OXO-2-PHENETHYL)TROPONE
Structure: 322D28312D485944524F58592D322D4F584F2D322D5048454E455448594C2954524F504F4E452E6D6F6C0A20204368656D447261773132323130393035343932440A2031382031392020302020302020302020302020302020302020302020303939392056323030300A2020202D322E313235362020202D312E3130333920202020302E303030302043202020302020302020302020302020302020302020302020302020302020302020302020300A2020202D312E393936352020202D312E3931383720202020302E303030302043202020302020302020302020302020302020302020302020302020302020302020302020300A2020202D312E323739302020202D322E3332353920202020302E303030302043202020302020302020302020302020302020302020302020302020302020302020302020300A2020202D302E353133332020202D322E3031383720202020302E303030302043202020302020302020302020302020302020302020302020302020302020302020302020300A2020202D302E323736302020202D312E3232383620202020302E303030302043202020302020302020302020302020302020302020302020302020302020302020302020300A2020202D302E373438352020202D302E3534383920202020302E303030302043202020302020302020302020302020302020302020302020302020302020302020302020300A2020202D312E353639302020202D302E3439343920202020302E303030302043202020302020302020302020302020302020302020302020302020302020302020302020300A20202020302E353338382020202D312E3039393520202020302E30303030204F202020302020302020302020302020302020302020302020302020302020302020302020300A2020202D302E3333363020202020302E3136353620202020302E303030302043202020302020302020302020302020302020302020302020302020302020302020302020300A20202020302E3438363320202020302E3136353620202020302E303030302043202020302020302020302020302020302020302020302020302020302020302020302020300A2020202D302E3734393820202020302E3838323420202020302E30303030204F202020302020302020302020302020302020302020302020302020302020302020302020300A20202020302E3930323120202020302E3838353820202020302E303030302043202020302020302020302020302020302020302020302020302020302020302020302020300A20202020302E383935352020202D302E3534333220202020302E30303030204F202020302020302020302020302020302020302020302020302020302020302020302020300A20202020302E3437353620202020312E3630323220202020302E303030302043202020302020302020302020302020302020302020302020302020302020302020302020300A20202020302E3838323820202020322E3331393720202020302E303030302043202020302020302020302020302020302020302020302020302020302020302020302020300A20202020312E3730373720202020322E3332353920202020302E303030302043202020302020302020302020302020302020302020302020302020302020302020302020300A20202020322E3132353620202020312E3631343520202020302E303030302043202020302020302020302020302020302020302020302020302020302020302020302020300A20202020312E3731383420202020302E3839373020202020302E303030302043202020302020302020302020302020302020302020302020302020302020302020302020300A2020312020322020322020302020202020200A2020322020332020312020302020202020200A2020332020342020322020302020202020200A2020342020352020312020302020202020200A2020352020362020312020302020202020200A2020362020372020322020302020202020200A2020372020312020312020302020202020200A2020352020382020322020302020202020200A2020362020392020312020302020202020200A2020392031302020312020302020202020200A2020392031312020312020302020202020200A2031302031322020312020302020202020200A2031302031332020322020302020202020200A2031322031342020322020302020202020200A2031342031352020312020302020202020200A2031352031362020322020302020202020200A2031362031372020312020302020202020200A2031372031382020322020302020202020200A2031382031322020312020302020202020200A4D2020454E44
Contributor: TAKESHITA H, INST. OF ADVANCED MATERIAL STUDY KYUSHU UNIV.
InstType: EI
InstName: JEOL JMS-01-SG-2
IoniMethod: _ENERGY 75 eV
IonPolarity: pos
Date: 2010-10-09 19:48:36+02:00
Num Peaks: 26
39 116 41 47 43 38 50 116 51 323 52 60 53 44 55 30 57 29 63 59 
65 34 76 40 77 833 78 123 79 161 89 38 94 32 105 999 106 105 107 40 
108 11 135 142 136 15 165 19 222 14 240 16 
