Name: MassBank: JP010696
MW: 170
Formula: C10H18O2
Synonym: MassBank: JP010696
Synonym: (-)-2,6,6-TRIMETHYL-2(R)-VINYL-5(R)-HYDROXYTETRAHYDROPYRAN
Structure: 282D292D322C362C362D5452494D455448594C2D322852292D56494E594C2D352852292D485944524F58595445545241485944524F505952414E2E6D6F6C0A20204368656D447261773130303630393134323832440A2031332031332020302020302020302020302020302020302020302020303939392056323030300A20202020312E393333322020202D302E3236393920202020302E30303030204F202020302020302020302020302020302020302020302020302020302020302020302020300A2020202D302E3330383220202020302E3431313920202020302E303030302043202020302020302020302020302020302020302020302020302020302020302020302020300A2020202D302E333038322020202D302E3431333120202020302E303030302043202020302020302020302020302020302020302020302020302020302020302020302020300A20202020302E343036332020202D302E3832353620202020302E303030302043202020302020302020302020302020302020302020302020302020302020302020302020300A20202020312E313230372020202D302E3431333120202020302E303030302043202020302020302020302020302020302020302020302020302020302020302020302020300A20202020312E3132303720202020302E3431313920202020302E303030302043202020302020302020302020302020302020302020302020302020302020302020302020300A20202020302E3430373320202020302E3832333720202020302E30303030204F202020302020302020302020302020302020302020302020302020302020302020302020300A20202020312E343032392020202D312E3138383420202020302E303030302048202020302020302020302020302020302020302020302020302020302020302020302020300A2020202D312E3132303720202020302E3236393020202020302E303030302043202020302020302020302020302020302020302020302020302020302020302020302020300A2020202D312E3933333220202020302E3132363120202020302E303030302043202020302020302020302020302020302020302020302020302020302020302020302020300A2020202D302E3539303920202020312E3138383420202020302E303030302043202020302020302020302020302020302020302020302020302020302020302020302020300A20202020312E3933313920202020302E3236393620202020302E303030302043202020302020302020302020302020302020302020302020302020302020302020302020300A20202020312E3430313620202020312E3138383120202020302E303030302043202020302020302020302020302020302020302020302020302020302020302020302020300A2020322020332020312020302020202020200A2020332020342020312020302020202020200A2020342020352020312020302020202020200A2020352020362020312020302020202020200A2020362020372020312020302020202020200A2020372020322020312020302020202020200A2020352020382020312020312020202020200A2020322020392020312020362020202020200A2020392031302020322020302020202020200A2020352020312020312020362020202020200A2020322031312020312020312020202020200A2020362031322020312020312020202020200A2020362031332020312020362020202020200A4D202053545920203120202031205355500A4D2020534C4220203120202031202020310A4D202053414C20202031202031202031310A4D202053424C20202031202031202031310A4D2020534D5420202031204D650A4D2020534256202020312031312020202D372E3635313520202020362E343739300A4D202053545920203120202032205355500A4D2020534C4220203120202032202020320A4D202053414C20202032202031202031320A4D202053424C20202032202031202031320A4D2020534D5420202032204D650A4D2020534256202020322031322020202D362E3535373520202020352E353630320A4D202053545920203120202033205355500A4D2020534C4220203120202033202020330A4D202053414C20202033202031202031330A4D202053424C20202033202031202031330A4D2020534D5420202033204D650A4D2020534256202020332031332020202D372E3038373820202020362E343738370A4D2020454E44
Contributor: EGUCHI S, FAC. OF SCIENCE, HIROSHIMA UNIV.
InstType: EI
InstName: HITACHI RMU-6L
IoniMethod: _ENERGY 70 eV
IonPolarity: pos
Date: 2010-10-09 19:48:36+02:00
Num Peaks: 53
41 275 42 55 43 465 44 5 45 45 51 45 52 30 53 16 54 45 55 135 
56 60 57 10 58 25 59 795 60 50 65 4 66 45 67 320 68 999 69 14 
70 80 71 100 72 65 77 5 78 20 79 175 80 30 81 12 82 20 83 95 
84 60 85 5 92 20 93 45 94 715 95 10 96 20 97 60 99 30 102 5 
107 20 108 15 109 40 111 3 112 85 119 15 125 35 135 3 137 50 143 35 
153 45 155 4 170 15 
