Name: N-(2-PROPENOXYBENZYLIDENE)(PHENYLTRIMETHYLSILYL)METHYLAMINE
MW: 324
Formula: C20H26NOSi
Synonym: MassBank: JP011858
Synonym: N-(2-PROPENOXYBENZYLIDENE)(PHENYLTRIMETHYLSILYL)METHYLAMINE
Structure: 313132395F4E2D28322D50524F50454E4F585942454E5A594C4944454E4529285048454E594C5452494D455448594C53494C594C294D455448594C414D494E452E6D6F6C0A20204368656D447261773130323031303230343032440A2032332032342020302020302020302020302020302020302020302020303939392056323030300A20202020302E3230363220202020302E3731343520202020302E30303030204E202020302020302020302020302020302020302020302020302020302020302020302020300A20202020312E3033313220202020302E3731343520202020302E303030302043202020302020302020302020302020302020302020302020302020302020302020302020300A2020202D302E3230363320202020302E3030303020202020302E303030302043202020302020302020302020302020302020302020302020302020302020302020302020300A2020202D312E3033313320202020302E3030303020202020302E303030302043202020302020302020302020302020302020302020302020302020302020302020302020300A2020202D312E343433382020202D302E3731343420202020302E303030302043202020302020302020302020302020302020302020302020302020302020302020302020300A2020202D322E323638372020202D302E3731343420202020302E303030302043202020302020302020302020302020302020302020302020302020302020302020302020300A2020202D322E3638313220202020302E3030303020202020302E303030302043202020302020302020302020302020302020302020302020302020302020302020302020300A2020202D322E3236383720202020302E3731343520202020302E303030302043202020302020302020302020302020302020302020302020302020302020302020302020300A2020202D312E3434333820202020302E3731343520202020302E303030302043202020302020302020302020302020302020302020302020302020302020302020302020300A2020202D312E303331332020202D312E3432383920202020302E30303030204F202020302020302020302020302020302020302020302020302020302020302020302020300A2020202D312E343433382020202D322E3134333420202020302E303030302043202020302020302020302020302020302020302020302020302020302020302020302020300A2020202D322E323638382020202D322E3134333420202020302E303030302043202020302020302020302020302020302020302020302020302020302020302020302020300A2020202D322E363831332020202D322E3835373820202020302E303030302043202020302020302020302020302020302020302020302020302020302020302020302020300A20202020312E343434302020202D302E3030303520202020302E303030302053692020302020302020302020302020302020302020302020302020302020302020302020300A20202020312E383537342020202D302E3731333620202020302E303030302043202020302020302020302020302020302020302020302020302020302020302020302020300A20202020302E373330332020202D302E3431323720202020302E303030302043202020302020302020302020302020302020302020302020302020302020302020302020300A20202020312E3434333720202020312E3432393020202020302E303030302043202020302020302020302020302020302020302020302020302020302020302020302020300A20202020312E3033313320202020322E3134333420202020302E303030302043202020302020302020302020302020302020302020302020302020302020302020302020300A20202020312E3434333820202020322E3835373820202020302E303030302043202020302020302020302020302020302020302020302020302020302020302020302020300A20202020322E3236383720202020322E3835373820202020302E303030302043202020302020302020302020302020302020302020302020302020302020302020302020300A20202020322E3638313320202020322E3134333420202020302E303030302043202020302020302020302020302020302020302020302020302020302020302020302020300A20202020322E3236383820202020312E3432383920202020302E303030302043202020302020302020302020302020302020302020302020302020302020302020302020300A20202020322E3235393720202020302E3132363520202020302E303030302043202020302020302020302020302020302020302020302020302020302020302020302020300A2020312020322020312020302020202020200A2020332020342020312020302020202020200A2020342020352020312020302020202020200A2020352020362020322020302020202020200A2020362020372020312020302020202020200A2020372020382020322020302020202020200A2020382020392020312020302020202020200A2020342020392020322020302020202020200A2031312031322020312020302020202020200A2031322031332020322020302020202020200A2031302031312020312020302020202020200A2020312020332020322020302020202020200A2031342031352020312020302020202020200A2031342031362020312020302020202020200A2031372031382020312020302020202020200A2031382031392020322020302020202020200A2031392032302020312020302020202020200A2032302032312020322020302020202020200A2032312032322020312020302020202020200A2031372032322020322020302020202020200A2020322031342020312020302020202020200A2031342032332020312020302020202020200A2031372020322020312020302020202020200A2020352031302020312020302020202020200A4D2020454E44
Contributor: YOSHIKI O, FAC, TECHNOLOGY, OSAKA UNIV.
InstType: EI
InstName: Unknown
IoniMethod: _ENERGY 70 eV
IonPolarity: pos
Date: 2010-10-09 19:48:36+02:00
Num Peaks: 87
50 27 51 138 52 34 53 18 55 37 57 38 58 22 59 93 63 36 64 24 
65 41 69 15 73 999 74 96 75 73 76 27 77 157 78 107 79 22 89 178 
90 130 91 247 92 23 103 28 104 47 105 84 106 55 107 26 115 37 116 42 
117 61 118 21 119 18 121 23 127 18 128 16 129 18 131 79 132 67 133 16 
135 81 144 46 145 97 146 22 147 21 149 53 151 20 152 31 162 45 163 27 
164 19 165 40 176 55 177 22 178 54 179 20 180 143 181 68 189 20 190 64 
191 24 192 17 193 16 208 85 209 84 210 29 216 44 217 18 219 19 232 15 
233 21 234 29 235 16 246 25 250 45 265 106 266 384 267 146 268 39 280 23 
281 68 282 400 283 93 284 25 322 148 323 61 324 17 
