Name: MassBank: JP011000
MW: 244
Formula: C14H12O4
Synonym: MassBank: JP011000
Synonym: 3-(2,5-DIHYDROXYBENZYL)TROPOLONE
Structure: 332D28322C352D4449485944524F585942454E5A594C2954524F504F4C4F4E452E6D6F6C0A20204368656D447261773032323231303039303532440A2031382031392020302020302020302020302020302020302020302020303939392056323030300A2020202D322E373634372020202D302E3436333720202020302E30303030204F202020302020302020302020302020302020302020302020302020302020302020302020300A2020202D322E3038333020202020302E3030313020202020302E303030302043202020302020302020302020302020302020302020302020302020302020302020302020300A2020202D322E3231373120202020302E3832373520202020302E303030302043202020302020302020302020302020302020302020302020302020302020302020302020300A2020202D312E3633333720202020312E3431303920202020302E303030302043202020302020302020302020302020302020302020302020302020302020302020302020300A2020202D302E3832323220202020312E3335393920202020302E303030302043202020302020302020302020302020302020302020302020302020302020302020302020300A2020202D302E3335373420202020302E3637383320202020302E303030302043202020302020302020302020302020302020302020302020302020302020302020302020300A2020202D302E353839392020202D302E3039393020202020302E303030302043202020302020302020302020302020302020302020302020302020302020302020302020300A2020202D312E333638362020202D302E3431313520202020302E303030302043202020302020302020302020302020302020302020302020302020302020302020302020300A2020202D312E343330322020202D312E3233343220202020302E30303030204F202020302020302020302020302020302020302020302020302020302020302020302020300A2020202D302E303036352020202D302E3638323320202020302E303030302043202020302020302020302020302020302020302020302020302020302020302020302020300A20202020302E383031312020202D302E3435373720202020302E303030302043202020302020302020302020302020302020302020302020302020302020302020302020300A20202020312E3031343620202020302E3333393220202020302E303030302043202020302020302020302020302020302020302020302020302020302020302020302020300A20202020312E3831313520202020302E3535323720202020302E303030302043202020302020302020302020302020302020302020302020302020302020302020302020300A20202020322E333934382020202D302E3033303620202020302E303030302043202020302020302020302020302020302020302020302020302020302020302020302020300A20202020322E313831332020202D302E3832373520202020302E303030302043202020302020302020302020302020302020302020302020302020302020302020302020300A20202020312E333834342020202D312E3034313020202020302E303030302043202020302020302020302020302020302020302020302020302020302020302020302020300A20202020322E373634372020202D312E3431303920202020302E30303030204F202020302020302020302020302020302020302020302020302020302020302020302020300A20202020302E3433313220202020302E3932323620202020302E30303030204F202020302020302020302020302020302020302020302020302020302020302020302020300A2020312020322020322020302020202020200A2020322020332020312020302020202020200A2020332020342020322020302020202020200A2020342020352020312020302020202020200A2020352020362020322020302020202020200A2020362020372020312020302020202020200A2020372020382020322020302020202020200A2020322020382020312020302020202020200A2020382020392020312020302020202020200A2031302031312020312020302020202020200A2031312031322020312020302020202020200A2031322031332020322020302020202020200A2031332031342020312020302020202020200A2031342031352020322020302020202020200A2031352031362020312020302020202020200A2031312031362020322020302020202020200A2031352031372020312020302020202020200A2031322031382020312020302020202020200A2020372031302020312020302020202020200A4D2020454E44
Contributor: TAKESHITA H, INST. OF ADVANCED MATERIAL STUDY KYUSHU UNIV.
InstType: EI
InstName: JEOL JMS-01-SG-2
IoniMethod: _ENERGY 75 eV
IonPolarity: pos
Date: 2010-10-09 19:48:36+02:00
Num Peaks: 31
39 131 41 120 43 158 44 181 45 72 51 92 55 120 57 89 63 59 65 93 
69 108 77 131 81 63 91 66 94 117 107 75 110 175 115 101 121 108 122 177 
123 277 141 65 147 72 169 69 181 88 197 235 198 128 226 79 227 174 244 999 
245 143 
