Name: DIMETHYLDI(3-THIENYL)SILANE
MW: 224
Formula: C10H12S2Si
Synonym: MassBank: JP011732
Synonym: DIMETHYLDI(3-THIENYL)SILANE
Structure: 44494D455448594C444928332D544849454E594C2953494C414E452E6D6F6C0A20204368656D447261773130313831303137333132440A2031332031342020302020302020302020302020302020302020302020303939392056323030300A2020202D302E363334382020202D302E3633343820202020302E303030302053692020302020302020302020302020302020302020302020302020302020302020302020300A20202020302E3033323720202020302E3637353220202020302E303030302043202020302020302020302020302020302020302020302020302020302020302020302020300A2020202D302E3633343820202020302E3139303220202020302E303030302043202020302020302020302020302020302020302020302020302020302020302020302020300A2020202D312E3330323220202020302E3637353220202020302E303030302043202020302020302020302020302020302020302020302020302020302020302020302020300A2020202D312E3034373320202020312E3435393820202020302E303030302043202020302020302020302020302020302020302020302020302020302020302020302020300A2020202D302E3232323320202020312E3435393820202020302E303030302053202020302020302020302020302020302020302020302020302020302020302020302020300A20202020302E363735322020202D312E3330323220202020302E303030302043202020302020302020302020302020302020302020302020302020302020302020302020300A20202020302E313930322020202D302E3633343820202020302E303030302043202020302020302020302020302020302020302020302020302020302020302020302020300A20202020302E3637353220202020302E3033323720202020302E303030302043202020302020302020302020302020302020302020302020302020302020302020302020300A20202020312E343539382020202D302E3232323320202020302E303030302043202020302020302020302020302020302020302020302020302020302020302020302020300A20202020312E343539382020202D312E3034373320202020302E303030302053202020302020302020302020302020302020302020302020302020302020302020302020300A2020202D302E363334382020202D312E3435393820202020302E303030302043202020302020302020302020302020302020302020302020302020302020302020302020300A2020202D312E343539382020202D302E3633343820202020302E303030302043202020302020302020302020302020302020302020302020302020302020302020302020300A2020322020332020322020302020202020200A2020332020342020312020302020202020200A2020342020352020322020302020202020200A2020352020362020312020302020202020200A2020322020362020312020302020202020200A2020312020332020312020302020202020200A2020372020382020322020302020202020200A2020382020392020312020302020202020200A2020392031302020322020302020202020200A2031302031312020312020302020202020200A2020372031312020312020302020202020200A2020312020382020312020302020202020200A2020312031322020312020302020202020200A2020312031332020312020302020202020200A4D2020454E44
Contributor: FAC. TECHNOLOGY, HIROSHIMA UNIV.
InstType: EI
InstName: SHIMADZU QP-1000
IoniMethod: _ENERGY 70 eV
IonPolarity: pos
Date: 2010-10-09 19:48:36+02:00
Num Peaks: 62
50 117 51 798 52 117 53 574 54 74 55 160 56 11 57 117 58 128 59 64 
60 21 61 64 62 21 63 64 64 21 65 128 66 43 67 53 68 11 69 74 
73 21 74 11 75 500 76 43 77 64 78 11 79 11 81 21 82 11 83 64 
84 32 85 64 89 21 90 11 91 21 96 11 97 64 98 21 99 11 100 11 
101 21 108 21 111 74 115 53 125 21 134 21 140 21 141 64 142 11 143 11 
151 11 166 21 183 53 207 21 209 999 210 202 211 128 212 21 222 32 224 223 
225 64 226 43 
