Name: 2-METHYL-1-PYRROLINE
MW: 83
Formula: C5H9N
Synonym: MassBank: JP012057
Synonym: 2-METHYL-1-PYRROLINE
Structure: 310A31370A322D4D455448594C2D312D505952524F4C494E452E6D6F6C0A20204368656D447261773031323231303033303032440A2020362020362020302020302020302020302020302020302020302020303939392056323030300A2020202D302E323632372020202D302E3636373420202020302E30303030204E202020302020302020302020302020302020302020302020302020302020302020302020300A20202020302E3232323320202020302E3030303020202020302E303030302043202020302020302020302020302020302020302020302020302020302020302020302020300A2020202D302E3236323720202020302E3636373420202020302E303030302043202020302020302020302020302020302020302020302020302020302020302020302020300A2020202D312E3034373320202020302E3431323520202020302E303030302043202020302020302020302020302020302020302020302020302020302020302020302020300A2020202D312E303437332020202D302E3431323520202020302E303030302043202020302020302020302020302020302020302020302020302020302020302020302020300A20202020312E3034373320202020302E3030303020202020302E303030302043202020302020302020302020302020302020302020302020302020302020302020302020300A2020312020322020322020302020202020200A2020322020332020312020302020202020200A2020332020342020312020302020202020200A2020342020352020312020302020202020200A2020312020352020312020302020202020200A2020322020362020312020302020202020200A4D2020454E44
Contributor: SUMITA Y, KYOTO COLLEGE OF PHARMACY
InstType: EI
InstName: HITACHI M-80
IoniMethod: _ENERGY 20 eV
IonPolarity: pos
Date: 2010-10-09 19:48:36+02:00
Num Peaks: 25
15 42 27 38 28 58 29 31 30 11 39 39 40 36 41 199 42 599 43 429 
44 12 53 13 54 94 55 999 56 75 57 33 58 164 67 15 68 16 69 16 
70 73 82 33 83 679 84 60 85 10 
