Name: 1-METHYLSILACYCLOHEXANE(METHYL-D3)
MW: 114
Formula: C6H14Si
Synonym: MassBank: JP011365
Synonym: 1-METHYLSILACYCLOHEXANE(METHYL-D3)
Structure: 312D4D455448594C53494C414359434C4F484558414E45284D455448594C2D4433292E6D6F6C0A20204368656D447261773131323130393138343132440A2031302031302020302020302020302020302020302020302020302020303939392056323030300A2020202D302E373134352020202D302E3431323520202020302E303030302043202020302020302020302020302020302020302020302020302020302020302020302020300A2020202D302E373134352020202D312E3233373520202020302E303030302043202020302020302020302020302020302020302020302020302020302020302020302020300A20202020302E303030302020202D312E3635303020202020302E303030302043202020302020302020302020302020302020302020302020302020302020302020302020300A20202020302E373134352020202D312E3233373520202020302E303030302043202020302020302020302020302020302020302020302020302020302020302020302020300A20202020302E373134352020202D302E3431323520202020302E303030302043202020302020302020302020302020302020302020302020302020302020302020302020300A20202020302E3030303020202020302E3030303020202020302E303030302053692020302020302020302020302020302020302020302020302020302020302020302020300A20202020302E3030303020202020302E3832353020202020302E303030302043202020302020302020302020302020302020302020302020302020302020302020302020300A20202020302E3030303020202020312E3635303020202020302E303030302048202020312020302020302020302020302020302020302020302020302020302020302020300A20202020302E3832353020202020302E3832353020202020302E303030302048202020312020302020302020302020302020302020302020302020302020302020302020300A2020202D302E3832353020202020302E3832353020202020302E303030302048202020312020302020302020302020302020302020302020302020302020302020302020300A2020312020322020312020302020202020200A2020322020332020312020302020202020200A2020332020342020312020302020202020200A2020342020352020312020302020202020200A2020352020362020312020302020202020200A2020362020312020312020302020202020200A2020362020372020312020302020202020200A2020372020382020312020302020202020200A2020372020392020312020302020202020200A2020372031302020312020302020202020200A4D202049534F2020332020203820202032202020392020203220203130202020320A4D2020454E44
Contributor: YAMAMOTO M, DEP. CHEMISTRY, FAC. SCIENCE, NARA WOMEN'S UNIV.
InstType: EI
InstName: HITACHI RMU-6M
IoniMethod: _ENERGY 70 eV
IonPolarity: pos
Date: 2010-10-09 19:48:36+02:00
Num Peaks: 65
27 39 28 50 29 35 30 25 31 14 32 20 33 8 39 45 40 8 41 45 
42 29 43 138 44 48 45 76 46 247 47 74 48 260 49 17 50 7 53 31 
54 12 55 54 56 15 57 38 58 14 59 48 60 29 61 658 62 207 63 35 
64 16 65 70 66 16 67 38 68 25 69 31 70 38 71 307 72 39 73 36 
74 106 75 227 76 77 77 13 83 13 86 11 87 58 88 305 89 999 90 110 
91 38 93 23 95 9 97 82 98 35 99 202 100 36 102 18 106 9 114 8 
115 53 116 254 117 629 118 90 119 30 
