Name: 4-BROMO-2-METHYL-1-BUTENE
MW: 147
Formula: C5H9Br
Synonym: MassBank: JP010916
Synonym: 4-BROMO-2-METHYL-1-BUTENE
Structure: 310A31360A342D42524F4D4F2D322D4D455448594C2D312D425554454E452E6D6F6C0A20204368656D447261773033323531303038323632440A2020362020352020302020302020302020302020302020302020302020303939392056323030300A2020202D312E3432383920202020302E3631383820202020302E303030302043202020302020302020302020302020302020302020302020302020302020302020302020300A2020202D302E3731343520202020302E3230363220202020302E303030302043202020302020302020302020302020302020302020302020302020302020302020302020300A20202020302E3030303020202020302E3631383820202020302E303030302043202020302020302020302020302020302020302020302020302020302020302020302020300A20202020302E3731343520202020302E3230363220202020302E303030302043202020302020302020302020302020302020302020302020302020302020302020302020300A2020202D302E373134352020202D302E3631383820202020302E303030302043202020302020302020302020302020302020302020302020302020302020302020302020300A20202020312E3432383920202020302E3631383820202020302E303030302042722020302020302020302020302020302020302020302020302020302020302020302020300A2020312020322020322020302020202020200A2020322020332020312020302020202020200A2020332020342020312020302020202020200A2020322020352020312020302020202020200A2020342020362020312020302020202020200A4D2020454E44
Contributor: KURARAY CO., LTD.
InstType: EI
InstName: JEOL JMS-D-300
IoniMethod: _ENERGY 70 eV
IonPolarity: pos
Date: 2010-10-09 19:48:36+02:00
Num Peaks: 33
26 19 27 128 28 17 29 105 32 11 37 17 38 26 39 216 40 92 41 889 
42 27 50 20 51 32 52 9 53 147 54 23 55 319 65 11 67 86 68 30 
69 999 70 29 79 7 80 6 81 5 82 7 93 7 95 9 107 5 148 121 
149 6 150 120 151 5 
