Name: MassBank: JP010096
MW: 456
Formula: C26H48O6
Synonym: MassBank: JP010096
Synonym: 3,7,11,15-TETRAMETHYLHEXADECANE-1,2,3-TRIOL TRIACETATE
Structure: 332C372C31312C31352D54455452414D455448594C48455841444543414E452D312C322C332D5452494F4C20545249414345544154452E6D6F6C0A20204368656D447261773032323231303032353032440A2033322033312020302020302020302020302020302020302020302020303939392056323030300A2020202D342E3238363820202020302E3136353820202020302E303030302043202020302020302020302020302020302020302020302020302020302020302020302020300A2020202D332E353732342020202D302E3234363720202020302E303030302043202020302020302020302020302020302020302020302020302020302020302020302020300A2020202D322E3835373920202020302E3136353820202020302E303030302043202020302020302020302020302020302020302020302020302020302020302020302020300A2020202D322E3134333420202020302E3537383320202020302E303030302043202020302020302020302020302020302020302020302020302020302020302020302020300A2020202D312E3432383920202020302E3136353820202020302E303030302043202020302020302020302020302020302020302020302020302020302020302020302020300A2020202D302E3731343520202020302E3537383320202020302E303030302043202020302020302020302020302020302020302020302020302020302020302020302020300A20202020302E3030303020202020302E3136353820202020302E303030302043202020302020302020302020302020302020302020302020302020302020302020302020300A20202020302E3731343520202020302E3537383320202020302E303030302043202020302020302020302020302020302020302020302020302020302020302020302020300A20202020312E3432383920202020302E3136353820202020302E303030302043202020302020302020302020302020302020302020302020302020302020302020302020300A20202020322E3134333420202020302E3537383320202020302E303030302043202020302020302020302020302020302020302020302020302020302020302020302020300A20202020322E3835373920202020302E3136353820202020302E303030302043202020302020302020302020302020302020302020302020302020302020302020302020300A20202020332E3537323420202020302E3537383320202020302E303030302043202020302020302020302020302020302020302020302020302020302020302020302020300A20202020342E3238363820202020302E3136353820202020302E303030302043202020302020302020302020302020302020302020302020302020302020302020302020300A20202020352E3030313320202020302E3537383320202020302E303030302043202020302020302020302020302020302020302020302020302020302020302020302020300A20202020352E3731353820202020302E3136353820202020302E303030302043202020302020302020302020302020302020302020302020302020302020302020302020300A20202020362E3433303220202020302E3537383320202020302E303030302043202020302020302020302020302020302020302020302020302020302020302020302020300A20202020352E373135382020202D302E3635393220202020302E303030302043202020302020302020302020302020302020302020302020302020302020302020302020300A20202020322E383537392020202D302E3635393220202020302E303030302043202020302020302020302020302020302020302020302020302020302020302020302020300A20202020302E303030302020202D302E3635393220202020302E303030302043202020302020302020302020302020302020302020302020302020302020302020302020300A2020202D322E343435342020202D302E3534383720202020302E303030302043202020302020302020302020302020302020302020302020302020302020302020302020300A2020202D352E3731353820202020302E3136353820202020302E303030302043202020302020302020302020302020302020302020302020302020302020302020302020300A2020202D362E343330322020202D302E3234363720202020302E303030302043202020302020302020302020302020302020302020302020302020302020302020302020300A2020202D352E3731353820202020302E3939303820202020302E30303030204F202020302020302020302020302020302020302020302020302020302020302020302020300A2020202D352E303031332020202D302E3234363720202020302E30303030204F202020302020302020302020302020302020302020302020302020302020302020302020300A2020202D342E323836382020202D312E3438343220202020302E303030302043202020302020302020302020302020302020302020302020302020302020302020302020300A2020202D352E303031332020202D312E3037313720202020302E303030302043202020302020302020302020302020302020302020302020302020302020302020302020300A2020202D342E323836382020202D322E3330393220202020302E30303030204F202020302020302020302020302020302020302020302020302020302020302020302020300A2020202D332E353732342020202D312E3037313720202020302E30303030204F202020302020302020302020302020302020302020302020302020302020302020302020300A2020202D322E3835373920202020312E3539343720202020302E303030302043202020302020302020302020302020302020302020302020302020302020302020302020300A2020202D322E3033323920202020312E3539343720202020302E303030302043202020302020302020302020302020302020302020302020302020302020302020302020300A2020202D332E3237303420202020322E3330393220202020302E30303030204F202020302020302020302020302020302020302020302020302020302020302020302020300A2020202D332E3237303420202020302E3838303320202020302E30303030204F202020302020302020302020302020302020302020302020302020302020302020302020300A2020312020322020312020302020202020200A2020322020332020312020302020202020200A2020332020342020312020302020202020200A2020342020352020312020302020202020200A2020352020362020312020302020202020200A2020362020372020312020302020202020200A2020372020382020312020302020202020200A2020382020392020312020302020202020200A2020392031302020312020302020202020200A2031302031312020312020302020202020200A2031312031322020312020302020202020200A2031322031332020312020302020202020200A2031332031342020312020302020202020200A2031342031352020312020302020202020200A2031352031362020312020302020202020200A2031352031372020312020302020202020200A2031312031382020312020302020202020200A2020372031392020312020302020202020200A2020332032302020312020302020202020200A2032312032322020312020302020202020200A2032312032332020322020302020202020200A2032312032342020312020302020202020200A2020312032342020312020302020202020200A2032352032362020312020302020202020200A2032352032372020322020302020202020200A2032352032382020312020302020202020200A2020322032382020312020302020202020200A2032392033302020312020302020202020200A2032392033312020322020302020202020200A2032392033322020312020302020202020200A2020332033322020312020302020202020200A4D2020454E44
Contributor: KURARAY CO., LTD.
InstType: EI
InstName: JEOL JMS-D-300
IoniMethod: _ENERGY 70 eV
IonPolarity: pos
Date: 2010-10-09 19:48:36+02:00
Num Peaks: 74
27 21 28 14 29 73 39 14 41 227 42 38 43 999 44 28 55 319 56 133 
57 615 58 36 67 49 68 55 69 367 70 138 71 493 72 40 73 13 79 19 
80 32 81 157 82 66 83 305 84 134 85 270 86 81 87 709 88 77 93 465 
94 33 95 159 96 48 97 282 98 93 99 101 101 22 103 15 107 17 109 128 
110 40 111 272 112 47 113 69 121 50 122 12 123 88 124 22 125 124 126 58 
127 67 129 40 130 154 131 13 135 21 137 60 138 19 139 70 140 41 141 41 
149 21 151 27 153 33 155 24 163 14 165 13 167 14 169 15 263 25 269 103 
281 84 282 46 294 21 312 13 
