Name: MassBank: JP011170
MW: 411
Formula: C25H21N3O3
Synonym: MassBank: JP011170
Synonym: 2,4-DIBENZYL-4,4A-DIHYDRO-1H-(1,3,5)TRIAZINO(1,2-A)QUINOLINE-1,3,6(2H,5H)-TRIONE
Structure: 322C342D444942454E5A594C2D342C34412D4449485944524F2D31482D28312C332C3529545249415A494E4F28312C322D41295155494E4F4C494E452D312C332C362832482C3548292D5452494F4E452E6D6F6C0A20204368656D447261773132323030393133353332440A2033312033352020302020302020302020302020302020302020302020303939392056323030300A2020202D302E3335373220202020312E3033313320202020302E30303030204E202020302020302020302020302020302020302020302020302020302020302020302020300A2020202D302E3335373220202020302E3230363220202020302E303030302043202020302020302020302020302020302020302020302020302020302020302020302020300A20202020302E333537322020202D302E3230363220202020302E30303030204E202020302020302020302020302020302020302020302020302020302020302020302020300A20202020312E3037313720202020302E3230363220202020302E303030302043202020302020302020302020302020302020302020302020302020302020302020302020300A20202020312E3037313720202020312E3033313320202020302E30303030204E202020302020302020302020302020302020302020302020302020302020302020302020300A20202020302E3335373220202020312E3434333820202020302E303030302043202020302020302020302020302020302020302020302020302020302020302020302020300A20202020312E373836332020202D302E3230363220202020302E303030302043202020302020302020302020302020302020302020302020302020302020302020302020300A20202020322E3530303720202020302E3230363220202020302E303030302043202020302020302020302020302020302020302020302020302020302020302020302020300A20202020322E3530303720202020312E3033313320202020302E303030302043202020302020302020302020302020302020302020302020302020302020302020302020300A20202020312E3738363320202020312E3434333820202020302E303030302043202020302020302020302020302020302020302020302020302020302020302020302020300A20202020332E3231353220202020312E3434333820202020302E303030302043202020302020302020302020302020302020302020302020302020302020302020302020300A20202020332E3231353220202020322E3236383820202020302E303030302043202020302020302020302020302020302020302020302020302020302020302020302020300A20202020322E3530303720202020322E3638313320202020302E303030302043202020302020302020302020302020302020302020302020302020302020302020302020300A20202020312E3738363320202020322E3236383820202020302E303030302043202020302020302020302020302020302020302020302020302020302020302020302020300A20202020332E323135322020202D302E3230363220202020302E30303030204F202020302020302020302020302020302020302020302020302020302020302020302020300A20202020302E3335373220202020322E3236383820202020302E30303030204F202020302020302020302020302020302020302020302020302020302020302020302020300A2020202D312E3037313720202020312E3434333820202020302E303030302043202020302020302020302020302020302020302020302020302020302020302020302020300A2020202D312E303731372020202D302E3230363220202020302E30303030204F202020302020302020302020302020302020302020302020302020302020302020302020300A20202020302E333537322020202D312E3033313320202020302E303030302043202020302020302020302020302020302020302020302020302020302020302020302020300A20202020312E303731372020202D312E3434333820202020302E303030302043202020302020302020302020302020302020302020302020302020302020302020302020300A2020202D312E3738363320202020312E3033313320202020302E303030302043202020302020302020302020302020302020302020302020302020302020302020302020300A2020202D322E3530303720202020312E3434333820202020302E303030302043202020302020302020302020302020302020302020302020302020302020302020302020300A2020202D332E3231353220202020312E3033313320202020302E303030302043202020302020302020302020302020302020302020302020302020302020302020302020300A2020202D332E3231353220202020302E3230363220202020302E303030302043202020302020302020302020302020302020302020302020302020302020302020302020300A2020202D322E353030372020202D302E3230363220202020302E303030302043202020302020302020302020302020302020302020302020302020302020302020302020300A2020202D312E3738363320202020302E3230363220202020302E303030302043202020302020302020302020302020302020302020302020302020302020302020302020300A20202020312E303731372020202D322E3236383820202020302E303030302043202020302020302020302020302020302020302020302020302020302020302020302020300A20202020312E373836332020202D322E3638313320202020302E303030302043202020302020302020302020302020302020302020302020302020302020302020302020300A20202020322E353030372020202D322E3236383820202020302E303030302043202020302020302020302020302020302020302020302020302020302020302020302020300A20202020322E353030372020202D312E3434333820202020302E303030302043202020302020302020302020302020302020302020302020302020302020302020302020300A20202020312E373836332020202D312E3033313320202020302E303030302043202020302020302020302020302020302020302020302020302020302020302020302020300A2020312020322020312020302020202020200A2020322020332020312020302020202020200A2020332020342020312020302020202020200A2020342020352020312020302020202020200A2020352020362020312020302020202020200A2020362020312020312020302020202020200A2020342020372020312020302020202020200A2020372020382020312020302020202020200A2020382020392020312020302020202020200A2020392031302020322020302020202020200A2031302020352020312020302020202020200A2020392031312020312020302020202020200A2031312031322020322020302020202020200A2031322031332020312020302020202020200A2031332031342020322020302020202020200A2031342031302020312020302020202020200A2020382031352020322020302020202020200A2020362031362020322020302020202020200A2020312031372020312020302020202020200A2020322031382020322020302020202020200A2020332031392020312020302020202020200A2031392032302020312020302020202020200A2031372032312020312020302020202020200A2032312032322020322020302020202020200A2032322032332020312020302020202020200A2032332032342020322020302020202020200A2032342032352020312020302020202020200A2032352032362020322020302020202020200A2032362032312020312020302020202020200A2032302032372020322020302020202020200A2032372032382020312020302020202020200A2032382032392020322020302020202020200A2032392033302020312020302020202020200A2033302033312020322020302020202020200A2033312032302020312020302020202020200A4D2020454E44
Contributor: SAWADA M, THE INST. OF SCIENTIFIC AND INDUSTRIALRESEARCH OSAKA UNIV.
InstType: EI
InstName: JEOL JMS-DX-300
IoniMethod: _ENERGY 70 eV
IonPolarity: pos
Date: 2010-10-09 19:48:36+02:00
Num Peaks: 163
33 18 34 71 35 13 36 60 37 36 38 82 39 322 40 689 41 444 42 171 
43 613 44 884 45 193 46 49 48 18 49 16 50 147 51 269 52 84 53 80 
54 76 55 373 56 196 57 356 58 58 59 36 60 102 61 71 62 44 63 151 
64 87 65 391 66 49 67 120 68 76 69 278 70 173 71 167 72 38 73 89 
74 62 75 58 76 104 77 42 78 218 79 100 80 38 81 129 82 107 83 178 
84 80 85 109 86 27 87 42 88 18 89 164 90 284 91 999 92 278 93 109 
94 31 95 82 96 62 97 124 98 60 99 44 100 16 101 36 102 27 103 49 
104 316 105 318 106 213 107 84 108 18 109 62 110 42 111 71 112 42 113 43 
114 15 115 38 116 89 117 249 118 87 119 78 120 27 121 38 122 27 123 42 
124 38 125 44 126 24 127 27 128 26 129 58 130 38 131 36 132 462 133 502 
134 62 135 47 136 18 137 38 138 18 139 36 140 17 141 17 143 29 144 44 
145 324 146 560 147 96 149 133 150 22 151 20 152 18 153 16 157 38 158 16 
159 22 160 16 161 20 163 16 165 20 166 16 167 62 168 16 169 16 171 20 
172 27 174 27 175 73 176 13 179 13 180 29 181 31 185 20 187 51 194 16 
200 20 201 29 215 16 222 18 229 116 230 36 236 38 237 24 249 40 250 16 
256 38 257 42 266 27 277 13 278 20 279 44 306 111 307 253 308 62 320 378 
321 118 411 793 412 329 
