Name: MassBank: JP010055
MW: 358
Formula: C22H30O4
Synonym: MassBank: JP010055
Synonym: 7-HYDROXY-PREGNA-1,4-DIENE-20-CARBOXYLIC ACID
Structure: 372D485944524F58592D505245474E412D312C342D4449454E452D32302D434152424F58594C494320414349442E6D6F6C0A20204368656D447261773035323131303035333532440A2032392033322020302020302020302020302020302020302020302020303939392056323030300A2020202D322E373039342020202D322E3033353020202020302E303030302043202020302020302020302020302020302020302020302020302020302020302020302020300A2020202D322E373039342020202D312E3231303020202020302E303030302043202020302020302020302020302020302020302020302020302020302020302020302020300A2020202D312E393935302020202D302E3739373520202020302E303030302043202020302020302020302020302020302020302020302020302020302020302020302020300A2020202D312E393935302020202D322E3434373520202020302E303030302043202020302020302020302020302020302020302020302020302020302020302020302020300A2020202D312E323830362020202D322E3033353020202020302E303030302043202020302020302020302020302020302020302020302020302020302020302020302020300A2020202D302E353636302020202D322E3434373520202020302E303030302043202020302020302020302020302020302020302020302020302020302020302020302020300A20202020302E313438342020202D322E3033353020202020302E303030302043202020302020302020302020302020302020302020302020302020302020302020302020300A20202020302E313438342020202D312E3231303020202020302E303030302043202020302020302020302020302020302020302020302020302020302020302020302020300A20202020302E383632382020202D302E3739373520202020302E303030302043202020302020302020302020302020302020302020302020302020302020302020302020300A20202020312E363437352020202D312E3035323420202020302E303030302043202020302020302020302020302020302020302020302020302020302020302020302020300A20202020322E313332342020202D302E3338353020202020302E303030302043202020302020302020302020302020302020302020302020302020302020302020302020300A20202020312E3634373520202020302E3238323520202020302E303030302043202020302020302020302020302020302020302020302020302020302020302020302020300A20202020312E3930323420202020312E3036373120202020302E303030302043202020302020302020302020302020302020302020302020302020302020302020302020300A20202020322E3730393420202020312E3233383620202020302E303030302043202020302020302020302020302020302020302020302020302020302020302020302020300A20202020302E3836323820202020302E3032373520202020302E303030302043202020302020302020302020302020302020302020302020302020302020302020302020300A20202020302E3836323820202020302E3835323520202020302E303030302043202020302020302020302020302020302020302020302020302020302020302020302020300A20202020302E3134383420202020302E3434303020202020302E303030302043202020302020302020302020302020302020302020302020302020302020302020302020300A2020202D302E3536363020202020302E3032373520202020302E303030302043202020302020302020302020302020302020302020302020302020302020302020302020300A2020202D302E353636302020202D302E3739373520202020302E303030302043202020302020302020302020302020302020302020302020302020302020302020302020300A2020202D312E323830362020202D312E3231303020202020302E303030302043202020302020302020302020302020302020302020302020302020302020302020302020300A2020202D302E363937322020202D312E3739333320202020302E303030302043202020302020302020302020302020302020302020302020302020302020302020302020300A20202020312E3331393020202020312E3635303520202020302E303030302043202020302020302020302020302020302020302020302020302020302020302020302020300A20202020302E3532323220202020312E3433363920202020302E30303030204F202020302020302020302020302020302020302020302020302020302020302020302020300A20202020302E383632382020202D322E3434373520202020302E30303030204F202020302020302020302020302020302020302020302020302020302020302020302020300A2020202D312E323830362020202D302E3338353020202020302E303030302048202020302020302020302020302020302020302020302020302020302020302020302020300A20202020302E383632382020202D312E3632323520202020302E303030302048202020302020302020302020302020302020302020302020302020302020302020302020300A20202020312E323735332020202D312E3531313920202020302E303030302048202020302020302020302020302020302020302020302020302020302020302020302020300A20202020322E3434343420202020302E3439363020202020302E303030302048202020302020302020302020302020302020302020302020302020302020302020302020300A20202020312E3533323520202020322E3434373520202020302E30303030204F202020302020302020302020302020302020302020302020302020302020302020302020300A2020312020322020312020302020202020200A2020322020332020322020302020202020200A2020312020342020312020302020202020200A2020342020352020322020302020202020200A2020352020362020312020302020202020200A2020362020372020312020302020202020200A2020372020382020312020302020202020200A2020382020392020312020302020202020200A2020392031302020312020302020202020200A2031302031312020312020302020202020200A2031312031322020312020302020202020200A2031322031332020312020312020202020200A2031332031342020312020302020202020200A2031322031352020312020302020202020200A2020392031352020312020302020202020200A2031352031362020312020312020202020200A2031352031372020312020302020202020200A2031372031382020312020302020202020200A2031382031392020312020302020202020200A2020382031392020312020302020202020200A2031392032302020312020302020202020200A2020332032302020312020302020202020200A2020352032302020312020302020202020200A2032302032312020312020312020202020200A2032322032332020322020302020202020200A2031332032322020312020302020202020200A2020372032342020312020302020202020200A2031392032352020312020362020202020200A2020382032362020312020312020202020200A2020392032372020312020362020202020200A2031322032382020312020362020202020200A2032322032392020312020302020202020200A4D2020454E44
Contributor: KURARAY CO., LTD.
InstType: EI
InstName: JEOL JMS-D-300
IoniMethod: _ENERGY 70 eV
IonPolarity: pos
Date: 2010-10-09 19:48:36+02:00
Num Peaks: 91
27 13 29 24 39 20 41 88 43 46 53 32 55 100 57 21 65 22 67 61 
69 27 71 11 77 77 78 11 79 88 80 11 81 82 83 12 91 135 92 26 
93 134 94 20 95 52 103 11 105 79 106 20 107 114 108 38 109 35 115 25 
117 35 119 62 120 29 121 265 122 999 123 119 124 67 128 26 129 25 131 58 
132 35 133 160 134 75 135 130 136 27 143 28 144 15 145 165 146 42 147 75 
148 18 149 12 150 192 151 170 152 24 153 12 157 36 158 34 159 88 160 281 
161 104 162 37 163 53 165 15 167 21 171 50 172 46 173 105 174 74 175 24 
179 13 185 14 186 11 190 30 191 44 197 13 206 31 207 51 208 70 219 38 
225 20 251 19 266 19 267 38 325 13 340 75 341 13 342 12 358 12 359 4 
360 8 
