Name: MassBank: JP010645
MW: 388
Formula: C24H36O4
Synonym: MassBank: JP010645
Synonym: (1S,2R,3E,7E,11E)-2,17-DIACETOXYCEMBRA-3,7,11,15-TETRAENE
Structure: 2831532C32522C33452C37452C313145292D322C31372D4449414345544F585943454D4252412D332C372C31312C31352D5445545241454E452E6D6F6C0A20204368656D447261773130313930393134333032440A2033332033332020302020302020302020302020302020302020302020303939392056323030300A2020202D312E3136373720202020312E3633303820202020302E303030302043202020302020302020302020302020302020302020302020302020302020302020302020300A2020202D312E3136373720202020302E3830353820202020302E303030302043202020302020302020302020302020302020302020302020302020302020302020302020300A2020202D302E3538343420202020302E3232323320202020302E303030302043202020302020302020302020302020302020302020302020302020302020302020302020300A20202020302E3234303620202020302E3232323320202020302E303030302043202020302020302020302020302020302020302020302020302020302020302020302020300A20202020302E3832343020202020302E3830353820202020302E303030302043202020302020302020302020302020302020302020302020302020302020302020302020300A20202020302E3832343020202020312E3633303820202020302E303030302043202020302020302020302020302020302020302020302020302020302020302020302020300A20202020302E3234303620202020322E3231343120202020302E303030302043202020302020302020302020302020302020302020302020302020302020302020302020300A2020202D302E3538343420202020322E3231343120202020302E303030302043202020302020302020302020302020302020302020302020302020302020302020302020300A20202020312E3430373320202020302E3232323320202020302E303030302043202020302020302020302020302020302020302020302020302020302020302020302020300A20202020322E3233323320202020302E3232323320202020302E303030302043202020302020302020302020302020302020302020302020302020302020302020302020300A20202020322E3831353720202020302E3830353820202020302E303030302043202020302020302020302020302020302020302020302020302020302020302020302020300A20202020322E3831353720202020312E3633303820202020302E303030302043202020302020302020302020302020302020302020302020302020302020302020302020300A20202020322E3233323320202020322E3231343120202020302E303030302043202020302020302020302020302020302020302020302020302020302020302020302020300A20202020312E3430373320202020322E3231343120202020302E303030302043202020302020302020302020302020302020302020302020302020302020302020302020300A20202020312E3130313120202020322E3937303420202020302E303030302048202020302020302020302020302020302020302020302020302020302020302020302020300A20202020322E3032313520202020312E3031333720202020302E303030302048202020302020302020302020302020302020302020302020302020302020302020302020300A2020202D312E3932333920202020312E3934313120202020302E303030302048202020302020302020302020302020302020302020302020302020302020302020302020300A2020202D312E3936333420202020302E3538373220202020302E303030302048202020302020302020302020302020302020302020302020302020302020302020302020300A2020202D302E333638392020202D302E3538303120202020302E303030302043202020302020302020302020302020302020302020302020302020302020302020302020300A2020202D312E3537323520202020302E3038343820202020302E30303030204F202020302020302020302020302020302020302020302020302020302020302020302020300A2020202D302E393933322020202D302E3530313320202020302E303030302048202020302020302020302020302020302020302020302020302020302020302020302020300A2020202D302E393534322020202D312E3135373920202020302E303030302043202020302020302020302020302020302020302020302020302020302020302020302020300A20202020302E343331392020202D302E3738383820202020302E303030302043202020302020302020302020302020302020302020302020302020302020302020302020300A20202020302E363430382020202D312E3539333120202020302E30303030204F202020302020302020302020302020302020302020302020302020302020302020302020300A20202020302E303533302020202D322E3136383920202020302E303030302043202020302020302020302020302020302020302020302020302020302020302020302020300A2020202D302E373432332020202D312E3934393720202020302E303030302043202020302020302020302020302020302020302020302020302020302020302020302020300A20202020302E323631352020202D322E3937303420202020302E30303030204F202020302020302020302020302020302020302020302020302020302020302020302020300A2020202D322E3430303220202020302E3038303620202020302E303030302043202020302020302020302020302020302020302020302020302020302020302020302020300A2020202D322E3831353720202020302E3738373920202020302E30303030204F202020302020302020302020302020302020302020302020302020302020302020302020300A2020202D322E383037312020202D302E3633373020202020302E303030302043202020302020302020302020302020302020302020302020302020302020302020302020300A2020202D302E3137313920202020312E3530303120202020302E303030302043202020302020302020302020302020302020302020302020302020302020302020302020300A20202020322E3031373720202020312E3431373720202020302E303030302043202020302020302020302020302020302020302020302020302020302020302020302020300A20202020312E303930342020202D302E3533393020202020302E303030302043202020302020302020302020302020302020302020302020302020302020302020302020300A2020312020322020312020302020202020200A2020322020332020312020302020202020200A2020332020342020312020302020202020200A2020342020352020312020302020202020200A2020362020372020312020302020202020200A2020372020382020312020302020202020200A2020382020312020322020302020202020200A2020352020392020312020302020202020200A2020392031302020322020302020202020200A2031302031312020312020302020202020200A2031312031322020312020302020202020200A2031322031332020312020302020202020200A2031332031342020322020302020202020200A2031342020362020312020302020202020200A2031342031352020312020302020202020200A2031302031362020312020302020202020200A2020312031372020312020302020202020200A2020322031382020312020312020202020200A2020332031392020312020312020202020200A2020322032302020312020362020202020200A2020332032312020312020362020202020200A2031392032322020322020302020202020200A2031392032332020312020302020202020200A2032332032342020312020302020202020200A2032342032352020312020302020202020200A2032352032362020312020302020202020200A2032352032372020322020302020202020200A2032302032382020312020302020202020200A2032382032392020322020302020202020200A2032382033302020312020302020202020200A2020382033312020312020302020202020200A2031332033322020312020302020202020200A2020392033332020312020302020202020200A4D202053545920203120202031205355500A4D2020534C4220203120202031202020310A4D202053414C20202031202031202033310A4D202053424C20202031202031202033310A4D2020534D5420202031204D650A4D2020534256202020312033312020202D362E3238343620202020372E313730330A4D202053545920203120202032205355500A4D2020534C4220203120202032202020320A4D202053414C20202032202031202033320A4D202053424C20202032202031202033320A4D2020534D5420202032204D650A4D2020534256202020322033322020202D362E3931313720202020372E303837380A4D202053545920203120202033205355500A4D2020534C4220203120202033202020330A4D202053414C20202033202031202033330A4D202053424C20202033202031202033330A4D2020534D5420202033204D650A4D2020534256202020332033332020202D372E3031343020202020372E313232390A4D2020454E44
Contributor: EGUCHI S, FAC. OF SCIENCE, HIROSHIMA UNIV.
InstType: EI
InstName: HITACHI RMU-6L
IoniMethod: _ENERGY 70 eV
IonPolarity: pos
Date: 2010-10-09 19:48:36+02:00
Num Peaks: 127
41 260 42 33 43 999 44 3 45 16 53 115 54 33 55 30 56 49 57 82 
65 49 66 3 67 229 68 278 69 131 70 2 71 49 77 115 78 49 79 26 
80 98 81 393 82 82 83 12 84 377 85 66 91 246 92 10 93 328 94 98 
95 148 96 8 97 66 105 197 106 115 107 26 108 131 109 164 110 66 111 3 
117 82 118 49 119 393 120 10 121 197 122 82 123 66 124 2 125 16 126 49 
127 33 128 2 129 16 131 82 132 148 133 26 134 295 135 311 136 82 137 5 
138 16 143 33 144 16 145 15 146 66 147 115 148 49 149 8 150 33 156 33 
157 82 158 5 159 164 160 66 161 82 162 5 163 33 171 33 172 16 173 7 
174 49 175 66 176 33 177 8 178 16 179 16 185 66 186 3 187 115 188 33 
189 49 197 3 198 16 199 33 200 33 201 5 202 82 203 33 204 16 205 2 
211 33 212 25 213 33 214 2 215 16 225 25 226 16 227 2 239 16 240 16 
253 66 254 2 255 33 269 148 270 49 271 2 285 16 286 49 287 16 313 2 
314 10 315 10 328 82 329 3 346 10 388 49 389 16 
