Name: MassBank: JP011038
MW: 208
Formula: C11H12O4
Synonym: MassBank: JP011038
Synonym: 4-FORMYL-2,5-DIMETHOXY-6-METHYLTROPONE
Structure: 342D464F524D594C2D322C352D44494D4554484F58592D362D4D455448594C54524F504F4E452E6D6F6C0A20204368656D447261773033323531303232313532440A2031352031352020302020302020302020302020302020302020302020303939392056323030300A2020202D312E313534342020202D312E3535333220202020302E30303030204F202020302020302020302020302020302020302020302020302020302020302020302020300A2020202D302E373936352020202D302E3830393920202020302E303030302043202020302020302020302020302020302020302020302020302020302020302020302020300A2020202D312E333130392020202D302E3136343920202020302E303030302043202020302020302020302020302020302020302020302020302020302020302020302020300A2020202D312E3132373320202020302E3633393420202020302E303030302043202020302020302020302020302020302020302020302020302020302020302020302020300A2020202D302E3338343020202020302E3939373420202020302E303030302043202020302020302020302020302020302020302020302020302020302020302020302020300A20202020302E3335393320202020302E3633393420202020302E303030302043202020302020302020302020302020302020302020302020302020302020302020302020300A20202020302E353432392020202D302E3136343920202020302E303030302043202020302020302020302020302020302020302020302020302020302020302020302020300A20202020302E303238352020202D302E3830393920202020302E303030302043202020302020302020302020302020302020302020302020302020302020302020302020300A2020202D312E3737323320202020312E3135333820202020302E303030302043202020302020302020302020302020302020302020302020302020302020302020302020300A2020202D302E3338343020202020312E3832323420202020302E30303030204F202020302020302020302020302020302020302020302020302020302020302020302020300A20202020302E3333303520202020322E3233343920202020302E303030302043202020302020302020302020302020302020302020302020302020302020302020302020300A20202020302E333836352020202D312E3535333220202020302E30303030204F202020302020302020302020302020302020302020302020302020302020302020302020300A2020202D302E303738332020202D322E3233343920202020302E303030302043202020302020302020302020302020302020302020302020302020302020302020302020300A20202020312E3030343320202020312E3135333820202020302E303030302043202020302020302020302020302020302020302020302020302020302020302020302020300A20202020312E3737323320202020302E3835323420202020302E30303030204F202020302020302020302020302020302020302020302020302020302020302020302020300A2020312020322020322020302020202020200A2020322020332020312020302020202020200A2020332020342020322020302020202020200A2020342020352020312020302020202020200A2020352020362020322020302020202020200A2020362020372020312020302020202020200A2020372020382020322020302020202020200A2020322020382020312020302020202020200A2020342020392020312020302020202020200A2031302031312020312020302020202020200A2020352031302020312020302020202020200A2031322031332020312020302020202020200A2020382031322020312020302020202020200A2031342031352020322020302020202020200A2020362031342020312020302020202020200A4D2020454E44
Contributor: TAKESHITA H, INST. OF ADVANCED MATERIAL STUDY KYUSHU UNIV.
InstType: EI
InstName: JEOL JMS-01-SG-2
IoniMethod: _ENERGY 75 eV
IonPolarity: pos
Date: 2010-10-09 19:48:36+02:00
Num Peaks: 47
39 549 40 145 41 166 43 429 50 267 51 373 52 134 53 496 63 206 65 285 
66 233 77 602 78 204 79 216 91 220 93 157 94 205 107 139 109 526 120 134 
121 188 123 145 133 141 134 168 135 173 137 405 149 158 151 231 152 41 153 25 
162 178 163 493 164 105 165 906 166 157 167 26 175 24 177 212 178 49 179 207 
180 88 193 999 194 338 195 54 207 32 208 577 209 87 
