Name: ISOPROPYLDIMETHYLSILANE
MW: 102
Formula: C5H14Si
Synonym: MassBank: JP011351
Synonym: ISOPROPYLDIMETHYLSILANE
Structure: 310A31360A49534F50524F50594C44494D455448594C53494C414E452E6D6F6C0A20204368656D447261773038313131303231353032440A2020362020352020302020302020302020302020302020302020302020303939392056323030300A20202020302E3230363220202020302E3335373220202020302E303030302053692020302020302020302020302020302020302020302020302020302020302020302020300A20202020312E3033313220202020302E3335373220202020302E303030302043202020302020302020302020302020302020302020302020302020302020302020302020300A2020202D302E3230363320202020312E3037313720202020302E303030302043202020302020302020302020302020302020302020302020302020302020302020302020300A2020202D302E323036332020202D302E3335373220202020302E303030302043202020302020302020302020302020302020302020302020302020302020302020302020300A20202020302E323036322020202D312E3037313720202020302E303030302043202020302020302020302020302020302020302020302020302020302020302020302020300A2020202D312E303331322020202D302E3335373220202020302E303030302043202020302020302020302020302020302020302020302020302020302020302020302020300A2020312020322020312020302020202020200A2020312020332020312020302020202020200A2020342020352020312020302020202020200A2020342020362020312020302020202020200A2020312020342020312020302020202020200A4D2020454E44
Contributor: YAMAMOTO M, DEP. CHEMISTRY, FAC. SCIENCE, NARA WOMEN'S UNIV.
InstType: EI
InstName: HITACHI RMU-6M
IoniMethod: _ENERGY 70 eV
IonPolarity: pos
Date: 2010-10-09 19:48:36+02:00
Num Peaks: 34
14 13 15 15 27 34 28 36 29 38 31 71 32 12 39 35 41 25 42 35 
43 179 44 33 45 81 46 10 53 19 54 10 55 24 57 23 58 326 59 999 
60 83 61 44 66 10 67 12 69 11 71 15 73 58 74 10 85 11 86 14 
87 32 101 25 102 84 103 15 
