Name: MassBank: JP010227
MW: 356
Formula: C20H24N2O4
Synonym: MassBank: JP010227
Synonym: 4-ETHOXYCARBONYL-5-METHYL-6-(1-PROPENYL)-2-(PARA-TOLYL)PERHYDROPYRROLO(3,4-C)PYRROLE-1,3-DIONE (3A,4-TRANS-6,6A-CIS)
Synonym: (4R,6S)-4-ETHOXYCARBONYL-5-METHYL-6-(1-PROPENYL)-2-(PARA-TOLYL)PERHYDROPYRROLO(3,4-C)PYRROLE-1,3-DIONE
Structure: 2834522C3653292D342D4554484F5859434152424F4E594C2D352D4D455448594C2D362D28312D50524F50454E594C292D322D28504152412D544F4C594C29504552485944524F505952524F4C4F28332C342D4329505952524F4C452D312C332D44494F4E452E6D6F6C0A20204368656D447261773130323130393138333932440A2033302033322020302020302020302020302020302020302020302020303939392056323030300A2020202D322E3237383620202020322E3031313720202020302E303030302043202020302020302020302020302020302020302020302020302020302020302020302020300A2020202D302E3931303520202020302E3334373420202020302E303030302043202020302020302020302020302020302020302020302020302020302020302020302020300A2020202D302E3931303520202020312E3137323420202020302E303030302043202020302020302020302020302020302020302020302020302020302020302020302020300A2020202D312E3639353120202020312E3432373320202020302E303030302043202020302020302020302020302020302020302020302020302020302020302020302020300A2020202D322E3138303120202020302E3735393920202020302E30303030204E202020302020302020302020302020302020302020302020302020302020302020302020300A2020202D312E3639353120202020302E3039323420202020302E303030302043202020302020302020302020302020302020302020302020302020302020302020302020300A2020202D302E3132353920202020302E3039323420202020302E303030302043202020302020302020302020302020302020302020302020302020302020302020302020300A20202020302E3335393020202020302E3735393920202020302E30303030204E202020302020302020302020302020302020302020302020302020302020302020302020300A2020202D302E3132353920202020312E3432373320202020302E303030302043202020302020302020302020302020302020302020302020302020302020302020302020300A20202020302E3132393020202020322E3231313920202020302E30303030204F202020302020302020302020302020302020302020302020302020302020302020302020300A20202020312E3138343020202020302E3735393920202020302E303030302043202020302020302020302020302020302020302020302020302020302020302020302020300A20202020302E313239302020202D302E3639323220202020302E30303030204F202020302020302020302020302020302020302020302020302020302020302020302020300A2020202D302E3931303520202020312E3939373420202020302E303030302048202020302020302020302020302020302020302020302020302020302020302020302020300A2020202D302E393130352020202D302E3437373620202020302E303030302048202020302020302020302020302020302020302020302020302020302020302020302020300A2020202D312E3438313620202020322E3232343220202020302E303030302048202020302020302020302020302020302020302020302020302020302020302020302020300A2020202D312E363935312020202D302E3733323620202020302E303030302043202020302020302020302020302020302020302020302020302020302020302020302020300A2020202D322E323738352020202D302E3439303920202020302E303030302048202020302020302020302020302020302020302020302020302020302020302020302020300A20202020312E3539363520202020302E3034353420202020302E303030302043202020302020302020302020302020302020302020302020302020302020302020302020300A20202020322E3432313520202020302E3034353420202020302E303030302043202020302020302020302020302020302020302020302020302020302020302020302020300A20202020322E3833343020202020302E3735393920202020302E303030302043202020302020302020302020302020302020302020302020302020302020302020302020300A20202020322E3432313520202020312E3437343320202020302E303030302043202020302020302020302020302020302020302020302020302020302020302020302020300A20202020312E3539363520202020312E3437343320202020302E303030302043202020302020302020302020302020302020302020302020302020302020302020302020300A2020202D302E393830362020202D312E3134353120202020302E30303030204F202020302020302020302020302020302020302020302020302020302020302020302020300A2020202D322E343039362020202D312E3134353120202020302E30303030204F202020302020302020302020302020302020302020302020302020302020302020302020300A2020202D322E343039362020202D312E3937303120202020302E303030302043202020302020302020302020302020302020302020302020302020302020302020302020300A2020202D312E363935312020202D322E3338323620202020302E303030302043202020302020302020302020302020302020302020302020302020302020302020302020300A2020202D332E3037353720202020312E3739383820202020302E303030302043202020302020302020302020302020302020302020302020302020302020302020302020300A2020202D332E3635383620202020322E3338323620202020302E303030302043202020302020302020302020302020302020302020302020302020302020302020302020300A20202020332E3635383620202020302E3735393920202020302E303030302043202020302020302020302020302020302020302020302020302020302020302020302020300A2020202D332E3030363020202020302E3735393920202020302E303030302043202020302020302020302020302020302020302020302020302020302020302020302020300A2020322020332020312020302020202020200A2020332020342020312020302020202020200A2020342020352020312020302020202020200A2020352020362020312020302020202020200A2020362020322020312020302020202020200A2020322020372020312020302020202020200A2020372020382020312020302020202020200A2020382020392020312020302020202020200A2020392020332020312020302020202020200A2020392031302020322020302020202020200A2020382031312020312020302020202020200A2020372031322020322020302020202020200A2020332031332020312020312020202020200A2020322031342020312020312020202020200A2020342031352020312020362020202020200A2020362031362020312020362020202020200A2031312031382020322020302020202020200A2031382031392020312020302020202020200A2031392032302020322020302020202020200A2032302032312020312020302020202020200A2032312032322020322020302020202020200A2032322031312020312020302020202020200A2020362031372020312020312020202020200A2020342020312020312020312020202020200A2031362032332020322020302020202020200A2031362032342020312020302020202020200A2032342032352020312020302020202020200A2032352032362020312020302020202020200A2020312032372020322020302020202020200A2032372032382020312020302020202020200A2032302032392020312020302020202020200A2020352033302020312020302020202020200A4D202053545920203120202031205355500A4D2020534C4220203120202031202020310A4D202053414C20202031202031202032390A4D202053424C20202031202031202033310A4D2020534D5420202031204D650A4D2020534256202020312033312020202D362E3935353120202020362E363631380A4D202053545920203120202032205355500A4D2020534C4220203120202032202020320A4D202053414C20202032202031202033300A4D202053424C20202032202031202033320A4D2020534D5420202032204D650A4D2020534256202020322033322020202D382E3630353620202020362E363631380A4D2020454E44
Contributor: KANEMASA S, INST. OF ADVANCED MATERIAL STUDY KYUSHU UNIV.
InstType: EI
InstName: JEOL JMS-01-SG-2
IoniMethod: _ENERGY 75 eV
IonPolarity: pos
Date: 2010-10-09 19:48:36+02:00
Num Peaks: 35
38 44 40 41 41 154 51 34 53 36 66 26 67 23 76 75 77 68 78 51 
79 47 80 101 81 54 91 63 94 134 96 131 104 49 105 76 106 73 107 88 
120 43 121 26 122 471 123 46 132 60 133 73 257 92 283 999 284 203 285 26 
309 30 327 40 341 39 356 106 357 23 
