Name: MassBank: JP012013
MW: 146
Formula: C6H18Si2
Synonym: MassBank: JP012013
Synonym: 1,2-DIETHYL-1,2-DIMETHYLDISILANE
Structure: 310A32300A312C322D4449455448594C2D312C322D44494D455448594C444953494C414E452E6D6F6C0A20204368656D447261773131303330393233313732440A2020382020372020302020302020302020302020302020302020302020303939392056323030300A2020202D302E343132352020202D302E3030303020202020302E303030302053692020302020302020302020302020302020302020302020302020302020302020302020300A20202020302E343132352020202D302E3030303020202020302E303030302053692020302020302020302020302020302020302020302020302020302020302020302020300A20202020302E383235302020202D302E3731343520202020302E303030302043202020302020302020302020302020302020302020302020302020302020302020302020300A20202020302E3832353020202020302E3731343520202020302E303030302043202020302020302020302020302020302020302020302020302020302020302020302020300A2020202D302E3832353020202020302E3731343520202020302E303030302043202020302020302020302020302020302020302020302020302020302020302020302020300A2020202D302E383235302020202D302E3731343520202020302E303030302043202020302020302020302020302020302020302020302020302020302020302020302020300A20202020312E363530302020202D302E3731343520202020302E303030302043202020302020302020302020302020302020302020302020302020302020302020302020300A2020202D312E363530302020202D302E3731343520202020302E303030302043202020302020302020302020302020302020302020302020302020302020302020302020300A2020312020322020312020302020202020200A2020322020332020312020302020202020200A2020322020342020312020302020202020200A2020312020352020312020302020202020200A2020312020362020312020302020202020200A2020332020372020312020302020202020200A2020362020382020312020302020202020200A4D2020454E44
Contributor: YAMAMOTO M, DEP. CHEMISTRY, FAC. SCIENCE, NARA WOMEN'S UNIV.
InstType: EI
InstName: HITACHI RMU-6M
IoniMethod: _ENERGY 70 eV
IonPolarity: pos
Date: 2010-10-09 19:48:36+02:00
Num Peaks: 61
28 27 29 36 30 69 32 45 33 11 40 13 41 16 42 23 43 379 44 220 
45 787 46 54 47 26 53 30 54 12 55 47 56 16 57 62 58 23 59 267 
60 25 67 18 68 31 69 72 70 42 71 94 72 999 73 854 74 119 75 80 
76 18 77 12 81 20 82 20 83 19 84 16 85 64 86 76 87 253 88 121 
89 489 90 70 91 43 99 16 100 40 101 126 102 72 103 112 104 24 105 15 
117 203 118 35 119 18 130 50 131 50 132 14 133 14 145 37 146 430 147 80 
148 37 
