Name: MassBank: JP012035
MW: 174
Formula: C8H22Si2
Synonym: MassBank: JP012035
Synonym: 1,1-DIMETHYL-2,2-DIPROPYLDISILANE
Structure: 312C312D44494D455448594C2D322C322D444950524F50594C444953494C414E452E6D6F6C0A20204368656D447261773130323330393130333332440A2031302020392020302020302020302020302020302020302020302020303939392056323030300A2020202D302E343132352020202D302E3030303020202020302E303030302053692020302020302020302020302020302020302020302020302020302020302020302020300A20202020302E343132352020202D302E3030303020202020302E303030302053692020302020302020302020302020302020302020302020302020302020302020302020300A20202020302E3832353020202020302E3731343520202020302E303030302043202020302020302020302020302020302020302020302020302020302020302020302020300A20202020302E3431323520202020312E3432383920202020302E303030302043202020302020302020302020302020302020302020302020302020302020302020302020300A20202020302E383235302020202D302E3731343520202020302E303030302043202020302020302020302020302020302020302020302020302020302020302020302020300A20202020302E343132352020202D312E3432383920202020302E303030302043202020302020302020302020302020302020302020302020302020302020302020302020300A20202020302E383235302020202D322E3134333420202020302E303030302043202020302020302020302020302020302020302020302020302020302020302020302020300A2020202D302E383235302020202D302E3731343520202020302E303030302043202020302020302020302020302020302020302020302020302020302020302020302020300A2020202D302E3832353020202020302E3731343520202020302E303030302043202020302020302020302020302020302020302020302020302020302020302020302020300A20202020302E3832353020202020322E3134333420202020302E303030302043202020302020302020302020302020302020302020302020302020302020302020302020300A2020312020322020312020302020202020200A2020332020342020312020302020202020200A2020322020332020312020302020202020200A2020352020362020312020302020202020200A2020362020372020312020302020202020200A2020322020352020312020302020202020200A2020312020382020312020302020202020200A2020312020392020312020302020202020200A2020342031302020312020302020202020200A4D2020454E44
Contributor: YAMAMOTO M, DEP. CHEMISTRY, FAC. SCIENCE, NARA WOMEN'S UNIV.
InstType: EI
InstName: HITACHI RMU-6M
IoniMethod: _ENERGY 70 eV
IonPolarity: pos
Date: 2010-10-09 19:48:36+02:00
Num Peaks: 44
43 88 44 53 45 96 55 53 57 53 58 70 59 158 69 53 70 61 71 96 
72 254 73 263 74 88 75 61 85 132 86 421 87 246 88 132 89 263 90 70 
91 53 99 79 100 53 101 79 102 44 103 131 104 53 105 61 114 999 115 298 
116 140 117 123 118 44 119 44 129 79 130 61 131 114 158 70 159 70 160 53 
173 96 174 509 175 140 176 70 
