Name: MassBank: JP010189
MW: 386
Formula: C17H26N2O8
Synonym: MassBank: JP010189
Synonym: 1,1'-METHYLENEDI(DIMETHYLPYRROLIDINE-3,4-DICARBOXYLATE) (3,4-TRANS)
Structure: 312C31272D4D455448594C454E4544492844494D455448594C505952524F4C4944494E452D332C342D4449434152424F58594C415445292028332C342D5452414E53292E6D6F6C0A20204368656D447261773130323230393232333832440A2032372032382020302020302020302020302020302020302020302020303939392056323030300A2020202D302E3731343520202020312E3031313620202020302E30303030204E202020302020302020302020302020302020302020302020302020302020302020302020300A20202020302E3030303020202020312E3432343120202020302E303030302043202020302020302020302020302020302020302020302020302020302020302020302020300A20202020302E3731343520202020312E3031313620202020302E30303030204E202020302020302020302020302020302020302020302020302020302020302020302020300A2020202D312E3436383120202020312E3334373220202020302E303030302043202020302020302020302020302020302020302020302020302020302020302020302020300A2020202D322E3032303220202020302E3733343120202020302E303030302043202020302020302020302020302020302020302020302020302020302020302020302020300A2020202D312E3630373720202020302E3031393620202020302E303030302043202020302020302020302020302020302020302020302020302020302020302020302020300A2020202D302E3830303720202020302E3139313120202020302E303030302043202020302020302020302020302020302020302020302020302020302020302020302020300A20202020302E3830303720202020302E3139313120202020302E303030302043202020302020302020302020302020302020302020302020302020302020302020302020300A20202020312E3630373720202020302E3031393620202020302E303030302043202020302020302020302020302020302020302020302020302020302020302020302020300A20202020322E3032303220202020302E3733343120202020302E303030302043202020302020302020302020302020302020302020302020302020302020302020302020300A20202020312E3436383120202020312E3334373220202020302E303030302043202020302020302020302020302020302020302020302020302020302020302020302020300A2020202D322E3834303720202020302E3832303320202020302E303030302043202020302020302020302020302020302020302020302020302020302020302020302020300A2020202D312E393433322020202D302E3733343120202020302E303030302043202020302020302020302020302020302020302020302020302020302020302020302020300A20202020322E3834303720202020302E3832303320202020302E303030302043202020302020302020302020302020302020302020302020302020302020302020302020300A20202020312E393433322020202D302E3733343120202020302E303030302043202020302020302020302020302020302020302020302020302020302020302020302020300A20202020332E3332353620202020302E3135323920202020302E30303030204F202020302020302020302020302020302020302020302020302020302020302020302020300A20202020332E3137363220202020312E3537343020202020302E30303030204F202020302020302020302020302020302020302020302020302020302020302020302020300A20202020342E3134363120202020302E3233393120202020302E303030302043202020302020302020302020302020302020302020302020302020302020302020302020300A20202020322E373633372020202D302E3832303320202020302E30303030204F202020302020302020302020302020302020302020302020302020302020302020302020300A20202020332E303939332020202D312E3537343020202020302E303030302043202020302020302020302020302020302020302020302020302020302020302020302020300A20202020312E343538332020202D312E3430313520202020302E30303030204F202020302020302020302020302020302020302020302020302020302020302020302020300A2020202D332E3332353620202020302E3135323920202020302E30303030204F202020302020302020302020302020302020302020302020302020302020302020302020300A2020202D332E3137363220202020312E3537343020202020302E30303030204F202020302020302020302020302020302020302020302020302020302020302020302020300A2020202D342E3134363120202020302E3233393120202020302E303030302043202020302020302020302020302020302020302020302020302020302020302020302020300A2020202D322E373633372020202D302E3832303320202020302E30303030204F202020302020302020302020302020302020302020302020302020302020302020302020300A2020202D312E343538332020202D312E3430313520202020302E30303030204F202020302020302020302020302020302020302020302020302020302020302020302020300A2020202D332E303939332020202D312E3537343020202020302E303030302043202020302020302020302020302020302020302020302020302020302020302020302020300A2020312020322020312020302020202020200A2020322020332020312020302020202020200A2020312020342020312020302020202020200A2020342020352020312020302020202020200A2020352020362020312020302020202020200A2020362020372020312020302020202020200A2020372020312020312020302020202020200A2020332020382020312020302020202020200A2020382020392020312020302020202020200A2020392031302020312020302020202020200A2031302031312020312020302020202020200A2031312020332020312020302020202020200A2020352031322020312020302020202020200A2020362031332020312020302020202020200A2031302031342020312020302020202020200A2020392031352020312020302020202020200A2031342031362020312020302020202020200A2031342031372020322020302020202020200A2031362031382020312020302020202020200A2031352031392020312020302020202020200A2031392032302020312020302020202020200A2031352032312020322020302020202020200A2031322032322020312020302020202020200A2031322032332020322020302020202020200A2032322032342020312020302020202020200A2031332032352020312020302020202020200A2031332032362020322020302020202020200A2032352032372020312020302020202020200A4D2020454E44
Contributor: KANEMASA S, INST. OF ADVANCED MATERIAL STUDY KYUSHU UNIV.
InstType: EI
InstName: JEOL JMS-01-SG-2
IoniMethod: _ENERGY 40 eV
IonPolarity: pos
Date: 2010-10-09 19:48:36+02:00
Num Peaks: 47
31 153 32 99 33 440 40 116 41 270 42 110 44 169 53 126 55 64 59 999 
67 73 68 207 71 172 80 167 81 80 82 267 99 114 101 92 104 61 105 59 
126 82 127 85 139 128 140 327 164 113 167 87 187 61 192 60 199 98 200 931 
201 89 220 52 222 30 225 24 235 21 243 27 252 81 254 27 257 65 267 26 
283 28 284 82 312 150 328 34 335 25 343 123 344 40 
