Name: MassBank: JP011035
MW: 267
Formula: C13H17NO5
Synonym: MassBank: JP011035
Synonym: 5-CYANO-4,4,7,7-TETRAMETHOXY-3-METHYL-2,5-CYCLOHEPTADIEN-1-ONE
Structure: 352D4359414E4F2D342C342C372C372D54455452414D4554484F58592D332D4D455448594C2D322C352D4359434C4F48455054414449454E2D312D4F4E452E6D6F6C0A20204368656D447261773034323331303035303232440A2031392031392020302020302020302020302020302020302020302020303939392056323030300A2020202D302E323234392020202D312E3231333220202020302E303030302043202020302020302020302020302020302020302020302020302020302020302020302020300A2020202D302E393339342020202D302E3830303720202020302E303030302043202020302020302020302020302020302020302020302020302020302020302020302020300A2020202D312E3036343920202020302E3031333920202020302E303030302043202020302020302020302020302020302020302020302020302020302020302020302020300A2020202D302E3530353320202020302E3632303120202020302E303030302043202020302020302020302020302020302020302020302020302020302020302020302020300A20202020302E3331363720202020302E3536313020202020302E303030302043202020302020302020302020302020302020302020302020302020302020302020302020300A20202020302E373834302020202D302E3132303020202020302E303030302043202020302020302020302020302020302020302020302020302020302020302020302020300A20202020302E353432382020202D302E3930393020202020302E303030302043202020302020302020302020302020302020302020302020302020302020302020302020300A2020202D302E323834302020202D322E3033353120202020302E30303030204F202020302020302020302020302020302020302020302020302020302020302020302020300A2020202D312E3835333920202020302E3235353120202020302E303030302043202020302020302020302020302020302020302020302020302020302020302020302020300A20202020312E333635362020202D302E3936383620202020302E30303030204F202020302020302020302020302020302020302020302020302020302020302020302020300A20202020312E383533392020202D302E3330333520202020302E303030302043202020302020302020302020302020302020302020302020302020302020302020302020300A20202020302E363637382020202D312E3732343420202020302E30303030204F202020302020302020302020302020302020302020302020302020302020302020302020300A20202020312E343336352020202D322E3032333920202020302E303030302043202020302020302020302020302020302020302020302020302020302020302020302020300A2020202D312E3235343920202020302E3936363620202020302E30303030204F202020302020302020302020302020302020302020302020302020302020302020302020300A2020202D312E3436383420202020312E3736333520202020302E303030302043202020302020302020302020302020302020302020302020302020302020302020302020300A2020202D302E3139363220202020312E3338353020202020302E30303030204F202020302020302020302020302020302020302020302020302020302020302020302020300A2020202D302E3730343220202020322E3033353120202020302E303030302043202020302020302020302020302020302020302020302020302020302020302020302020300A20202020302E3732393220202020312E3237353520202020302E303030302043202020302020302020302020302020302020302020302020302020302020302020302020300A20202020312E3134313720202020312E3938393920202020302E30303030204E202020302020302020302020302020302020302020302020302020302020302020302020300A2020312020322020312020302020202020200A2020322020332020322020302020202020200A2020332020342020312020302020202020200A2020342020352020312020302020202020200A2020352020362020322020302020202020200A2020362020372020312020302020202020200A2020312020372020312020302020202020200A2020312020382020322020302020202020200A2020332020392020312020302020202020200A2031302031312020312020302020202020200A2020372031302020312020312020202020200A2031322031332020312020302020202020200A2020372031322020312020362020202020200A2031342031352020312020302020202020200A2020342031342020312020312020202020200A2031362031372020312020302020202020200A2020342031362020312020362020202020200A2031382031392020332020302020202020200A2020352031382020312020302020202020200A4D2020454E44
Contributor: TAKESHITA H, INST. OF ADVANCED MATERIAL STUDY KYUSHU UNIV.
InstType: EI
InstName: JEOL JMS-01-SG-2
IoniMethod: _ENERGY 75 eV
IonPolarity: pos
Date: 2010-10-09 19:48:36+02:00
Num Peaks: 49
38 91 59 267 75 185 77 93 80 130 91 150 99 133 105 292 106 94 118 96 
127 232 133 169 134 384 135 109 138 123 146 113 148 130 150 134 160 237 161 154 
162 448 163 99 164 112 177 304 178 237 179 42 184 60 188 35 189 33 190 37 
192 838 193 254 194 51 204 30 205 40 206 48 208 817 209 128 220 999 221 217 
222 38 224 61 236 945 237 155 252 823 253 141 254 30 267 212 268 37 
