Name: N-(BENZYLIDENE)BIS(TRIMETHYLSILYL)METHYLAMINE
MW: 263
Formula: C14H25NSi2
Synonym: MassBank: JP011859
Synonym: N-(BENZYLIDENE)BIS(TRIMETHYLSILYL)METHYLAMINE
Structure: 313133305F4E2D2842454E5A594C4944454E4529424953285452494D455448594C53494C594C294D455448594C414D494E452E6D6F6C0A20204368656D447261773130323031303230343132440A2031372031372020302020302020302020302020302020302020302020303939392056323030300A2020202D312E353237322020202D312E3032333920202020302E303030302043202020302020302020302020302020302020302020302020302020302020302020302020300A2020202D312E353237322020202D312E3834383920202020302E303030302043202020302020302020302020302020302020302020302020302020302020302020302020300A2020202D302E383132372020202D322E3236313420202020302E303030302043202020302020302020302020302020302020302020302020302020302020302020302020300A2020202D302E303938322020202D312E3834383920202020302E303030302043202020302020302020302020302020302020302020302020302020302020302020302020300A2020202D302E303938322020202D312E3032333920202020302E303030302043202020302020302020302020302020302020302020302020302020302020302020302020300A2020202D302E383132372020202D302E3631313420202020302E303030302043202020302020302020302020302020302020302020302020302020302020302020302020300A2020202D302E3935363020202020302E3230313020202020302E303030302043202020302020302020302020302020302020302020302020302020302020302020302020300A2020202D302E3432333620202020302E3833333820202020302E30303030204E202020302020302020302020302020302020302020302020302020302020302020302020300A20202020302E3339393820202020302E3833323520202020302E303030302043202020302020302020302020302020302020302020302020302020302020302020302020300A20202020302E3831323620202020312E3534373120202020302E303030302053692020302020302020302020302020302020302020302020302020302020302020302020300A20202020312E3532373220202020312E3133343220202020302E303030302043202020302020302020302020302020302020302020302020302020302020302020302020300A20202020312E3232343820202020322E3236313420202020302E303030302043202020302020302020302020302020302020302020302020302020302020302020302020300A20202020302E3039383220202020312E3935393220202020302E303030302043202020302020302020302020302020302020302020302020302020302020302020302020300A20202020302E3831323320202020302E3131383020202020302E303030302053692020302020302020302020302020302020302020302020302020302020302020302020300A20202020312E3532363820202020302E3533303520202020302E303030302043202020302020302020302020302020302020302020302020302020302020302020302020300A20202020312E323234382020202D302E3539363520202020302E303030302043202020302020302020302020302020302020302020302020302020302020302020302020300A20202020302E303937392020202D302E3239343520202020302E303030302043202020302020302020302020302020302020302020302020302020302020302020302020300A2020312020322020322020302020202020200A2020322020332020312020302020202020200A2020332020342020322020302020202020200A2020342020352020312020302020202020200A2020352020362020322020302020202020200A2020362020312020312020302020202020200A2020362020372020312020302020202020200A2020372020382020322020302020202020200A2020382020392020312020302020202020200A2020392031302020312020302020202020200A2020392031342020312020302020202020200A2031302031312020312020302020202020200A2031302031322020312020302020202020200A2031302031332020312020302020202020200A2031342031352020312020302020202020200A2031342031362020312020302020202020200A2031342031372020312020302020202020200A4D2020454E44
Contributor: YOSHIKI O, FAC, TECHNOLOGY, OSAKA UNIV.
InstType: EI
InstName: Unknown
IoniMethod: _ENERGY 70 eV
IonPolarity: pos
Date: 2010-10-09 19:48:36+02:00
Num Peaks: 45
57 34 58 42 59 604 60 46 63 33 71 30 72 36 73 999 74 205 75 101 
85 80 86 50 89 103 90 66 91 66 100 40 105 53 117 83 118 28 121 70 
131 26 133 43 135 113 145 90 146 43 147 35 148 103 149 74 160 65 162 87 
172 143 173 28 174 52 176 34 186 33 189 428 190 834 191 163 192 39 248 246 
249 64 262 978 263 379 264 132 265 29 
