Name: 17ALPHA-ACETOXY-PROGESTERONE
MW: 372
Formula: C23H32O4
Synonym: MassBank: JP011424
Synonym: 17ALPHA-ACETOXY-PROGESTERONE
Synonym: 17ALPHA-HYDROXY-4-PREGNEN-3,20-DIONE17-ACETATE
Structure: 3137414C5048412D414345544F58592D50524F4745535445524F4E452E6D6F6C0A20204368656D447261773132313130393030353432440A2033312033342020302020302020302020302020302020302020302020303939392056323030300A2020202D322E3139323420202020302E3130393320202020302E303030302043202020302020302020302020302020302020302020302020302020302020302020302020300A2020202D322E3930363920202020302E3532313820202020302E303030302043202020302020302020302020302020302020302020302020302020302020302020302020300A2020202D322E3930363920202020312E3334363820202020302E303030302043202020302020302020302020302020302020302020302020302020302020302020302020300A2020202D332E3632313320202020312E3735393320202020302E30303030204F202020302020302020302020302020302020302020302020302020302020302020302020300A2020202D322E3139323420202020312E3735393320202020302E303030302043202020302020302020302020302020302020302020302020302020302020302020302020300A2020202D312E3437373920202020312E3334363820202020302E303030302043202020302020302020302020302020302020302020302020302020302020302020302020300A2020202D302E3736333420202020312E3735393320202020302E303030302043202020302020302020302020302020302020302020302020302020302020302020302020300A2020202D302E3034393020202020312E3334363820202020302E303030302043202020302020302020302020302020302020302020302020302020302020302020302020300A2020202D302E3034393020202020302E3532313820202020302E303030302043202020302020302020302020302020302020302020302020302020302020302020302020300A20202020302E3636353520202020302E3130393320202020302E303030302043202020302020302020302020302020302020302020302020302020302020302020302020300A20202020312E3435303120202020302E3336343320202020302E303030302043202020302020302020302020302020302020302020302020302020302020302020302020300A20202020312E393335302020202D302E3330333220202020302E303030302043202020302020302020302020302020302020302020302020302020302020302020302020300A20202020312E343530312020202D302E3937303620202020302E303030302043202020302020302020302020302020302020302020302020302020302020302020302020300A20202020312E313932362020202D322E3031383220202020302E303030302043202020302020302020302020302020302020302020302020302020302020302020302020300A20202020312E373834312020202D322E3538343320202020302E30303030204F202020302020302020302020302020302020302020302020302020302020302020302020300A20202020302E333935372020202D322E3233313720202020302E303030302043202020302020302020302020302020302020302020302020302020302020302020302020300A20202020302E363635352020202D302E3731353720202020302E303030302043202020302020302020302020302020302020302020302020302020302020302020302020300A20202020302E363635352020202D312E3534303720202020302E303030302043202020302020302020302020302020302020302020302020302020302020302020302020300A2020202D302E303439302020202D312E3132383220202020302E303030302043202020302020302020302020302020302020302020302020302020302020302020302020300A2020202D302E373633342020202D302E3731353720202020302E303030302043202020302020302020302020302020302020302020302020302020302020302020302020300A2020202D302E3736333420202020302E3130393320202020302E303030302043202020302020302020302020302020302020302020302020302020302020302020302020300A2020202D312E3437373920202020302E3532313820202020302E303030302043202020302020302020302020302020302020302020302020302020302020302020302020300A2020202D302E3839343620202020312E3130353220202020302E303030302043202020302020302020302020302020302020302020302020302020302020302020302020300A20202020322E313937382020202D312E3331393320202020302E30303030204F202020302020302020302020302020302020302020302020302020302020302020302020300A20202020322E383733362020202D302E3834363120202020302E303030302043202020302020302020302020302020302020302020302020302020302020302020302020300A20202020332E363231332020202D312E3139343720202020302E30303030204F202020302020302020302020302020302020302020302020302020302020302020302020300A20202020322E383031372020202D302E3032343220202020302E303030302043202020302020302020302020302020302020302020302020302020302020302020302020300A2020202D312E343737392020202D302E3330333220202020302E303030302048202020302020302020302020302020302020302020302020302020302020302020302020300A20202020302E3336333520202020312E3233363320202020302E303030302048202020302020302020302020302020302020302020302020302020302020302020302020300A20202020302E3636353520202020302E3933343320202020302E303030302048202020302020302020302020302020302020302020302020302020302020302020302020300A2020202D322E3139323420202020322E3538343320202020302E303030302048202020302020302020302020302020302020302020302020302020302020302020302020300A2020312020322020312020302020202020200A2020322020332020312020302020202020200A2020332020342020322020302020202020200A2020332020352020312020302020202020200A2020352020362020322020302020202020200A2020362020372020312020302020202020200A2020372020382020312020302020202020200A2020382020392020312020302020202020200A2020392031302020312020302020202020200A2031302031312020312020302020202020200A2031312031322020312020302020202020200A2031322031332020312020302020202020200A2031332031342020312020362020202020200A2031342031352020322020302020202020200A2031342031362020312020302020202020200A2031332031372020312020302020202020200A2031302031372020312020302020202020200A2031372031382020312020362020202020200A2031372031392020312020302020202020200A2031392032302020312020302020202020200A2032302032312020312020302020202020200A2020392032312020312020302020202020200A2032312032322020312020302020202020200A2020312032322020312020302020202020200A2020362032322020312020302020202020200A2032322032332020312020362020202020200A2032352032362020322020302020202020200A2032352032372020312020302020202020200A2032342032352020312020302020202020200A2031332032342020312020312020202020200A2032312032382020312020312020202020200A2020392032392020312020362020202020200A2031302033302020312020312020202020200A2020352033312020312020302020202020200A4D2020454E44
Contributor: HASHIMOTO K, KYOTO COLLEGE OF PHARMACY
InstType: EI
InstName: HITACHI M-80
IoniMethod: _ENERGY 20 eV
IonPolarity: pos
Date: 2010-10-09 19:48:36+02:00
Num Peaks: 58
43 147 83 11 95 19 97 45 105 24 107 18 109 38 119 19 121 25 122 18 
123 31 124 27 131 15 133 19 134 13 135 21 136 23 137 11 145 65 146 14 
147 53 148 17 159 19 161 22 163 11 171 13 173 29 174 14 175 19 185 12 
187 14 189 19 201 13 213 15 225 10 227 25 228 10 229 100 230 22 242 18 
243 18 244 68 245 18 251 23 269 999 270 219 271 33 286 12 287 384 288 81 
289 14 312 107 313 35 329 117 330 159 331 41 372 29 373 10 
