Name: MassBank: JP010366
MW: 214
Formula: C13H26O2
Synonym: MassBank: JP010366
Synonym: 2,5-DIETHOXY-3-METHYL-3-VINYLHEXANE
Structure: 322C352D44494554484F58592D332D4D455448594C2D332D56494E594C484558414E452E6D6F6C0A20204368656D447261773132323130393031313732440A2031352031342020302020302020302020302020302020302020302020303939392056323030300A2020202D312E3037313720202020312E3333333220202020302E303030302043202020302020302020302020302020302020302020302020302020302020302020302020300A2020202D312E3037313720202020302E3530383220202020302E303030302043202020302020302020302020302020302020302020302020302020302020302020302020300A2020202D302E3335373220202020302E3039353720202020302E303030302043202020302020302020302020302020302020302020302020302020302020302020302020300A20202020302E333537322020202D302E3331363820202020302E303030302043202020302020302020302020302020302020302020302020302020302020302020302020300A20202020312E3037313720202020302E3039353720202020302E303030302043202020302020302020302020302020302020302020302020302020302020302020302020300A20202020312E3037313720202020302E3932303720202020302E303030302043202020302020302020302020302020302020302020302020302020302020302020302020300A2020202D302E373639372020202D302E3631383820202020302E303030302043202020302020302020302020302020302020302020302020302020302020302020302020300A2020202D302E333537322020202D312E3333333220202020302E303030302043202020302020302020302020302020302020302020302020302020302020302020302020300A20202020302E3035353320202020302E3831303220202020302E303030302043202020302020302020302020302020302020302020302020302020302020302020302020300A20202020312E373836322020202D302E3331363820202020302E30303030204F202020302020302020302020302020302020302020302020302020302020302020302020300A20202020322E3530303620202020302E3039353720202020302E303030302043202020302020302020302020302020302020302020302020302020302020302020302020300A20202020332E323135312020202D302E3331363820202020302E303030302043202020302020302020302020302020302020302020302020302020302020302020302020300A2020202D312E3738363220202020302E3039353720202020302E30303030204F202020302020302020302020302020302020302020302020302020302020302020302020300A2020202D322E3530303620202020302E3530383220202020302E303030302043202020302020302020302020302020302020302020302020302020302020302020302020300A2020202D332E3231353120202020302E3039353720202020302E303030302043202020302020302020302020302020302020302020302020302020302020302020302020300A2020312020322020312020302020202020200A2020322020332020312020302020202020200A2020332020342020312020302020202020200A2020342020352020312020302020202020200A2020352020362020312020302020202020200A2020372020382020322020302020202020200A2020332020372020312020302020202020200A2020332020392020312020302020202020200A2031312031322020312020302020202020200A2031302031312020312020302020202020200A2020352031302020312020302020202020200A2031342031352020312020302020202020200A2031332031342020312020302020202020200A2020322031332020312020302020202020200A4D2020454E44
Contributor: HISAHIRO HAGIWARA, CHEMICAL RESEARCH INSTITUTE OF NON-AQUEOUSSOLUTIONS TOHOKU UNIV.
InstType: EI
InstName: JEOL JMS-DX-300
IoniMethod: _ENERGY 70 eV
IonPolarity: pos
Date: 2010-10-09 19:48:36+02:00
Num Peaks: 21
41 23 43 56 45 545 46 16 55 19 58 11 59 23 67 17 69 13 70 12 
73 999 74 63 75 41 81 51 82 13 86 10 95 10 96 26 103 36 139 2 
214 7 
