Name: N-(2-PROPENOXYBENZYLIDENE)BIS(TRIMETHYLSILYL)METHYLAMINE
MW: 319
Formula: C17H29NOSi2
Synonym: MassBank: JP011857
Synonym: N-(2-PROPENOXYBENZYLIDENE)BIS(TRIMETHYLSILYL)METHYLAMINE
Structure: 313132385F4E2D28322D50524F50454E4F585942454E5A594C4944454E4529424953285452494D455448594C53494C594C294D455448594C414D494E452E6D6F6C0A20204368656D447261773130323031303230333932440A2032312032312020302020302020302020302020302020302020302020303939392056323030300A2020202D302E3639353820202020302E3030303020202020302E303030302043202020302020302020302020302020302020302020302020302020302020302020302020300A2020202D312E3130383320202020302E3731343520202020302E303030302043202020302020302020302020302020302020302020302020302020302020302020302020300A2020202D312E3933333320202020302E3731343520202020302E303030302043202020302020302020302020302020302020302020302020302020302020302020302020300A2020202D322E3334353820202020312E3432383920202020302E303030302043202020302020302020302020302020302020302020302020302020302020302020302020300A2020202D312E3933333320202020322E3134333420202020302E303030302043202020302020302020302020302020302020302020302020302020302020302020302020300A2020202D312E3130383320202020322E3134333420202020302E303030302043202020302020302020302020302020302020302020302020302020302020302020302020300A2020202D302E3639353820202020312E3432383920202020302E303030302043202020302020302020302020302020302020302020302020302020302020302020302020300A20202020302E3132393220202020302E3030303020202020302E30303030204E202020302020302020302020302020302020302020302020302020302020302020302020300A20202020312E353233372020202D302E3639333820202020302E303030302053692020302020302020302020302020302020302020302020302020302020302020302020300A20202020322E333435382020202D302E3632343420202020302E303030302043202020302020302020302020302020302020302020302020302020302020302020302020300A20202020312E3330323220202020302E3130303920202020302E303030302043202020302020302020302020302020302020302020302020302020302020302020302020300A20202020312E353035312020202D312E3531383620202020302E303030302043202020302020302020302020302020302020302020302020302020302020302020302020300A20202020302E353431372020202D302E3731343520202020302E303030302043202020302020302020302020302020302020302020302020302020302020302020302020300A20202020302E313239322020202D312E3432383920202020302E303030302053692020302020302020302020302020302020302020302020302020302020302020302020300A20202020302E383433372020202D312E3834313420202020302E303030302043202020302020302020302020302020302020302020302020302020302020302020302020300A2020202D302E323833332020202D322E3134333420202020302E303030302043202020302020302020302020302020302020302020302020302020302020302020302020300A2020202D302E353835322020202D312E3031363420202020302E303030302043202020302020302020302020302020302020302020302020302020302020302020302020300A2020202D322E3334353820202020302E3030303020202020302E30303030204F202020302020302020302020302020302020302020302020302020302020302020302020300A2020202D312E393333332020202D302E3731343520202020302E303030302043202020302020302020302020302020302020302020302020302020302020302020302020300A2020202D322E333435382020202D312E3432383920202020302E303030302043202020302020302020302020302020302020302020302020302020302020302020302020300A2020202D312E393333332020202D322E3134333420202020302E303030302043202020302020302020302020302020302020302020302020302020302020302020302020300A2020312020322020312020302020202020200A2020322020332020312020302020202020200A2020332020342020322020302020202020200A2020342020352020312020302020202020200A2020352020362020322020302020202020200A2020362020372020312020302020202020200A2020322020372020322020302020202020200A2020312020382020322020302020202020200A2020392031302020312020302020202020200A2020392031312020312020302020202020200A2020392031322020312020302020202020200A2020382031332020312020302020202020200A2031332020392020312020302020202020200A2031332031342020312020302020202020200A2031342031352020312020302020202020200A2031342031362020312020302020202020200A2031342031372020312020302020202020200A2020332031382020312020302020202020200A2031382031392020312020302020202020200A2031392032302020312020302020202020200A2032302032312020322020302020202020200A4D2020454E44
Contributor: YOSHIKI O, FAC, TECHNOLOGY, OSAKA UNIV.
InstType: EI
InstName: Unknown
IoniMethod: _ENERGY 70 eV
IonPolarity: pos
Date: 2010-10-09 19:48:36+02:00
Num Peaks: 48
51 90 58 50 59 291 73 999 74 219 75 147 77 86 85 53 89 39 91 89 
100 44 102 286 103 56 115 40 117 65 129 36 131 113 132 43 135 144 145 239 
146 53 147 75 149 54 151 42 161 66 162 88 163 138 172 66 176 52 177 59 
179 46 189 43 190 82 204 82 205 89 206 56 246 414 247 86 248 53 262 111 
263 145 264 43 277 290 278 436 279 124 280 42 318 84 319 37 
