Name: 7-TRIMETHYLSILYL-6-VINYLHEPTAN-3-ONE
MW: 212
Formula: C12H24OSi
Synonym: MassBank: JP012088
Synonym: 7-TRIMETHYLSILYL-6-VINYLHEPTAN-3-ONE
Structure: 372D5452494D455448594C53494C594C2D362D56494E594C48455054414E2D332D4F4E452E6D6F6C0A20204368656D447261773035323431303138323032440A2031342031332020302020302020302020302020302020302020302020303939392056323030300A20202020322E363831332020202D302E3035353320202020302E303030302043202020302020302020302020302020302020302020302020302020302020302020302020300A20202020312E383536332020202D302E3035353320202020302E303030302043202020302020302020302020302020302020302020302020302020302020302020302020300A20202020312E343433372020202D302E3736393720202020302E303030302043202020302020302020302020302020302020302020302020302020302020302020302020300A20202020302E363138382020202D302E3736393720202020302E303030302043202020302020302020302020302020302020302020302020302020302020302020302020300A20202020302E323036322020202D302E3035353320202020302E303030302043202020302020302020302020302020302020302020302020302020302020302020302020300A2020202D302E363138372020202D302E3035353320202020302E303030302043202020302020302020302020302020302020302020302020302020302020302020302020300A2020202D312E3033313320202020302E3635393220202020302E303030302043202020302020302020302020302020302020302020302020302020302020302020302020300A20202020312E383536322020202D312E3438343220202020302E30303030204F202020302020302020302020302020302020302020302020302020302020302020302020300A2020202D312E303331332020202D302E3736393720202020302E303030302043202020302020302020302020302020302020302020302020302020302020302020302020300A2020202D302E363138382020202D312E3438343220202020302E303030302043202020302020302020302020302020302020302020302020302020302020302020302020300A2020202D312E3835363320202020302E3635393220202020302E303030302053692020302020302020302020302020302020302020302020302020302020302020302020300A2020202D312E383536332020202D302E3136353820202020302E303030302043202020302020302020302020302020302020302020302020302020302020302020302020300A2020202D322E3638313320202020302E3635393220202020302E303030302043202020302020302020302020302020302020302020302020302020302020302020302020300A2020202D312E3835363320202020312E3438343220202020302E303030302043202020302020302020302020302020302020302020302020302020302020302020302020300A2020312020322020312020302020202020200A2020322020332020312020302020202020200A2020332020342020312020302020202020200A2020342020352020312020302020202020200A2020352020362020312020302020202020200A2020362020372020312020302020202020200A2020332020382020322020302020202020200A2020392031302020322020302020202020200A2020362020392020312020302020202020200A2031312031322020312020312020202020200A2031312031332020312020302020202020200A2031312031342020312020312020202020200A2020372031312020312020302020202020200A4D2020454E44
Contributor: HISAHIRO HAGIWARA, INSTITUTE FOR CHEMICAL REACTION SCIENCE TOHOKU UNIV.
InstType: EI
InstName: JEOL JMS-DX-300
IoniMethod: _ENERGY 70 eV
IonPolarity: pos
Date: 2010-10-09 19:48:36+02:00
Num Peaks: 40
41 30 43 41 45 75 55 31 57 236 58 22 59 47 67 20 68 32 69 47 
73 999 74 84 75 198 77 56 79 29 81 47 85 30 91 59 93 34 95 30 
96 30 98 21 99 51 107 66 109 62 111 40 112 76 113 53 121 61 127 73 
129 36 131 68 141 54 144 54 147 71 149 81 155 69 157 102 169 117 183 62 
