Name: SPIRO(3.5)SILANONANE
MW: 140
Formula: C8H16Si
Synonym: MassBank: JP011602
Synonym: SPIRO(3.5)SILANONANE
Structure: 310A32340A303535355F535049524F28332E352953494C414E4F4E414E452E6D6F6C0A20204368656D447261773038323031303035333732440A2020392031302020302020302020302020302020302020302020302020303939392056323030300A2020202D302E383235302020202D302E3538333420202020302E303030302043202020302020302020302020302020302020302020302020302020302020302020302020300A2020202D312E3430383420202020302E3030303020202020302E303030302043202020302020302020302020302020302020302020302020302020302020302020302020300A2020202D302E3832353020202020302E3538333420202020302E303030302043202020302020302020302020302020302020302020302020302020302020302020302020300A2020202D302E3234313620202020302E3030303020202020302E303030302043202020302020302020302020302020302020302020302020302020302020302020302020300A20202020302E3137303920202020302E3731343520202020302E303030302043202020302020302020302020302020302020302020302020302020302020302020302020300A20202020302E3939353920202020302E3731343520202020302E303030302053692020302020302020302020302020302020302020302020302020302020302020302020300A20202020312E3430383420202020302E3030303020202020302E303030302043202020302020302020302020302020302020302020302020302020302020302020302020300A20202020302E393935392020202D302E3731343520202020302E303030302043202020302020302020302020302020302020302020302020302020302020302020302020300A20202020302E313730392020202D302E3731343520202020302E303030302043202020302020302020302020302020302020302020302020302020302020302020302020300A2020312020322020312020302020202020200A2020322020332020312020302020202020200A2020332020342020312020302020202020200A2020342020352020312020302020202020200A2020352020362020312020302020202020200A2020362020372020312020302020202020200A2020372020382020312020302020202020200A2020382020392020312020302020202020200A2020312020342020312020302020202020200A2020342020392020312020302020202020200A4D2020454E44
Contributor: YAMAMOTO M, DEP. CHEMISTRY, FAC. SCIENCE, NARA WOMEN'S UNIV.
InstType: EI
InstName: HITACHI RMU-6M
IoniMethod: _ENERGY 70 eV
IonPolarity: pos
Date: 2010-10-09 19:48:36+02:00
Num Peaks: 45
27 40 28 46 29 55 31 25 32 12 39 49 41 53 42 117 43 329 44 60 
45 80 53 50 54 23 55 169 56 113 57 72 58 68 59 30 66 18 67 47 
68 16 69 100 70 112 71 152 72 20 81 28 82 70 83 252 84 999 85 122 
86 42 95 29 96 14 97 194 98 79 99 109 100 24 110 16 111 60 112 899 
113 119 114 38 140 438 141 68 142 23 
