Name: MassBank: JP011503
MW: 382
Formula: C20H18N2O4S
Synonym: MassBank: JP011503
Synonym: 3,4-DI(4-ETHOXYBENZOYL)-1,2,5-THIADIAZOLE
Structure: 332C342D444928342D4554484F585942454E5A4F594C292D312C322C352D544849414449415A4F4C452E6D6F6C0A20204368656D447261773032323131303232313632440A2032372032392020302020302020302020302020302020302020302020303939392056323030300A2020202D302E323330342020202D312E3336373320202020302E303030302053202020302020302020302020302020302020302020302020302020302020302020302020300A2020202D302E383433352020202D302E3831353320202020302E30303030204E202020302020302020302020302020302020302020302020302020302020302020302020300A2020202D302E353038302020202D302E3036313620202020302E303030302043202020302020302020302020302020302020302020302020302020302020302020302020300A20202020302E333132352020202D302E3134373920202020302E303030302043202020302020302020302020302020302020302020302020302020302020302020302020300A20202020302E343834302020202D302E3935343820202020302E30303030204E202020302020302020302020302020302020302020302020302020302020302020302020300A20202020302E3836343620202020302E3436353220202020302E303030302043202020302020302020302020302020302020302020302020302020302020302020302020300A20202020312E3637393420202020302E3333363220202020302E303030302043202020302020302020302020302020302020302020302020302020302020302020302020300A20202020312E393735312020202D302E3433343020202020302E303030302043202020302020302020302020302020302020302020302020302020302020302020302020300A20202020322E373839392020202D302E3536333120202020302E303030302043202020302020302020302020302020302020302020302020302020302020302020302020300A20202020332E3330393120202020302E3037383120202020302E303030302043202020302020302020302020302020302020302020302020302020302020302020302020300A20202020332E3031333420202020302E3834383320202020302E303030302043202020302020302020302020302020302020302020302020302020302020302020302020300A20202020322E3139383620202020302E3937373320202020302E303030302043202020302020302020302020302020302020302020302020302020302020302020302020300A20202020302E3536383920202020312E3233353420202020302E30303030204F202020302020302020302020302020302020302020302020302020302020302020302020300A20202020342E313233392020202D302E3035313020202020302E30303030204F202020302020302020302020302020302020302020302020302020302020302020302020300A20202020342E3634333120202020302E3539303220202020302E303030302043202020302020302020302020302020302020302020302020302020302020302020302020300A20202020352E3435383020202020302E3436313120202020302E303030302043202020302020302020302020302020302020302020302020302020302020302020302020300A2020202D302E3932303520202020302E3635323920202020302E303030302043202020302020302020302020302020302020302020302020302020302020302020302020300A2020202D312E3734353520202020302E3635323920202020302E303030302043202020302020302020302020302020302020302020302020302020302020302020302020300A2020202D322E313538302020202D302E3036313620202020302E303030302043202020302020302020302020302020302020302020302020302020302020302020302020300A2020202D322E393833302020202D302E3036313620202020302E303030302043202020302020302020302020302020302020302020302020302020302020302020302020300A2020202D332E3339353520202020302E3635323920202020302E303030302043202020302020302020302020302020302020302020302020302020302020302020302020300A2020202D322E3938333020202020312E3336373320202020302E303030302043202020302020302020302020302020302020302020302020302020302020302020302020300A2020202D322E3135383020202020312E3336373320202020302E303030302043202020302020302020302020302020302020302020302020302020302020302020302020300A2020202D302E3530383020202020312E3336373320202020302E30303030204F202020302020302020302020302020302020302020302020302020302020302020302020300A2020202D342E3232303520202020302E3635323920202020302E30303030204F202020302020302020302020302020302020302020302020302020302020302020302020300A2020202D342E363333302020202D302E3036313620202020302E303030302043202020302020302020302020302020302020302020302020302020302020302020302020300A2020202D352E343538302020202D302E3036313620202020302E303030302043202020302020302020302020302020302020302020302020302020302020302020302020300A2020312020322020312020302020202020200A2020322020332020322020302020202020200A2020332020342020312020302020202020200A2020342020352020322020302020202020200A2020312020352020312020302020202020200A2020362020372020312020302020202020200A2020372020382020312020302020202020200A2020382020392020322020302020202020200A2020392031302020312020302020202020200A2031302031312020322020302020202020200A2031312031322020312020302020202020200A2020372031322020322020302020202020200A2020362031332020322020302020202020200A2031352031362020312020302020202020200A2031342031352020312020302020202020200A2031302031342020312020302020202020200A2020342020362020312020302020202020200A2031372031382020312020302020202020200A2031382031392020312020302020202020200A2031392032302020322020302020202020200A2032302032312020312020302020202020200A2032312032322020322020302020202020200A2032322032332020312020302020202020200A2031382032332020322020302020202020200A2031372032342020322020302020202020200A2032362032372020312020302020202020200A2032352032362020312020302020202020200A2032312032352020312020302020202020200A2020332031372020312020302020202020200A4D2020454E44
Contributor: TASHIRO M, INST. OF ADVANCED MATERIAL STUDY KYUSHU UNIV.
InstType: EI
InstName: JEOL JMS-01-SG-2
IoniMethod: _ENERGY 75 eV
IonPolarity: pos
Date: 2010-10-09 19:48:36+02:00
Num Peaks: 30
34 85 39 229 41 260 42 88 43 247 44 602 45 204 50 102 51 89 55 171 
56 103 57 136 63 102 65 222 69 388 77 107 81 81 91 121 93 210 105 130 
119 99 121 852 122 86 147 250 149 999 150 131 169 217 175 110 382 596 383 130 
