Name: MassBank: JP010254
MW: 328
Formula: C19H20O5
Synonym: MassBank: JP010254
Synonym: DIMETHYL TRANS-4-((E)-CINNAMOYL)-4-CYCLOHEXENE-1,2-DICARBOXYLATE
Synonym: DIMETHYL (1S,2S)-4-((E)-CINNAMOYL)-4-CYCLOHEXENE-1,2-DICARBOXYLATE
Structure: 44494D455448594C205452414E532D342D282845292D43494E4E414D4F594C292D342D4359434C4F484558454E452D312C322D4449434152424F58594C4154452E6D6F6C0A20204368656D447261773039323231303031303732440A2032362032372020302020302020302020302020302020302020302020303939392056323030300A2020202D322E303033312020202D302E3132313420202020302E303030302043202020302020302020302020302020302020302020302020302020302020302020302020300A2020202D312E323838362020202D302E3533333920202020302E303030302043202020302020302020302020302020302020302020302020302020302020302020302020300A2020202D302E353734322020202D302E3132313420202020302E303030302043202020302020302020302020302020302020302020302020302020302020302020302020300A2020202D302E3537343220202020302E3730333620202020302E303030302043202020302020302020302020302020302020302020302020302020302020302020302020300A2020202D312E3238383620202020312E3131363120202020302E303030302043202020302020302020302020302020302020302020302020302020302020302020302020300A2020202D322E3030333120202020302E3730333620202020302E303030302043202020302020302020302020302020302020302020302020302020302020302020302020300A2020202D322E333639392020202D312E3132393220202020302E303030302043202020302020302020302020302020302020302020302020302020302020302020302020300A2020202D312E383339362020202D312E3736313220202020302E30303030204F202020302020302020302020302020302020302020302020302020302020302020302020300A2020202D332E313832342020202D312E3237323520202020302E30303030204F202020302020302020302020302020302020302020302020302020302020302020302020300A2020202D302E373538332020202D312E3136353920202020302E303030302043202020302020302020302020302020302020302020302020302020302020302020302020300A2020202D312E303430352020202D312E3934313120202020302E30303030204F202020302020302020302020302020302020302020302020302020302020302020302020300A20202020302E303534312020202D312E3032323620202020302E30303030204F202020302020302020302020302020302020302020302020302020302020302020302020300A20202020302E3134303320202020312E3131363120202020302E303030302043202020302020302020302020302020302020302020302020302020302020302020302020300A20202020302E3835343820202020302E3730333620202020302E303030302043202020302020302020302020302020302020302020302020302020302020302020302020300A20202020312E3536393320202020312E3131363120202020302E303030302043202020302020302020302020302020302020302020302020302020302020302020302020300A20202020322E3238333720202020302E3730333620202020302E303030302043202020302020302020302020302020302020302020302020302020302020302020302020300A20202020322E323833372020202D302E3132313420202020302E303030302043202020302020302020302020302020302020302020302020302020302020302020302020300A20202020322E393938322020202D302E3533333920202020302E303030302043202020302020302020302020302020302020302020302020302020302020302020302020300A20202020332E373132372020202D302E3132313420202020302E303030302043202020302020302020302020302020302020302020302020302020302020302020302020300A20202020332E3731323720202020302E3730333620202020302E303030302043202020302020302020302020302020302020302020302020302020302020302020302020300A20202020322E3939383220202020312E3131363120202020302E303030302043202020302020302020302020302020302020302020302020302020302020302020302020300A20202020302E3134303320202020312E3934313120202020302E30303030204F202020302020302020302020302020302020302020302020302020302020302020302020300A2020202D332E373132372020202D302E3634303520202020302E303030302043202020302020302020302020302020302020302020302020302020302020302020302020300A20202020302E333336332020202D302E3234373420202020302E303030302043202020302020302020302020302020302020302020302020302020302020302020302020300A2020202D322E3831353620202020302E3032313920202020302E303030302048202020302020302020302020302020302020302020302020302020302020302020302020300A2020202D312E383138392020202D312E3136353920202020302E303030302048202020302020302020302020302020302020302020302020302020302020302020302020300A2020312020322020312020302020202020200A2020322020332020312020302020202020200A2020332020342020312020302020202020200A2020342020352020322020302020202020200A2020352020362020312020302020202020200A2020312020362020312020302020202020200A2020372020382020322020302020202020200A2020372020392020312020302020202020200A2020312020372020312020312020202020200A2031302031312020322020302020202020200A2031302031322020312020302020202020200A2020322031302020312020362020202020200A2031332031342020312020302020202020200A2031342031352020322020302020202020200A2031352031362020312020302020202020200A2031362031372020312020302020202020200A2031372031382020322020302020202020200A2031382031392020312020302020202020200A2031392032302020322020302020202020200A2032302032312020312020302020202020200A2031362032312020322020302020202020200A2031332032322020322020302020202020200A2020342031332020312020302020202020200A2020392032332020312020302020202020200A2031322032342020312020302020202020200A2020312032352020312020362020202020200A2020322032362020312020312020202020200A4D2020454E44
Contributor: KANEMASA S, INST. OF ADVANCED MATERIAL STUDY KYUSHU UNIV.
InstType: EI
InstName: JEOL JMS-01-SG-2
IoniMethod: _ENERGY 75 eV
IonPolarity: pos
Date: 2010-10-09 19:48:36+02:00
Num Peaks: 30
43 130 51 66 59 144 77 377 78 100 79 70 91 101 102 74 103 520 104 77 
105 192 131 616 132 87 137 90 163 140 165 62 181 100 208 71 209 999 210 188 
236 70 237 60 253 125 267 61 268 535 269 188 296 487 297 246 328 249 329 60 
