Name: MassBank: JP011580
MW: 86
Formula: C4H10Si
Synonym: MassBank: JP011580
Synonym: SILACYCLOPENTANE (1,1-D2)
Structure: 310A32300A53494C414359434C4F50454E54414E452028312C312D4432292E6D6F6C0A20204368656D447261773038313231303036343632440A2020372020372020302020302020302020302020302020302020302020303939392056323030300A2020202D302E313937322020202D302E3136373820202020302E303030302053692020302020302020302020302020302020302020302020302020302020302020302020300A2020202D302E3238333520202020302E3635323720202020302E303030302043202020302020302020302020302020302020302020302020302020302020302020302020300A20202020302E3437303220202020302E3938383320202020302E303030302043202020302020302020302020302020302020302020302020302020302020302020302020300A20202020312E3032323220202020302E3337353220202020302E303030302043202020302020302020302020302020302020302020302020302020302020302020302020300A20202020302E363039372020202D302E3333393320202020302E303030302043202020302020302020302020302020302020302020302020302020302020302020302020300A2020202D302E323833352020202D302E3938383320202020302E303030302048202020312020302020302020302020302020302020302020302020302020302020302020300A2020202D312E303232322020202D302E3136373820202020302E303030302048202020312020302020302020302020302020302020302020302020302020302020302020300A2020312020322020312020302020202020200A2020322020332020312020302020202020200A2020332020342020312020302020202020200A2020342020352020312020302020202020200A2020312020352020312020302020202020200A2020312020362020312020302020202020200A2020312020372020312020302020202020200A4D202049534F202032202020362020203220202037202020320A4D2020454E44
Contributor: YAMAMOTO M, DEP. CHEMISTRY, FAC. SCIENCE, NARA WOMEN'S UNIV.
InstType: EI
InstName: HITACHI RMU-6M
IoniMethod: _ENERGY 70 eV
IonPolarity: pos
Date: 2010-10-09 19:48:36+02:00
Num Peaks: 39
26 14 27 56 28 79 29 70 30 50 31 29 32 47 33 28 39 47 40 11 
41 22 42 16 43 115 44 247 45 89 46 47 47 21 53 45 54 28 55 47 
56 61 57 73 58 152 59 398 60 999 61 96 62 40 66 10 67 12 72 17 
73 15 83 12 84 38 85 10 86 49 87 19 88 285 89 32 90 16 
