Name: MassBank: JP011986
MW: 172
Formula: C8H20Si2
Synonym: MassBank: JP011986
Synonym: 1,1,2,3,3-PENTAMETHYL-1,3-DISILACYCLOPENTANE
Structure: 312C312C322C332C332D50454E54414D455448594C2D312C332D444953494C414359434C4F50454E54414E452E6D6F6C0A20204368656D447261773130323330393031333232440A2031302031302020302020302020302020302020302020302020302020303939392056323030300A2020202D302E3430343520202020302E3732323720202020302E303030302053692020302020302020302020302020302020302020302020302020302020302020302020300A20202020302E3237393420202020302E3236313420202020302E303030302043202020302020302020302020302020302020302020302020302020302020302020302020300A20202020302E303532302020202D302E3533313720202020302E303030302053692020302020302020302020302020302020302020302020302020302020302020302020300A2020202D302E373732352020202D302E3536303520202020302E303030302043202020302020302020302020302020302020302020302020302020302020302020302020300A2020202D312E3035343720202020302E3231343820202020302E303030302043202020302020302020302020302020302020302020302020302020302020302020302020300A20202020302E383634352020202D302E3637343920202020302E303030302043202020302020302020302020302020302020302020302020302020302020302020302020300A2020202D302E303035352020202D312E3335343720202020302E303030302043202020302020302020302020302020302020302020302020302020302020302020302020300A20202020312E3035343720202020302E3534333520202020302E303030302043202020302020302020302020302020302020302020302020302020302020302020302020300A2020202D302E3937373620202020312E3331363120202020302E303030302043202020302020302020302020302020302020302020302020302020302020302020302020300A20202020302E3132353820202020312E3335343720202020302E303030302043202020302020302020302020302020302020302020302020302020302020302020302020300A2020312020322020312020302020202020200A2020322020332020312020302020202020200A2020332020342020312020302020202020200A2020342020352020312020302020202020200A2020312020352020312020302020202020200A2020332020362020312020362020202020200A2020332020372020312020312020202020200A2020322020382020312020302020202020200A2020312020392020312020362020202020200A2020312031302020312020312020202020200A4D2020454E44
Contributor: YAMAMOTO M, DEP. CHEMISTRY, FAC. SCIENCE, NARA WOMEN'S UNIV.
InstType: EI
InstName: HITACHI RMU-6M
IoniMethod: _ENERGY 20 eV
IonPolarity: pos
Date: 2010-10-09 19:48:36+02:00
Num Peaks: 30
58 26 59 84 71 20 72 11 73 134 83 22 85 127 86 46 87 21 97 409 
98 53 99 28 115 85 116 134 117 56 118 22 129 834 130 142 131 76 143 52 
144 334 145 79 146 37 157 999 158 189 159 93 160 22 172 916 173 178 174 85 
