Name: MassBank: JP010648
MW: 302
Formula: C21H34O
Synonym: MassBank: JP010648
Synonym: (1S,2E,7E,10R,11E)-10-METHOXYCEMBRA-2,4,7,11-TETRAENE
Structure: 2831532C32452C37452C3130522C313145292D31302D4D4554484F585943454D4252412D322C342C372C31312D5445545241454E452E6D6F6C0A20204368656D447261773130313930393134313832440A2032392032392020302020302020302020302020302020302020302020303939392056323030300A2020202D322E3234323220202020302E3130363120202020302E303030302043202020302020302020302020302020302020302020302020302020302020302020302020300A2020202D322E323432322020202D302E3731383920202020302E303030302043202020302020302020302020302020302020302020302020302020302020302020302020300A2020202D312E363538392020202D312E3330323220202020302E303030302043202020302020302020302020302020302020302020302020302020302020302020302020300A2020202D302E383333392020202D312E3330323220202020302E303030302043202020302020302020302020302020302020302020302020302020302020302020302020300A2020202D302E323530352020202D302E3731383920202020302E303030302043202020302020302020302020302020302020302020302020302020302020302020302020300A2020202D302E3235303520202020302E3130363120202020302E303030302043202020302020302020302020302020302020302020302020302020302020302020302020300A2020202D302E3833333920202020302E3638393520202020302E303030302043202020302020302020302020302020302020302020302020302020302020302020302020300A2020202D312E3635383920202020302E3638393520202020302E303030302043202020302020302020302020302020302020302020302020302020302020302020302020300A20202020302E333332382020202D312E3330323220202020302E303030302043202020302020302020302020302020302020302020302020302020302020302020302020300A20202020312E313537382020202D312E3330323220202020302E303030302043202020302020302020302020302020302020302020302020302020302020302020302020300A20202020312E373431322020202D302E3731383920202020302E303030302043202020302020302020302020302020302020302020302020302020302020302020302020300A20202020312E3734313220202020302E3130363120202020302E303030302043202020302020302020302020302020302020302020302020302020302020302020302020300A20202020312E3135373820202020302E3638393520202020302E303030302043202020302020302020302020302020302020302020302020302020302020302020302020300A20202020302E3333323820202020302E3638393520202020302E303030302043202020302020302020302020302020302020302020302020302020302020302020302020300A2020202D332E3030303320202020302E3431353620202020302E303030302048202020302020302020302020302020302020302020302020302020302020302020302020300A2020202D312E343431352020202D302E3531353120202020302E303030302048202020302020302020302020302020302020302020302020302020302020302020302020300A20202020302E303237392020202D322E3036393720202020302E303030302048202020302020302020302020302020302020302020302020302020302020302020302020300A20202020302E393436352020202D302E3130393920202020302E303030302048202020302020302020302020302020302020302020302020302020302020302020302020300A2020202D312E3635373520202020312E3530373820202020302E303030302048202020302020302020302020302020302020302020302020302020302020302020302020300A2020202D322E3234323220202020312E3237323820202020302E303030302043202020302020302020302020302020302020302020302020302020302020302020302020300A2020202D332E3033393120202020312E3035393320202020302E303030302043202020302020302020302020302020302020302020302020302020302020302020302020300A2020202D322E3032383720202020322E3036393720202020302E303030302043202020302020302020302020302020302020302020302020302020302020302020302020300A2020202D302E353134342020202D322E3036363720202020302E303030302048202020302020302020302020302020302020302020302020302020302020302020302020300A20202020322E3536363820202020302E3130363120202020302E303030302048202020302020302020302020302020302020302020302020302020302020302020302020300A20202020322E3332363320202020302E3638363420202020302E30303030204F202020302020302020302020302020302020302020302020302020302020302020302020300A20202020302E3031353920202020312E3435323220202020302E303030302043202020302020302020302020302020302020302020302020302020302020302020302020300A2020202D312E393735312020202D322E3036333620202020302E303030302043202020302020302020302020302020302020302020302020302020302020302020302020300A20202020302E393434302020202D302E3530343420202020302E303030302043202020302020302020302020302020302020302020302020302020302020302020302020300A20202020332E3033393120202020312E3130333020202020302E303030302043202020302020302020302020302020302020302020302020302020302020302020302020300A2020312020322020322020302020202020200A2020322020332020312020302020202020200A2020332020342020322020302020202020200A2020342020352020312020302020202020200A2020362020372020312020302020202020200A2020372020382020312020302020202020200A2020382020312020312020302020202020200A2020352020392020312020302020202020200A2020392031302020322020302020202020200A2031302031312020312020302020202020200A2031312031322020312020302020202020200A2031322031332020312020302020202020200A2031332031342020322020302020202020200A2031342020362020312020302020202020200A2020312031352020312020302020202020200A2020322031362020312020302020202020200A2020392031372020312020302020202020200A2031332031382020312020302020202020200A2020382031392020312020312020202020200A2020382032302020312020362020202020200A2032302032312020312020302020202020200A2032302032322020312020302020202020200A2020342032332020312020302020202020200A2031322032342020312020312020202020200A2031322032352020312020362020202020200A2031342032362020312020302020202020200A2020332032372020312020302020202020200A2031302032382020312020302020202020200A2032352032392020312020302020202020200A4D202053545920203120202031205355500A4D2020534C4220203120202031202020310A4D202053414C20202031202031202032360A4D202053424C20202031202031202032360A4D2020534D5420202031204D650A4D2020534256202020312032362020202D372E3534323220202020382E373631330A4D202053545920203120202032205355500A4D2020534C4220203120202032202020320A4D202053414C20202032202031202032370A4D202053424C20202032202031202032370A4D2020534D5420202032204D650A4D2020534256202020322032372020202D372E3534313520202020372E323337320A4D202053545920203120202033205355500A4D2020534C4220203120202033202020330A4D202053414C20202033202031202032380A4D202053424C20202033202031202032380A4D2020534D5420202033204D650A4D2020534256202020332032382020202D372E3433393120202020382E373936340A4D202053545920203120202034205355500A4D2020534C4220203120202034202020340A4D202053414C20202034202031202032390A4D202053424C20202034202031202032390A4D2020534D5420202034204D650A4D2020534256202020342032392020202D362E3531323520202020382E343135320A4D2020454E44
Contributor: EGUCHI S, FAC. OF SCIENCE, HIROSHIMA UNIV.
InstType: EI
InstName: HITACHI RMU-6L
IoniMethod: _ENERGY 70 eV
IonPolarity: pos
Date: 2010-10-09 19:48:36+02:00
Num Peaks: 120
41 582 42 32 43 253 45 14 51 24 53 191 54 23 55 47 56 32 57 53 
59 52 65 9 66 31 67 209 68 45 69 28 71 81 73 70 77 250 78 6 
79 328 80 115 81 437 82 5 83 265 84 26 85 459 86 6 91 365 92 90 
93 372 94 8 95 154 96 38 97 128 98 58 99 133 103 40 105 366 106 12 
107 342 108 93 109 132 110 7 111 999 112 113 115 46 117 8 118 38 119 304 
120 208 121 18 122 82 123 242 124 70 125 3 129 46 131 142 132 103 133 29 
134 104 135 139 136 67 137 14 143 40 145 161 146 94 147 14 148 39 149 93 
150 37 151 6 157 67 159 161 160 43 161 12 162 34 163 79 164 57 165 5 
166 36 171 62 173 47 175 7 177 49 178 71 179 57 180 2 185 54 186 37 
187 82 188 4 189 143 190 97 191 88 193 11 199 36 201 124 202 71 203 5 
215 80 217 28 219 67 227 20 228 48 229 22 231 25 233 7 234 71 244 12 
255 75 256 2 259 75 260 18 270 172 271 6 287 41 288 11 302 196 303 51 
