Name: THIOSEMICARBAZIDE
CAS: 79-19-6
MW: 91
Formula: CH5N3S
Synonym: MassBank: JP011294
Synonym: THIOSEMICARBAZIDE
Structure: 310A31340A303339345F5448494F53454D4943415242415A4944452E6D6F6C0A20204368656D447261773038323031303032333732440A2020352020342020302020302020302020302020302020302020302020303939392056323030300A2020202D312E303731362020202D302E3230363220202020302E30303030204E202020302020302020302020302020302020302020302020302020302020302020302020300A2020202D302E333537322020202D302E3631383720202020302E30303030204E202020302020302020302020302020302020302020302020302020302020302020302020300A20202020302E333537322020202D302E3230363220202020302E303030302043202020302020302020302020302020302020302020302020302020302020302020302020300A20202020302E3335373220202020302E3631383720202020302E303030302053202020302020302020302020302020302020302020302020302020302020302020302020300A20202020312E303731362020202D302E3631383720202020302E30303030204E202020302020302020302020302020302020302020302020302020302020302020302020300A2020312020322020312020302020202020200A2020322020332020342020302020202020200A2020332020342020342020302020202020200A2020332020352020342020302020202020200A4D2020454E44
Contributor: YAMAMOTO M, DEP. CHEMISTRY, FAC. SCIENCE, NARA WOMEN'S UNIV.
InstType: EI
InstName: HITACHI M-2500
IoniMethod: _ENERGY 70 eV
IonPolarity: pos
Date: 2010-10-09 19:48:36+02:00
Num Peaks: 39
13 13 14 21 15 14 16 49 17 192 18 563 20 45 26 32 27 85 28 400 
29 103 30 42 31 219 32 551 33 66 34 38 36 10 39 12 41 40 42 150 
43 287 44 90 45 63 46 32 47 46 48 37 57 20 58 48 59 294 60 624 
61 132 62 35 63 11 64 36 74 34 76 39 91 999 92 34 93 50 
