Name: MassBank: JP011809
MW: 292
Formula: C14H16N2O5
Synonym: MassBank: JP011809
Synonym: METHYL 2-(N-((4S,5R)-4-METHYL-5-PHENYL-2-OXAZOLIDINONE-3-CARBAMOYL))AMINOACETATE
Structure: 313131305F4D455448594C20322D284E2D282834532C3552292D342D4D455448594C2D352D5048454E594C2D322D4F58415A4F4C4944494E4F4E452D332D43415242414D4F594C2929414D494E4F414345544154452E6D6F6C0A20204368656D447261773130323031303230323232440A2032312032322020302020302020302020302020302020302020302020303939392056323030300A20202020322E3636393720202020302E3530333320202020302E303030302043202020302020302020302020302020302020302020302020302020302020302020302020300A20202020312E3931363020202020302E3136373820202020302E303030302043202020302020302020302020302020302020302020302020302020302020302020302020300A20202020332E3333373120202020302E3031383320202020302E30303030204F202020302020302020302020302020302020302020302020302020302020302020302020300A20202020322E3735353920202020312E3332333720202020302E30303030204F202020302020302020302020302020302020302020302020302020302020302020302020300A20202020312E383239372020202D302E3635323720202020302E30303030204E202020302020302020302020302020302020302020302020302020302020302020302020300A20202020312E303736302020202D302E3938383220202020302E303030302043202020302020302020302020302020302020302020302020302020302020302020302020300A2020202D302E3337353720202020302E3537363620202020302E30303030204F202020302020302020302020302020302020302020302020302020302020302020302020300A20202020302E3430373520202020302E3332323720202020302E303030302043202020302020302020302020302020302020302020302020302020302020302020302020300A20202020302E343038362020202D302E3530333320202020302E30303030204E202020302020302020302020302020302020302020302020302020302020302020302020300A2020202D302E333737312020202D302E3735373320202020302E303030302043202020302020302020302020302020302020302020302020302020302020302020302020300A2020202D302E383632312020202D302E3038393420202020302E303030302043202020302020302020302020302020302020302020302020302020302020302020302020300A20202020312E3037343520202020302E3830383220202020302E30303030204F202020302020302020302020302020302020302020302020302020302020302020302020300A2020202D312E363837312020202D302E3038393420202020302E303030302043202020302020302020302020302020302020302020302020302020302020302020302020300A2020202D322E303939362020202D302E3830333420202020302E303030302043202020302020302020302020302020302020302020302020302020302020302020302020300A2020202D322E393234362020202D302E3830333420202020302E303030302043202020302020302020302020302020302020302020302020302020302020302020302020300A2020202D332E333337312020202D302E3038383920202020302E303030302043202020302020302020302020302020302020302020302020302020302020302020302020300A2020202D322E3932343620202020302E3632353620202020302E303030302043202020302020302020302020302020302020302020302020302020302020302020302020300A2020202D322E3039383820202020302E3632363020202020302E303030302043202020302020302020302020302020302020302020302020302020302020302020302020300A2020202D302E363332352020202D312E3534313820202020302E303030302043202020302020302020302020302020302020302020302020302020302020302020302020300A20202020322E3038383520202020312E3830383720202020302E303030302043202020302020302020302020302020302020302020302020302020302020302020302020300A20202020302E393839372020202D312E3830383720202020302E30303030204F202020302020302020302020302020302020302020302020302020302020302020302020300A2020312020322020312020302020202020200A2020312020332020322020302020202020200A2020312020342020312020302020202020200A2020352020362020312020302020202020200A2020372020382020312020302020202020200A2020382020392020312020302020202020200A2020392031302020312020302020202020200A2031302031312020312020302020202020200A2020372031312020312020302020202020200A2020382031322020322020302020202020200A2020362020392020312020302020202020200A2031332031342020312020302020202020200A2031342031352020322020302020202020200A2031352031362020312020302020202020200A2031362031372020322020302020202020200A2031372031382020312020302020202020200A2031332031382020322020302020202020200A2031312031332020312020312020202020200A2031302031392020312020312020202020200A2020342032302020312020302020202020200A2020362032312020322020302020202020200A2020352020322020312020302020202020200A4D2020454E44
Contributor: YOSHINORI Y, FAC. SCIENCE, TOHOKU UNIV.
InstType: EI
InstName: Unknown
IoniMethod: _ENERGY 20 eV
IonPolarity: pos
Date: 2010-10-09 19:48:36+02:00
Num Peaks: 22
142 44 145 10 146 14 159 30 160 573 161 68 162 19 176 25 177 82 189 149 
190 18 233 999 234 158 235 16 248 12 249 10 260 45 261 92 262 13 292 855 
293 141 294 18 
