Name: DIMETHYLPHENYLSILANE (D)
MW: 136
Formula: C8H12Si
Synonym: MassBank: JP011979
Synonym: DIMETHYLPHENYLSILANE (D)
Structure: 313134365F44494D455448594C5048454E594C53494C414E45202844292E6D6F6C0A20204368656D447261773130323031303230343432440A2031302031302020302020302020302020302020302020302020302020303939392056323030300A2020202D302E3832353020202020302E3030303020202020302E303030302053692020302020302020302020302020302020302020302020302020302020302020302020300A20202020302E3030303020202020302E3030303020202020302E303030302043202020302020302020302020302020302020302020302020302020302020302020302020300A20202020302E3431323620202020302E3731343420202020302E303030302043202020302020302020302020302020302020302020302020302020302020302020302020300A20202020312E3233373420202020302E3731343420202020302E303030302043202020302020302020302020302020302020302020302020302020302020302020302020300A20202020312E3635303020202020302E3030303020202020302E303030302043202020302020302020302020302020302020302020302020302020302020302020302020300A20202020312E323337352020202D302E3731343420202020302E303030302043202020302020302020302020302020302020302020302020302020302020302020302020300A20202020302E343132362020202D302E3731343420202020302E303030302043202020302020302020302020302020302020302020302020302020302020302020302020300A2020202D302E383235302020202D302E3832353020202020302E303030302043202020302020302020302020302020302020302020302020302020302020302020302020300A2020202D302E3832353020202020302E3832353020202020302E303030302043202020302020302020302020302020302020302020302020302020302020302020302020300A2020202D312E3635303020202020302E3030303020202020302E303030302048202020312020302020302020302020302020302020302020302020302020302020302020300A2020322020332020312020302020202020200A2020332020342020322020302020202020200A2020342020352020312020302020202020200A2020352020362020322020302020202020200A2020362020372020312020302020202020200A2020322020372020322020302020202020200A2020312020322020312020302020202020200A2020312020382020312020302020202020200A2020312020392020312020302020202020200A2020312031302020312020302020202020200A4D202049534F20203120203130202020320A4D2020454E44
Contributor: YAMAMOTO M, DEP. CHEMISTRY, FAC. SCIENCE, NARA WOMEN'S UNIV.
InstType: EI
InstName: HITACHI RMU-6M
IoniMethod: _ENERGY 20 eV
IonPolarity: pos
Date: 2010-10-09 19:48:36+02:00
Num Peaks: 19
43 112 44 27 58 671 59 61 60 34 96 19 105 34 106 19 107 19 120 39 
121 15 122 999 123 146 124 116 135 107 136 107 137 539 138 80 139 27 
