Name: MassBank: JP012039
MW: 102
Formula: C5H14Si
Synonym: MassBank: JP012039
Synonym: BUTYLMETHYLSILANE (6,6,6-D3)
Structure: 310A32330A425554594C4D455448594C53494C414E452028362C362C362D4433292E6D6F6C0A20204368656D447261773039303631303034343532440A2020392020382020302020302020302020302020302020302020302020303939392056323030300A2020202D312E3233373520202020302E3330323020202020302E303030302043202020302020302020302020302020302020302020302020302020302020302020302020300A2020202D322E3036323520202020302E3330323020202020302E303030302048202020312020302020302020302020302020302020302020302020302020302020302020300A2020202D312E3233373520202020312E3132373020202020302E303030302048202020312020302020302020302020302020302020302020302020302020302020302020300A2020202D302E3431323520202020302E3330323020202020302E303030302053692020302020302020302020302020302020302020302020302020302020302020302020300A2020202D312E323337352020202D302E3532333020202020302E303030302048202020312020302020302020302020302020302020302020302020302020302020302020300A20202020302E303030302020202D302E3431323520202020302E303030302043202020302020302020302020302020302020302020302020302020302020302020302020300A20202020302E383235302020202D302E3431323520202020302E303030302043202020302020302020302020302020302020302020302020302020302020302020302020300A20202020312E323337352020202D312E3132373020202020302E303030302043202020302020302020302020302020302020302020302020302020302020302020302020300A20202020322E303632352020202D312E3132373020202020302E303030302043202020302020302020302020302020302020302020302020302020302020302020302020300A2020312020322020312020302020202020200A2020312020332020312020302020202020200A2020312020342020312020302020202020200A2020312020352020312020302020202020200A2020342020362020312020302020202020200A2020362020372020312020302020202020200A2020372020382020312020302020202020200A2020382020392020312020302020202020200A4D202049534F2020332020203220202032202020332020203220202035202020320A4D2020454E44
Contributor: YAMAMOTO M, DEP. CHEMISTRY, FAC. SCIENCE, NARA WOMEN'S UNIV.
InstType: EI
InstName: HITACHI RMU-6M
IoniMethod: _ENERGY 70 eV
IonPolarity: pos
Date: 2010-10-09 19:48:36+02:00
Num Peaks: 42
27 51 28 71 29 76 30 47 31 76 32 57 39 38 40 30 41 45 42 56 
43 235 44 148 45 927 46 120 47 51 48 36 53 31 55 36 56 26 57 38 
58 111 59 253 60 81 61 72 62 172 63 25 69 38 71 43 72 35 73 999 
74 127 75 195 76 75 77 48 87 23 88 40 89 30 90 30 103 169 104 71 
105 70 106 23 
