Name: MassBank: JP011673
MW: 564
Formula: C34H44Si4
Synonym: MassBank: JP011673
Synonym: (Z)-1-(2-METHYL-2,2-DIPHENYL-1-(ORTHO-TOLYL)DISILANYL)-2-PHENYL-1,2-BIS(TRIMETHYLSILYLETHENE
Structure: 285A292D312D28322D4D455448594C2D322C322D44495048454E594C2D312D284F5254484F2D544F4C594C29444953494C414E594C292D322D5048454E594C2D312C322D424953285452494D455448594C53494C594C455448454E452E6D6F6C0A20204368656D447261773130323230393139343732440A2033372034302020302020302020302020302020302020302020302020303939392056323030300A2020202D312E3434333720202020302E3139313420202020302E303030302043202020302020302020302020302020302020302020302020302020302020302020302020300A2020202D302E3631383720202020302E3139313420202020302E303030302053692020302020302020302020302020302020302020302020302020302020302020302020300A20202020302E3230363320202020302E3139313420202020302E303030302053692020302020302020302020302020302020302020302020302020302020302020302020300A2020202D302E3631383720202020312E3031363420202020302E303030302043202020302020302020302020302020302020302020302020302020302020302020302020300A20202020302E363138382020202D302E3532333020202020302E303030302043202020302020302020302020302020302020302020302020302020302020302020302020300A20202020302E3631383820202020302E3930353920202020302E303030302043202020302020302020302020302020302020302020302020302020302020302020302020300A20202020312E343433382020202D302E3532333020202020302E303030302043202020302020302020302020302020302020302020302020302020302020302020302020300A20202020302E323036332020202D312E3233373520202020302E303030302053692020302020302020302020302020302020302020302020302020302020302020302020300A20202020312E3434333820202020302E3930353920202020302E303030302043202020302020302020302020302020302020302020302020302020302020302020302020300A20202020312E3835363320202020312E3632303420202020302E303030302043202020302020302020302020302020302020302020302020302020302020302020302020300A20202020312E3434333820202020322E3333343920202020302E303030302043202020302020302020302020302020302020302020302020302020302020302020302020300A20202020302E3631383820202020322E3333343920202020302E303030302043202020302020302020302020302020302020302020302020302020302020302020302020300A20202020302E3230363320202020312E3632303420202020302E303030302043202020302020302020302020302020302020302020302020302020302020302020302020300A2020202D312E3835363220202020302E3930353920202020302E303030302043202020302020302020302020302020302020302020302020302020302020302020302020300A2020202D322E3638313220202020302E3930353920202020302E303030302043202020302020302020302020302020302020302020302020302020302020302020302020300A2020202D332E3039333820202020302E3139313420202020302E303030302043202020302020302020302020302020302020302020302020302020302020302020302020300A2020202D322E363831322020202D302E3532333020202020302E303030302043202020302020302020302020302020302020302020302020302020302020302020302020300A2020202D312E383536322020202D302E3532333020202020302E303030302043202020302020302020302020302020302020302020302020302020302020302020302020300A20202020302E3039353720202020312E3432383920202020302E303030302043202020302020302020302020302020302020302020302020302020302020302020302020300A20202020302E3039353720202020322E3235333920202020302E303030302043202020302020302020302020302020302020302020302020302020302020302020302020300A2020202D302E3631383720202020322E3636363420202020302E303030302043202020302020302020302020302020302020302020302020302020302020302020302020300A2020202D312E3333333220202020322E3235333920202020302E303030302043202020302020302020302020302020302020302020302020302020302020302020302020300A2020202D312E3333333220202020312E3432383920202020302E303030302043202020302020302020302020302020302020302020302020302020302020302020302020300A20202020312E383536332020202D312E3233373520202020302E303030302043202020302020302020302020302020302020302020302020302020302020302020302020300A20202020312E3835363320202020302E3139313420202020302E303030302053692020302020302020302020302020302020302020302020302020302020302020302020300A20202020312E343433382020202D312E3935323020202020302E303030302043202020302020302020302020302020302020302020302020302020302020302020302020300A20202020312E383536332020202D322E3636363420202020302E303030302043202020302020302020302020302020302020302020302020302020302020302020302020300A20202020322E363831332020202D322E3636363420202020302E303030302043202020302020302020302020302020302020302020302020302020302020302020302020300A20202020332E303933382020202D312E3935323020202020302E303030302043202020302020302020302020302020302020302020302020302020302020302020302020300A20202020322E363831332020202D312E3233373520202020302E303030302043202020302020302020302020302020302020302020302020302020302020302020302020300A20202020322E3236383820202020302E3930353920202020302E303030302043202020302020302020302020302020302020302020302020302020302020302020302020300A20202020312E3134313820202020302E3630333920202020302E303030302043202020302020302020302020302020302020302020302020302020302020302020302020300A20202020322E353730372020202D302E3232313120202020302E303030302043202020302020302020302020302020302020302020302020302020302020302020302020300A2020202D302E323036322020202D312E3935323020202020302E303030302043202020302020302020302020302020302020302020302020302020302020302020302020300A2020202D302E363138372020202D312E3233373520202020302E303030302043202020302020302020302020302020302020302020302020302020302020302020302020300A20202020302E393230372020202D312E3635303020202020302E303030302043202020302020302020302020302020302020302020302020302020302020302020302020300A2020202D302E363138372020202D302E3633333620202020302E303030302043202020302020302020302020302020302020302020302020302020302020302020302020300A2020312020322020312020302020202020200A2020322020332020312020302020202020200A2020322020342020312020302020202020200A2020332020352020312020302020202020200A2020332020362020312020302020202020200A2020352020372020322020302020202020200A2020352020382020312020302020202020200A2020362020392020322020302020202020200A2020392031302020312020302020202020200A2031302031312020322020302020202020200A2031312031322020312020302020202020200A2031322031332020322020302020202020200A2031332020362020312020302020202020200A2020312031342020322020302020202020200A2031342031352020312020302020202020200A2031352031362020322020302020202020200A2031362031372020312020302020202020200A2031372031382020322020302020202020200A2031382020312020312020302020202020200A2020342031392020322020302020202020200A2031392032302020312020302020202020200A2032302032312020322020302020202020200A2032312032322020312020302020202020200A2032322032332020322020302020202020200A2032332020342020312020302020202020200A2020372032342020312020302020202020200A2020372032352020312020302020202020200A2032342032362020322020302020202020200A2032362032372020312020302020202020200A2032372032382020322020302020202020200A2032382032392020312020302020202020200A2032392033302020322020302020202020200A2033302032342020312020302020202020200A2032352033312020312020302020202020200A2032352033322020312020312020202020200A2032352033332020312020312020202020200A2020382033342020312020302020202020200A2020382033352020312020312020202020200A2020382033362020312020312020202020200A2020322033372020312020302020202020200A4D202053545920203120202031205355500A4D2020534C4220203120202031202020310A4D202053414C20202031202031202033370A4D202053424C20202031202031202034300A4D2020534D5420202031204D650A4D2020534256202020312034302020202D372E3833373520202020362E323334360A4D2020454E44
Contributor: FAC. TECHNOLOGY, HIROSHIMA UNIV.
InstType: EI
InstName: SHIMADZU QP-1000
IoniMethod: _ENERGY 20 eV
IonPolarity: pos
Date: 2010-10-09 19:48:36+02:00
Num Peaks: 115
280 53 281 21 283 32 284 43 292 11 293 181 294 85 295 96 296 32 297 11 
298 999 299 457 300 128 301 32 307 32 308 11 309 138 310 32 316 21 317 64 
318 21 321 21 322 53 323 53 324 21 331 74 332 128 333 32 335 11 336 85 
337 191 338 74 339 32 340 43 341 64 342 21 350 32 351 202 352 96 353 106 
354 32 355 85 356 21 357 53 358 21 360 64 361 53 362 11 365 32 366 181 
367 170 368 117 369 53 370 32 371 149 372 43 373 11 385 11 393 85 394 64 
395 32 397 21 398 32 399 117 400 85 401 32 402 11 403 32 408 11 411 11 
412 53 413 245 414 128 415 223 416 96 417 53 418 74 419 32 427 32 428 11 
429 181 430 85 431 32 432 11 433 11 434 11 453 11 470 32 471 11 472 351 
473 170 474 85 475 32 476 21 481 11 484 21 486 372 487 191 488 106 489 64 
490 32 491 181 492 96 493 32 494 11 496 11 529 11 544 10 549 99 55 62 
551 27 552 11 564 27 565 17 566 10 
