Name: ISOPROPYL 2-(N-((4S)-4-(1-METHYLETHYL)-2-OXAZOLIDINONE-3-CARBAMOYL)(AMINOACETATE
MW: 272
Formula: C12H20N2O5
Synonym: MassBank: JP011812
Synonym: ISOPROPYL 2-(N-((4S)-4-(1-METHYLETHYL)-2-OXAZOLIDINONE-3-CARBAMOYL)(AMINOACETATE
Structure: 313131335F49534F50524F50594C20322D284E2D28283453292D342D28312D4D455448594C455448594C292D322D4F58415A4F4C4944494E4F4E452D332D43415242414D4F594C2928414D494E4F414345544154452E6D6F6C0A20204368656D447261773130323031303230323532440A2031392031392020302020302020302020302020302020302020302020303939392056323030300A20202020312E3435393920202020302E3334353020202020302E303030302043202020302020302020302020302020302020302020302020302020302020302020302020300A20202020312E3034373420202020312E3035393520202020302E303030302043202020302020302020302020302020302020302020302020302020302020302020302020300A20202020322E3238343920202020302E3334353020202020302E30303030204F202020302020302020302020302020302020302020302020302020302020302020302020300A20202020312E303437342020202D302E3336393420202020302E30303030204F202020302020302020302020302020302020302020302020302020302020302020302020300A20202020302E3232323420202020312E3035393520202020302E30303030204E202020302020302020302020302020302020302020302020302020302020302020302020300A2020202D322E3238333620202020302E3735383020202020302E30303030204F202020302020302020302020302020302020302020302020302020302020302020302020300A2020202D312E3530303320202020312E3031333620202020302E303030302043202020302020302020302020302020302020302020302020302020302020302020302020300A2020202D312E3031353120202020302E3334353020202020302E30303030204E202020302020302020302020302020302020302020302020302020302020302020302020300A2020202D312E353030332020202D302E3332313320202020302E303030302043202020302020302020302020302020302020302020302020302020302020302020302020300A2020202D322E323834392020202D302E3036363320202020302E303030302043202020302020302020302020302020302020302020302020302020302020302020302020300A2020202D312E3234353720202020312E3739383420202020302E30303030204F202020302020302020302020302020302020302020302020302020302020302020302020300A2020202D312E323435362020202D312E3130363020202020302E303030302043202020302020302020302020302020302020302020302020302020302020302020302020300A2020202D302E343438382020202D312E3331393520202020302E303030302043202020302020302020302020302020302020302020302020302020302020302020302020300A2020202D312E383239302020202D312E3638393420202020302E303030302043202020302020302020302020302020302020302020302020302020302020302020302020300A20202020312E343539392020202D312E3038333920202020302E303030302043202020302020302020302020302020302020302020302020302020302020302020302020300A2020202D302E3139303120202020302E3334353020202020302E303030302043202020302020302020302020302020302020302020302020302020302020302020302020300A20202020302E323232342020202D302E3336393420202020302E30303030204F202020302020302020302020302020302020302020302020302020302020302020302020300A20202020312E303437342020202D312E3739383420202020302E303030302043202020302020302020302020302020302020302020302020302020302020302020302020300A20202020322E323834392020202D312E3038333920202020302E303030302043202020302020302020302020302020302020302020302020302020302020302020302020300A2020312020322020312020302020202020200A2020312020332020322020302020202020200A2020312020342020312020302020202020200A2020362020372020312020302020202020200A2020372020382020312020302020202020200A2020382020392020312020302020202020200A2020392031302020312020302020202020200A2020362031302020312020302020202020200A2020372031312020322020302020202020200A2031322031332020312020302020202020200A2031322031342020312020302020202020200A2020392031322020312020312020202020200A2020342031352020312020302020202020200A2020382031362020312020302020202020200A2020352031362020312020302020202020200A2031362031372020322020302020202020200A2031352031382020312020302020202020200A2031352031392020312020302020202020200A2020352020322020312020302020202020200A4D2020454E44
Contributor: YOSHINORI Y, FAC. SCIENCE, TOHOKU UNIV.
InstType: EI
InstName: Unknown
IoniMethod: _ENERGY 20 eV
IonPolarity: pos
Date: 2010-10-09 19:48:36+02:00
Num Peaks: 14
102 390 112 19 116 473 117 131 129 154 144 94 162 16 175 10 185 999 186 114 
203 49 213 100 272 206 273 10 
