Name: DIMETHYLPHENYLSILANE
MW: 136
Formula: C8H12Si
Synonym: MassBank: JP011609
Synonym: DIMETHYLPHENYLSILANE
Structure: 310A32330A44494D455448594C5048454E594C53494C414E452E6D6F6C0A20204368656D447261773130313831303137323932440A2020392020392020302020302020302020302020302020302020302020303939392056323030300A2020202D312E303331322020202D302E3030303020202020302E303030302053692020302020302020302020302020302020302020302020302020302020302020302020300A2020202D302E323036332020202D302E3030303020202020302E303030302043202020302020302020302020302020302020302020302020302020302020302020302020300A20202020302E3230363320202020302E3731343520202020302E303030302043202020302020302020302020302020302020302020302020302020302020302020302020300A20202020312E3033313220202020302E3731343520202020302E303030302043202020302020302020302020302020302020302020302020302020302020302020302020300A20202020312E343433382020202D302E3030303020202020302E303030302043202020302020302020302020302020302020302020302020302020302020302020302020300A20202020312E303331332020202D302E3731343520202020302E303030302043202020302020302020302020302020302020302020302020302020302020302020302020300A20202020302E323036332020202D302E3731343520202020302E303030302043202020302020302020302020302020302020302020302020302020302020302020302020300A2020202D312E343433382020202D302E3731343520202020302E303030302043202020302020302020302020302020302020302020302020302020302020302020302020300A2020202D312E3434333820202020302E3731343520202020302E303030302043202020302020302020302020302020302020302020302020302020302020302020302020300A2020322020332020312020302020202020200A2020332020342020322020302020202020200A2020342020352020312020302020202020200A2020352020362020322020302020202020200A2020362020372020312020302020202020200A2020322020372020322020302020202020200A2020312020322020312020302020202020200A2020312020382020312020302020202020200A2020312020392020312020302020202020200A4D2020454E44
Contributor: YAMAMOTO M, DEP. CHEMISTRY, FAC. SCIENCE, NARA WOMEN'S UNIV.
InstType: EI
InstName: HITACHI RMU-6M
IoniMethod: _ENERGY 70 eV
IonPolarity: pos
Date: 2010-10-09 19:48:36+02:00
Num Peaks: 43
27 15 28 34 29 39 31 25 39 34 42 20 43 305 44 25 45 20 50 25 
51 49 53 143 54 20 55 34 58 601 59 84 60 17 65 17 66 30 67 49 
69 44 77 25 78 15 79 59 81 20 91 39 93 49 95 34 103 20 105 182 
106 30 107 39 117 12 119 49 120 44 121 999 122 133 123 44 134 12 135 266 
136 462 137 69 138 20 
