Name: MassBank: JP011023
MW: 361
Formula: C12H12Br2O3
Synonym: MassBank: JP011023
Synonym: 2-ACETOXY-5,7-DIBROMO-4-ISOPROPYLTROPONE
Structure: 322D414345544F58592D352C372D444942524F4D4F2D342D49534F50524F50594C54524F504F4E452E6D6F6C0A20204368656D447261773132323130393231353132440A2031372031372020302020302020302020302020302020302020302020303939392056323030300A2020202D312E353939322020202D302E3235353520202020302E30303030204F202020302020302020302020302020302020302020302020302020302020302020302020300A2020202D302E373736352020202D302E3139333920202020302E303030302043202020302020302020302020302020302020302020302020302020302020302020302020300A2020202D302E333634302020202D302E3930383420202020302E303030302043202020302020302020302020302020302020302020302020302020302020302020302020300A20202020302E343632352020202D312E3034323420202020302E303030302043202020302020302020302020302020302020302020302020302020302020302020302020300A20202020312E303435392020202D302E3435393120202020302E303030302043202020302020302020302020302020302020302020302020302020302020302020302020300A20202020302E3939343920202020302E3335323520202020302E303030302043202020302020302020302020302020302020302020302020302020302020302020302020300A20202020302E3331333320202020302E3831373320202020302E303030302043202020302020302020302020302020302020302020302020302020302020302020302020300A2020202D302E3436333920202020302E3538343820202020302E303030302043202020302020302020302020302020302020302020302020302020302020302020302020300A20202020312E3730393420202020302E3736353020202020302E303030302043202020302020302020302020302020302020302020302020302020302020302020302020300A20202020322E3432333920202020302E3335323520202020302E303030302043202020302020302020302020302020302020302020302020302020302020302020302020300A20202020312E3730393420202020312E3539303020202020302E303030302043202020302020302020302020302020302020302020302020302020302020302020302020300A2020202D302E383238372020202D312E3539303020202020302E303030302042722020302020302020302020302020302020302020302020302020302020302020302020300A20202020312E383234362020202D302E3737313620202020302E303030302042722020302020302020302020302020302020302020302020302020302020302020302020300A2020202D312E3034373320202020312E3136383120202020302E30303030204F202020302020302020302020302020302020302020302020302020302020302020302020300A2020202D312E3834303520202020302E3939353320202020302E303030302043202020302020302020302020302020302020302020302020302020302020302020302020300A2020202D322E3432333920202020312E3537383620202020302E30303030204F202020302020302020302020302020302020302020302020302020302020302020302020300A2020202D322E3035343020202020302E3139383420202020302E303030302043202020302020302020302020302020302020302020302020302020302020302020302020300A2020312020322020322020302020202020200A2020322020332020312020302020202020200A2020332020342020322020302020202020200A2020342020352020312020302020202020200A2020352020362020322020302020202020200A2020362020372020312020302020202020200A2020372020382020322020302020202020200A2020322020382020312020302020202020200A2020392031302020312020302020202020200A2020392031312020312020302020202020200A2020362020392020312020302020202020200A2020332031322020312020302020202020200A2020352031332020312020302020202020200A2031352031362020322020302020202020200A2031352031372020312020302020202020200A2031342031352020312020302020202020200A2020382031342020312020302020202020200A4D2020454E44
Contributor: TAKESHITA H, INST. OF ADVANCED MATERIAL STUDY KYUSHU UNIV.
InstType: EI
InstName: JEOL JMS-01-SG-2
IoniMethod: _ENERGY 75 eV
IonPolarity: pos
Date: 2010-10-09 19:48:36+02:00
Num Peaks: 42
39 123 41 105 43 999 50 45 51 89 53 45 62 116 63 178 65 48 75 47 
77 139 78 53 79 71 89 128 90 95 91 72 103 86 104 44 105 132 118 58 
133 50 134 45 143 52 162 50 198 85 200 79 277 200 279 375 281 174 292 65 
294 110 296 55 320 279 321 33 322 489 323 59 324 247 325 30 362 25 364 50 
365 14 366 26 
