Name: 7-(BETA-HYDROXYPROPYL)THEOPHYLLINE
CAS: 603-00-9
MW: 238
Formula: C10H14N4O3
Synonym: MassBank: JP011932
Synonym: 7-(BETA-HYDROXYPROPYL)THEOPHYLLINE
Synonym: PROXYPHYLLINE
Structure: 372D28424554412D485944524F585950524F50594C295448454F5048594C4C494E452E6D6F6C0A20204368656D447261773035323131303033303432440A2031372031382020302020302020302020302020302020302020302020303939392056323030300A20202020302E3531353620202020302E3534323220202020302E30303030204E202020302020302020302020302020302020302020302020302020302020302020302020300A20202020302E3432393420202020312E3336323620202020302E303030302043202020302020302020302020302020302020302020302020302020302020302020302020300A2020202D302E3337373620202020312E3533343220202020302E30303030204E202020302020302020302020302020302020302020302020302020302020302020302020300A2020202D302E3739303120202020302E3831393720202020302E303030302043202020302020302020302020302020302020302020302020302020302020302020302020300A2020202D312E3539373120202020302E3634383220202020302E30303030204E202020302020302020302020302020302020302020302020302020302020302020302020300A2020202D322E3134393120202020312E3236313320202020302E303030302043202020302020302020302020302020302020302020302020302020302020302020302020300A2020202D312E383532302020202D302E3133363520202020302E303030302043202020302020302020302020302020302020302020302020302020302020302020302020300A2020202D322E363539302020202D302E3330383020202020302E30303030204F202020302020302020302020302020302020302020302020302020302020302020302020300A2020202D312E333030302020202D302E3734393520202020302E30303030204E202020302020302020302020302020302020302020302020302020302020302020302020300A2020202D312E353534392020202D312E3533343220202020302E303030302043202020302020302020302020302020302020302020302020302020302020302020302020300A2020202D302E343933302020202D302E3537383020202020302E303030302043202020302020302020302020302020302020302020302020302020302020302020302020300A20202020302E303539302020202D312E3139313120202020302E30303030204F202020302020302020302020302020302020302020302020302020302020302020302020300A2020202D302E3233383120202020302E3230363620202020302E303030302043202020302020302020302020302020302020302020302020302020302020302020302020300A20202020312E3233303120202020302E3132393720202020302E303030302043202020302020302020302020302020302020302020302020302020302020302020302020300A20202020312E3934343520202020302E3534323220202020302E303030302043202020302020302020302020302020302020302020302020302020302020302020302020300A20202020322E3635393020202020302E3132393720202020302E303030302043202020302020302020302020302020302020302020302020302020302020302020302020300A20202020312E3934343520202020312E3336373220202020302E30303030204F202020302020302020302020302020302020302020302020302020302020302020302020300A2020312020322020312020302020202020200A2020322020332020322020302020202020200A2020332020342020312020302020202020200A2020342020352020312020302020202020200A2020352020362020312020302020202020200A2020352020372020312020302020202020200A2020372020382020322020302020202020200A2020372020392020312020302020202020200A2020392031302020312020302020202020200A2020392031312020312020302020202020200A2031312031322020322020302020202020200A2031312031332020312020302020202020200A2020312031332020312020302020202020200A2020342031332020322020302020202020200A2031342031352020312020302020202020200A2031352031362020312020302020202020200A2031352031372020312020302020202020200A2020312031342020312020302020202020200A4D2020454E44
Contributor: YAMAMOTO M, DEP. CHEMISTRY, FAC. SCIENCE, NARA WOMEN'S UNIV.
InstType: EI
InstName: HITACHI M-2500
IoniMethod: _ENERGY 70 eV
IonPolarity: pos
Date: 2010-10-09 19:48:36+02:00
Num Peaks: 39
15 127 19 15 26 11 27 92 28 98 29 188 31 41 39 68 40 49 41 77 
42 81 43 321 44 42 45 999 46 23 52 20 53 23 54 38 55 20 56 91 
57 36 58 94 66 47 67 64 68 24 69 12 70 11 80 20 81 95 82 24 
94 19 95 16 108 14 109 64 180 16 193 36 194 16 238 8 239 5 
