Name: METHYL BETA-D-MANNOPYRANOSIDE
MW: 194
Formula: C7H14O6
Synonym: MassBank: JP011149
Synonym: METHYL BETA-D-MANNOPYRANOSIDE
Structure: 313031395F4D455448594C20424554412D442D4D414E4E4F505952414E4F534944452E6D6F6C0A20204368656D447261773130323031303139343832440A2031382031382020302020302020302020302020302020302020302020303939392056323030300A2020202D312E3331323220202020302E3933323320202020302E303030302043202020302020302020302020302020302020302020302020302020302020302020302020300A2020202D322E3530323020202020302E3032363220202020302E303030302043202020302020302020302020302020302020302020302020302020302020302020302020300A2020202D312E333132322020202D302E3836373920202020302E303030302043202020302020302020302020302020302020302020302020302020302020302020302020300A20202020302E353530302020202D302E3836373920202020302E303030302043202020302020302020302020302020302020302020302020302020302020302020302020300A20202020312E3738373520202020302E3032363220202020302E303030302043202020302020302020302020302020302020302020302020302020302020302020302020300A20202020302E3535303020202020302E3933323320202020302E30303030204F202020302020302020302020302020302020302020302020302020302020302020302020300A2020202D322E3530323020202020302E3738363820202020302E303030302048202020302020302020302020302020302020302020302020302020302020302020302020300A2020202D322E353032302020202D302E3836373920202020302E30303030204F202020302020302020302020302020302020302020302020302020302020302020302020300A20202020312E3738373520202020302E3838323220202020302E303030302048202020302020302020302020302020302020302020302020302020302020302020302020300A20202020312E373837352020202D302E3738363820202020302E303030302043202020302020302020302020302020302020302020302020302020302020302020302020300A20202020302E353530302020202D302E3036393120202020302E30303030204F202020302020302020302020302020302020302020302020302020302020302020302020300A20202020302E353530302020202D312E3639323920202020302E303030302048202020302020302020302020302020302020302020302020302020302020302020302020300A2020202D312E333132322020202D312E3639323920202020302E30303030204F202020302020302020302020302020302020302020302020302020302020302020302020300A2020202D312E333132322020202D302E3131363820202020302E303030302048202020302020302020302020302020302020302020302020302020302020302020302020300A2020202D312E3331323220202020312E3639323920202020302E303030302048202020302020302020302020302020302020302020302020302020302020302020302020300A2020202D312E3332343120202020302E3333363220202020302E30303030204F202020302020302020302020302020302020302020302020302020302020302020302020300A20202020322E353032302020202D312E3139393320202020302E30303030204F202020302020302020302020302020302020302020302020302020302020302020302020300A2020202D302E3439393620202020302E3330373120202020302E303030302043202020302020302020302020302020302020302020302020302020302020302020302020300A2020312020322020312020302020202020200A2020322020332020312020312020202020200A2020332020342020312020312020202020200A2020352020342020312020312020202020200A2020352020362020312020302020202020200A2020312020362020312020302020202020200A2020322020372020312020302020202020200A2020322020382020312020302020202020200A2020352020392020312020302020202020200A2020352031302020312020302020202020200A2020342031312020312020302020202020200A2020342031322020312020302020202020200A2020332031332020312020302020202020200A2020332031342020312020302020202020200A2020312031352020312020302020202020200A2020312031362020312020302020202020200A2031302031372020312020302020202020200A2031362031382020312020302020202020200A4D2020454E44
Contributor: SAWADA M, THE INST. OF SCIENTIFIC AND INDUSTRIALRESEARCH OSAKA UNIV.
InstType: EI
InstName: JEOL JMS-DX-300
IoniMethod: _ENERGY 70 eV
IonPolarity: pos
Date: 2010-10-09 19:48:36+02:00
Num Peaks: 61
27 81 30 38 33 83 34 35 39 32 40 32 41 68 42 119 43 195 44 141 
45 190 46 66 47 18 53 11 54 21 55 108 56 187 57 469 58 256 59 83 
60 731 61 999 62 436 63 32 68 11 69 92 70 107 71 331 72 108 73 398 
74 809 75 567 76 168 77 34 85 61 86 38 87 69 88 50 89 18 90 10 
97 58 98 119 99 56 100 11 101 12 103 46 104 68 105 33 116 72 117 68 
118 17 121 29 122 30 131 23 132 28 133 30 134 28 135 12 144 88 145 88 
146 28 
