Name: MassBank: JP010276
MW: 479
Formula: C30H41NO4
Synonym: MassBank: JP010276
Synonym: CIS-5-(6-CARBOXYHEXYL)-TRANS-4-(TRANS-3-HYDROXY-1-OCTENYL)-2,REF.-3-DIPHENYLISOXAZOLIDINE
Synonym: (3S,4S,5R)-5-(6-CARBOXYHEXYL)-4-(3-HYDROXY-1-OCTENYL)-2,3-DIPHENYLISOXAZOL
Structure: 2833532C34532C3552292D352D28362D434152424F5859484558594C292D342D28332D485944524F58592D312D4F4354454E594C292D322C332D44495048454E594C49534F58415A4F4C2E6D6F6C0A20204368656D447261773130323130393131303632440A2034302034322020302020302020302020302020302020302020302020303939392056323030300A2020202D312E3537363020202020312E3034303620202020302E303030302043202020302020302020302020302020302020302020302020302020302020302020302020300A2020202D302E3832323620202020302E3730353220202020302E303030302043202020302020302020302020302020302020302020302020302020302020302020302020300A2020202D302E3236373720202020312E3331353420202020302E30303030204F202020302020302020302020302020302020302020302020302020302020302020302020300A2020202D302E3638333120202020322E3032373920202020302E30303030204E202020302020302020302020302020302020302020302020302020302020302020302020300A2020202D312E3438393720202020312E3836313620202020302E303030302043202020302020302020302020302020302020302020302020302020302020302020302020300A2020202D302E3334373420202020322E3738343420202020302E303030302043202020302020302020302020302020302020302020302020302020302020302020302020300A2020202D312E3537323320202020322E3637383820202020302E303030302048202020302020302020302020302020302020302020302020302020302020302020302020300A2020202D322E3338313120202020312E3231303920202020302E303030302048202020302020302020302020302020302020302020302020302020302020302020302020300A2020202D302E3135353620202020302E3231393320202020302E303030302043202020302020302020302020302020302020302020302020302020302020302020302020300A2020202D312E3930373420202020302E3032303620202020302E303030302043202020302020302020302020302020302020302020302020302020302020302020302020300A2020202D312E323333392020202D302E3031313520202020302E303030302048202020302020302020302020302020302020302020302020302020302020302020302020300A2020202D322E3536323220202020312E3836313620202020302E303030302043202020302020302020302020302020302020302020302020302020302020302020302020300A2020202D322E3937343320202020322E3537363920202020302E303030302043202020302020302020302020302020302020302020302020302020302020302020302020300A2020202D332E3739393520202020322E3537373120202020302E303030302043202020302020302020302020302020302020302020302020302020302020302020302020300A2020202D342E3231323220202020312E3836323720202020302E303030302043202020302020302020302020302020302020302020302020302020302020302020302020300A2020202D332E3830303020202020312E3134383120202020302E303030302043202020302020302020302020302020302020302020302020302020302020302020302020300A2020202D322E3937353020202020312E3134373920202020302E303030302043202020302020302020302020302020302020302020302020302020302020302020302020300A20202020302E3437333120202020322E3837303320202020302E303030302043202020302020302020302020302020302020302020302020302020302020302020302020300A20202020302E3830383720202020332E3632343320202020302E303030302043202020302020302020302020302020302020302020302020302020302020302020302020300A20202020302E3332333720202020342E3239313720202020302E303030302043202020302020302020302020302020302020302020302020302020302020302020302020300A2020202D302E3439363720202020342E3230353520202020302E303030302043202020302020302020302020302020302020302020302020302020302020302020302020300A2020202D302E3833323320202020332E3435313820202020302E303030302043202020302020302020302020302020302020302020302020302020302020302020302020300A20202020302E3539383520202020302E3535333920202020302E303030302043202020302020302020302020302020302020302020302020302020302020302020302020300A20202020312E3236353420202020302E3036383220202020302E303030302043202020302020302020302020302020302020302020302020302020302020302020302020300A20202020322E3031393520202020302E3430323820202020302E303030302043202020302020302020302020302020302020302020302020302020302020302020302020300A20202020322E363836332020202D302E3038333020202020302E303030302043202020302020302020302020302020302020302020302020302020302020302020302020300A20202020332E3434303420202020302E3235313620202020302E303030302043202020302020302020302020302020302020302020302020302020302020302020302020300A2020202D312E333230302020202D302E3536363220202020302E303030302048202020302020302020302020302020302020302020302020302020302020302020302020300A2020202D322E373134332020202D302E3135313020202020302E303030302043202020302020302020302020302020302020302020302020302020302020302020302020300A2020202D332E3239343020202020302E3433303020202020302E303030302048202020302020302020302020302020302020302020302020302020302020302020302020300A2020202D322E393237392020202D302E3934373820202020302E303030302043202020302020302020302020302020302020302020302020302020302020302020302020300A2020202D322E333434352020202D312E3533313220202020302E303030302043202020302020302020302020302020302020302020302020302020302020302020302020300A2020202D322E353538302020202D322E3332383120202020302E303030302043202020302020302020302020302020302020302020302020302020302020302020302020300A2020202D312E393734372020202D322E3931313520202020302E303030302043202020302020302020302020302020302020302020302020302020302020302020302020300A2020202D322E313838322020202D332E3730383320202020302E303030302043202020302020302020302020302020302020302020302020302020302020302020302020300A2020202D312E363034382020202D342E3239313720202020302E303030302043202020302020302020302020302020302020302020302020302020302020302020302020300A2020202D332E373234382020202D312E3136313320202020302E30303030204F202020302020302020302020302020302020302020302020302020302020302020302020300A20202020342E323132322020202D302E3536323720202020302E303030302043202020302020302020302020302020302020302020302020302020302020302020302020300A20202020342E323132322020202D302E3039393520202020302E30303030204F202020302020302020302020302020302020302020302020302020302020302020302020300A20202020332E383130382020202D302E3739343520202020302E30303030204F202020302020302020302020302020302020302020302020302020302020302020302020300A2020312020322020312020302020202020200A2020322020332020312020302020202020200A2020332020342020312020302020202020200A2020342020352020312020302020202020200A2020352020312020312020302020202020200A2020342020362020312020302020202020200A2020352020372020312020362020202020200A2020312020382020312020362020202020200A2020322020392020312020362020202020200A2020312031302020312020312020202020200A2020322031312020312020312020202020200A2020352031322020312020312020202020200A2031322031332020322020302020202020200A2031332031342020312020302020202020200A2031342031352020322020302020202020200A2031352031362020312020302020202020200A2031362031372020322020302020202020200A2031372031322020312020302020202020200A2020362031382020322020302020202020200A2031382031392020312020302020202020200A2031392032302020322020302020202020200A2032302032312020312020302020202020200A2032312032322020322020302020202020200A2032322020362020312020302020202020200A2020392032332020312020302020202020200A2032332032342020312020302020202020200A2032342032352020312020302020202020200A2032352032362020312020302020202020200A2032362032372020312020302020202020200A2031302032382020312020302020202020200A2031302032392020322020302020202020200A2032392033302020312020302020202020200A2032392033312020312020302020202020200A2033312033322020312020302020202020200A2033322033332020312020302020202020200A2033332033342020312020302020202020200A2033342033352020312020302020202020200A2033352033362020312020302020202020200A2033312033372020312020302020202020200A2033382033392020322020302020202020200A2033382034302020312020302020202020200A2032372033382020312020302020202020200A4D202053545920203120202031205355500A4D2020534C4220203120202031202020310A4D202053414C202020312020332020333820203339202034300A4D202053424C20202031202031202034320A4D2020534D542020203120434F4F480A4D2020534256202020312034322020202D352E3739363820202020372E323332330A4D2020454E44
Contributor: KANEMASA S, INST. OF ADVANCED MATERIAL STUDY KYUSHU UNIV.
InstType: EI
InstName: JEOL JMS-01-SG-2
IoniMethod: _ENERGY 75 eV
IonPolarity: pos
Date: 2010-10-09 19:48:36+02:00
Num Peaks: 18
42 134 44 146 55 140 77 364 91 609 104 136 105 186 180 490 181 687 182 666 
196 233 197 343 198 999 199 145 232 271 479 356 480 121 481 110 
