Name: 4-BENZOYL-3-PHENYL-5-ISOXAZOLONE
MW: 265
Formula: C16H11NO3
Synonym: MassBank: JP012122
Synonym: 4-BENZOYL-3-PHENYL-5-ISOXAZOLONE
Structure: 342D42454E5A4F594C2D332D5048454E594C2D352D49534F58415A4F4C4F4E452E6D6F6C0A20204368656D447261773033323531303035333432440A2032302032322020302020302020302020302020302020302020302020303939392056323030300A20202020312E3732343620202020302E3830363020202020302E30303030204F202020302020302020302020302020302020302020302020302020302020302020302020300A20202020312E3137323520202020312E3431393120202020302E30303030204E202020302020302020302020302020302020302020302020302020302020302020302020300A20202020302E3431383920202020312E3038333520202020302E303030302043202020302020302020302020302020302020302020302020302020302020302020302020300A20202020302E3530353120202020302E3236333020202020302E303030302043202020302020302020302020302020302020302020302020302020302020302020302020300A20202020312E3331323120202020302E3039313520202020302E303030302043202020302020302020302020302020302020302020302020302020302020302020302020300A20202020312E363437362020202D302E3636323220202020302E30303030204F202020302020302020302020302020302020302020302020302020302020302020302020300A2020202D302E3239353620202020312E3439363020202020302E303030302043202020302020302020302020302020302020302020302020302020302020302020302020300A2020202D302E3239353620202020322E3332313020202020302E303030302043202020302020302020302020302020302020302020302020302020302020302020302020300A2020202D312E3031303120202020322E3733333520202020302E303030302043202020302020302020302020302020302020302020302020302020302020302020302020300A2020202D312E3732343620202020322E3332313020202020302E303030302043202020302020302020302020302020302020302020302020302020302020302020302020300A2020202D312E3732343620202020312E3439363020202020302E303030302043202020302020302020302020302020302020302020302020302020302020302020302020300A2020202D312E3031303120202020312E3038333520202020302E303030302043202020302020302020302020302020302020302020302020302020302020302020302020300A2020202D302E313038302020202D302E3238393020202020302E303030302043202020302020302020302020302020302020302020302020302020302020302020302020300A20202020302E303231312020202D312E3130333820202020302E303030302043202020302020302020302020302020302020302020302020302020302020302020302020300A20202020302E373931332020202D312E3339393520202020302E303030302043202020302020302020302020302020302020302020302020302020302020302020302020300A20202020302E393230332020202D322E3231343320202020302E303030302043202020302020302020302020302020302020302020302020302020302020302020302020300A20202020302E323739322020202D322E3733333520202020302E303030302043202020302020302020302020302020302020302020302020302020302020302020302020300A2020202D302E343931302020202D322E3433373920202020302E303030302043202020302020302020302020302020302020302020302020302020302020302020302020300A2020202D302E363230312020202D312E3632333020202020302E303030302043202020302020302020302020302020302020302020302020302020302020302020302020300A2020202D302E3837383220202020302E3030363720202020302E30303030204F202020302020302020302020302020302020302020302020302020302020302020302020300A2020312020322020312020302020202020200A2020322020332020322020302020202020200A2020332020342020312020302020202020200A2020342020352020312020302020202020200A2020312020352020312020302020202020200A2020352020362020322020302020202020200A2020372020382020312020302020202020200A2020382020392020322020302020202020200A2020392031302020312020302020202020200A2031302031312020322020302020202020200A2031312031322020312020302020202020200A2020372031322020322020302020202020200A2020332020372020312020302020202020200A2031332031342020312020302020202020200A2031342031352020312020302020202020200A2031352031362020322020302020202020200A2031362031372020312020302020202020200A2031372031382020322020302020202020200A2031382031392020312020302020202020200A2031342031392020322020302020202020200A2031332032302020322020302020202020200A2020342031332020312020302020202020200A4D2020454E44
Contributor: HISAHIRO HAGIWARA, INSTITUTE FOR CHEMICAL REACTION SCIENCE TOHOKU UNIV.
InstType: EI
InstName: JEOL JMS-DX-300
IoniMethod: _ENERGY 70 eV
IonPolarity: pos
Date: 2010-10-09 19:48:36+02:00
Num Peaks: 16
39 10 50 22 51 68 63 15 75 10 76 30 77 268 78 35 89 22 102 64 
103 27 104 10 105 999 106 197 116 24 265 18 
