Name: MassBank: JP012036
MW: 174
Formula: C8H22Si2
Synonym: MassBank: JP012036
Synonym: 1,1-DIMETHYL-2,2-DIPROPYLDISILANE (1,2-D2)
Structure: 312C312D44494D455448594C2D322C322D444950524F50594C444953494C414E452028312C322D4432292E6D6F6C0A20204368656D447261773130323330393130333332440A2031322031312020302020302020302020302020302020302020302020303939392056323030300A2020202D312E303331332020202D302E3230363320202020302E303030302053692020302020302020302020302020302020302020302020302020302020302020302020300A2020202D302E323036332020202D302E3230363320202020302E303030302053692020302020302020302020302020302020302020302020302020302020302020302020300A2020202D302E323036332020202D312E3033313320202020302E303030302048202020312020302020302020302020302020302020302020302020302020302020302020300A2020202D312E3033313320202020302E3631383720202020302E303030302048202020312020302020302020302020302020302020302020302020302020302020302020300A2020202D302E3230363320202020302E3631383720202020302E303030302043202020302020302020302020302020302020302020302020302020302020302020302020300A20202020302E3530383220202020312E3033313320202020302E303030302043202020302020302020302020302020302020302020302020302020302020302020302020300A20202020312E3232323720202020302E3631383820202020302E303030302043202020302020302020302020302020302020302020302020302020302020302020302020300A20202020302E363138372020202D302E3230363320202020302E303030302043202020302020302020302020302020302020302020302020302020302020302020302020300A20202020312E303331332020202D302E3932303720202020302E303030302043202020302020302020302020302020302020302020302020302020302020302020302020300A20202020312E383536332020202D302E3932303720202020302E303030302043202020302020302020302020302020302020302020302020302020302020302020302020300A2020202D312E383536332020202D302E3230363320202020302E303030302043202020302020302020302020302020302020302020302020302020302020302020302020300A2020202D312E303331332020202D312E3033313320202020302E303030302043202020302020302020302020302020302020302020302020302020302020302020302020300A2020312020322020312020302020202020200A2020322020332020312020302020202020200A2020312020342020312020302020202020200A2020352020362020312020302020202020200A2020362020372020312020302020202020200A2020322020352020312020302020202020200A2020382020392020312020302020202020200A2020392031302020312020302020202020200A2020322020382020312020302020202020200A2020312031312020312020302020202020200A2020312031322020312020302020202020200A4D202049534F202032202020332020203220202034202020320A4D2020454E44
Contributor: YAMAMOTO M, DEP. CHEMISTRY, FAC. SCIENCE, NARA WOMEN'S UNIV.
InstType: EI
InstName: HITACHI RMU-6M
IoniMethod: _ENERGY 70 eV
IonPolarity: pos
Date: 2010-10-09 19:48:36+02:00
Num Peaks: 43
43 187 44 131 45 224 46 176 47 65 58 150 59 206 60 271 70 84 71 168 
72 196 73 280 74 280 75 93 85 112 86 477 87 206 88 224 89 121 90 159 
91 196 99 65 101 75 103 75 104 84 105 84 114 757 115 318 116 271 117 103 
118 93 119 103 129 84 131 75 132 75 133 84 134 84 149 65 159 65 161 93 
176 999 177 234 178 121 
