Name: MassBank: JP012010
MW: 118
Formula: C4H14Si2
Synonym: MassBank: JP012010
Synonym: 1,2-BIS(METHYLSILYL)ETHANE (D4)
Structure: 312C322D424953284D455448594C53494C594C29455448414E4520284434292E6D6F6C0A20204368656D447261773131303330393232323332440A2031302020392020302020302020302020302020302020302020302020303939392056323030300A2020202D312E3233373520202020302E3030303020202020302E303030302053692020302020302020302020302020302020302020302020302020302020302020302020300A2020202D302E3431323520202020302E3030303020202020302E303030302043202020302020302020302020302020302020302020302020302020302020302020302020300A20202020302E3431323520202020302E3030303020202020302E303030302043202020302020302020302020302020302020302020302020302020302020302020302020300A20202020312E3233373520202020302E3030303020202020302E303030302053692020302020302020302020302020302020302020302020302020302020302020302020300A2020202D302E3431323520202020302E3832353020202020302E303030302048202020312020302020302020302020302020302020302020302020302020302020302020300A2020202D302E343132352020202D302E3832353020202020302E303030302048202020312020302020302020302020302020302020302020302020302020302020302020300A20202020302E3431323520202020302E3832353020202020302E303030302048202020312020302020302020302020302020302020302020302020302020302020302020300A20202020302E343132352020202D302E3832353020202020302E303030302048202020312020302020302020302020302020302020302020302020302020302020302020300A20202020312E363530302020202D302E3731343520202020302E303030302043202020302020302020302020302020302020302020302020302020302020302020302020300A2020202D312E3635303020202020302E3731343520202020302E303030302043202020302020302020302020302020302020302020302020302020302020302020302020300A2020312020322020312020302020202020200A2020322020332020312020302020202020200A2020332020342020312020302020202020200A2020322020352020312020312020202020200A2020322020362020312020312020202020200A2020332020372020312020312020202020200A2020332020382020312020312020202020200A2020342020392020312020302020202020200A2020312031302020312020302020202020200A4D202049534F20203420202035202020322020203620202032202020372020203220202038202020320A4D2020454E44
Contributor: YAMAMOTO M, DEP. CHEMISTRY, FAC. SCIENCE, NARA WOMEN'S UNIV.
InstType: EI
InstName: HITACHI RMU-6M
IoniMethod: _ENERGY 70 eV
IonPolarity: pos
Date: 2010-10-09 19:48:36+02:00
Num Peaks: 57
27 11 28 61 29 34 30 25 31 14 32 27 33 13 42 19 43 139 44 178 
45 267 46 327 47 345 48 34 49 16 53 19 54 10 55 25 56 21 57 13 
58 30 59 49 60 83 61 20 69 19 70 16 71 27 73 999 74 111 75 303 
76 41 77 70 78 52 79 33 80 11 85 14 86 33 87 20 88 23 89 28 
90 160 91 55 92 45 93 12 94 35 103 11 105 20 107 105 108 18 109 12 
118 28 119 10 120 89 121 19 122 77 123 15 124 11 
