Name: METHYL TRIACETYL-BETA-D-FUCOPYRANOSIDE
MW: 304
Formula: C13H20O8
Synonym: MassBank: JP010699
Synonym: METHYL TRIACETYL-BETA-D-FUCOPYRANOSIDE
Structure: 303933385F4D455448594C2054524941434554594C2D424554412D442D4655434F505952414E4F534944452E6D6F6C0A20204368656D447261773130323031303139303832440A2032362032362020302020302020302020302020302020302020302020303939392056323030300A2020202D302E3333363220202020312E3338363020202020302E303030302043202020302020302020302020302020302020302020302020302020302020302020302020300A2020202D312E3532363020202020302E3437393920202020302E303030302043202020302020302020302020302020302020302020302020302020302020302020302020300A2020202D302E333336322020202D302E3431343220202020302E303030302043202020302020302020302020302020302020302020302020302020302020302020302020300A20202020312E353236302020202D302E3431343220202020302E303030302043202020302020302020302020302020302020302020302020302020302020302020302020300A20202020322E3736333520202020302E3437393920202020302E303030302043202020302020302020302020302020302020302020302020302020302020302020302020300A20202020312E3532373120202020312E3338343720202020302E30303030204F202020302020302020302020302020302020302020302020302020302020302020302020300A2020202D312E3532353820202020312E3233393520202020302E30303030204F202020302020302020302020302020302020302020302020302020302020302020302020300A2020202D312E353235382020202D302E3431343520202020302E303030302048202020302020302020302020302020302020302020302020302020302020302020302020300A20202020322E3736343620202020312E3333353420202020302E303030302048202020302020302020302020302020302020302020302020302020302020302020302020300A20202020322E373633352020202D302E3333333220202020302E303030302043202020302020302020302020302020302020302020302020302020302020302020302020300A20202020312E3532363020202020302E3338343520202020302E303030302048202020302020302020302020302020302020302020302020302020302020302020302020300A20202020312E353237312020202D312E3233393520202020302E30303030204F202020302020302020302020302020302020302020302020302020302020302020302020300A2020202D302E333335352020202D312E3233393520202020302E30303030204F202020302020302020302020302020302020302020302020302020302020302020302020300A2020202D302E3333353520202020302E3333353520202020302E303030302048202020302020302020302020302020302020302020302020302020302020302020302020300A2020202D302E3333353520202020322E3134353520202020302E303030302048202020302020302020302020302020302020302020302020302020302020302020302020300A2020202D302E3334373020202020302E3738393220202020302E30303030204F202020302020302020302020302020302020302020302020302020302020302020302020300A20202020302E3432383920202020302E3531323720202020302E303030302043202020302020302020302020302020302020302020302020302020302020302020302020300A2020202D322E3234303520202020312E3635333020202020302E303030302043202020302020302020302020302020302020302020302020302020302020302020302020300A2020202D322E3233393720202020322E3437373020202020302E30303030204F202020302020302020302020302020302020302020302020302020302020302020302020300A2020202D322E3935353020202020312E3234303520202020302E303030302043202020302020302020302020302020302020302020302020302020302020302020302020300A20202020302E333738332020202D312E3635313720202020302E303030302043202020302020302020302020302020302020302020302020302020302020302020302020300A20202020302E333738342020202D322E3437373020202020302E30303030204F202020302020302020302020302020302020302020302020302020302020302020302020300A20202020312E303932372020202D312E3233393220202020302E303030302043202020302020302020302020302020302020302020302020302020302020302020302020300A20202020322E323430352020202D312E3635313720202020302E303030302043202020302020302020302020302020302020302020302020302020302020302020302020300A20202020322E323431312020202D322E3437373020202020302E30303030204F202020302020302020302020302020302020302020302020302020302020302020302020300A20202020322E393535302020202D312E3233393220202020302E303030302043202020302020302020302020302020302020302020302020302020302020302020302020300A2020312020322020312020302020202020200A2020322020332020312020312020202020200A2020332020342020312020312020202020200A2020352020342020312020312020202020200A2020352020362020312020302020202020200A2020312020362020312020302020202020200A2020322020372020312020302020202020200A2020322020382020312020302020202020200A2020352020392020312020302020202020200A2020352031302020312020302020202020200A2020342031312020312020302020202020200A2020342031322020312020302020202020200A2020332031332020312020302020202020200A2020332031342020312020302020202020200A2020312031352020312020302020202020200A2020312031362020312020302020202020200A2031362031372020312020302020202020200A2020372031382020312020302020202020200A2031382031392020322020302020202020200A2031382032302020312020302020202020200A2031332032312020312020302020202020200A2032312032322020322020302020202020200A2032312032332020312020302020202020200A2031322032342020312020302020202020200A2032342032352020322020302020202020200A2032342032362020312020302020202020200A4D2020454E44
Contributor: EGUCHI S, FAC. OF SCIENCE, HIROSHIMA UNIV.
InstType: EI
InstName: HITACHI RMU-6L
IoniMethod: _ENERGY 70 eV
IonPolarity: pos
Date: 2010-10-09 19:48:36+02:00
Num Peaks: 89
40 30 41 70 42 50 43 999 44 150 45 55 53 30 54 3 55 85 56 25 
57 135 58 10 59 25 60 60 61 75 67 2 68 12 69 55 70 25 71 39 
72 60 73 65 74 160 75 3 77 10 80 10 81 20 82 14 83 380 84 60 
85 80 86 2 87 190 88 30 93 25 95 2 96 120 97 30 98 25 99 15 
100 410 101 240 102 180 103 29 104 25 110 20 111 60 112 2 113 450 114 60 
115 365 116 8 117 35 121 15 125 50 126 3 127 30 128 15 129 45 130 1 
131 15 140 115 141 35 142 30 143 100 144 430 145 20 146 25 149 40 153 25 
156 2 157 470 158 95 159 25 184 35 185 170 186 20 187 25 188 2 200 35 
201 25 202 10 217 6 218 15 244 65 245 15 262 1 273 15 303 8 
