Name: DI(4-BROMOPHENYL)METHYLPHENYLSILANE
MW: 429
Formula: C19H16Br2Si
Synonym: MassBank: JP011712
Synonym: DI(4-BROMOPHENYL)METHYLPHENYLSILANE
Structure: 444928342D42524F4D4F5048454E594C294D455448594C5048454E594C53494C414E452E6D6F6C0A20204368656D447261773039323131303133353232440A2032322032342020302020302020302020302020302020302020302020303939392056323030300A2020202D312E323337352020202D302E3431323520202020302E303030302053692020302020302020302020302020302020302020302020302020302020302020302020300A2020202D312E323337352020202D312E3233373520202020302E303030302043202020302020302020302020302020302020302020302020302020302020302020302020300A2020202D302E353233302020202D312E3635303020202020302E303030302043202020302020302020302020302020302020302020302020302020302020302020302020300A2020202D302E353233302020202D322E3437353020202020302E303030302043202020302020302020302020302020302020302020302020302020302020302020302020300A2020202D312E323337352020202D322E3838373520202020302E303030302043202020302020302020302020302020302020302020302020302020302020302020302020300A2020202D312E393532302020202D322E3437353020202020302E303030302043202020302020302020302020302020302020302020302020302020302020302020302020300A2020202D312E393532302020202D312E3635303020202020302E303030302043202020302020302020302020302020302020302020302020302020302020302020302020300A2020202D322E303632352020202D302E3431323520202020302E303030302043202020302020302020302020302020302020302020302020302020302020302020302020300A2020202D312E3233373520202020302E3431323520202020302E303030302043202020302020302020302020302020302020302020302020302020302020302020302020300A2020202D312E3935323020202020302E3832353020202020302E303030302043202020302020302020302020302020302020302020302020302020302020302020302020300A2020202D312E3935323020202020312E3635303020202020302E303030302043202020302020302020302020302020302020302020302020302020302020302020302020300A2020202D312E3233373520202020322E3036323520202020302E303030302043202020302020302020302020302020302020302020302020302020302020302020302020300A2020202D302E3532333020202020312E3635303020202020302E303030302043202020302020302020302020302020302020302020302020302020302020302020302020300A2020202D302E3532333020202020302E3832353020202020302E303030302043202020302020302020302020302020302020302020302020302020302020302020302020300A2020202D312E3233373520202020322E3838373520202020302E303030302042722020302020302020302020302020302020302020302020302020302020302020302020300A2020202D302E343132352020202D302E3431323520202020302E303030302043202020302020302020302020302020302020302020302020302020302020302020302020300A20202020302E3030303020202020302E3330323020202020302E303030302043202020302020302020302020302020302020302020302020302020302020302020302020300A20202020302E3832353020202020302E3330323020202020302E303030302043202020302020302020302020302020302020302020302020302020302020302020302020300A20202020312E323337352020202D302E3431323520202020302E303030302043202020302020302020302020302020302020302020302020302020302020302020302020300A20202020302E383235302020202D312E3132373020202020302E303030302043202020302020302020302020302020302020302020302020302020302020302020302020300A20202020302E303030302020202D312E3132373020202020302E303030302043202020302020302020302020302020302020302020302020302020302020302020302020300A20202020322E303632352020202D302E3431323520202020302E303030302042722020302020302020302020302020302020302020302020302020302020302020302020300A2020322020332020312020302020202020200A2020332020342020322020302020202020200A2020342020352020312020302020202020200A2020352020362020322020302020202020200A2020362020372020312020302020202020200A2020322020372020322020302020202020200A2020312020322020312020302020202020200A2020312020382020312020302020202020200A2020392031302020312020302020202020200A2031302031312020322020302020202020200A2031312031322020312020302020202020200A2031322031332020322020302020202020200A2031332031342020312020302020202020200A2020392031342020322020302020202020200A2031322031352020312020302020202020200A2020312020392020312020302020202020200A2031362031372020312020302020202020200A2031372031382020322020302020202020200A2031382031392020312020302020202020200A2031392032302020322020302020202020200A2032302032312020312020302020202020200A2031362032312020322020302020202020200A2031392032322020312020302020202020200A2020312031362020312020302020202020200A4D2020454E44
Contributor: FAC. TECHNOLOGY, HIROSHIMA UNIV.
InstType: EI
InstName: SHIMADZU QP-1000
IoniMethod: _ENERGY 70 eV
IonPolarity: pos
Date: 2010-10-09 19:48:36+02:00
Num Peaks: 120
52 553 53 500 54 894 55 999 56 128 57 128 58 160 63 21 64 104 65 138 
66 128 67 138 68 32 69 85 70 21 71 43 73 64 74 85 75 287 76 351 
77 532 78 223 79 319 80 160 81 74 82 128 83 32 85 32 86 11 87 21 
88 11 89 104 90 128 91 404 92 64 93 181 94 21 95 32 96 11 97 21 
98 11 99 11 101 74 102 74 103 436 104 170 105 989 107 766 109 713 110 32 
111 32 113 32 114 32 115 74 116 32 117 128 118 64 119 181 120 74 121 64 
122 64 123 32 124 32 125 32 126 53 127 138 128 150 129 160 130 32 131 21 
135 500 139 32 141 32 142 21 143 21 145 21 147 11 149 32 150 64 151 138 
152 447 153 287 154 64 155 128 156 21 157 11 163 11 164 32 165 287 166 43 
167 53 168 32 169 32 175 21 176 32 177 32 178 21 179 191 180 266 181 266 
182 64 183 96 185 96 193 64 194 21 195 64 196 32 197 21 201 21 274 32 
276 32 415 160 416 96 417 372 418 85 419 234 420 43 430 32 432 53 434 32 
