Name: 4-PYRIMIDINONE
MW: 96
Formula: C4H4N2O
Synonym: MassBank: JP011172
Synonym: 4-PYRIMIDINONE
Structure: 310A31390A342D505952494D4944494E4F4E452E6D6F6C0A20204368656D447261773034323231303231303832440A2020372020372020302020302020302020302020302020302020302020303939392056323030300A20202020302E383235302020202D302E3731343520202020302E303030302043202020302020302020302020302020302020302020302020302020302020302020302020300A2020202D302E303030302020202D302E3731343520202020302E30303030204E202020302020302020302020302020302020302020302020302020302020302020302020300A2020202D302E3431323520202020302E3030303020202020302E303030302043202020302020302020302020302020302020302020302020302020302020302020302020300A2020202D302E3030303020202020302E3731343520202020302E303030302043202020302020302020302020302020302020302020302020302020302020302020302020300A20202020302E3832353020202020302E3731343520202020302E303030302043202020302020302020302020302020302020302020302020302020302020302020302020300A20202020312E323337352020202D302E3030303020202020302E30303030204E202020302020302020302020302020302020302020302020302020302020302020302020300A2020202D312E3233373520202020302E3030303020202020302E30303030204F202020302020302020302020302020302020302020302020302020302020302020302020300A2020312020322020312020302020202020200A2020322020332020312020302020202020200A2020332020342020312020302020202020200A2020342020352020322020302020202020200A2020352020362020312020302020202020200A2020312020362020322020302020202020200A2020332020372020322020302020202020200A4D2020454E44
Contributor: SAWADA M, THE INST. OF SCIENTIFIC AND INDUSTRIALRESEARCH OSAKA UNIV.
InstType: EI
InstName: JEOL JMS-DX-300
IoniMethod: _ENERGY 70 eV
IonPolarity: pos
Date: 2010-10-09 19:48:36+02:00
Num Peaks: 36
37 20 38 162 39 233 40 586 41 633 42 603 43 133 44 170 45 21 50 30 
51 146 52 222 53 185 54 36 55 50 56 14 57 39 60 14 65 10 66 11 
67 118 68 834 69 510 70 34 71 20 73 16 77 12 79 37 81 17 82 11 
83 18 85 11 95 62 96 999 97 160 98 17 
