Name: MassBank: JP010115
MW: 235
Formula: C16H29N
Synonym: MassBank: JP010115
Synonym: N-METHYL-3,7,11-TRIMETHYL-2,6,10-DODECATRIENE-1-AMINE
Structure: 4E2D4D455448594C2D332C372C31312D5452494D455448594C2D322C362C31302D444F44454341545249454E452D312D414D494E452E6D6F6C0A20204368656D447261773038313231303032313232440A2031372031362020302020302020302020302020302020302020302020303939392056323030300A20202020332E3231353120202020302E3230363320202020302E303030302043202020302020302020302020302020302020302020302020302020302020302020302020300A20202020322E353030362020202D302E3230363320202020302E303030302043202020302020302020302020302020302020302020302020302020302020302020302020300A20202020322E353030362020202D312E3033313220202020302E303030302043202020302020302020302020302020302020302020302020302020302020302020302020300A20202020312E373836322020202D312E3434333820202020302E303030302043202020302020302020302020302020302020302020302020302020302020302020302020300A20202020312E303731372020202D312E3033313320202020302E303030302043202020302020302020302020302020302020302020302020302020302020302020302020300A20202020302E333537322020202D312E3434333820202020302E303030302043202020302020302020302020302020302020302020302020302020302020302020302020300A2020202D302E333537322020202D312E3033313320202020302E303030302043202020302020302020302020302020302020302020302020302020302020302020302020300A2020202D312E303731372020202D312E3434333820202020302E303030302043202020302020302020302020302020302020302020302020302020302020302020302020300A2020202D312E373836322020202D312E3033313320202020302E303030302043202020302020302020302020302020302020302020302020302020302020302020302020300A2020202D322E353030362020202D312E3434333820202020302E303030302043202020302020302020302020302020302020302020302020302020302020302020302020300A2020202D332E323135312020202D312E3033313320202020302E303030302043202020302020302020302020302020302020302020302020302020302020302020302020300A2020202D332E393239362020202D312E3434333820202020302E303030302043202020302020302020302020302020302020302020302020302020302020302020302020300A20202020332E3231353120202020312E3033313320202020302E30303030204E202020302020302020302020302020302020302020302020302020302020302020302020300A2020202D332E323135312020202D302E3230363320202020302E303030302043202020302020302020302020302020302020302020302020302020302020302020302020300A2020202D302E333537322020202D302E3230363320202020302E303030302043202020302020302020302020302020302020302020302020302020302020302020302020300A20202020332E323135312020202D312E3434333820202020302E303030302043202020302020302020302020302020302020302020302020302020302020302020302020300A20202020332E3932393620202020312E3434333820202020302E303030302043202020302020302020302020302020302020302020302020302020302020302020302020300A2020312020322020312020302020202020200A2020322020332020322020302020202020200A2020332020342020312020302020202020200A2020342020352020312020302020202020200A2020352020362020312020302020202020200A2020362020372020322020302020202020200A2020372020382020312020302020202020200A2020382020392020312020302020202020200A2020392031302020312020302020202020200A2031302031312020322020302020202020200A2031312031322020312020302020202020200A2020312031332020312020302020202020200A2031312031342020312020302020202020200A2020372031352020312020302020202020200A2020332031362020312020302020202020200A2031332031372020312020302020202020200A4D2020454E44
Contributor: KURARAY CO., LTD.
InstType: EI
InstName: JEOL JMS-D-300
IoniMethod: _ENERGY 70 eV
IonPolarity: pos
Date: 2010-10-09 19:48:36+02:00
Num Peaks: 71
27 50 28 85 29 60 30 9 32 75 39 60 41 520 42 77 43 90 44 600 
45 20 53 8 55 130 56 50 57 90 58 4 67 150 68 230 69 999 70 9 
71 20 77 40 79 90 80 11 81 230 82 150 83 40 84 50 85 80 91 50 
92 60 93 49 94 90 95 80 96 80 97 3 98 770 99 130 105 40 106 2 
107 130 108 40 109 90 110 25 111 40 112 20 119 70 120 4 121 110 122 60 
123 60 124 4 133 80 134 30 135 80 136 6 137 20 147 30 148 20 150 2 
152 30 161 40 164 20 166 17 167 30 189 20 204 20 220 2 234 20 235 130 
236 30 
