Name: Glycylglycine
CAS: 556-50-3
MW: 132
Formula: C4H8N2O3
Synonym: KEGG: C02037
Synonym: MassBank: KZ000212
Synonym: Glycylglycine
Structure: 310A32330A200A200A200A2020392020382020302020302020302020302020302020302020302020303939392056323030300A20202031342E3533313320202D31342E3135383820202020302E303030302043202020302020302020302020302020302020302020302020302020302020302020302020300A20202031362E3339303420202D31342E3930313520202020302E30303030204E202020302020302020302020302020302020302020302020302020302020302020302020300A20202031332E3337333920202D31342E3536373620202020302E303030302043202020302020302020302020302020302020302020302020302020302020302020302020300A20202031342E3533313320202D31322E3933383120202020302E30303030204F202020302020302020302020302020302020302020302020302020302020302020302020300A20202031372E3531333220202D31342E3233333620202020302E303030302043202020302020302020302020302020302020302020302020302020302020302020302020300A20202031332E3336383020202D31362E3237323620202020302E30303030204E202020302020302020302020302020302020302020302020302020302020302020302020300A20202031382E3630313420202D31342E3736393120202020302E303030302043202020302020302020302020302020302020302020302020302020302020302020302020300A20202031382E3630373220202D31362E3335333220202020302E30303030204F202020302020302020302020302020302020302020302020302020302020302020302020300A20202031392E3634393320202D31342E3134313420202020302E30303030204F202020302020302020302020302020302020302020302020302020302020302020302020300A2020312020322020312020302020202020302020300A2020312020332020312020302020202020302020300A2020312020342020322020302020202020302020300A2020322020352020312020302020202020302020300A2020332020362020312020302020202020302020300A2020352020372020312020302020202020302020300A2020372020382020312020302020202020302020300A2020372020392020322020302020202020302020300A4D2020454E44
Contributor: Ara T, Morishita Y, Shibata D, Kazusa DNA Research Institute
InstType: EI
InstName: Pegasus III TOF-MS system, Leco; GC 6890, Agilent Technologies
IoniMethod: EI
IonPolarity: pos
Date: 2010-10-09 19:48:36+02:00
Num Peaks: 130
82 1 83 1 84 36 85 10 86 250 87 26 88 15 89 4 90 1 92 1 
93 4 95 2 97 1 98 19 99 7 100 146 101 38 102 40 103 14 104 3 
105 3 111 1 112 1 113 7 114 7 115 11 116 29 117 33 118 5 119 7 
120 1 126 1 127 2 128 3 129 12 130 39 131 36 132 12 133 42 134 5 
135 3 140 1 141 6 142 16 143 6 144 11 145 3 146 17 147 155 148 23 
149 12 150 1 151 1 153 1 156 1 157 1 158 10 159 4 160 13 161 3 
162 1 169 1 170 1 171 2 172 38 173 8 174 999 175 138 176 49 177 5 
178 1 185 1 186 1 187 8 188 7 189 3 190 2 191 1 199 1 200 2 
201 2 202 2 203 1 204 8 205 2 213 3 214 4 215 9 216 6 217 1 
218 8 219 1 221 3 229 4 230 2 232 1 234 3 241 7 242 1 243 6 
244 2 245 1 246 2 247 1 248 43 249 9 250 3 258 3 259 4 260 1 
261 1 273 1 287 1 288 1 289 1 306 4 315 1 316 1 317 3 318 1 
332 1 333 3 334 1 404 10 405 34 406 9 407 3 419 1 420 3 421 1 
