Name: Indole-3-acetic acid
CAS: 87-51-4
MW: 175
Formula: C10H9NO2
Synonym: KEGG: C00954
Synonym: MassBank: KZ000142
Synonym: Indole-3-acetic acid
Structure: 31332031342020302020302020302020302020302020302020302020303939392056323030300A20202032322E3131353220202D32302E3234363120202020302E303030302043202020302020302020302020302020302020302020302020302020302020302020302020300A20202032322E3131353220202D31382E3931373420202020302E303030302043202020302020302020302020302020302020302020302020302020302020302020302020300A20202032342E3431363220202D32302E3234363120202020302E303030302043202020302020302020302020302020302020302020302020302020302020302020302020300A20202032302E3936373620202D32302E3931363420202020302E303030302043202020302020302020302020302020302020302020302020302020302020302020302020300A20202032332E3236383720202D31382E3234363920202020302E30303030204E202020302020302020302020302020302020302020302020302020302020302020302020300A20202032302E3936373620202D31382E3235393020202020302E303030302043202020302020302020302020302020302020302020302020302020302020302020302020300A20202032342E3431363220202D31382E3931373420202020302E303030302043202020302020302020302020302020302020302020302020302020302020302020302020300A20202032352E3334363320202D32312E3137363120202020302E303030302043202020302020302020302020302020302020302020302020302020302020302020302020300A20202031392E3832363120202D32302E3234363120202020302E303030302043202020302020302020302020302020302020302020302020302020302020302020302020300A20202031392E3832363120202D31382E3931373420202020302E303030302043202020302020302020302020302020302020302020302020302020302020302020302020300A20202032352E3030323220202D32322E3434343620202020302E303030302043202020302020302020302020302020302020302020302020302020302020302020302020300A20202032332E3733333720202D32322E3738323720202020302E30303030204F202020302020302020302020302020302020302020302020302020302020302020302020300A20202032362E3030373820202D32332E3433383120202020302E30303030204F202020302020302020302020302020302020302020302020302020302020302020302020300A2020312020322020322020302020202020302020300A2020312020332020312020302020202020302020300A2020312020342020312020302020202020302020300A2020322020352020312020302020202020302020300A2020322020362020312020302020202020302020300A2020332020372020322020302020202020302020300A2020332020382020312020302020202020302020300A2020342020392020322020302020202020302020300A2020362031302020322020302020202020302020300A2020382031312020312020302020202020302020300A2031312031322020312020302020202020302020300A2031312031332020322020302020202020302020300A2020352020372020312020302020202020302020300A2020392031302020312020302020202020302020300A4D2020454E44
Contributor: Ara T, Morishita Y, Shibata D, Kazusa DNA Research Institute
InstType: EI
InstName: Pegasus III TOF-MS system, Leco; GC 6890, Agilent Technologies
IoniMethod: EI
IonPolarity: pos
Date: 2010-10-09 19:48:36+02:00
Num Peaks: 237
82 4 88 5 89 7 90 2 91 14 92 1 96 1 97 3 98 9 99 7 
101 20 102 59 103 22 104 10 105 11 107 3 109 2 113 4 114 9 115 20 
116 14 117 17 118 3 119 8 123 4 125 4 126 5 128 34 129 69 130 55 
131 20 132 7 133 7 134 9 135 2 137 1 138 2 140 4 141 7 142 3 
143 8 144 14 145 45 146 11 147 45 148 2 150 1 151 4 152 6 153 8 
154 8 155 1 156 23 157 13 158 8 159 13 160 20 161 9 162 9 163 8 
164 6 165 11 166 3 167 5 168 8 169 12 170 27 171 5 172 21 173 5 
174 6 175 7 176 6 177 7 178 3 179 3 181 7 182 10 183 3 184 16 
185 7 186 65 187 36 188 10 189 1 190 3 191 2 192 5 193 6 194 1 
195 4 197 1 198 1 199 7 200 58 201 20 202 999 203 180 204 54 205 10 
206 5 207 2 209 1 210 3 211 2 213 8 214 3 215 5 216 9 217 5 
218 1 219 3 225 1 226 3 227 1 228 4 229 4 230 5 231 5 233 1 
234 1 237 2 238 1 240 3 245 1 248 3 250 3 255 2 260 5 272 3 
275 2 276 17 277 4 281 4 285 4 287 2 288 2 289 3 290 4 293 3 
300 4 302 4 303 5 304 14 306 5 309 1 310 1 318 7 319 67 320 14 
321 7 322 4 323 2 327 1 329 4 330 1 332 3 334 2 335 2 337 3 
338 3 340 3 341 1 347 9 349 3 350 1 351 4 361 1 363 3 364 4 
365 1 366 3 368 6 371 3 374 1 380 6 386 2 387 5 388 2 393 3 
394 2 397 4 398 7 399 1 401 4 403 3 406 1 408 1 409 5 410 3 
411 4 412 3 413 3 414 2 417 3 418 2 420 4 427 2 430 1 431 3 
432 3 433 4 434 4 435 2 437 5 439 1 442 3 443 3 444 5 447 4 
451 3 453 5 454 3 456 4 458 1 459 3 461 2 462 2 463 2 464 5 
465 2 466 1 467 1 468 2 469 2 470 4 471 6 472 4 473 2 483 1 
487 2 489 2 490 2 491 1 496 2 498 1 500 4 
