Name: Isoguvacine
CAS: 64603-90-3
MW: 127
Formula: C6H9NO2
Synonym: KEGG: C13694
Synonym: MassBank: KZ000039
Synonym: Isoguvacine
Structure: 310A32340A200A200A200A2020392020392020302020302020302020302020302020302020302020303939392056323030300A20202031322E393234352020202D382E3430333620202020302E303030302043202020302020302020302020302020302020302020302020302020302020302020302020300A20202031322E393234352020202D392E3830333820202020302E303030302043202020302020302020302020302020302020302020302020302020302020302020302020300A20202031342E3134303120202D31302E3530333920202020302E303030302043202020302020302020302020302020302020302020302020302020302020302020302020300A20202031352E333438352020202D392E3830333820202020302E303030302043202020302020302020302020302020302020302020302020302020302020302020302020300A20202031352E333438352020202D382E3430333620202020302E303030302043202020302020302020302020302020302020302020302020302020302020302020302020300A20202031342E313430312020202D372E3730333520202020302E30303030204E202020302020302020302020302020302020302020302020302020302020302020302020300A20202031342E3134313820202D31312E3930343220202020302E303030302043202020302020302020302020302020302020302020302020302020302020302020302020300A20202031322E3933303020202D31322E3630353820202020302E30303030204F202020302020302020302020302020302020302020302020302020302020302020302020300A20202031352E3335353320202D31322E3630323820202020302E30303030204F202020302020302020302020302020302020302020302020302020302020302020302020300A2020332020342020312020302020202020302020300A2020342020352020312020302020202020302020300A2020352020362020312020302020202020302020300A2020362020312020312020302020202020302020300A2020332020372020312020302020202020302020300A2020312020322020312020302020202020302020300A2020372020382020322020302020202020302020300A2020322020332020322020302020202020302020300A2020372020392020312020302020202020302020300A4D2020454E44
Contributor: Ara T, Morishita Y, Shibata D, Kazusa DNA Research Institute
InstType: EI
InstName: Pegasus III TOF-MS system, Leco; GC 6890, Agilent Technologies
IoniMethod: EI
IonPolarity: pos
Date: 2010-10-09 19:48:36+02:00
Num Peaks: 102
82 81 83 29 84 16 85 22 86 205 87 21 88 8 89 1 90 1 91 1 
92 4 93 3 94 6 95 8 96 5 97 13 98 4 99 3 100 22 101 76 
102 10 103 11 104 1 105 2 106 17 107 6 108 21 109 21 110 6 111 23 
112 7 113 4 114 1 115 2 116 2 117 6 118 1 119 3 120 2 121 6 
122 3 123 1 124 4 125 1 126 2 127 1 128 2 129 1 131 7 132 2 
133 16 134 2 135 1 136 8 137 2 138 15 139 6 140 3 141 1 143 1 
147 92 148 16 149 9 150 3 151 3 152 90 153 48 154 999 155 157 156 42 
157 5 158 1 166 3 167 1 168 1 169 1 170 1 180 24 181 32 182 49 
183 11 184 6 185 1 196 1 197 1 198 2 199 2 211 3 212 1 226 1 
228 3 229 1 243 3 255 8 256 62 257 14 258 5 268 1 270 7 271 42 
272 10 273 3 
