Name: L-Alanine
CAS: 56-41-7
MW: 89
Formula: C3H7NO2
Synonym: KEGG: C00041
Synonym: MassBank: KZ000221
Synonym: L-Alanine
Structure: 310A31370A200A200A200A2020362020352020302020302020312020302020302020302020302020303939392056323030300A20202032322E3735303320202D31352E3735303720202020302E30303030204F202020302020302020302020302020302020302020302020302020302020302020302020300A20202032332E3936323720202D31352E3035303620202020302E303030302043202020302020302020302020302020302020302020302020302020302020302020302020300A20202032352E3137353320202D31352E3735303720202020302E303030302043202020302020302020302020302020302020302020302020302020302020302020302020300A20202032362E3338373820202D31352E3035303620202020302E303030302043202020302020302020302020302020302020302020302020302020302020302020302020300A20202032332E3936323720202D31332E3635303820202020302E30303030204F202020302020302020302020302020302020302020302020302020302020302020302020300A20202032352E3137353320202D31372E3135303620202020302E30303030204E202020302020302020302020302020302020302020302020302020302020302020302020300A2020312020322020312020302020202020302020300A2020322020332020312020302020202020302020300A2020332020342020312020302020202020302020300A2020322020352020322020302020202020302020300A2020332020362020312020362020202020302020300A4D2020454E44
Contributor: Ara T, Morishita Y, Shibata D, Kazusa DNA Research Institute
InstType: EI
InstName: Pegasus III TOF-MS system, Leco; GC 6890, Agilent Technologies
IoniMethod: EI
IonPolarity: pos
Date: 2010-10-09 19:48:36+02:00
Num Peaks: 48
82 2 83 2 84 8 85 3 86 36 87 12 88 8 89 3 93 1 94 17 
95 1 98 3 99 3 100 72 101 19 102 20 103 43 104 4 105 4 112 1 
113 2 114 13 115 14 116 999 117 133 118 43 119 7 128 18 129 3 130 6 
131 20 132 8 133 24 134 4 135 2 144 3 146 3 147 212 148 34 149 16 
150 2 174 2 175 1 190 34 191 9 192 3 218 10 219 1 
