Name: S-Adenosyl-L-methionine
CAS: 29908-03-0
MW: 398
Formula: C15H22N6O5S
Synonym: KEGG: C00019
Synonym: MassBank: KZ000263
Synonym: S-Adenosyl-L-methionine
Structure: 32372032392020302020302020312020302020302020302020302020303939392056323030300A20202033322E3338373120202D32312E3338393920202020302E30303030204E202020302020302020332020302020302020302020302020302020302020302020302020300A20202033332E3434363420202D32322E3132373220202020302E303030302043202020302020302020302020302020302020302020302020302020302020302020302020300A20202033312E3038373720202D32312E3830353420202020302E303030302043202020302020302020322020302020302020302020302020302020302020302020302020300A20202033322E3836313120202D31392E3939313220202020302E303030302043202020302020302020302020302020302020302020302020302020302020302020302020300A20202033342E3638313120202D32312E3232303220202020302E303030302043202020302020302020302020302020302020302020302020302020302020302020302020300A20202033332E3538313020202D32332E3534393620202020302E30303030204E202020302020302020302020302020302020302020302020302020302020302020302020300A20202032392E3935323320202D32302E3935363820202020302E30303030204F202020302020302020302020302020302020302020302020302020302020302020302020300A20202033302E3636303620202D32332E3035373920202020302E303030302043202020302020302020312020302020302020302020302020302020302020302020302020300A20202033342E3330363720202D31392E3939373120202020302E30303030204E202020302020302020302020302020302020302020302020302020302020302020302020300A20202033352E3933393520202D32312E3737363220202020302E303030302043202020302020302020302020302020302020302020302020302020302020302020302020300A20202033342E3930393420202D32342E3134303720202020302E303030302043202020302020302020302020302020302020302020302020302020302020302020302020300A20202032382E3834363120202D32312E3734363820202020302E303030302043202020302020302020312020302020302020302020302020302020302020302020302020300A20202032392E3237393420202D32332E3035373920202020302E303030302043202020302020302020312020302020302020302020302020302020302020302020302020300A20202033312E3037303220202D32342E3339323220202020302E30303030204F202020302020302020302020302020302020302020302020302020302020302020302020300A20202033362E3039373520202D32332E3236323720202020302E30303030204E202020302020302020302020302020302020302020302020302020302020302020302020300A20202033372E3034353520202D32302E3935303920202020302E30303030204E202020302020302020302020302020302020302020302020302020302020302020302020300A20202032372E3534373020202D32312E3333373220202020302E303030302043202020302020302020302020302020302020302020302020302020302020302020302020300A20202032382E3832383620202D32342E3338363420202020302E30303030204F202020302020302020302020302020302020302020302020302020302020302020302020300A20202032362E3433353020202D32322E3137343020202020302E303030302053202020302020332020332020302020302020302020302020302020302020302020302020300A20202032352E3231373620202D32312E3437313720202020302E303030302043202020302020302020302020302020302020302020302020302020302020302020302020300A20202032362E3434373020202D32332E3536373020202020302E303030302043202020302020302020302020302020302020302020302020302020302020302020302020300A20202032342E3030363220202D32322E3136383220202020302E303030302043202020302020302020302020302020302020302020302020302020302020302020302020300A20202032322E3830303420202D32312E3437313720202020302E303030302043202020302020302020312020302020302020302020302020302020302020302020302020300A20202032312E3538393120202D32322E3136383220202020302E303030302043202020302020302020302020302020302020302020302020302020302020302020302020300A20202032322E3830303420202D32302E3036373420202020302E30303030204E202020302020302020302020302020302020302020302020302020302020302020302020300A20202032302E3337373720202D32312E3437313720202020302E30303030204F202020302020352020302020302020302020302020302020302020302020302020302020300A20202032312E3538393120202D32332E3536373020202020302E30303030204F202020302020302020302020302020302020302020302020302020302020302020302020300A2020312020322020312020302020202020302020300A2020332020312020312020312020202020302020300A2020312020342020312020302020202020302020300A2020322020352020322020302020202020302020300A2020322020362020312020302020202020302020300A2020332020372020312020302020202020302020300A2020332020382020312020302020202020302020300A2020342020392020322020302020202020302020300A2020352031302020312020302020202020302020300A2020362031312020322020302020202020302020300A2020372031322020312020302020202020302020300A2020382031332020312020302020202020302020300A2020382031342020312020362020202020302020300A2031302031352020322020302020202020302020300A2031302031362020312020302020202020302020300A2031322031372020312020312020202020302020300A2031332031382020312020362020202020302020300A2031372031392020312020302020202020302020300A2031392032302020312020302020202020302020300A2031392032312020312020302020202020302020300A2032302032322020312020302020202020302020300A2032322032332020312020302020202020302020300A2032332032342020312020302020202020302020300A2032332032352020312020312020202020302020300A2032342032362020312020302020202020302020300A2032342032372020322020302020202020302020300A2020352020392020312020302020202020302020300A2031312031352020312020302020202020302020300A2031322031332020312020302020202020302020300A4D202043484720203220203139202020312020323620202D310A4D2020454E44
Contributor: Ara T, Morishita Y, Shibata D, Kazusa DNA Research Institute
InstType: EI
InstName: Pegasus III TOF-MS system, Leco; GC 6890, Agilent Technologies
IoniMethod: EI
IonPolarity: pos
Date: 2010-10-09 19:48:36+02:00
Num Peaks: 246
82 13 83 30 84 130 85 97 86 31 87 81 88 12 89 22 90 10 91 16 
92 10 93 9 94 7 95 16 96 12 97 38 98 16 99 93 100 28 101 94 
102 18 103 108 104 9 105 60 106 9 107 11 108 17 109 49 110 14 111 86 
112 14 113 28 114 9 115 60 116 43 117 38 118 9 119 31 120 7 121 9 
122 8 123 16 124 10 125 14 126 10 127 38 128 8 129 215 130 30 131 61 
132 15 133 83 134 15 135 28 136 16 137 17 138 29 139 7 140 8 141 22 
142 46 143 84 144 15 145 24 146 7 147 263 148 46 149 51 150 15 151 15 
152 7 153 12 154 5 155 11 156 6 157 22 158 8 159 8 160 4 161 8 
162 22 163 12 164 23 165 122 166 23 167 10 168 3 169 342 170 54 171 37 
172 7 173 23 174 7 175 508 176 92 177 56 178 13 179 13 180 29 181 11 
182 4 183 2 184 3 185 4 186 2 187 4 188 657 189 113 190 73 191 38 
192 331 193 56 194 17 195 3 196 2 197 1 198 1 199 2 200 2 201 13 
202 4 203 4 204 23 205 13 206 74 207 116 208 192 209 42 210 11 211 2 
212 1 214 1 215 8 216 7 217 59 218 20 219 15 220 17 221 7 222 3 
223 3 224 1 225 1 226 1 227 1 228 1 229 2 230 9 231 11 232 7 
233 5 234 18 235 16 236 999 237 178 238 53 239 8 240 1 241 1 242 1 
243 22 244 7 245 89 246 25 247 10 248 7 249 4 250 3 251 2 252 2 
253 1 254 1 257 1 258 8 259 8 260 5 261 3 262 8 263 4 264 28 
265 8 266 6 267 1 268 1 274 2 276 2 277 3 278 15 279 10 280 36 
281 9 282 4 286 1 287 1 288 1 289 11 290 5 291 7 292 3 293 1 
294 3 295 1 304 1 305 3 306 21 307 7 308 5 309 1 310 1 320 2 
321 1 322 9 323 2 324 1 332 1 333 2 334 15 335 5 336 3 337 4 
338 12 339 3 340 1 348 1 350 1 360 1 362 1 375 1 376 7 377 2 
378 2 394 1 408 2 409 1 410 1 423 1 440 1 465 2 466 6 467 3 
468 1 496 1 497 13 498 32 499 17 500 8 
