Name: 3-Aminopropionitrile
CAS: 151-18-8
MW: 70
Formula: C3H6N2
Synonym: KEGG: C05670
Synonym: MassBank: KZ000175
Synonym: 3-Aminopropionitrile
Structure: 310A31350A2020352020342020302020202020302020302020202020202020202020203939392056323030300A2020202D302E3437393320202020302E3130363920202020302E303030302043202020302020302020302020302020302020302020202020202020202020302020302020300A20202020302E333639302020202D312E3336393020202020302E303030302043202020302020302020302020302020302020302020202020202020202020302020302020300A20202020302E3732343120202020312E3331303320202020302E303030302043202020302020302020302020302020302020302020202020202020202020302020302020300A2020202D302E343832382020202D322E3833373920202020302E30303030204E202020302020302020302020302020302020302020202020202020202020302020302020300A2020202D302E3133313020202020322E3738363220202020302E30303030204E202020302020302020302020302020302020302020202020202020202020302020302020300A2020312020322020312020302020202020302020300A2020312020332020312020302020202020302020300A2020322020342020312020302020202020302020300A2020332020352020332020302020202020302020300A4D2020454E44
Contributor: Ara T, Morishita Y, Shibata D, Kazusa DNA Research Institute
InstType: EI
InstName: Pegasus III TOF-MS system, Leco; GC 6890, Agilent Technologies
IoniMethod: EI
IonPolarity: pos
Date: 2010-10-09 19:48:36+02:00
Num Peaks: 78
82 11 83 13 84 95 85 43 86 999 87 97 88 35 89 3 92 28 93 2 
94 1 95 2 96 2 97 14 98 250 99 51 100 332 101 67 102 34 103 7 
104 2 110 2 111 28 112 6 113 24 114 23 115 31 116 25 117 26 118 5 
119 2 124 1 125 11 126 8 127 4 128 3 129 13 130 93 131 37 132 11 
133 2 140 2 141 11 142 5 143 2 144 3 145 1 146 28 147 5 148 2 
154 2 155 1 156 10 157 2 158 6 159 1 160 1 169 1 170 981 171 198 
172 241 173 45 174 914 175 158 176 66 177 7 178 1 183 3 184 2 185 1 
186 1 188 1 197 3 199 360 200 71 201 31 202 3 214 3 
