Name: Spermine
CAS: 71-44-3
MW: 202
Formula: C10H26N4
Synonym: KEGG: C00750
Synonym: MassBank: KZ000268
Synonym: Spermine
Structure: 31342031332020302020302020302020302020302020302020302020303939392056323030300A20202032302E3538303020202D31372E3038303020202020302E30303030204E202020302020302020302020302020302020302020302020302020302020302020302020300A20202032312E3739323420202D31362E3338303020202020302E303030302043202020302020302020302020302020302020302020302020302020302020302020302020300A20202032332E3030343920202D31372E3038303020202020302E303030302043202020302020302020302020302020302020302020302020302020302020302020302020300A20202032342E3231373320202D31362E3338303020202020302E303030302043202020302020302020302020302020302020302020302020302020302020302020302020300A20202032352E3432393720202D31372E3038303020202020302E30303030204E202020302020302020302020302020302020302020302020302020302020302020302020300A20202032362E3634323220202D31362E3338303020202020302E303030302043202020302020302020302020302020302020302020302020302020302020302020302020300A20202032372E3835343620202D31372E3038303020202020302E303030302043202020302020302020302020302020302020302020302020302020302020302020302020300A20202032392E3036373020202D31362E3338303020202020302E303030302043202020302020302020302020302020302020302020302020302020302020302020302020300A20202033302E3237393520202D31372E3038303020202020302E303030302043202020302020302020302020302020302020302020302020302020302020302020302020300A20202033312E3439313920202D31362E3338303020202020302E30303030204E202020302020302020302020302020302020302020302020302020302020302020302020300A20202033322E3730343420202D31372E3038303020202020302E303030302043202020302020302020302020302020302020302020302020302020302020302020302020300A20202033332E3931363820202D31362E3338303020202020302E303030302043202020302020302020302020302020302020302020302020302020302020302020302020300A20202033352E3132393220202D31372E3038303020202020302E303030302043202020302020302020302020302020302020302020302020302020302020302020302020300A20202033362E3334313720202D31362E3338303020202020302E30303030204E202020302020302020302020302020302020302020302020302020302020302020302020300A2020312020322020312020302020202020302020300A2020322020332020312020302020202020302020300A2020332020342020312020302020202020302020300A2020342020352020312020302020202020302020300A2020352020362020312020302020202020302020300A2020362020372020312020302020202020302020300A2020372020382020312020302020202020302020300A2020382020392020312020302020202020302020300A2020392031302020312020302020202020302020300A2031302031312020312020302020202020302020300A2031312031322020312020302020202020302020300A2031322031332020312020302020202020302020300A2031332031342020312020302020202020302020300A4D2020454E44
Contributor: Ara T, Morishita Y, Shibata D, Kazusa DNA Research Institute
InstType: EI
InstName: Pegasus III TOF-MS system, Leco; GC 6890, Agilent Technologies
IoniMethod: EI
IonPolarity: pos
Date: 2010-10-09 19:48:36+02:00
Num Peaks: 142
82 20 83 13 84 219 85 28 86 549 87 58 88 39 89 4 90 1 93 1 
94 6 95 2 96 17 97 5 98 34 99 15 100 262 101 56 102 121 103 16 
104 5 106 1 108 3 109 4 110 17 111 7 112 35 113 16 114 78 115 68 
116 999 117 135 118 43 119 4 120 1 122 1 123 1 124 2 125 2 126 12 
127 6 128 69 129 128 130 174 131 37 132 15 133 2 134 1 136 1 138 1 
139 1 140 24 141 11 142 221 143 41 144 712 145 100 146 102 147 14 148 6 
150 1 152 2 153 1 154 29 155 9 156 234 157 46 158 28 159 5 160 258 
161 46 162 21 163 2 168 13 169 5 170 75 171 16 172 170 173 34 174 450 
175 85 176 37 177 4 178 1 180 1 182 11 183 12 184 11 185 6 186 42 
187 11 188 14 189 3 190 1 197 1 198 1 199 2 200 5 201 78 202 21 
203 8 204 1 211 1 212 1 213 1 214 1 215 4 216 1 227 1 228 1 
229 3 230 1 231 1 237 1 241 1 242 1 243 3 244 2 245 2 255 2 
256 1 257 4 258 1 259 7 260 1 269 1 270 1 271 3 273 2 299 10 
300 3 301 1 303 7 304 2 328 1 329 26 330 8 331 4 332 1 343 1 
345 6 346 2 
