Name: Psoralen
CAS: 66-97-7
MW: 186
Formula: C11H6O3
Synonym: KEGG: C09305
Synonym: MassBank: KZ000069
Synonym: Psoralen
Structure: 31342031362020302020202020302020302020202020202020202020203939392056323030300A20202020302E3336353520202020302E3436393020202020302E303030302043202020302020302020302020302020302020302020202020202020202020302020302020300A20202020302E333531372020202D302E3335353220202020302E303030302043202020302020302020302020302020302020302020202020202020202020302020302020300A2020202D302E3334383320202020302E3839333120202020302E303030302043202020302020302020302020302020302020302020202020202020202020302020302020300A20202020312E3038363220202020302E3836393020202020302E303030302043202020302020302020302020302020302020302020202020202020202020302020302020300A2020202D302E333639302020202D302E3736353520202020302E303030302043202020302020302020302020302020302020302020202020202020202020302020302020300A20202020312E303538362020202D302E3737393320202020302E30303030204F202020302020302020302020302020302020302020202020202020202020302020302020300A2020202D312E3036353520202020302E3438363220202020302E303030302043202020302020302020302020302020302020302020202020202020202020302020302020300A20202020312E3739363620202020302E3434383320202020302E303030302043202020302020302020302020302020302020302020202020202020202020302020302020300A2020202D312E303739332020202D302E3334313420202020302E303030302043202020302020302020302020302020302020302020202020202020202020302020302020300A20202020312E373832382020202D302E3337393320202020302E303030302043202020302020302020302020302020302020302020202020202020202020302020302020300A2020202D312E3835313720202020302E3735353220202020302E303030302043202020302020302020302020302020302020302020202020202020202020302020302020300A2020202D312E383732342020202D302E3538363220202020302E30303030204F202020302020302020302020302020302020302020202020202020202020302020302020300A20202020322E343933312020202D302E3830363920202020302E30303030204F202020302020302020302020302020302020302020202020202020202020302020302020300A2020202D322E3334383320202020302E3038393720202020302E303030302043202020302020302020302020302020302020302020202020202020202020302020302020300A2020312020322020322020302020202020302020300A2020312020332020312020302020202020302020300A2020312020342020312020302020202020302020300A2020322020352020312020302020202020302020300A2020322020362020312020302020202020302020300A2020332020372020322020302020202020302020300A2020342020382020322020302020202020302020300A2020352020392020322020302020202020302020300A2020362031302020312020302020202020302020300A2020372031312020312020302020202020302020300A2020392031322020312020302020202020302020300A2031302031332020322020302020202020302020300A2031312031342020322020302020202020302020300A2020372020392020312020302020202020302020300A2020382031302020312020302020202020302020300A2031322031342020312020302020202020302020300A4D2020454E44
Contributor: Ara T, Morishita Y, Shibata D, Kazusa DNA Research Institute
InstType: EI
InstName: Pegasus III TOF-MS system, Leco; GC 6890, Agilent Technologies
IoniMethod: EI
IonPolarity: pos
Date: 2010-10-09 19:48:36+02:00
Num Peaks: 47
84 14 85 48 86 72 87 74 88 16 89 17 90 3 91 1 92 2 93 36 
94 1 97 9 98 50 99 18 100 16 101 129 102 855 103 82 104 29 105 2 
109 3 110 4 111 1 113 7 114 2 115 1 116 2 117 3 118 1 119 1 
128 2 129 151 130 380 131 48 132 8 141 1 142 1 145 1 157 17 158 999 
159 126 160 12 161 1 185 3 186 844 187 103 188 11 
