Name: Pyridoxine
CAS: 65-23-6
MW: 169
Formula: C8H11NO3
Synonym: KEGG: C00314
Synonym: MassBank: KZ000070
Synonym: Pyridoxine
Structure: 31322031322020302020302020302020302020302020302020302020303939392056323030300A20202032342E3731363020202D31382E3036303720202020302E303030302043202020302020302020302020302020302020302020302020302020302020302020302020300A20202032352E3933393720202D31382E3735343320202020302E303030302043202020302020302020302020302020302020302020302020302020302020302020302020300A20202032332E3530343020202D31382E3735343320202020302E303030302043202020302020302020302020302020302020302020302020302020302020302020302020300A20202032342E3731303320202D31362E3636323120202020302E303030302043202020302020302020302020302020302020302020302020302020302020302020302020300A20202032352E3933393720202D32302E3136343320202020302E303030302043202020302020302020302020302020302020302020302020302020302020302020302020300A20202032372E3134303220202D31382E3035353020202020302E303030302043202020302020302020302020302020302020302020302020302020302020302020302020300A20202032332E3530343020202D32302E3136343320202020302E303030302043202020302020302020302020302020302020302020302020302020302020302020302020300A20202032322E3330333520202D31382E3036303720202020302E30303030204F202020302020302020302020302020302020302020302020302020302020302020302020300A20202032352E3931363620202D31352E3936323820202020302E30303030204F202020302020302020302020302020302020302020302020302020302020302020302020300A20202032342E3731363020202D32302E3837353320202020302E30303030204E202020302020302020302020302020302020302020302020302020302020302020302020300A20202032382E3335323320202D31382E3734383320202020302E30303030204F202020302020302020302020302020302020302020302020302020302020302020302020300A20202032322E3239373720202D32302E3835373920202020302E303030302043202020302020302020302020302020302020302020302020302020302020302020302020300A2020312020322020322020302020202020302020300A2020312020332020312020302020202020302020300A2020312020342020312020302020202020302020300A2020322020352020312020302020202020302020300A2020322020362020312020302020202020302020300A2020332020372020322020302020202020302020300A2020332020382020312020302020202020302020300A2020342020392020312020302020202020302020300A2020352031302020322020302020202020302020300A2020362031312020312020302020202020302020300A2020372031322020312020302020202020302020300A2020372031302020312020302020202020302020300A4D2020454E44
Contributor: Ara T, Morishita Y, Shibata D, Kazusa DNA Research Institute
InstType: EI
InstName: Pegasus III TOF-MS system, Leco; GC 6890, Agilent Technologies
IoniMethod: EI
IonPolarity: pos
Date: 2010-10-09 19:48:36+02:00
Num Peaks: 212
82 6 83 48 84 19 85 28 86 9 87 20 88 7 89 35 90 12 91 61 
92 21 93 22 94 14 95 24 96 10 97 30 98 14 99 17 100 9 101 11 
102 10 103 75 104 30 105 56 106 208 107 36 108 11 109 23 110 11 111 23 
112 5 113 11 114 5 115 39 116 17 117 59 118 37 119 48 120 37 121 21 
122 18 123 18 124 8 125 10 126 3 127 4 128 3 129 6 130 26 131 118 
132 51 133 264 134 119 135 50 136 26 137 15 138 9 139 11 140 2 141 3 
142 1 143 11 144 8 145 10 146 18 147 999 148 219 149 131 150 53 151 26 
152 12 153 6 154 2 155 3 156 2 157 8 158 5 159 3 160 9 161 7 
162 31 163 18 164 65 165 31 166 29 167 13 168 5 169 3 170 2 171 2 
172 4 173 2 174 9 175 8 176 39 177 21 178 68 179 51 180 59 181 31 
182 10 183 4 184 3 185 1 186 2 187 1 188 8 189 7 190 53 191 29 
192 129 193 42 194 56 195 22 196 11 197 3 198 2 199 1 200 1 201 1 
202 2 203 3 204 20 205 26 206 140 207 95 208 115 209 31 210 12 211 4 
212 2 213 1 214 1 215 1 216 1 218 3 219 2 220 17 221 41 222 160 
223 40 224 20 225 6 226 2 227 1 228 1 232 2 233 1 234 4 235 3 
236 9 237 5 238 15 239 7 240 5 241 2 246 1 247 1 248 4 249 3 
250 29 251 14 252 92 253 40 254 23 255 7 256 2 262 1 263 1 264 14 
265 14 266 20 267 10 268 5 269 2 270 1 278 1 280 324 281 127 282 56 
283 15 284 4 285 1 286 1 287 1 288 1 289 1 290 1 291 1 292 1 
294 7 295 85 296 35 297 19 298 6 299 2 300 1 312 1 326 5 327 10 
328 5 329 2 340 1 341 1 342 1 354 2 355 1 370 68 371 29 372 13 
373 3 374 1 
