Name: Shikimic acid
CAS: 138-59-0
MW: 174
Formula: C7H10O5
Synonym: KEGG: C00493
Synonym: MassBank: KZ000072
Synonym: Shikimic acid
Structure: 31322031322020302020302020312020302020302020302020302020303939392056323030300A20202032322E3132303020202D31352E3131323720202020302E303030302043202020302020302020302020302020302020302020302020302020302020302020302020300A20202032332E3333373520202D31352E3831313220202020302E303030302043202020302020302020302020302020302020302020302020302020302020302020302020300A20202032302E3930393020202D31352E3831313220202020302E303030302043202020302020302020302020302020302020302020302020302020302020302020302020300A20202032322E3131333720202D31332E3732323320202020302E303030302043202020302020302020302020302020302020302020302020302020302020302020302020300A20202032332E3333373520202D31372E3232303820202020302E303030302043202020302020302020322020302020302020302020302020302020302020302020302020300A20202032302E3930393020202D31372E3232303820202020302E303030302043202020302020302020322020302020302020302020302020302020302020302020302020300A20202032332E3331383220202D31332E3032333820202020302E30303030204F202020302020302020302020302020302020302020302020302020302020302020302020300A20202032302E3930323520202D31332E3033303120202020302E30303030204F202020302020302020302020302020302020302020302020302020302020302020302020300A20202032322E3132303020202D31372E3933323220202020302E303030302043202020302020302020312020302020302020302020302020302020302020302020302020300A20202032342E3534383520202D31372E3931323820202020302E30303030204F202020302020302020302020302020302020302020302020302020302020302020302020300A20202031392E3639373820202D31372E3931323820202020302E30303030204F202020302020302020302020302020302020302020302020302020302020302020302020300A20202032322E3131333720202D31392E3332393020202020302E30303030204F202020302020302020302020302020302020302020302020302020302020302020302020300A2020312020322020312020302020202020302020300A2020312020332020322020302020202020302020300A2020312020342020312020302020202020302020300A2020322020352020312020302020202020302020300A2020332020362020312020302020202020302020300A2020342020372020312020302020202020302020300A2020342020382020322020302020202020302020300A2020352020392020312020302020202020302020300A2020352031302020312020312020202020302020300A2020362031312020312020362020202020302020300A2020392031322020312020362020202020302020300A2020362020392020312020302020202020302020300A4D2020454E44
Contributor: Ara T, Morishita Y, Shibata D, Kazusa DNA Research Institute
InstType: EI
InstName: Pegasus III TOF-MS system, Leco; GC 6890, Agilent Technologies
IoniMethod: EI
IonPolarity: pos
Date: 2010-10-09 19:48:36+02:00
Num Peaks: 219
82 2 83 16 84 6 85 16 86 6 87 16 88 7 89 13 90 4 91 36 
92 13 93 50 94 10 95 21 96 12 97 12 98 5 99 16 100 3 101 76 
102 12 103 79 104 10 105 45 106 7 107 8 108 4 109 18 110 3 111 26 
112 5 113 10 114 2 115 23 116 45 117 30 118 7 119 25 120 5 121 20 
122 4 123 16 124 4 125 15 126 6 127 5 128 1 129 19 130 3 131 75 
132 12 133 183 134 25 135 27 136 5 137 9 138 3 139 12 140 5 141 36 
142 7 143 10 144 1 145 4 146 1 147 717 148 118 149 85 150 11 151 37 
152 7 153 12 154 5 155 7 156 4 157 7 158 1 159 4 160 1 161 5 
162 1 163 7 164 4 165 14 166 11 167 45 168 9 169 14 170 2 171 2 
173 1 175 2 177 11 178 2 179 7 180 15 181 25 182 8 183 7 184 2 
185 1 187 1 189 74 190 19 191 38 192 7 193 29 194 6 195 18 196 4 
197 3 198 1 199 2 200 1 201 1 203 2 204 999 205 208 206 97 207 21 
208 4 209 7 210 4 211 4 212 1 213 1 215 5 216 1 217 8 218 1 
219 1 221 27 222 7 223 14 224 4 225 8 226 2 227 3 228 1 229 4 
230 1 231 1 237 1 238 1 239 27 240 10 241 11 242 3 243 19 244 4 
245 2 251 2 252 1 253 8 254 70 255 101 256 28 257 13 258 10 259 2 
260 1 265 10 266 3 267 29 268 8 269 8 270 2 271 2 272 1 281 7 
282 47 283 29 284 11 285 5 286 1 299 1 300 1 305 7 306 2 307 1 
311 1 312 5 313 4 314 2 315 1 325 1 327 1 329 5 330 2 331 17 
332 6 333 3 334 1 341 2 342 4 343 4 344 2 345 1 346 2 347 1 
355 6 356 14 357 50 358 18 359 10 360 2 371 2 372 42 373 15 374 8 
375 2 417 1 447 7 448 3 449 1 461 1 462 10 463 4 464 2 
