Name: Fumaric acid
CAS: 110-17-8
MW: 116
Formula: C4H4O4
Synonym: KEGG: C00122
Synonym: MassBank: KZ000137
Synonym: Fumaric acid
Structure: 310A32310A200A200A200A2020382020372020302020302020302020302020302020302020302020303939392056323030300A20202032302E3434303620202D31352E3235393020202020302E303030302043202020302020302020302020302020302020302020302020302020302020302020302020300A20202032312E3635313620202D31352E3936313020202020302E303030302043202020302020302020302020302020302020302020302020302020302020302020302020300A20202031392E3232393720202D31352E3936313020202020302E30303030204F202020302020302020302020302020302020302020302020302020302020302020302020300A20202032302E3434303620202D31332E3836303920202020302E30303030204F202020302020302020302020302020302020302020302020302020302020302020302020300A20202032322E3836383420202D31352E3235393020202020302E303030302043202020302020302020302020302020302020302020302020302020302020302020302020300A20202032342E3037393420202D31352E3936313020202020302E303030302043202020302020302020302020302020302020302020302020302020302020302020302020300A20202032352E3239303320202D31352E3235393020202020302E30303030204F202020302020302020302020302020302020302020302020302020302020302020302020300A20202032342E3037393420202D31372E3335393120202020302E30303030204F202020302020302020302020302020302020302020302020302020302020302020302020300A2020312020322020312020302020202020302020300A2020312020332020312020302020202020302020300A2020312020342020322020302020202020302020300A2020322020352020322020302020202020302020300A2020352020362020312020302020202020302020300A2020362020372020312020302020202020302020300A2020362020382020322020302020202020302020300A4D2020454E44
Contributor: Ara T, Morishita Y, Shibata D, Kazusa DNA Research Institute
InstType: EI
InstName: Pegasus III TOF-MS system, Leco; GC 6890, Agilent Technologies
IoniMethod: EI
IonPolarity: pos
Date: 2010-10-09 19:48:36+02:00
Num Peaks: 91
82 26 83 260 84 114 85 48 86 8 87 11 88 2 89 12 90 1 91 1 
92 1 93 4 95 2 97 9 98 21 99 23 100 4 101 6 102 3 103 19 
104 3 105 7 106 1 107 1 111 4 112 1 113 27 114 3 115 91 116 11 
117 22 118 4 119 10 120 1 121 1 125 1 126 15 127 40 128 18 129 10 
130 1 131 22 132 9 133 121 134 18 135 12 136 1 141 4 142 9 143 222 
144 31 145 16 146 2 147 873 148 144 149 113 150 13 151 6 155 70 156 12 
157 36 158 6 159 7 160 1 161 1 170 11 171 16 172 3 173 10 174 2 
175 1 185 1 187 1 201 6 202 2 203 1 215 4 216 2 217 33 218 12 
219 5 220 1 230 1 242 3 243 1 244 5 245 999 246 200 247 83 248 11 
249 2 
