Name: D-(+)-Trehalose
CAS: 99-20-7
MW: 342
Formula: C12H22O11
Synonym: KEGG: C01083
Synonym: MassBank: KZ000128
Synonym: D-(+)-Trehalose
Structure: 32332032342020302020202020312020302020202020202020202020203939392056323030300A20202020302E3731333820202020302E3431373220202020302E303030302043202020302020302020312020302020302020302020202020202020202020302020302020300A20202020302E3030303020202020302E3030303020202020302E30303030204F202020302020302020302020302020302020302020202020202020202020302020302020300A20202020312E3433343520202020302E3030303020202020302E30303030204F202020302020302020302020302020302020302020202020202020202020302020302020300A20202020302E3731333820202020312E3234343820202020302E303030302043202020302020302020312020302020302020302020202020202020202020302020302020300A2020202D302E373133382020202D302E3431373220202020302E303030302043202020302020302020312020302020302020302020202020202020202020302020302020300A20202020322E3134383320202020302E3431373220202020302E303030302043202020302020302020312020302020302020302020202020202020202020302020302020300A20202020312E3433343520202020312E3635353220202020302E303030302043202020302020302020322020302020302020302020202020202020202020302020302020300A20202020302E3030303020202020312E3635353220202020302E30303030204F202020302020302020302020302020302020302020202020202020202020302020302020300A2020202D312E3433343520202020302E3030303020202020302E30303030204F202020302020302020302020302020302020302020202020202020202020302020302020300A2020202D302E373133382020202D312E3234343820202020302E303030302043202020302020302020312020302020302020302020202020202020202020302020302020300A20202020322E3134383320202020312E3234343820202020302E303030302043202020302020302020322020302020302020302020202020202020202020302020302020300A20202020322E3836353520202020302E3030303020202020302E303030302043202020302020302020302020302020302020302020202020202020202020302020302020300A20202020312E3433343520202020322E3438323820202020302E30303030204F202020302020302020302020302020302020302020202020202020202020302020302020300A2020202D322E313438332020202D302E3431373220202020302E303030302043202020302020302020312020302020302020302020202020202020202020302020302020300A2020202D312E343334352020202D312E3635353220202020302E303030302043202020302020302020322020302020302020302020202020202020202020302020302020300A20202020302E303030302020202D312E3635353220202020302E30303030204F202020302020302020302020302020302020302020202020202020202020302020302020300A20202020322E3836353520202020312E3635353220202020302E30303030204F202020302020302020302020302020302020302020202020202020202020302020302020300A20202020332E3439333120202020302E3533373920202020302E30303030204F202020302020302020302020302020302020302020202020202020202020302020302020300A2020202D322E313438332020202D312E3234343820202020302E303030302043202020302020302020322020302020302020302020202020202020202020302020302020300A2020202D322E3836353520202020302E3030303020202020302E303030302043202020302020302020302020302020302020302020202020202020202020302020302020300A2020202D312E343334352020202D322E3438323820202020302E30303030204F202020302020302020302020302020302020302020202020202020202020302020302020300A2020202D322E383635352020202D312E3635353220202020302E30303030204F202020302020302020302020302020302020302020202020202020202020302020302020300A2020202D332E343933312020202D302E3534313420202020302E30303030204F202020302020302020302020302020302020302020202020202020202020302020302020300A2020312020322020312020362020202020302020300A2020312020332020312020302020202020302020300A2020312020342020312020302020202020302020300A2020352020322020312020362020202020302020300A2020332020362020312020302020202020302020300A2020342020372020312020302020202020302020300A2020342020382020312020362020202020302020300A2020352020392020312020302020202020302020300A2020352031302020312020302020202020302020300A2020362031312020312020302020202020302020300A2020362031322020312020312020202020302020300A2020372031332020312020312020202020302020300A2020392031342020312020302020202020302020300A2031302031352020312020302020202020302020300A2031302031362020312020362020202020302020300A2031312031372020312020362020202020302020300A2031322031382020312020302020202020302020300A2031342031392020312020302020202020302020300A2031342032302020312020312020202020302020300A2031352032312020312020312020202020302020300A2031392032322020312020362020202020302020300A2032302032332020312020302020202020302020300A2020372031312020312020302020202020302020300A2031352031392020312020302020202020302020300A4D2020454E44
Contributor: Ara T, Morishita Y, Shibata D, Kazusa DNA Research Institute
InstType: EI
InstName: Pegasus III TOF-MS system, Leco; GC 6890, Agilent Technologies
IoniMethod: EI
IonPolarity: pos
Date: 2010-10-09 19:48:36+02:00
Num Peaks: 254
82 3 83 8 85 12 86 1 87 9 88 2 89 26 90 2 91 1 95 2 
97 7 98 2 99 12 100 2 101 38 102 9 103 509 104 48 105 20 106 1 
107 1 109 22 110 2 111 9 112 2 113 25 114 7 115 14 116 21 117 126 
118 15 119 14 120 2 121 1 123 1 125 3 126 2 127 14 128 5 129 381 
130 48 131 74 132 12 133 84 134 13 135 10 136 1 137 1 138 1 139 11 
140 3 141 15 142 16 143 73 144 11 145 23 146 5 147 743 148 111 149 80 
150 10 151 6 152 1 153 12 154 4 155 66 156 13 157 57 158 9 159 11 
160 2 161 8 162 2 163 13 164 3 165 1 166 1 167 4 168 2 169 264 
170 44 171 25 172 4 173 16 174 4 175 11 176 3 177 12 178 3 179 2 
180 1 181 6 182 2 183 20 184 4 185 6 186 2 187 8 188 2 189 115 
190 28 191 730 192 128 193 57 194 7 195 3 196 1 197 2 198 1 199 13 
200 3 201 8 202 6 203 41 204 284 205 126 206 39 207 23 208 5 209 3 
210 1 211 2 212 1 213 2 214 1 215 18 216 7 217 575 218 136 219 64 
220 12 221 35 222 9 223 5 224 1 225 1 227 14 228 6 229 51 230 27 
231 43 232 12 233 28 234 10 235 4 236 1 237 1 239 2 240 1 241 19 
242 8 243 181 244 55 245 50 246 12 247 14 248 3 249 2 250 1 253 1 
254 1 255 8 256 4 257 20 258 6 259 19 260 5 261 3 262 1 263 18 
264 4 265 10 266 3 267 1 269 1 270 3 271 184 272 48 273 28 274 5 
275 3 276 1 277 2 278 3 279 7 280 2 281 1 285 1 287 4 288 2 
289 4 290 7 291 26 292 9 293 5 294 1 295 1 303 2 304 6 305 26 
306 13 307 7 308 2 309 1 313 1 315 1 316 1 317 10 318 11 319 55 
320 28 321 12 322 4 323 2 324 1 330 5 331 44 332 33 333 15 334 6 
335 2 336 1 344 1 345 5 346 3 347 2 348 1 349 1 359 1 360 42 
361 999 362 310 363 143 364 31 365 8 366 1 373 1 377 5 378 2 379 2 
393 1 405 1 407 1 434 1 435 11 436 5 437 2 450 2 451 10 452 4 
453 2 463 5 464 2 465 1 
