Name: MassBank: KZ000174
CAS: 102-32-9
MW: 168
Formula: C8H8O4
Synonym: KEGG: C01161
Synonym: MassBank: KZ000174
Synonym: 3,4-Dihydroxyphenylacetic acid
Structure: 31322031322020302020202020302020302020202020202020202020203939392056323030300A2020202D302E3233373920202020302E3237393320202020302E303030302043202020302020302020302020302020302020302020202020202020202020302020302020300A20202020302E3438323820202020302E3638393720202020302E303030302043202020302020302020302020302020302020302020202020202020202020302020302020300A2020202D302E323434382020202D302E3534383320202020302E303030302043202020302020302020302020302020302020302020202020202020202020302020302020300A2020202D302E3935313720202020302E3730303020202020302E303030302043202020302020302020302020302020302020302020202020202020202020302020302020300A20202020312E3230303020202020302E3236393020202020302E303030302043202020302020302020302020302020302020302020202020202020202020302020302020300A20202020302E343732342020202D302E3936393020202020302E303030302043202020302020302020302020302020302020302020202020202020202020302020302020300A2020202D312E3637323420202020302E3238363220202020302E303030302043202020302020302020302020302020302020302020202020202020202020302020302020300A20202020312E313933312020202D302E3536323120202020302E303030302043202020302020302020302020302020302020302020202020202020202020302020302020300A20202020312E3931373220202020302E3637323420202020302E30303030204F202020302020302020302020302020302020302020202020202020202020302020302020300A2020202D322E3338363220202020302E3731303320202020302E30303030204F202020302020302020302020302020302020302020202020202020202020302020302020300A2020202D312E363739332020202D302E3534313420202020302E30303030204F202020302020302020302020302020302020302020202020202020202020302020302020300A20202020312E393036392020202D302E3938323820202020302E30303030204F202020302020302020302020302020302020302020202020202020202020302020302020300A2020312020322020312020302020202020302020300A2020312020332020322020302020202020302020300A2020312020342020312020302020202020302020300A2020322020352020322020302020202020302020300A2020332020362020312020302020202020302020300A2020342020372020312020302020202020302020300A2020352020382020312020302020202020302020300A2020352020392020312020302020202020302020300A2020372031302020312020302020202020302020300A2020372031312020322020302020202020302020300A2020382031322020312020302020202020302020300A2020362020382020322020302020202020302020300A4D2020454E44
Contributor: Ara T, Morishita Y, Shibata D, Kazusa DNA Research Institute
InstType: EI
InstName: Pegasus III TOF-MS system, Leco; GC 6890, Agilent Technologies
IoniMethod: EI
IonPolarity: pos
Date: 2010-10-09 19:48:36+02:00
Num Peaks: 152
82 6 83 9 84 4 85 6 86 1 87 7 88 2 89 15 90 5 91 30 
92 5 93 5 95 8 96 1 97 4 99 9 100 1 101 3 102 6 103 30 
104 96 105 38 106 3 107 3 109 2 111 2 113 2 115 19 116 4 117 21 
118 8 119 42 120 6 121 7 122 1 123 3 129 2 131 26 132 5 133 46 
134 7 135 24 136 4 137 3 143 2 145 5 146 1 147 68 148 14 149 76 
150 18 151 9 152 2 153 2 157 1 159 2 160 1 161 11 162 5 163 29 
164 7 165 5 166 1 167 1 173 1 175 4 176 3 177 25 178 35 179 999 
180 149 181 47 182 4 183 1 189 1 191 6 192 3 193 28 194 5 195 6 
196 2 197 1 203 1 205 2 206 7 207 9 208 3 209 19 210 11 211 4 
212 1 219 2 220 1 221 5 222 2 223 9 224 4 225 15 226 6 227 2 
233 1 234 1 235 4 236 4 237 137 238 37 239 14 240 3 241 1 249 1 
250 1 251 15 252 8 253 24 254 8 255 3 256 1 263 1 264 1 265 35 
266 11 267 370 268 92 269 36 270 6 271 1 280 1 281 21 282 5 283 2 
284 1 294 4 295 1 296 1 297 1 339 1 340 16 341 15 342 13 343 4 
344 1 368 2 369 38 370 18 371 8 372 2 383 13 384 270 385 92 386 43 
387 9 388 2 
