Name: Tryptamine
CAS: 61-54-1
MW: 160
Formula: C10H12N2
Synonym: KEGG: C00398
Synonym: MassBank: KZ000272
Synonym: Tryptamine
Structure: 31322031332020302020302020302020302020302020302020302020303939392056323030300A20202032392E3338343820202D32302E3735353120202020302E303030302043202020302020302020302020302020302020302020302020302020302020302020302020300A20202032392E3338343820202D32322E3037343820202020302E303030302043202020302020302020302020302020302020302020302020302020302020302020302020300A20202033312E3637343720202D32302E3735353120202020302E303030302043202020302020302020302020302020302020302020302020302020302020302020302020300A20202032382E3233333920202D32302E3039383220202020302E303030302043202020302020302020302020302020302020302020302020302020302020302020302020300A20202033302E3532393920202D32322E3831333520202020302E30303030204E202020302020302020302020302020302020302020302020302020302020302020302020300A20202032382E3233333920202D32322E3734393820202020302E303030302043202020302020302020302020302020302020302020302020302020302020302020302020300A20202033312E3637343720202D32322E3037343820202020302E303030302043202020302020302020302020302020302020302020302020302020302020302020302020300A20202033322E3834333820202D32302E3136343420202020302E303030302043202020302020302020302020302020302020302020302020302020302020302020302020300A20202032372E3039343920202D32302E3735353120202020302E303030302043202020302020302020302020302020302020302020302020302020302020302020302020300A20202032372E3039343920202D32322E3037343820202020302E303030302043202020302020302020302020302020302020302020302020302020302020302020302020300A20202033332E3934303720202D32302E3838313720202020302E303030302043202020302020302020302020302020302020302020302020302020302020302020302020300A20202033352E3130393820202D32302E3239373120202020302E30303030204E202020302020302020302020302020302020302020302020302020302020302020302020300A2020312020322020322020302020202020302020300A2020312020332020312020302020202020302020300A2020312020342020312020302020202020302020300A2020322020352020312020302020202020302020300A2020322020362020312020302020202020302020300A2020332020372020322020302020202020302020300A2020332020382020312020302020202020302020300A2020342020392020322020302020202020302020300A2020362031302020322020302020202020302020300A2020382031312020312020302020202020302020300A2031312031322020312020302020202020302020300A2020352020372020312020302020202020302020300A2020392031302020312020302020202020302020300A4D2020454E44
Contributor: Ara T, Morishita Y, Shibata D, Kazusa DNA Research Institute
InstType: EI
InstName: Pegasus III TOF-MS system, Leco; GC 6890, Agilent Technologies
IoniMethod: EI
IonPolarity: pos
Date: 2010-10-09 19:48:36+02:00
Num Peaks: 100
83 2 84 9 85 7 86 342 87 35 88 14 89 3 90 1 91 2 93 1 
98 1 99 4 100 165 101 32 102 28 103 9 104 2 105 4 106 1 113 5 
114 6 115 15 116 21 117 32 118 6 119 5 120 1 127 1 128 4 129 11 
130 70 131 26 132 9 133 3 134 2 135 1 141 1 142 2 143 6 144 16 
145 21 146 23 147 5 148 2 154 1 156 5 157 1 158 10 159 4 160 7 
161 1 169 2 170 8 171 2 172 20 173 15 174 999 175 197 176 88 177 11 
178 2 182 1 184 6 185 2 186 14 187 4 188 5 189 1 198 1 199 4 
200 11 201 3 202 46 203 11 204 3 213 1 214 5 215 5 216 3 217 1 
230 1 244 1 245 1 246 3 247 1 257 1 258 1 260 1 271 1 272 1 
273 30 274 8 275 3 287 6 288 1 361 10 362 3 363 1 376 2 377 1 
