Name: Citric acid
CAS: 77-92-9
MW: 192
Formula: C6H8O7
Synonym: KEGG: C00158
Synonym: MassBank: KZ000018
Synonym: Citric acid
Structure: 31332031322020302020302020302020302020302020302020302020303939392056323030300A20202032382E3037363520202D31382E3739343520202020302E303030302043202020302020302020332020302020302020302020302020302020302020302020302020300A20202032362E3836353320202D31392E3439303820202020302E303030302043202020302020302020302020302020302020302020302020302020302020302020302020300A20202032392E3238373820202D31392E3438343820202020302E303030302043202020302020302020302020302020302020302020302020302020302020302020302020300A20202032382E3736373020202D31372E3537373320202020302E303030302043202020302020302020302020302020302020302020302020302020302020302020302020300A20202032372E3336383420202D31372E3537373320202020302E30303030204F202020302020302020302020302020302020302020302020302020302020302020302020300A20202032352E3635393820202D31382E3830303320202020302E303030302043202020302020302020302020302020302020302020302020302020302020302020302020300A20202032392E3237363120202D32302E3838333520202020302E303030302043202020302020302020302020302020302020302020302020302020302020302020302020300A20202032382E3035383920202D31362E3336303320202020302E30303030204F202020302020302020302020302020302020302020302020302020302020302020302020300A20202033302E3137313420202D31372E3537373320202020302E30303030204F202020302020302020302020302020302020302020302020302020302020302020302020300A20202032342E3434383720202D31392E3530323520202020302E30303030204F202020302020302020302020302020302020302020302020302020302020302020302020300A20202032352E3731383120202D31372E3430313920202020302E30303030204F202020302020302020302020302020302020302020302020302020302020302020302020300A20202033302E3438373420202D32312E3538353620202020302E30303030204F202020302020302020302020302020302020302020302020302020302020302020302020300A20202032382E3035383920202D32312E3537393720202020302E30303030204F202020302020302020302020302020302020302020302020302020302020302020302020300A2020312020322020312020302020202020302020300A2020312020332020312020302020202020302020300A2020312020342020312020302020202020302020300A2020312020352020312020302020202020302020300A2020322020362020312020302020202020302020300A2020332020372020312020302020202020302020300A2020342020382020312020302020202020302020300A2020342020392020322020302020202020302020300A2020362031302020312020302020202020302020300A2020362031312020322020302020202020302020300A2020372031322020312020302020202020302020300A2020372031332020322020302020202020302020300A4D2020454E44
Contributor: Ara T, Morishita Y, Shibata D, Kazusa DNA Research Institute
InstType: EI
InstName: Pegasus III TOF-MS system, Leco; GC 6890, Agilent Technologies
IoniMethod: EI
IonPolarity: pos
Date: 2010-10-09 19:48:36+02:00
Num Peaks: 213
82 4 83 11 84 12 85 15 86 5 87 18 88 10 89 12 90 2 91 3 
92 4 93 18 94 3 95 22 96 7 97 27 98 8 99 86 100 11 101 27 
102 9 103 38 104 6 105 13 106 1 107 1 108 1 109 1 110 1 111 36 
112 5 113 15 114 6 115 77 116 34 117 62 118 8 119 19 120 2 121 3 
123 1 124 1 125 3 126 2 127 5 128 3 129 110 130 15 131 94 132 16 
133 181 134 26 135 21 136 2 137 1 138 1 139 15 140 3 141 33 142 6 
143 67 144 9 145 9 146 3 147 999 148 169 149 180 150 24 151 13 152 1 
153 1 154 1 155 4 156 4 157 25 158 4 159 8 160 1 161 6 162 2 
163 20 164 3 165 2 169 14 170 3 171 18 172 6 173 11 174 2 175 5 
176 1 177 5 178 1 179 1 183 145 184 23 185 43 186 6 187 4 188 1 
189 14 190 11 191 15 192 3 193 4 194 1 195 1 197 1 199 2 200 1 
201 9 202 2 203 3 204 7 205 10 206 2 207 23 208 5 209 3 211 158 
212 25 213 30 214 4 215 28 216 7 217 43 218 8 219 6 220 1 221 70 
222 16 223 9 224 1 225 1 228 1 229 21 230 7 231 37 232 8 233 5 
234 1 235 1 241 2 243 3 244 4 245 5 246 2 247 1 256 2 257 68 
258 16 259 16 260 3 261 1 271 1 272 8 273 518 274 121 275 54 276 9 
277 2 285 18 286 4 287 7 288 2 289 1 291 2 292 1 293 1 301 9 
302 3 303 14 304 6 305 30 306 9 307 6 308 1 309 1 318 1 319 7 
320 2 321 1 331 3 332 2 333 7 334 2 335 1 346 7 347 90 348 30 
349 16 350 4 351 1 362 4 363 55 364 18 365 8 366 1 373 1 374 7 
375 74 376 24 377 13 378 3 379 1 421 1 422 1 437 1 464 5 465 23 
466 11 467 5 468 1 
