Name: D-(+)-Galactose
CAS: 59-23-4
MW: 180
Formula: C6H12O6
Synonym: KEGG: C00124
Synonym: MassBank: KZ000189
Synonym: D-(+)-Galactose
Structure: 31322031322020302020302020312020302020302020302020302020303939392056323030300A20202032302E3931383120202D31332E3532373220202020302E303030302043202020302020302020322020302020302020302020302020302020302020302020302020300A20202032302E3931383120202D31342E3932373720202020302E303030302043202020302020302020312020302020302020302020302020302020302020302020302020300A20202032322E3132363020202D31322E3832373020202020302E30303030204F202020302020302020302020302020302020302020302020302020302020302020302020300A20202031392E3730343320202D31322E3832373020202020302E303030302043202020302020302020302020302020302020302020302020302020302020302020302020300A20202032322E3132363020202D31352E3632373920202020302E303030302043202020302020302020312020302020302020302020302020302020302020302020302020300A20202031392E3730343320202D31352E3632373920202020302E30303030204F202020302020302020302020302020302020302020302020302020302020302020302020300A20202032332E3334353520202D31332E3532373220202020302E303030302043202020302020302020332020302020302020302020302020302020302020302020302020300A20202031382E3634323320202D31332E3733373420202020302E30303030204F202020302020302020302020302020302020302020302020302020302020302020302020300A20202032332E3334353520202D31342E3932373720202020302E303030302043202020302020302020322020302020302020302020302020302020302020302020302020300A20202032322E3132363020202D31372E3032383320202020302E30303030204F202020302020302020302020302020302020302020302020302020302020302020302020300A20202032342E3535333420202D31322E3832373020202020302E30303030204F202020302020302020302020302020302020302020302020302020302020302020302020300A20202032342E3535333420202D31352E3632373920202020302E30303030204F202020302020302020302020302020302020302020302020302020302020302020302020300A2020312020322020312020302020202020302020300A2020312020332020312020302020202020302020300A2020312020342020312020312020202020302020300A2020322020352020312020302020202020302020300A2020322020362020312020312020202020302020300A2020332020372020312020302020202020302020300A2020342020382020312020302020202020302020300A2020352020392020312020302020202020302020300A2020352031302020312020312020202020302020300A2020372031312020312020342020202020302020300A2020392031322020312020362020202020302020300A2020372020392020312020302020202020302020300A4D2020454E44
Contributor: Ara T, Morishita Y, Shibata D, Kazusa DNA Research Institute
InstType: EI
InstName: Pegasus III TOF-MS system, Leco; GC 6890, Agilent Technologies
IoniMethod: EI
IonPolarity: pos
Date: 2010-10-09 19:48:36+02:00
Num Peaks: 244
82 17 83 34 84 10 85 13 86 19 87 16 88 14 89 197 90 18 91 8 
96 1 97 5 98 4 99 13 100 41 101 57 102 34 103 504 104 50 105 89 
106 9 107 3 108 1 110 3 111 4 112 5 113 11 114 33 115 23 116 17 
117 246 118 28 119 21 120 2 121 1 124 1 125 1 126 4 127 10 128 12 
129 287 130 61 131 74 132 14 133 146 134 20 135 11 136 1 137 1 138 1 
139 1 140 2 141 4 142 11 143 38 144 8 145 21 146 6 147 999 148 162 
149 94 150 11 151 4 152 2 153 1 154 3 155 4 156 4 157 226 158 46 
159 20 160 455 161 83 162 23 163 27 164 5 165 2 166 1 167 1 168 4 
169 6 170 4 171 2 172 7 173 10 174 5 175 10 176 3 177 10 178 3 
179 2 180 2 181 2 182 2 183 1 184 2 185 2 186 9 187 4 188 3 
189 66 190 23 191 34 192 7 193 3 194 1 196 1 197 1 198 1 199 1 
200 2 202 2 203 8 204 68 205 623 206 123 207 73 208 11 209 3 210 8 
211 2 212 2 213 1 214 4 215 8 216 31 217 423 218 97 219 45 220 8 
221 21 222 6 223 3 224 1 225 1 226 1 227 1 228 6 229 94 230 30 
231 44 232 18 233 18 234 20 235 6 236 2 237 1 238 1 239 1 240 4 
241 2 242 3 243 7 244 11 245 6 246 10 247 9 248 3 249 2 250 1 
251 1 252 1 253 1 254 1 255 1 256 5 257 2 258 1 259 4 260 4 
261 2 262 17 263 5 264 2 265 3 266 1 267 1 268 3 269 7 270 4 
271 2 272 2 273 1 274 12 275 5 276 3 277 18 278 10 279 5 280 2 
286 1 290 1 291 16 292 12 293 5 294 2 300 4 301 3 302 2 303 1 
304 1 305 11 306 8 307 13 308 6 309 2 317 1 318 7 319 384 320 128 
321 78 322 17 323 4 330 1 331 2 332 2 333 2 334 1 336 1 342 1 
343 6 344 7 345 3 346 2 350 1 358 2 359 1 364 7 365 5 366 2 
374 6 375 2 376 5 377 1 378 1 390 1 409 1 432 1 433 1 448 1 
464 1 465 1 466 3 467 1 
