Name: Linolenic acid
CAS: 463-40-1
MW: 278
Formula: C18H30O2
Synonym: KEGG: C06427
Synonym: MassBank: KZ000057
Synonym: Linolenic acid
Structure: 32302031392020302020202020302020302020202020202020202020203939392056323030300A2020202D312E3135353220202020302E3131373220202020302E303030302043202020302020302020302020302020302020302020202020202020202020302020302020300A2020202D302E343839372020202D302E3236353520202020302E303030302043202020302020302020302020302020302020302020202020202020202020302020302020300A2020202D312E383137322020202D302E3236393020202020302E303030302043202020302020302020302020302020302020302020202020202020202020302020302020300A20202020302E3137393320202020302E3132303720202020302E303030302043202020302020302020302020302020302020302020202020202020202020302020302020300A2020202D322E3438323820202020302E3131333820202020302E303030302043202020302020302020302020302020302020302020202020202020202020302020302020300A20202020302E3934343820202020302E3132303720202020302E303030302043202020302020302020302020302020302020302020202020202020202020302020302020300A2020202D332E313438332020202D302E3237323420202020302E303030302043202020302020302020302020302020302020302020202020202020202020302020302020300A20202020312E363036392020202D302E3236353520202020302E303030302043202020302020302020302020302020302020302020202020202020202020302020302020300A2020202D332E3831373220202020302E3131333820202020302E303030302043202020302020302020302020302020302020302020202020202020202020302020302020300A20202020322E3237323420202020302E3132303720202020302E303030302043202020302020302020302020302020302020302020202020202020202020302020302020300A2020202D342E343836322020202D302E3237323420202020302E303030302043202020302020302020302020302020302020302020202020202020202020302020302020300A20202020332E3033373920202020302E3132303720202020302E303030302043202020302020302020302020302020302020302020202020202020202020302020302020300A2020202D352E3134383320202020302E3131303320202020302E303030302043202020302020302020302020302020302020302020202020202020202020302020302020300A20202020332E373033342020202D302E3236353520202020302E303030302043202020302020302020302020302020302020302020202020202020202020302020302020300A2020202D352E383133382020202D302E3237353920202020302E30303030204F202020302020302020302020302020302020302020202020202020202020302020302020300A2020202D352E3135313720202020302E3837353920202020302E30303030204F202020302020302020302020302020302020302020202020202020202020302020302020300A20202020342E3336393020202020302E3131333820202020302E303030302043202020302020302020302020302020302020302020202020202020202020302020302020300A20202020352E3133343520202020302E3131333820202020302E303030302043202020302020302020302020302020302020302020202020202020202020302020302020300A20202020352E383030302020202D302E3236393020202020302E303030302043202020302020302020302020302020302020302020202020202020202020302020302020300A20202020362E3436323120202020302E3131333820202020302E303030302043202020302020302020302020302020302020302020202020202020202020302020302020300A2020312020322020312020302020202020302020300A2020312020332020312020302020202020302020300A2020322020342020312020302020202020302020300A2020332020352020312020302020202020302020300A2020342020362020322020302020202020302020300A2020352020372020312020302020202020302020300A2020362020382020312020302020202020302020300A2020372020392020312020302020202020302020300A2020382031302020312020302020202020302020300A2020392031312020312020302020202020302020300A2031302031322020322020302020202020302020300A2031312031332020312020302020202020302020300A2031322031342020312020302020202020302020300A2031332031352020312020302020202020302020300A2031332031362020322020302020202020302020300A2031342031372020312020302020202020302020300A2031372031382020322020302020202020302020300A2031382031392020312020302020202020302020300A2031392032302020312020302020202020302020300A4D2020454E44
Contributor: Ara T, Morishita Y, Shibata D, Kazusa DNA Research Institute
InstType: EI
InstName: Pegasus III TOF-MS system, Leco; GC 6890, Agilent Technologies
IoniMethod: EI
IonPolarity: pos
Date: 2010-10-09 19:48:36+02:00
Num Peaks: 156
82 177 83 157 84 31 85 60 86 5 87 243 88 24 89 15 90 6 91 719 
92 147 93 999 94 459 95 857 96 144 97 116 98 29 99 30 100 5 101 71 
102 13 103 41 104 25 105 246 106 82 107 486 108 663 109 247 110 46 111 47 
112 8 113 12 114 5 115 78 116 18 117 90 118 19 119 121 120 54 121 363 
122 217 123 88 124 16 125 20 126 4 127 13 128 15 129 56 130 12 131 90 
132 18 133 76 134 33 135 245 136 169 137 41 138 7 139 9 140 6 141 15 
142 3 143 37 144 9 145 35 146 11 147 63 148 20 149 173 150 87 151 18 
152 3 153 6 154 7 155 5 156 1 157 20 158 5 159 16 160 7 161 32 
162 19 163 62 164 43 165 10 166 3 167 6 168 8 169 2 170 1 171 14 
172 4 173 59 174 10 175 29 176 8 177 18 178 18 179 5 180 3 181 6 
182 4 183 1 185 9 186 3 187 7 188 2 189 13 190 4 191 29 192 12 
193 5 194 3 195 3 196 3 197 1 199 6 200 1 201 2 203 9 204 5 
205 4 206 3 207 5 208 3 209 2 210 3 211 1 213 4 214 1 216 1 
217 9 218 3 219 1 221 3 222 3 223 8 224 4 225 1 231 5 232 2 
233 1 235 5 236 31 237 6 238 3 243 2 249 7 250 3 251 1 260 1 
261 17 262 3 263 12 264 3 292 18 293 3 
