Name: Indole-3-carboxyaldehyde
CAS: 487-89-8
MW: 145
Formula: C9H7NO
Synonym: KEGG: C08493
Synonym: MassBank: KZ000216
Synonym: Indole-3-carboxyaldehyde
Structure: 31312031322020302020202020302020302020202020202020202020203939392056323030300A2020202D302E303832382020202D302E3130333420202020302E303030302043202020302020302020302020302020302020302020202020202020202020302020302020300A2020202D302E3036353520202020302E3732343120202020302E303030302043202020302020302020302020302020302020302020202020202020202020302020302020300A20202020302E373030302020202D302E3337353920202020302E303030302043202020302020302020302020302020302020302020202020202020202020302020302020300A2020202D302E383033342020202D302E3530303020202020302E303030302043202020302020302020302020302020302020302020202020202020202020302020302020300A20202020302E3732373620202020302E3936323120202020302E30303030204E202020302020302020302020302020302020302020202020202020202020302020302020300A2020202D302E3737353920202020312E3135313720202020302E303030302043202020302020302020302020302020302020302020202020202020202020302020302020300A20202020312E3230303020202020302E3238363220202020302E303030302043202020302020302020302020302020302020302020202020202020202020302020302020300A20202020302E373030302020202D312E3230303020202020302E303030302043202020302020302020302020302020302020302020202020202020202020302020302020300A2020202D312E353133382020202D302E3037353920202020302E303030302043202020302020302020302020302020302020302020202020202020202020302020302020300A2020202D312E3530303020202020302E3735313720202020302E303030302043202020302020302020302020302020302020302020202020202020202020302020302020300A20202020312E343133382020202D312E3631373220202020302E30303030204F202020302020302020302020302020302020302020202020202020202020302020302020300A2020312020322020322020302020202020302020300A2020312020332020312020302020202020302020300A2020312020342020312020302020202020302020300A2020322020352020312020302020202020302020300A2020322020362020312020302020202020302020300A2020332020372020322020302020202020302020300A2020332020382020312020302020202020302020300A2020342020392020322020302020202020302020300A2020362031302020322020302020202020302020300A2020382031312020322020302020202020302020300A2020352020372020312020302020202020302020300A2020392031302020312020302020202020302020300A4D2020454E44
Contributor: Ara T, Morishita Y, Shibata D, Kazusa DNA Research Institute
InstType: EI
InstName: Pegasus III TOF-MS system, Leco; GC 6890, Agilent Technologies
IoniMethod: EI
IonPolarity: pos
Date: 2010-10-09 19:48:36+02:00
Num Peaks: 140
82 4 83 20 84 96 85 21 86 34 87 75 88 190 89 413 90 62 91 94 
92 24 93 18 94 8 95 4 96 2 97 1 98 7 99 9 100 19 101 114 
102 64 103 154 104 55 105 59 106 11 107 7 108 3 109 1 110 1 111 2 
112 3 113 11 114 219 115 441 116 198 117 90 118 26 119 25 120 9 121 4 
122 1 123 1 126 2 127 11 128 86 129 52 130 215 131 73 132 51 133 23 
134 16 135 4 136 1 139 1 140 6 141 57 142 221 143 160 144 89 145 54 
146 86 147 26 148 9 149 2 150 1 153 1 154 8 155 18 156 58 157 24 
158 60 159 21 160 36 161 9 162 9 163 2 164 1 167 2 168 6 169 25 
170 42 171 32 172 47 173 63 174 52 175 10 176 6 177 1 181 8 182 8 
183 7 184 23 185 21 186 68 187 22 188 97 189 88 190 17 191 3 195 8 
196 2 197 12 198 5 199 54 200 16 201 11 202 5 203 5 204 128 205 25 
206 7 209 1 211 2 212 2 213 24 214 139 215 503 216 157 217 36 218 6 
219 8 220 3 221 1 228 1 229 1 230 2 231 5 232 2 233 1 234 1 
235 1 236 1 237 1 238 1 244 1 245 27 246 999 247 199 248 52 249 6 
