Name: Serotonin
CAS: 50-67-9
MW: 176
Formula: C10H12N2O
Synonym: KEGG: C00780
Synonym: MassBank: KZ000264
Synonym: Serotonin
Structure: 31332031342020302020202020302020302020202020202020202020203939392056323030300A20202020302E3039363620202020302E3133373920202020302E303030302043202020302020302020302020302020302020302020202020202020202020302020302020300A20202020302E3039363620202020302E3936393020202020302E303030302043202020302020302020302020302020302020302020202020202020202020302020302020300A20202020302E383839372020202D302E3131333820202020302E303030302043202020302020302020302020302020302020302020202020202020202020302020302020300A2020202D302E363230372020202D302E3237353920202020302E303030302043202020302020302020302020302020302020302020202020202020202020302020302020300A20202020302E3838363220202020312E3231373220202020302E30303030204E202020302020302020302020302020302020302020202020202020202020302020302020300A2020202D302E3632303720202020312E3338363220202020302E303030302043202020302020302020302020302020302020302020202020202020202020302020302020300A20202020312E3336393020202020302E3535353220202020302E303030302043202020302020302020302020302020302020302020202020202020202020302020302020300A20202020312E313438332020202D302E3839363620202020302E303030302043202020302020302020302020302020302020302020202020202020202020302020302020300A2020202D312E3333313020202020302E3133373920202020302E303030302043202020302020302020302020302020302020302020202020202020202020302020302020300A2020202D312E3333313020202020302E3936353520202020302E303030302043202020302020302020302020302020302020302020202020202020202020302020302020300A20202020302E363030302020202D312E3531333820202020302E303030302043202020302020302020302020302020302020302020202020202020202020302020302020300A2020202D322E303434382020202D302E3237353920202020302E30303030204F202020302020302020302020302020302020302020202020202020202020302020302020300A20202020302E383632312020202D322E3239363620202020302E30303030204E202020302020302020302020302020302020302020202020202020202020302020302020300A2020312020322020322020302020202020302020300A2020312020332020312020302020202020302020300A2020312020342020312020302020202020302020300A2020322020352020312020302020202020302020300A2020322020362020312020302020202020302020300A2020332020372020322020302020202020302020300A2020332020382020312020302020202020302020300A2020342020392020322020302020202020302020300A2020362031302020322020302020202020302020300A2020382031312020312020302020202020302020300A2020392031322020312020302020202020302020300A2031312031332020312020302020202020302020300A2020352020372020312020302020202020302020300A2020392031302020312020302020202020302020300A4D2020454E44
Contributor: Ara T, Morishita Y, Shibata D, Kazusa DNA Research Institute
InstType: EI
InstName: Pegasus III TOF-MS system, Leco; GC 6890, Agilent Technologies
IoniMethod: EI
IonPolarity: pos
Date: 2010-10-09 19:48:36+02:00
Num Peaks: 125
83 2 84 5 85 4 86 250 87 24 88 10 89 2 91 1 98 1 99 2 
100 107 101 20 102 17 103 4 104 1 105 1 113 3 114 4 115 9 116 10 
117 16 118 3 119 2 121 1 127 1 128 4 129 4 130 41 131 20 132 7 
133 5 134 1 135 1 140 1 141 1 142 3 143 2 144 8 145 5 146 27 
147 9 148 3 149 1 154 1 156 2 157 1 158 9 159 4 160 4 161 2 
169 1 170 3 171 1 172 14 173 4 174 999 175 193 176 88 177 11 178 2 
179 1 184 2 185 1 186 9 187 2 188 2 189 1 190 1 198 1 199 1 
200 4 201 2 202 20 203 4 204 2 205 1 213 1 214 1 215 1 216 4 
217 3 218 5 219 1 228 1 230 4 231 1 232 3 233 3 234 1 244 2 
245 1 246 1 258 1 259 1 260 9 261 2 262 1 272 1 273 1 274 2 
275 1 276 1 287 2 288 4 289 2 290 31 291 11 292 4 293 1 302 3 
303 2 304 1 360 1 361 9 362 3 363 1 375 1 448 1 449 7 450 3 
451 1 463 1 464 3 465 1 466 1 
