Name: Serotonin
CAS: 50-67-9
MW: 176
Formula: C10H12N2O
Synonym: KEGG: C00780
Synonym: MassBank: KZ000265
Synonym: Serotonin
Structure: 31332031342020302020202020302020302020202020202020202020203939392056323030300A20202020302E3039363620202020302E3133373920202020302E303030302043202020302020302020302020302020302020302020202020202020202020302020302020300A20202020302E3039363620202020302E3936393020202020302E303030302043202020302020302020302020302020302020302020202020202020202020302020302020300A20202020302E383839372020202D302E3131333820202020302E303030302043202020302020302020302020302020302020302020202020202020202020302020302020300A2020202D302E363230372020202D302E3237353920202020302E303030302043202020302020302020302020302020302020302020202020202020202020302020302020300A20202020302E3838363220202020312E3231373220202020302E30303030204E202020302020302020302020302020302020302020202020202020202020302020302020300A2020202D302E3632303720202020312E3338363220202020302E303030302043202020302020302020302020302020302020302020202020202020202020302020302020300A20202020312E3336393020202020302E3535353220202020302E303030302043202020302020302020302020302020302020302020202020202020202020302020302020300A20202020312E313438332020202D302E3839363620202020302E303030302043202020302020302020302020302020302020302020202020202020202020302020302020300A2020202D312E3333313020202020302E3133373920202020302E303030302043202020302020302020302020302020302020302020202020202020202020302020302020300A2020202D312E3333313020202020302E3936353520202020302E303030302043202020302020302020302020302020302020302020202020202020202020302020302020300A20202020302E363030302020202D312E3531333820202020302E303030302043202020302020302020302020302020302020302020202020202020202020302020302020300A2020202D322E303434382020202D302E3237353920202020302E30303030204F202020302020302020302020302020302020302020202020202020202020302020302020300A20202020302E383632312020202D322E3239363620202020302E30303030204E202020302020302020302020302020302020302020202020202020202020302020302020300A2020312020322020322020302020202020302020300A2020312020332020312020302020202020302020300A2020312020342020312020302020202020302020300A2020322020352020312020302020202020302020300A2020322020362020312020302020202020302020300A2020332020372020322020302020202020302020300A2020332020382020312020302020202020302020300A2020342020392020322020302020202020302020300A2020362031302020322020302020202020302020300A2020382031312020312020302020202020302020300A2020392031322020312020302020202020302020300A2031312031332020312020302020202020302020300A2020352020372020312020302020202020302020300A2020392031302020312020302020202020302020300A4D2020454E44
Contributor: Ara T, Morishita Y, Shibata D, Kazusa DNA Research Institute
InstType: EI
InstName: Pegasus III TOF-MS system, Leco; GC 6890, Agilent Technologies
IoniMethod: EI
IonPolarity: pos
Date: 2010-10-09 19:48:36+02:00
Num Peaks: 134
83 3 84 6 85 7 86 378 87 39 88 17 89 9 90 4 91 6 92 1 
93 1 95 1 98 1 99 3 100 178 101 35 102 47 103 13 104 3 105 2 
107 1 113 6 114 7 115 25 116 19 117 30 118 8 119 4 120 1 121 2 
127 3 128 19 129 28 130 75 131 28 132 11 133 6 134 3 135 2 136 1 
137 1 140 1 141 3 142 11 143 11 144 19 145 7 146 81 147 17 148 7 
149 1 154 2 155 1 156 5 157 1 158 9 159 3 160 6 161 3 162 2 
163 1 169 1 170 7 171 2 172 17 173 7 174 999 175 201 176 93 177 12 
178 2 181 1 184 4 185 2 186 7 187 3 188 31 189 7 190 3 191 1 
198 1 199 1 200 5 201 2 202 21 203 6 204 8 205 2 206 1 213 1 
214 1 215 3 216 9 217 4 218 60 219 15 220 4 221 1 229 1 230 5 
231 4 232 7 233 3 234 1 236 1 244 1 246 2 248 2 258 1 260 4 
261 2 262 2 271 1 272 1 273 1 274 2 275 1 276 4 277 1 287 1 
288 2 289 20 290 7 291 2 302 1 303 11 304 3 305 1 375 1 376 2 
377 20 378 7 379 3 392 1 
