Name: N-Formyl-L-methionine
CAS: 4289-98-9
MW: 177
Formula: C6H11NO3S
Synonym: KEGG: C03145
Synonym: MassBank: KZ000063
Synonym: N-Formyl-L-methionine
Structure: 31322031312020302020302020312020302020302020302020302020303939392056323030300A20202031392E3533333320202D31342E3534313120202020302E303030302043202020302020302020322020302020302020302020302020302020302020302020302020300A20202031382E3338353320202D31332E3737333620202020302E303030302043202020302020302020302020302020302020302020302020302020302020302020302020300A20202031392E3535323220202D31362E3139363320202020302E30303030204E202020302020302020302020302020302020302020302020302020302020302020302020300A20202032302E3833393520202D31342E3038343420202020302E303030302043202020302020302020302020302020302020302020302020302020302020302020302020300A20202031372E3037393120202D31342E3234333020202020302E303030302043202020302020302020302020302020302020302020302020302020302020302020302020300A20202031382E3336363420202D31362E3839333820202020302E303030302043202020302020302020302020302020302020302020302020302020302020302020302020300A20202032312E3936313920202D31342E3838333520202020302E30303030204F202020302020302020302020302020302020302020302020302020302020302020302020300A20202032302E3833393520202D31322E3732373220202020302E30303030204F202020302020302020302020302020302020302020302020302020302020302020302020300A20202031362E3231303320202D31332E3137313220202020302E303030302053202020302020302020302020302020302020302020302020302020302020302020302020300A20202031372E3136313520202D31362E3232313720202020302E30303030204F202020302020302020302020302020302020302020302020302020302020302020302020300A20202031342E3839373620202D31332E3633343220202020302E303030302043202020302020302020302020302020302020302020302020302020302020302020302020300A20202031382E3331313720202D31382E3430393420202020302E303030302048202020302020302020302020302020302020302020302020302020302020302020302020300A2020312020322020312020302020202020302020300A2020312020332020312020312020202020302020300A2020312020342020312020302020202020302020300A2020322020352020312020302020202020302020300A2020332020362020312020302020202020302020300A2020342020372020312020302020202020302020300A2020342020382020322020302020202020302020300A2020352020392020312020302020202020302020300A2020362031302020322020302020202020302020300A2020392031312020312020302020202020302020300A2020362031322020312020302020202020302020300A4D2020454E44
Contributor: Ara T, Morishita Y, Shibata D, Kazusa DNA Research Institute
InstType: EI
InstName: Pegasus III TOF-MS system, Leco; GC 6890, Agilent Technologies
IoniMethod: EI
IonPolarity: pos
Date: 2010-10-09 19:48:36+02:00
Num Peaks: 168
82 9 83 9 84 145 85 105 86 45 87 93 88 30 89 26 90 7 91 30 
92 3 94 3 96 3 97 15 98 117 99 60 100 841 101 143 102 383 103 95 
104 39 105 66 106 7 107 12 108 2 109 1 110 5 111 7 112 18 113 16 
114 154 115 75 116 46 117 39 118 57 119 38 120 6 121 5 122 1 124 5 
125 1 126 19 127 6 128 131 129 999 130 200 131 107 132 24 133 134 134 21 
135 18 136 2 137 1 139 1 140 9 141 6 142 318 143 49 144 82 145 21 
146 8 147 398 148 74 149 76 150 10 151 5 152 1 154 2 155 3 156 189 
157 965 158 269 159 98 160 31 161 30 162 11 163 24 164 4 165 2 168 3 
169 1 170 129 171 19 172 40 173 9 174 26 175 39 176 87 177 19 178 9 
179 2 184 4 185 3 186 41 187 7 188 80 189 25 190 12 191 28 192 6 
193 3 194 1 195 1 196 1 198 2 200 3 201 3 202 47 203 20 204 206 
205 36 206 20 207 4 208 1 214 2 215 1 216 15 217 3 218 46 219 12 
220 5 221 1 222 1 223 2 224 1 230 74 231 22 232 19 233 5 234 3 
235 1 242 1 244 2 245 1 246 4 247 572 248 132 249 60 250 62 251 17 
252 9 253 2 258 2 259 2 260 331 261 77 262 33 263 6 264 1 274 6 
275 2 276 1 277 1 278 78 279 25 280 14 281 3 282 1 292 1 305 2 
306 144 307 35 308 21 309 4 310 1 321 19 322 5 323 2 
