Name: L-Ornithine
CAS: 70-26-8
MW: 132
Formula: C5H12N2O2
Synonym: KEGG: C00077
Synonym: MassBank: KZ000236
Synonym: L-Ornithine
Structure: 310A32330A2020392020382020302020202020312020302020202020202020202020203939392056323030300A2020202D302E343739332020202D302E3138323820202020302E303030302043202020302020302020322020302020302020302020202020202020202020302020302020300A2020202D312E3139363620202020302E3232373620202020302E303030302043202020302020302020302020302020302020302020202020202020202020302020302020300A20202020302E3233373920202020302E3232373620202020302E303030302043202020302020302020302020302020302020302020202020202020202020302020302020300A2020202D302E343739332020202D312E3031333820202020302E30303030204E202020302020302020302020302020302020302020202020202020202020302020302020300A2020202D312E393137322020202D302E3138323820202020302E30303030204F202020302020302020302020302020302020302020202020202020202020302020302020300A2020202D312E3139363620202020312E3035383620202020302E30303030204F202020302020302020302020302020302020302020202020202020202020302020302020300A20202020302E393538362020202D302E3138323820202020302E303030302043202020302020302020302020302020302020302020202020202020202020302020302020300A20202020312E3637353920202020302E3232373620202020302E303030302043202020302020302020302020302020302020302020202020202020202020302020302020300A20202020322E333936362020202D302E3138323820202020302E30303030204E202020302020302020302020302020302020302020202020202020202020302020302020300A2020312020322020312020302020202020302020300A2020312020332020312020302020202020302020300A2020312020342020312020362020202020302020300A2020322020352020312020302020202020302020300A2020322020362020322020302020202020302020300A2020332020372020312020302020202020302020300A2020372020382020312020302020202020302020300A2020382020392020312020302020202020302020300A4D2020454E44
Contributor: Ara T, Morishita Y, Shibata D, Kazusa DNA Research Institute
InstType: EI
InstName: Pegasus III TOF-MS system, Leco; GC 6890, Agilent Technologies
IoniMethod: EI
IonPolarity: pos
Date: 2010-10-09 19:48:36+02:00
Num Peaks: 176
82 3 83 4 84 12 85 16 86 211 87 31 88 14 89 3 90 13 91 1 
92 1 94 1 95 1 96 8 97 7 98 25 99 26 100 213 101 38 102 132 
103 31 104 8 105 3 110 15 111 4 112 37 113 19 114 63 115 43 116 26 
117 30 118 7 119 7 120 1 124 5 125 3 126 36 127 25 128 102 129 28 
130 76 131 39 132 33 133 39 134 8 135 3 136 1 138 1 139 2 140 13 
141 13 142 999 143 148 144 57 145 7 146 34 147 109 148 24 149 12 150 1 
152 9 153 6 154 9 155 3 156 5 157 3 158 10 159 6 160 15 161 6 
162 4 163 1 168 3 169 7 170 5 171 2 172 45 173 11 174 390 175 90 
176 57 177 9 178 2 182 1 183 1 184 2 185 1 186 20 187 20 188 18 
189 30 190 10 191 15 192 3 193 1 198 7 199 4 200 130 201 34 202 25 
203 14 204 32 205 8 206 4 207 1 212 2 213 5 214 94 215 30 216 110 
217 41 218 57 219 13 220 16 221 7 222 2 223 1 225 3 226 8 227 4 
228 3 229 5 230 9 231 8 232 10 233 3 234 1 240 1 241 16 242 14 
243 8 244 17 245 4 246 5 247 1 248 3 249 1 257 2 258 80 259 72 
260 21 261 7 262 2 287 8 288 5 289 2 290 2 291 2 292 1 301 1 
302 1 303 15 304 5 305 4 306 1 313 1 315 16 316 10 317 5 318 1 
329 1 330 25 331 12 332 6 333 1 403 3 404 1 405 6 406 2 407 1 
419 3 420 56 421 24 422 13 423 4 424 1 
