Name: D-(+)-Trehalose
CAS: 99-20-7
MW: 342
Formula: C12H22O11
Synonym: KEGG: C01083
Synonym: MassBank: KZ000126
Synonym: D-(+)-Trehalose
Structure: 32332032342020302020202020312020302020202020202020202020203939392056323030300A20202020302E3731333820202020302E3431373220202020302E303030302043202020302020302020312020302020302020302020202020202020202020302020302020300A20202020302E3030303020202020302E3030303020202020302E30303030204F202020302020302020302020302020302020302020202020202020202020302020302020300A20202020312E3433343520202020302E3030303020202020302E30303030204F202020302020302020302020302020302020302020202020202020202020302020302020300A20202020302E3731333820202020312E3234343820202020302E303030302043202020302020302020312020302020302020302020202020202020202020302020302020300A2020202D302E373133382020202D302E3431373220202020302E303030302043202020302020302020312020302020302020302020202020202020202020302020302020300A20202020322E3134383320202020302E3431373220202020302E303030302043202020302020302020312020302020302020302020202020202020202020302020302020300A20202020312E3433343520202020312E3635353220202020302E303030302043202020302020302020322020302020302020302020202020202020202020302020302020300A20202020302E3030303020202020312E3635353220202020302E30303030204F202020302020302020302020302020302020302020202020202020202020302020302020300A2020202D312E3433343520202020302E3030303020202020302E30303030204F202020302020302020302020302020302020302020202020202020202020302020302020300A2020202D302E373133382020202D312E3234343820202020302E303030302043202020302020302020312020302020302020302020202020202020202020302020302020300A20202020322E3134383320202020312E3234343820202020302E303030302043202020302020302020322020302020302020302020202020202020202020302020302020300A20202020322E3836353520202020302E3030303020202020302E303030302043202020302020302020302020302020302020302020202020202020202020302020302020300A20202020312E3433343520202020322E3438323820202020302E30303030204F202020302020302020302020302020302020302020202020202020202020302020302020300A2020202D322E313438332020202D302E3431373220202020302E303030302043202020302020302020312020302020302020302020202020202020202020302020302020300A2020202D312E343334352020202D312E3635353220202020302E303030302043202020302020302020322020302020302020302020202020202020202020302020302020300A20202020302E303030302020202D312E3635353220202020302E30303030204F202020302020302020302020302020302020302020202020202020202020302020302020300A20202020322E3836353520202020312E3635353220202020302E30303030204F202020302020302020302020302020302020302020202020202020202020302020302020300A20202020332E3439333120202020302E3533373920202020302E30303030204F202020302020302020302020302020302020302020202020202020202020302020302020300A2020202D322E313438332020202D312E3234343820202020302E303030302043202020302020302020322020302020302020302020202020202020202020302020302020300A2020202D322E3836353520202020302E3030303020202020302E303030302043202020302020302020302020302020302020302020202020202020202020302020302020300A2020202D312E343334352020202D322E3438323820202020302E30303030204F202020302020302020302020302020302020302020202020202020202020302020302020300A2020202D322E383635352020202D312E3635353220202020302E30303030204F202020302020302020302020302020302020302020202020202020202020302020302020300A2020202D332E343933312020202D302E3534313420202020302E30303030204F202020302020302020302020302020302020302020202020202020202020302020302020300A2020312020322020312020362020202020302020300A2020312020332020312020302020202020302020300A2020312020342020312020302020202020302020300A2020352020322020312020362020202020302020300A2020332020362020312020302020202020302020300A2020342020372020312020302020202020302020300A2020342020382020312020362020202020302020300A2020352020392020312020302020202020302020300A2020352031302020312020302020202020302020300A2020362031312020312020302020202020302020300A2020362031322020312020312020202020302020300A2020372031332020312020312020202020302020300A2020392031342020312020302020202020302020300A2031302031352020312020302020202020302020300A2031302031362020312020362020202020302020300A2031312031372020312020362020202020302020300A2031322031382020312020302020202020302020300A2031342031392020312020302020202020302020300A2031342032302020312020312020202020302020300A2031352032312020312020312020202020302020300A2031392032322020312020362020202020302020300A2032302032332020312020302020202020302020300A2020372031312020312020302020202020302020300A2031352031392020312020302020202020302020300A4D2020454E44
Contributor: Ara T, Morishita Y, Shibata D, Kazusa DNA Research Institute
InstType: EI
InstName: Pegasus III TOF-MS system, Leco; GC 6890, Agilent Technologies
IoniMethod: EI
IonPolarity: pos
Date: 2010-10-09 19:48:36+02:00
Num Peaks: 188
39 2 41 5 42 2 43 14 44 6 45 45 46 3 47 5 52 1 53 5 
54 6 55 18 56 4 57 3 58 4 59 19 60 2 61 3 65 1 66 2 
67 2 68 1 69 20 70 2 71 3 72 12 73 999 74 83 75 69 76 3 
77 3 81 16 82 1 83 3 85 4 87 3 88 1 89 10 90 1 91 1 
97 2 99 4 101 13 102 2 103 153 104 14 105 6 109 7 111 3 113 7 
114 2 115 5 116 7 117 43 118 4 119 4 125 1 127 4 128 1 129 115 
130 14 131 24 132 4 133 32 134 4 135 3 139 3 140 1 141 3 142 4 
143 19 144 2 145 6 146 1 147 202 148 32 149 24 150 3 151 2 153 3 
154 1 155 18 156 3 157 15 158 2 159 3 161 2 163 3 167 1 169 69 
170 11 171 7 172 1 173 4 174 1 175 3 177 3 181 1 183 5 184 1 
185 1 187 1 189 30 190 7 191 233 192 42 193 19 194 2 199 2 201 2 
202 1 203 11 204 71 205 29 206 9 207 6 208 1 215 4 216 2 217 133 
218 35 219 16 220 3 221 9 222 2 223 1 227 3 228 1 229 10 230 6 
231 10 232 3 233 6 234 2 241 3 242 2 243 39 244 11 245 10 246 2 
247 2 255 1 257 4 258 1 259 3 260 1 263 3 264 1 265 2 270 1 
271 37 272 9 273 5 274 1 279 2 287 1 289 1 290 3 291 6 292 2 
293 1 304 1 305 5 306 3 307 1 317 2 318 2 319 10 320 6 321 2 
322 1 330 1 331 10 332 7 333 3 334 1 345 2 360 14 361 251 362 81 
363 36 364 7 365 2 377 1 435 2 436 1 451 2 463 1 
