Name: beta-Alanine
CAS: 107-95-9
MW: 89
Formula: C3H7NO2
Synonym: KEGG: C00099
Synonym: MassBank: KZ000111
Synonym: beta-Alanine
Structure: 310A31370A2020362020352020302020202020302020302020202020202020202020203939392056323030300A20202020302E313137322020202D302E3334343820202020302E303030302043202020302020302020302020302020302020302020202020202020202020302020302020300A2020202D302E3539363620202020302E3036393020202020302E303030302043202020302020302020302020302020302020302020202020202020202020302020302020300A20202020302E3833373920202020302E3036393020202020302E303030302043202020302020302020302020302020302020302020202020202020202020302020302020300A2020202D312E333137322020202D302E3334383320202020302E30303030204F202020302020302020302020302020302020302020202020202020202020302020302020300A2020202D302E3539363620202020302E3930303020202020302E30303030204F202020302020302020302020302020302020302020202020202020202020302020302020300A20202020312E353535322020202D302E3334343820202020302E30303030204E202020302020302020302020302020302020302020202020202020202020302020302020300A2020312020322020312020302020202020302020300A2020312020332020312020302020202020302020300A2020322020342020312020302020202020302020300A2020322020352020322020302020202020302020300A2020332020362020312020302020202020302020300A4D2020454E44
Contributor: Ara T, Morishita Y, Shibata D, Kazusa DNA Research Institute
InstType: EI
InstName: Pegasus III TOF-MS system, Leco; GC 6890, Agilent Technologies
IoniMethod: EI
IonPolarity: pos
Date: 2010-10-09 19:48:36+02:00
Num Peaks: 99
83 2 84 4 85 12 86 343 87 29 88 9 89 1 95 4 97 1 98 2 
99 36 100 264 101 32 102 21 103 11 104 1 105 3 112 1 113 10 114 10 
115 11 116 13 117 30 118 4 119 9 120 1 126 1 128 2 129 10 130 108 
131 63 132 20 133 183 134 20 135 9 138 1 140 1 142 17 143 4 144 6 
145 3 146 35 147 560 148 68 149 32 150 3 151 1 157 1 158 6 159 1 
160 32 161 5 162 2 163 2 170 1 171 2 172 24 173 19 174 999 175 153 
176 62 177 7 178 1 187 2 188 15 189 5 190 6 191 2 200 1 202 6 
203 1 204 7 205 3 206 1 214 1 216 4 217 1 218 2 219 1 232 23 
233 4 234 1 246 1 248 770 249 183 250 56 251 10 252 2 262 1 274 1 
288 16 289 2 290 246 291 57 292 26 293 4 304 13 305 3 306 1 
