Name: D-Xylulose
CAS: 551-84-8
MW: 150
Formula: C5H10O5
Synonym: KEGG: C00310
Synonym: MassBank: KZ000131
Synonym: D-Xylulose
Structure: 31302031302020302020202020312020302020202020202020202020203939392056323030300A20202020302E3230303020202020302E3333373920202020302E303030302043202020302020302020332020302020302020302020202020202020202020302020302020300A2020202D302E303434382020202D302E3433343520202020302E303030302043202020302020302020322020302020302020302020202020202020202020302020302020300A2020202D302E3438323820202020302E3833313020202020302E30303030204F202020302020302020302020302020302020302020202020202020202020302020302020300A20202020302E3738363220202020302E3932373620202020302E303030302043202020302020302020302020302020302020302020202020202020202020302020302020300A20202020302E3936323120202020302E3035383620202020302E30303030204F202020302020302020302020302020302020302020202020202020202020302020302020300A2020202D302E383832382020202D302E3433343520202020302E303030302043202020302020302020312020302020302020302020202020202020202020302020302020300A20202020302E343337392020202D312E3130363920202020302E30303030204F202020302020302020302020302020302020302020202020202020202020302020302020300A2020202D312E3134383320202020302E3335313720202020302E303030302043202020302020302020302020302020302020302020202020202020202020302020302020300A20202020312E3533373920202020302E3537393320202020302E30303030204F202020302020302020302020302020302020302020202020202020202020302020302020300A2020202D312E333635352020202D312E3131303320202020302E30303030204F202020302020302020302020302020302020302020202020202020202020302020302020300A2020312020322020312020302020202020302020300A2020312020332020312020302020202020302020300A2020312020342020312020342020202020302020300A2020312020352020312020302020202020302020300A2020322020362020312020302020202020302020300A2020322020372020312020312020202020302020300A2020332020382020312020302020202020302020300A2020342020392020312020302020202020302020300A2020362031302020312020362020202020302020300A2020362020382020312020302020202020302020300A4D2020454E44
Contributor: Ara T, Morishita Y, Shibata D, Kazusa DNA Research Institute
InstType: EI
InstName: Pegasus III TOF-MS system, Leco; GC 6890, Agilent Technologies
IoniMethod: EI
IonPolarity: pos
Date: 2010-10-09 19:48:36+02:00
Num Peaks: 179
82 13 83 3 84 68 85 13 86 6 87 14 88 18 89 223 90 20 91 9 
94 1 95 1 96 3 97 1 98 7 99 8 100 29 101 61 102 19 103 400 
104 42 105 38 106 3 107 1 110 1 111 3 112 4 113 12 114 45 115 29 
116 20 117 537 118 59 119 47 120 4 121 2 125 1 126 22 127 5 128 12 
129 43 130 15 131 64 132 12 133 183 134 24 135 13 136 1 140 4 141 3 
142 64 143 21 144 9 145 9 146 4 147 999 148 169 149 98 150 11 151 4 
152 2 154 15 155 3 156 9 157 8 158 12 159 17 160 5 161 4 162 1 
163 37 164 6 165 4 166 1 167 1 168 6 169 2 170 4 171 2 172 46 
173 362 174 60 175 28 176 4 177 15 178 3 179 2 180 1 181 1 182 1 
183 1 184 4 185 2 186 7 187 4 188 7 189 26 190 8 191 18 192 3 
193 2 198 5 199 1 200 8 201 33 202 29 203 13 204 38 205 478 206 98 
207 54 208 8 209 2 214 9 215 3 216 15 217 54 218 15 219 8 220 2 
221 12 222 3 223 1 228 4 229 2 230 6 231 8 232 15 233 5 234 2 
235 1 240 2 242 3 243 1 244 4 245 1 246 4 247 1 248 1 256 4 
257 1 258 1 260 4 261 1 262 13 263 193 264 43 265 19 266 3 272 1 
274 2 277 1 288 13 289 3 290 2 291 5 292 1 293 1 302 2 304 1 
307 2 318 3 319 1 330 1 331 1 332 2 333 7 334 5 335 3 336 2 
346 1 362 2 363 1 364 15 365 5 366 2 452 2 453 1 467 1 
