Name: Isonicotinic acid
CAS: 55-22-1
MW: 123
Formula: C6H5NO2
Synonym: KEGG: C07446
Synonym: MassBank: KZ000040
Synonym: Isonicotinic acid
Structure: 310A32340A2020392020392020302020202020302020302020202020202020202020203939392056323030300A20202020302E3030303020202020302E3138323820202020302E303030302043202020302020302020302020302020302020302020202020202020202020302020302020300A2020202D302E373230372020202D302E3233313020202020302E303030302043202020302020302020302020302020302020302020202020202020202020302020302020300A20202020302E373137322020202D302E3233313020202020302E303030302043202020302020302020302020302020302020302020202020202020202020302020302020300A20202020302E3030303020202020312E3031333820202020302E303030302043202020302020302020302020302020302020302020202020202020202020302020302020300A2020202D302E373230372020202D312E3035383620202020302E303030302043202020302020302020302020302020302020302020202020202020202020302020302020300A20202020302E373137322020202D312E3035383620202020302E303030302043202020302020302020302020302020302020302020202020202020202020302020302020300A20202020302E3732303720202020312E3432373620202020302E30303030204F202020302020302020302020302020302020302020202020202020202020302020302020300A2020202D302E3731373220202020312E3433313020202020302E30303030204F202020302020302020302020302020302020302020202020202020202020302020302020300A20202020302E303030302020202D312E3437353920202020302E30303030204E202020302020302020302020302020302020302020202020202020202020302020302020300A2020312020322020312020302020202020302020300A2020312020332020322020302020202020302020300A2020312020342020312020302020202020302020300A2020322020352020322020302020202020302020300A2020332020362020312020302020202020302020300A2020342020372020312020302020202020302020300A2020342020382020322020302020202020302020300A2020352020392020312020302020202020302020300A2020362020392020322020302020202020302020300A4D2020454E44
Contributor: Ara T, Morishita Y, Shibata D, Kazusa DNA Research Institute
InstType: EI
InstName: Pegasus III TOF-MS system, Leco; GC 6890, Agilent Technologies
IoniMethod: EI
IonPolarity: pos
Date: 2010-10-09 19:48:36+02:00
Num Peaks: 54
82 3 83 21 84 6 85 3 86 2 89 1 90 52 91 4 92 4 93 9 
94 6 95 4 96 3 97 1 99 2 104 1 105 16 106 646 107 50 108 7 
109 10 110 9 111 1 119 2 120 10 121 2 122 9 123 6 124 1 132 1 
134 2 135 3 136 523 137 72 138 22 139 2 150 3 151 2 152 2 153 1 
162 1 164 3 165 2 166 1 179 5 180 999 181 146 182 46 183 5 184 1 
194 5 195 33 196 6 197 1 
