Name: Malonic acid
CAS: 141-82-2
MW: 104
Formula: C3H4O4
Synonym: KEGG: C00383
Synonym: MassBank: KZ000058
Synonym: Malonic acid
Structure: 310A31390A200A200A200A2020372020362020302020302020302020302020302020302020302020303939392056323030300A20202031352E3936303020202D31312E3639303020202020302E30303030204F202020302020302020302020302020302020302020302020302020302020302020302020300A20202031372E3137323420202D31302E3939303020202020302E303030302043202020302020302020302020302020302020302020302020302020302020302020302020300A20202031382E3338343920202D31312E3639303020202020302E303030302043202020302020302020302020302020302020302020302020302020302020302020302020300A20202031392E3539373320202D31302E3939303020202020302E303030302043202020302020302020302020302020302020302020302020302020302020302020302020300A20202032302E3830393720202D31312E3639303020202020302E30303030204F202020302020302020302020302020302020302020302020302020302020302020302020300A20202031372E313732342020202D392E3539303220202020302E30303030204F202020302020302020302020302020302020302020302020302020302020302020302020300A20202031392E353937332020202D392E3539303020202020302E30303030204F202020302020302020302020302020302020302020302020302020302020302020302020300A2020312020322020312020302020202020302020300A2020322020332020312020302020202020302020300A2020332020342020312020302020202020302020300A2020342020352020312020302020202020302020300A2020322020362020322020302020202020302020300A2020342020372020322020302020202020302020300A4D2020454E44
Contributor: Ara T, Morishita Y, Shibata D, Kazusa DNA Research Institute
InstType: EI
InstName: Pegasus III TOF-MS system, Leco; GC 6890, Agilent Technologies
IoniMethod: EI
IonPolarity: pos
Date: 2010-10-09 19:48:36+02:00
Num Peaks: 64
83 1 84 2 85 6 86 2 87 31 88 16 89 10 90 2 91 2 92 1 
93 6 95 2 98 2 99 118 100 12 101 42 102 11 103 23 104 4 105 13 
106 1 107 1 109 25 110 2 113 4 114 1 115 27 116 15 117 33 118 5 
119 7 131 43 132 7 133 55 134 7 135 4 143 32 144 3 145 2 146 1 
147 999 148 169 149 93 150 10 151 2 158 1 159 2 162 2 173 7 174 1 
189 11 190 2 191 2 204 3 217 11 218 2 219 1 233 107 234 21 235 9 
236 1 248 13 249 2 250 1 
