Name: Phenylpyruvic acid
CAS: 156-06-9
MW: 164
Formula: C9H8O3
Synonym: KEGG: C00166
Synonym: MassBank: KZ000083
Synonym: Phenylpyruvic acid
Structure: 31322031322020302020302020302020302020302020302020302020303939392056323030300A20202032312E3531373720202D31362E3836323120202020302E303030302043202020302020302020302020302020302020302020302020302020302020302020302020300A20202032312E3531313220202D31352E3437313420202020302E303030302043202020302020302020302020302020302020302020302020302020302020302020302020300A20202032302E3331323820202D31372E3536303720202020302E303030302043202020302020302020302020302020302020302020302020302020302020302020302020300A20202032322E3734313720202D31372E3536303720202020302E303030302043202020302020302020302020302020302020302020302020302020302020302020302020300A20202032322E3731363020202D31342E3736363520202020302E303030302043202020302020302020302020302020302020302020302020302020302020302020302020300A20202032302E3331323820202D31382E3937303620202020302E303030302043202020302020302020302020302020302020302020302020302020302020302020302020300A20202032322E3734313720202D31382E3937303620202020302E303030302043202020302020302020302020302020302020302020302020302020302020302020302020300A20202032322E3731363020202D31332E3337353720202020302E303030302043202020302020302020302020302020302020302020302020302020302020302020302020300A20202032332E3932373220202D31352E3436353120202020302E30303030204F202020302020302020302020302020302020302020302020302020302020302020302020300A20202032312E3531373720202D31392E3638323020202020302E303030302043202020302020302020302020302020302020302020302020302020302020302020302020300A20202032332E3932303920202D31322E3637373320202020302E30303030204F202020302020302020302020302020302020302020302020302020302020302020302020300A20202032312E3530343820202D31322E3638333620202020302E30303030204F202020302020302020302020302020302020302020302020302020302020302020302020300A2020312020322020312020302020202020302020300A2020312020332020322020302020202020302020300A2020312020342020312020302020202020302020300A2020322020352020312020302020202020302020300A2020332020362020312020302020202020302020300A2020342020372020322020302020202020302020300A2020352020382020312020302020202020302020300A2020352020392020322020302020202020302020300A2020362031302020322020302020202020302020300A2020382031312020312020302020202020302020300A2020382031322020322020302020202020302020300A2020372031302020312020302020202020302020300A4D2020454E44
Contributor: Ara T, Morishita Y, Shibata D, Kazusa DNA Research Institute
InstType: EI
InstName: Pegasus III TOF-MS system, Leco; GC 6890, Agilent Technologies
IoniMethod: EI
IonPolarity: pos
Date: 2010-10-09 19:48:36+02:00
Num Peaks: 93
82 8 83 4 84 192 85 24 86 21 87 38 88 30 89 999 90 538 91 975 
92 89 93 11 94 1 95 2 96 1 98 5 99 3 100 9 101 4 102 17 
103 30 104 16 105 48 106 5 107 4 108 3 109 1 110 5 111 1 112 1 
114 13 115 24 116 982 117 506 118 55 119 8 120 3 121 23 122 12 123 1 
125 5 127 1 128 3 129 3 130 14 131 11 132 10 133 12 134 2 135 12 
136 2 137 4 142 6 143 13 144 21 145 6 146 17 147 58 148 26 149 5 
150 2 151 17 152 2 153 1 158 1 159 1 160 5 161 2 162 3 163 1 
164 1 173 1 174 22 175 25 176 9 177 2 179 2 188 1 189 165 190 36 
191 44 192 7 193 2 218 1 219 1 235 1 250 134 251 25 252 7 253 1 
265 52 266 10 267 2 
