Name: 4-Methylumbelliferone
CAS: 90-33-5
MW: 176
Formula: C10H8O3
Synonym: KEGG: C03081
Synonym: MassBank: KZ000104
Synonym: 4-Methylumbelliferone
Structure: 31332031342020302020302020302020302020302020302020302020303939392056323030300A20202031382E3435313120202D31332E3335393820202020302E303030302043202020302020302020302020302020302020302020302020302020302020302020302020300A20202031382E3435313120202D31342E3737343320202020302E303030302043202020302020302020302020302020302020302020302020302020302020302020302020300A20202031392E3635363120202D31322E3636313220202020302E30303030204F202020302020302020302020302020302020302020302020302020302020302020302020300A20202031372E3233343420202D31322E3637383720202020302E303030302043202020302020302020302020302020302020302020302020302020302020302020302020300A20202031392E3637333520202D31352E3437323920202020302E303030302043202020302020302020302020302020302020302020302020302020302020302020302020300A20202031372E3233343420202D31352E3437383820202020302E303030302043202020302020302020302020302020302020302020302020302020302020302020302020300A20202032302E3838343520202D31332E3335343020202020302E303030302043202020302020302020302020302020302020302020302020302020302020302020302020300A20202031362E3033353020202D31332E3335393820202020302E303030302043202020302020302020302020302020302020302020302020302020302020302020302020300A20202032302E3833373820202D31342E3738303220202020302E303030302043202020302020302020302020302020302020302020302020302020302020302020302020300A20202031392E3637333520202D31362E3836343420202020302E303030302043202020302020302020302020302020302020302020302020302020302020302020302020300A20202031362E3033353020202D31342E3737343320202020302E303030302043202020302020302020302020302020302020302020302020302020302020302020302020300A20202032322E3037373920202D31322E3636373120202020302E30303030204F202020302020302020302020302020302020302020302020302020302020302020302020300A20202031342E3833353920202D31322E3637383720202020302E30303030204F202020302020302020302020302020302020302020302020302020302020302020302020300A2020312020322020322020302020202020302020300A2020312020332020312020302020202020302020300A2020312020342020312020302020202020302020300A2020322020352020312020302020202020302020300A2020322020362020312020302020202020302020300A2020332020372020312020302020202020302020300A2020342020382020322020302020202020302020300A2020352020392020322020302020202020302020300A2020352031302020312020302020202020302020300A2020362031312020322020302020202020302020300A2020372031322020322020302020202020302020300A2020382031332020312020302020202020302020300A2020372020392020312020302020202020302020300A2020382031312020312020302020202020302020300A4D2020454E44
Contributor: Ara T, Morishita Y, Shibata D, Kazusa DNA Research Institute
InstType: EI
InstName: Pegasus III TOF-MS system, Leco; GC 6890, Agilent Technologies
IoniMethod: EI
IonPolarity: pos
Date: 2010-10-09 19:48:36+02:00
Num Peaks: 164
82 13 83 63 84 14 85 45 86 21 87 180 88 156 89 95 90 34 91 232 
92 28 93 43 94 24 95 64 96 11 97 26 98 17 99 68 100 11 101 54 
102 580 103 336 104 34 105 53 106 9 107 25 108 5 109 30 110 7 111 13 
112 3 113 6 114 5 115 150 116 32 117 54 118 15 119 65 120 11 121 28 
122 6 123 14 124 3 125 6 126 3 127 12 128 22 129 47 130 19 131 97 
132 16 133 29 134 8 135 53 136 10 137 15 138 2 139 2 140 1 141 3 
142 1 143 21 144 8 145 53 146 12 147 97 148 21 149 103 150 17 151 43 
152 7 153 3 154 1 155 1 157 6 158 2 159 46 160 9 161 59 162 34 
163 45 164 9 165 324 166 55 167 17 168 2 169 2 170 1 171 6 172 2 
173 21 174 10 175 52 176 16 177 510 178 94 179 29 180 4 181 1 185 5 
186 2 187 7 188 3 189 86 190 25 191 13 192 3 193 2 194 1 195 1 
196 1 197 1 198 1 199 3 200 1 201 3 202 2 203 29 204 16 205 363 
206 80 207 23 208 4 209 2 210 1 211 2 212 2 213 4 214 2 215 3 
216 2 217 10 218 7 219 16 220 275 221 69 222 20 223 3 224 1 227 1 
230 1 231 3 232 14 233 999 234 178 235 56 236 8 237 2 238 1 239 2 
240 2 241 3 242 1 243 1 244 1 246 1 247 11 248 648 249 131 250 36 
251 5 255 1 269 3 312 2 
