Name: DL-alpha-Lipoic acid
CAS: 62-46-4
MW: 206
Formula: C8H14O2S2
Synonym: KEGG: C00725
Synonym: MassBank: KZ000108
Synonym: DL-alpha-Lipoic acid
Structure: 31322031322020302020302020302020302020302020302020302020303939392056323030300A20202033312E3836303620202D31312E3431373720202020302E303030302053202020302020302020302020302020302020302020302020302020302020302020302020300A20202033302E3435393620202D31312E3431373720202020302E303030302053202020302020302020302020302020302020302020302020302020302020302020302020300A20202033302E3032363820202D31322E3735303120202020302E303030302043202020302020302020302020302020302020302020302020302020302020302020302020300A20202033312E3136303120202D31332E3537333620202020302E303030302043202020302020302020302020302020302020302020302020302020302020302020302020300A20202033322E3239333520202D31322E3735303120202020302E303030302043202020302020302020302020302020302020302020302020302020302020302020302020300A20202033332E3439343220202D31332E3434393120202020302E303030302043202020302020302020302020302020302020302020302020302020302020302020302020300A20202033342E3730373520202D31322E3734383620202020302E303030302043202020302020302020302020302020302020302020302020302020302020302020302020300A20202033352E3932303720202D31332E3434393120202020302E303030302043202020302020302020302020302020302020302020302020302020302020302020302020300A20202033372E3133333920202D31322E3734383620202020302E303030302043202020302020302020302020302020302020302020302020302020302020302020302020300A20202033382E3334373320202D31332E3434393120202020302E303030302043202020302020302020302020302020302020302020302020302020302020302020302020300A20202033392E3536303520202D31322E3734383620202020302E30303030204F202020302020302020302020302020302020302020302020302020302020302020302020300A20202033382E3334373320202D31342E3835303120202020302E30303030204F202020302020302020302020302020302020302020302020302020302020302020302020300A2020312020322020312020302020202020302020300A2020322020332020312020302020202020302020300A2020332020342020312020302020202020302020300A2020342020352020312020302020202020302020300A2020312020352020312020302020202020302020300A2020352020362020312020302020202020302020300A2020362020372020312020302020202020302020300A2020372020382020312020302020202020302020300A2020382020392020312020302020202020302020300A2020392031302020312020302020202020302020300A2031302031312020312020302020202020302020300A2031302031322020322020302020202020302020300A4D2020454E44
Contributor: Ara T, Morishita Y, Shibata D, Kazusa DNA Research Institute
InstType: EI
InstName: Pegasus III TOF-MS system, Leco; GC 6890, Agilent Technologies
IoniMethod: EI
IonPolarity: pos
Date: 2010-10-09 19:48:36+02:00
Num Peaks: 143
82 76 83 33 84 18 85 149 86 47 87 133 88 25 89 33 90 9 91 103 
92 18 93 215 94 38 95 684 96 163 97 74 98 26 99 135 100 69 101 81 
102 12 103 52 104 10 105 619 106 55 107 70 108 6 109 24 110 15 111 45 
112 42 113 313 114 38 115 47 116 74 117 392 118 50 119 46 120 5 121 90 
122 17 123 999 124 265 125 40 126 48 127 173 128 81 129 250 130 40 131 38 
132 39 133 9 134 3 135 7 136 3 137 65 138 14 139 18 140 3 141 13 
142 7 143 12 144 5 145 36 146 19 147 12 148 3 149 5 150 1 151 10 
152 2 153 17 154 28 155 337 156 50 157 50 158 8 159 19 160 20 161 16 
162 3 163 3 164 1 165 2 166 1 167 7 168 2 169 16 170 8 171 64 
172 9 173 11 174 2 175 1 177 2 179 8 180 2 181 5 182 1 183 9 
184 2 185 35 186 6 187 5 188 83 189 11 190 9 191 1 195 10 196 2 
197 69 198 20 199 18 200 3 201 3 203 1 211 2 212 1 213 72 214 16 
215 5 216 1 217 3 227 1 229 14 230 5 231 2 244 3 245 25 246 10 
247 4 248 1 262 2 263 46 264 8 265 6 266 1 277 10 278 189 279 37 
280 26 281 4 282 1 
