Name: D-(-)-Ribose
CAS: 50-69-1
MW: 150
Formula: C5H10O5
Synonym: KEGG: C00121
Synonym: MassBank: KZ000123
Synonym: D-(-)-Ribose
Structure: 31302031302020302020202020312020302020202020202020202020203939392056323030300A2020202D302E3438363220202020302E3339333120202020302E303030302043202020302020302020322020302020302020302020202020202020202020302020302020300A2020202D302E323133382020202D302E3339333120202020302E303030302043202020302020302020322020302020302020302020202020202020202020302020302020300A20202020302E3138323820202020302E3837393320202020302E30303030204F202020302020302020302020302020302020302020202020202020202020302020302020300A2020202D312E3236323120202020302E3634313420202020302E303030302043202020302020302020302020302020302020302020202020202020202020302020302020300A20202020302E363230372020202D302E3339333120202020302E303030302043202020302020302020322020302020302020302020202020202020202020302020302020300A2020202D302E373033342020202D312E3036353520202020302E30303030204F202020302020302020302020302020302020302020202020202020202020302020302020300A20202020302E3836353520202020302E3337393320202020302E303030302043202020302020302020332020302020302020302020202020202020202020302020302020300A2020202D312E373632312020202D302E3032303720202020302E30303030204F202020302020302020302020302020302020302020202020202020202020302020302020300A20202020312E313033352020202D312E3036323120202020302E30303030204F202020302020302020302020302020302020302020202020202020202020302020302020300A20202020312E3635313720202020302E3633373920202020302E30303030204F202020302020302020302020302020302020302020202020202020202020302020302020300A2020312020322020312020302020202020302020300A2020312020332020312020302020202020302020300A2020312020342020312020312020202020302020300A2020322020352020312020302020202020302020300A2020322020362020312020362020202020302020300A2020332020372020312020302020202020302020300A2020342020382020312020302020202020302020300A2020352020392020312020362020202020302020300A2020372031302020312020342020202020302020300A2020352020372020312020302020202020302020300A4D2020454E44
Contributor: Ara T, Morishita Y, Shibata D, Kazusa DNA Research Institute
InstType: EI
InstName: Pegasus III TOF-MS system, Leco; GC 6890, Agilent Technologies
IoniMethod: EI
IonPolarity: pos
Date: 2010-10-09 19:48:36+02:00
Num Peaks: 100
82 5 83 1 84 1 85 6 86 5 87 5 88 4 89 82 90 6 91 3 
99 1 100 15 101 7 102 11 103 999 104 95 105 47 106 2 111 1 112 2 
113 4 114 12 115 5 116 6 117 58 118 8 119 10 120 1 126 2 127 2 
128 2 129 17 130 7 131 16 132 3 133 52 134 8 135 4 142 2 143 5 
144 1 145 8 146 2 147 181 148 36 149 15 150 2 157 2 158 3 159 1 
160 75 161 18 162 4 163 6 164 1 173 3 174 10 175 5 176 1 177 1 
188 1 189 62 190 14 191 18 192 3 193 1 203 1 204 1 205 25 206 3 
207 2 217 136 218 34 219 11 220 2 221 3 222 1 229 1 230 1 231 5 
232 2 233 25 234 9 235 3 248 2 262 4 263 1 274 3 275 1 277 20 
278 10 279 5 280 2 307 39 308 22 309 14 310 3 319 1 467 1 468 1 
