Name: L-Cysteine
CAS: 52-90-4
MW: 121
Formula: C3H7NO2S
Synonym: KEGG: C00097
Synonym: MassBank: KZ000153
Synonym: L-Cysteine
Structure: 310A31390A200A200A200A2020372020362020302020302020312020302020302020302020302020303939392056323030300A20202032342E3531343120202D31352E3433373020202020302E303030302043202020302020302020322020302020302020302020302020302020302020302020302020300A20202032332E3334353920202D31342E3638393520202020302E303030302043202020302020302020302020302020302020302020302020302020302020302020302020300A20202032352E3732383920202D31342E3733363120202020302E303030302043202020302020302020302020302020302020302020302020302020302020302020302020300A20202032342E3536303920202D31362E3833383820202020302E30303030204E202020302020302020302020302020302020302020302020302020302020302020302020300A20202032322E3133313120202D31352E3334333620202020302E30303030204F202020302020302020302020302020302020302020302020302020302020302020302020300A20202032332E3334353920202D31332E3238373720202020302E30303030204F202020302020302020302020302020302020302020302020302020302020302020302020300A20202032362E3934333820202D31352E3438333820202020302E303030302053202020302020302020302020302020302020302020302020302020302020302020302020300A2020312020322020312020302020202020302020300A2020312020332020312020302020202020302020300A2020312020342020312020362020202020302020300A2020322020352020312020302020202020302020300A2020322020362020322020302020202020302020300A2020332020372020312020302020202020302020300A4D2020454E44
Contributor: Ara T, Morishita Y, Shibata D, Kazusa DNA Research Institute
InstType: EI
InstName: Pegasus III TOF-MS system, Leco; GC 6890, Agilent Technologies
IoniMethod: EI
IonPolarity: pos
Date: 2010-10-09 19:48:36+02:00
Num Peaks: 147
82 1 83 2 84 11 85 6 86 19 87 10 88 3 89 3 90 3 91 3 
92 1 93 1 96 1 98 9 99 4 100 372 101 58 102 32 103 26 104 4 
105 8 106 2 107 1 112 2 113 3 114 44 115 112 116 57 117 27 118 9 
119 6 120 17 121 2 122 2 128 4 129 17 130 25 131 50 132 61 133 42 
134 11 135 4 136 1 141 1 142 4 143 2 144 26 145 12 146 835 147 500 
148 200 149 52 150 12 151 2 152 1 158 6 159 8 160 10 161 5 162 2 
163 10 164 2 165 1 172 19 173 4 174 16 175 4 176 5 177 1 178 47 
179 11 180 9 181 2 182 1 184 1 188 25 189 9 190 6 191 2 192 1 
194 1 198 1 200 1 202 4 203 11 204 5 205 3 206 1 207 1 216 67 
217 23 218 999 219 207 220 126 221 27 222 12 223 3 224 1 231 4 232 69 
233 18 234 8 235 1 246 1 248 7 249 15 250 10 251 3 252 3 254 1 
260 17 261 6 262 7 263 4 264 114 265 64 266 206 267 48 268 27 269 4 
270 1 288 20 289 14 290 5 291 7 292 4 293 1 294 2 295 1 296 17 
297 35 298 10 299 6 300 1 321 1 322 4 323 2 324 1 338 6 339 2 
340 2 410 7 411 66 412 25 413 16 414 4 415 1 
