Name: Indole-3-acetic acid
CAS: 87-51-4
MW: 175
Formula: C10H9NO2
Synonym: KEGG: C00954
Synonym: MassBank: KZ000144
Synonym: Indole-3-acetic acid
Structure: 31332031342020302020302020302020302020302020302020302020303939392056323030300A20202032322E3131353220202D32302E3234363120202020302E303030302043202020302020302020302020302020302020302020302020302020302020302020302020300A20202032322E3131353220202D31382E3931373420202020302E303030302043202020302020302020302020302020302020302020302020302020302020302020302020300A20202032342E3431363220202D32302E3234363120202020302E303030302043202020302020302020302020302020302020302020302020302020302020302020302020300A20202032302E3936373620202D32302E3931363420202020302E303030302043202020302020302020302020302020302020302020302020302020302020302020302020300A20202032332E3236383720202D31382E3234363920202020302E30303030204E202020302020302020302020302020302020302020302020302020302020302020302020300A20202032302E3936373620202D31382E3235393020202020302E303030302043202020302020302020302020302020302020302020302020302020302020302020302020300A20202032342E3431363220202D31382E3931373420202020302E303030302043202020302020302020302020302020302020302020302020302020302020302020302020300A20202032352E3334363320202D32312E3137363120202020302E303030302043202020302020302020302020302020302020302020302020302020302020302020302020300A20202031392E3832363120202D32302E3234363120202020302E303030302043202020302020302020302020302020302020302020302020302020302020302020302020300A20202031392E3832363120202D31382E3931373420202020302E303030302043202020302020302020302020302020302020302020302020302020302020302020302020300A20202032352E3030323220202D32322E3434343620202020302E303030302043202020302020302020302020302020302020302020302020302020302020302020302020300A20202032332E3733333720202D32322E3738323720202020302E30303030204F202020302020302020302020302020302020302020302020302020302020302020302020300A20202032362E3030373820202D32332E3433383120202020302E30303030204F202020302020302020302020302020302020302020302020302020302020302020302020300A2020312020322020322020302020202020302020300A2020312020332020312020302020202020302020300A2020312020342020312020302020202020302020300A2020322020352020312020302020202020302020300A2020322020362020312020302020202020302020300A2020332020372020322020302020202020302020300A2020332020382020312020302020202020302020300A2020342020392020322020302020202020302020300A2020362031302020322020302020202020302020300A2020382031312020312020302020202020302020300A2031312031322020312020302020202020302020300A2031312031332020322020302020202020302020300A2020352020372020312020302020202020302020300A2020392031302020312020302020202020302020300A4D2020454E44
Contributor: Ara T, Morishita Y, Shibata D, Kazusa DNA Research Institute
InstType: EI
InstName: Pegasus III TOF-MS system, Leco; GC 6890, Agilent Technologies
IoniMethod: EI
IonPolarity: pos
Date: 2010-10-09 19:48:36+02:00
Num Peaks: 361
82 9 83 14 84 16 85 15 86 19 87 22 88 20 89 25 90 23 91 27 
92 1 96 11 97 12 98 25 99 18 100 9 101 38 102 65 103 32 104 18 
105 20 106 18 107 13 108 6 109 7 110 7 111 12 112 4 113 6 114 3 
115 20 116 11 117 34 118 5 119 12 120 7 122 5 123 9 124 13 125 11 
126 14 127 4 128 25 129 69 130 59 131 24 132 14 133 7 134 15 136 3 
137 8 138 14 139 5 140 8 141 13 142 14 143 26 144 15 145 63 146 12 
147 35 148 9 149 12 150 13 151 4 152 18 153 24 154 17 155 9 156 44 
157 13 158 10 159 15 160 19 161 14 162 25 163 20 164 6 165 14 166 20 
167 8 168 11 169 16 170 28 171 13 172 38 173 12 174 6 175 12 176 12 
177 12 178 20 179 12 180 12 181 13 182 16 183 13 184 33 185 27 186 63 
187 45 188 12 189 16 190 3 191 12 192 5 193 15 194 15 195 12 196 13 
197 20 198 26 199 9 200 55 201 35 202 999 203 187 204 47 205 15 206 26 
207 3 208 9 209 11 211 6 212 1 213 11 214 14 215 6 216 16 217 1 
219 16 220 11 221 13 222 7 223 15 224 15 225 2 226 12 227 17 228 4 
229 6 230 8 231 6 232 9 233 8 234 7 235 5 236 16 237 2 238 9 
239 3 240 15 241 14 242 14 244 2 246 12 247 3 248 6 250 4 252 11 
253 13 254 15 255 6 256 4 257 5 258 4 259 6 260 9 262 5 263 7 
265 14 266 2 268 1 269 4 271 9 272 11 274 4 275 9 276 30 277 1 
278 4 279 8 280 6 281 1 282 11 283 11 284 1 285 3 286 3 287 9 
288 3 289 4 290 18 292 7 293 4 294 2 297 3 299 1 300 4 301 3 
302 7 303 8 304 30 305 13 309 12 310 13 311 5 312 10 313 9 315 3 
316 12 317 3 319 76 320 33 321 11 322 9 323 3 324 3 325 1 326 7 
327 4 328 1 329 5 330 2 332 6 333 11 334 4 336 1 337 9 338 9 
339 9 340 10 341 12 342 16 343 13 344 7 345 1 346 8 347 14 348 14 
349 9 350 12 351 5 352 1 354 2 355 4 356 7 357 6 358 5 359 3 
360 3 361 17 362 15 363 1 364 14 366 6 367 5 368 11 369 8 370 8 
371 10 372 11 373 4 374 2 375 4 377 1 380 14 382 6 384 4 385 5 
386 6 387 3 388 9 389 6 390 18 391 9 392 4 393 14 394 15 395 5 
396 6 397 6 398 15 399 5 400 4 401 12 402 2 404 8 407 4 408 7 
409 6 410 8 411 3 412 12 413 3 415 3 417 3 418 14 419 2 420 1 
421 6 423 3 424 13 425 2 426 2 427 7 428 7 429 7 430 3 431 6 
432 1 433 1 434 7 436 5 437 2 438 2 439 6 441 4 444 3 445 1 
446 5 447 12 449 14 452 13 453 1 454 10 455 2 456 1 457 6 460 4 
462 7 463 11 464 6 466 9 467 6 468 9 469 4 470 4 471 7 472 11 
474 4 475 4 478 7 479 4 481 9 482 7 483 10 484 2 486 3 487 9 
488 4 489 1 490 7 491 3 492 3 493 1 494 8 495 1 496 2 498 4 
500 14 
