Name: L-Leucine
CAS: 61-90-5
MW: 131
Formula: C6H13NO2
Synonym: KEGG: C00123
Synonym: MassBank: KZ000158
Synonym: L-Leucine
Structure: 310A32330A200A200A200A2020392020382020302020302020312020302020302020302020302020303939392056323030300A20202032352E3037363120202D31392E3431333820202020302E303030302043202020302020302020312020302020302020302020302020302020302020302020302020300A20202032362E3236333320202D31382E3637363920202020302E303030302043202020302020302020302020302020302020302020302020302020302020302020302020300A20202032332E3834323020202D31382E3735383620202020302E303030302043202020302020302020302020302020302020302020302020302020302020302020302020300A20202032352E3132323920202D32302E3831373320202020302E30303030204E202020302020302020302020302020302020302020302020302020302020302020302020300A20202032372E3439373420202D31392E3333373720202020302E303030302043202020302020302020332020302020302020302020302020302020302020302020302020300A20202032322E3638343120202D31392E3534383320202020302E30303030204F202020302020302020302020302020302020302020302020302020302020302020302020300A20202032332E3836353420202D31372E3335353120202020302E30303030204F202020302020302020302020302020302020302020302020302020302020302020302020300A20202032382E3638343620202D31382E3630303720202020302E303030302043202020302020302020302020302020302020302020302020302020302020302020302020300A20202032372E3534343220202D32302E3733353620202020302E303030302043202020302020302020302020302020302020302020302020302020302020302020302020300A2020312020322020312020302020202020302020300A2020312020332020312020302020202020302020300A2020312020342020312020362020202020302020300A2020322020352020312020302020202020302020300A2020332020362020312020302020202020302020300A2020332020372020322020302020202020302020300A2020352020382020312020302020202020302020300A2020352020392020312020302020202020302020300A4D2020454E44
Contributor: Ara T, Morishita Y, Shibata D, Kazusa DNA Research Institute
InstType: EI
InstName: Pegasus III TOF-MS system, Leco; GC 6890, Agilent Technologies
IoniMethod: EI
IonPolarity: pos
Date: 2010-10-09 19:48:36+02:00
Num Peaks: 83
82 4 83 3 84 17 85 7 86 52 87 9 88 3 89 2 90 1 94 1 
96 4 97 2 98 5 99 9 100 102 101 18 102 223 103 44 104 11 105 6 
110 2 111 1 112 3 113 3 114 6 115 34 116 46 117 17 118 5 119 5 
120 1 124 1 126 2 127 1 128 20 129 8 130 32 131 19 132 18 133 35 
134 7 135 3 136 1 140 1 141 1 142 22 143 5 144 5 145 1 146 4 
147 125 148 21 149 11 150 1 156 6 157 3 158 999 159 150 160 46 161 4 
163 1 170 10 171 3 172 2 173 1 174 4 175 1 176 3 177 2 188 1 
202 1 203 2 204 1 216 1 218 26 219 6 220 2 231 2 232 32 233 8 
234 3 260 8 261 1 
