Name: Guanosine
CAS: 118-00-3
MW: 283
Formula: C10H13N5O5
Synonym: KEGG: C00387
Synonym: MassBank: KZ000033
Synonym: Guanosine
Structure: 32302032322020302020202020312020302020202020202020202020203939392056323030300A20202020302E3732373620202020302E3130363920202020302E303030302043202020302020302020302020302020302020302020202020202020202020302020302020300A20202020302E3039363620202020302E3535313720202020302E30303030204E202020302020302020332020302020302020302020202020202020202020302020302020300A20202020312E3436323120202020302E3634343820202020302E303030302043202020302020302020302020302020302020302020202020202020202020302020302020300A20202020302E383036392020202D302E3732343120202020302E30303030204E202020302020302020302020302020302020302020202020202020202020302020302020300A2020202D302E3636323120202020302E3331303320202020302E303030302043202020302020302020322020302020302020302020202020202020202020302020302020300A20202020302E3338323820202020312E3337393320202020302E303030302043202020302020302020302020302020302020302020202020202020202020302020302020300A20202020312E3234313420202020312E3337393320202020302E30303030204E202020302020302020302020302020302020302020202020202020202020302020302020300A20202020322E3230363920202020302E3332343120202020302E303030302043202020302020302020302020302020302020302020202020202020202020302020302020300A20202020312E353839372020202D312E3037323420202020302E303030302043202020302020302020302020302020302020302020202020202020202020302020302020300A2020202D312E3333373920202020302E3830363920202020302E30303030204F202020302020302020302020302020302020302020202020202020202020302020302020300A2020202D302E393230372020202D302E3433313020202020302E303030302043202020302020302020312020302020302020302020202020202020202020302020302020300A20202020322E333036392020202D302E3535353220202020302E30303030204E202020302020302020302020302020302020302020202020202020202020302020302020300A20202020322E3836353520202020302E3830303020202020302E30303030204F202020302020302020302020302020302020302020202020202020202020302020302020300A20202020312E363639302020202D312E3838323820202020302E30303030204E202020302020302020302020302020302020302020202020202020202020302020302020300A2020202D312E3938393720202020302E3333373920202020302E303030302043202020302020302020312020302020302020302020202020202020202020302020302020300A2020202D312E373431342020202D302E3433313020202020302E303030302043202020302020302020312020302020302020302020202020202020202020302020302020300A2020202D302E333732342020202D312E3034343820202020302E30303030204F202020302020302020302020302020302020302020202020202020202020302020302020300A2020202D322E3736323120202020302E3538363220202020302E303030302043202020302020302020302020302020302020302020202020202020202020302020302020300A2020202D322E313933312020202D312E3132303720202020302E30303030204F202020302020302020302020302020302020302020202020202020202020302020302020300A2020202D332E3337323420202020302E3033343520202020302E30303030204F202020302020302020302020302020302020302020202020202020202020302020302020300A2020312020322020312020302020202020302020300A2020312020332020322020302020202020302020300A2020312020342020312020302020202020302020300A2020352020322020312020312020202020302020300A2020322020362020312020302020202020302020300A2020332020372020312020302020202020302020300A2020332020382020312020302020202020302020300A2020342020392020322020302020202020302020300A2020352031302020312020302020202020302020300A2020352031312020312020302020202020302020300A2020382031322020312020302020202020302020300A2020382031332020322020302020202020302020300A2020392031342020312020302020202020302020300A2031302031352020312020302020202020302020300A2031312031362020312020302020202020302020300A2031312031372020312020362020202020302020300A2031352031382020312020312020202020302020300A2031362031392020312020362020202020302020300A2031382032302020312020302020202020302020300A2020362020372020322020302020202020302020300A2020392031322020312020302020202020302020300A2031352031362020312020302020202020302020300A4D2020454E44
Contributor: Ara T, Morishita Y, Shibata D, Kazusa DNA Research Institute
InstType: EI
InstName: Pegasus III TOF-MS system, Leco; GC 6890, Agilent Technologies
IoniMethod: EI
IonPolarity: pos
Date: 2010-10-09 19:48:36+02:00
Num Peaks: 365
82 9 83 20 84 100 85 67 86 40 87 44 88 17 89 104 90 11 91 9 
92 18 93 10 94 9 95 17 96 10 97 47 98 28 99 176 100 91 101 144 
102 40 103 999 104 102 105 57 106 9 107 12 108 6 109 9 110 23 111 62 
112 19 113 64 114 18 115 226 116 67 117 199 118 30 119 35 120 7 121 6 
122 6 123 9 124 13 125 22 126 26 127 36 128 15 129 246 130 55 131 187 
132 56 133 208 134 63 135 26 136 11 137 9 138 24 139 14 140 16 141 50 
142 35 143 117 144 33 145 42 146 79 147 837 148 140 149 100 150 19 151 13 
152 14 153 37 154 12 155 22 156 18 157 92 158 73 159 25 160 12 161 6 
162 8 163 10 164 12 165 30 166 87 167 22 168 18 169 160 170 30 171 97 
172 27 173 34 174 10 175 11 176 10 177 10 178 9 179 9 180 23 181 12 
182 17 183 9 184 7 185 5 186 3 187 12 188 8 189 71 190 49 191 47 
192 22 193 14 194 12 195 7 196 7 197 8 198 16 199 6 200 3 201 5 
202 3 203 9 204 16 205 19 206 25 207 24 208 52 209 13 210 14 211 5 
212 4 213 2 214 2 215 16 216 7 217 248 218 60 219 36 220 14 221 16 
222 19 223 15 224 10 225 5 226 2 227 2 228 1 229 18 230 246 231 77 
232 39 233 10 234 13 235 5 236 12 237 12 238 26 239 12 240 6 241 3 
242 3 243 191 244 54 245 515 246 118 247 51 248 16 249 7 250 9 251 18 
252 10 253 6 254 3 255 2 256 2 257 10 258 12 259 87 260 22 261 10 
262 9 263 10 264 125 265 35 266 20 267 7 268 3 269 1 270 1 271 1 
272 1 273 1 274 2 275 1 276 5 277 7 278 39 279 53 280 504 281 153 
282 63 283 14 284 3 285 1 286 2 287 2 288 2 289 2 290 4 291 5 
292 12 293 12 294 77 295 103 296 131 297 41 298 14 299 4 300 2 301 1 
302 2 303 1 304 4 305 4 306 11 307 7 308 32 309 14 310 6 311 2 
312 1 313 1 314 2 315 2 316 2 317 2 318 4 319 6 320 16 321 10 
322 12 323 51 324 613 325 168 326 68 327 13 328 4 329 1 330 1 331 2 
332 2 333 5 334 5 335 4 336 8 337 5 338 5 339 2 340 1 344 1 
345 1 346 2 347 3 348 17 349 6 350 7 351 10 352 55 353 24 354 13 
355 3 356 1 357 1 358 1 359 1 360 1 361 2 362 2 363 1 364 1 
365 3 366 14 367 33 368 145 369 54 370 25 371 7 372 2 373 1 374 1 
375 1 376 1 377 1 378 3 379 2 380 5 381 3 382 3 383 2 384 1 
391 1 392 3 393 16 394 73 395 30 396 17 397 6 398 2 399 1 400 1 
405 1 406 1 407 2 408 8 409 28 410 90 411 37 412 16 413 4 414 1 
420 1 421 4 422 17 423 8 424 8 425 18 426 8 427 4 428 2 434 2 
435 2 436 1 437 1 438 1 439 1 442 1 443 1 446 1 447 1 448 3 
449 2 450 3 451 1 452 1 453 1 454 1 462 1 463 2 464 4 465 2 
466 2 467 1 468 1 480 1 481 3 482 6 483 4 484 3 485 1 486 1 
494 1 495 1 496 1 497 1 499 1 
