Name: D-(-)-Arabinose
CAS: 10323-20-3
MW: 150
Formula: C5H10O5
Synonym: KEGG: C00216
Synonym: MassBank: KZ000021
Synonym: D-(-)-Arabinose
Structure: 31302031302020302020202020312020302020202020202020202020203939392056323030300A2020202D302E313438332020202D302E3537393320202020302E303030302043202020302020302020312020302020302020302020202020202020202020302020302020300A20202020302E353732342020202D302E3136353520202020302E303030302043202020302020302020312020302020302020302020202020202020202020302020302020300A2020202D302E383538362020202D302E3136353520202020302E303030302043202020302020302020312020302020302020302020202020202020202020302020302020300A2020202D302E313431342020202D312E3430363920202020302E30303030204F202020302020302020302020302020302020302020202020202020202020302020302020300A20202020302E3537323420202020302E3636323120202020302E303030302043202020302020302020332020302020302020302020202020202020202020302020302020300A20202020312E323839372020202D302E3537393320202020302E30303030204F202020302020302020302020302020302020302020202020202020202020302020302020300A2020202D302E3835383620202020302E3636323120202020302E303030302043202020302020302020302020302020302020302020202020202020202020302020302020300A2020202D312E353732342020202D302E3537393320202020302E30303030204F202020302020302020302020302020302020302020202020202020202020302020302020300A2020202D302E3134383320202020312E3037393320202020302E30303030204F202020302020302020302020302020302020302020202020202020202020302020302020300A20202020312E3238393720202020312E3037393320202020302E30303030204F202020302020302020302020302020302020302020202020202020202020302020302020300A2020312020322020312020302020202020302020300A2020312020332020312020302020202020302020300A2020312020342020312020362020202020302020300A2020322020352020312020302020202020302020300A2020322020362020312020312020202020302020300A2020332020372020312020302020202020302020300A2020332020382020312020362020202020302020300A2020352020392020312020302020202020302020300A2020352031302020312020342020202020302020300A2020372020392020312020302020202020302020300A4D2020454E44
Contributor: Ara T, Morishita Y, Shibata D, Kazusa DNA Research Institute
InstType: EI
InstName: Pegasus III TOF-MS system, Leco; GC 6890, Agilent Technologies
IoniMethod: EI
IonPolarity: pos
Date: 2010-10-09 19:48:36+02:00
Num Peaks: 171
82 7 83 3 84 13 85 12 86 17 87 18 88 12 89 139 90 12 91 7 
92 1 94 2 95 1 96 1 97 1 98 5 99 11 100 38 101 55 102 24 
103 999 104 104 105 82 106 6 107 2 110 1 111 5 112 6 113 13 114 27 
115 24 116 21 117 132 118 15 119 21 120 2 121 1 125 1 126 7 127 9 
128 10 129 111 130 26 131 61 132 11 133 143 134 20 135 12 136 1 140 3 
141 3 142 10 143 29 144 6 145 17 146 4 147 427 148 71 149 46 150 5 
151 3 152 2 154 2 155 1 156 3 157 7 158 14 159 6 160 104 161 22 
162 6 163 21 164 3 165 2 166 1 167 1 168 11 169 3 170 2 171 1 
172 9 173 10 174 17 175 13 176 3 177 5 178 1 184 1 185 1 186 3 
187 1 188 1 189 102 190 21 191 35 192 6 193 3 198 7 199 1 200 4 
201 8 202 2 203 5 204 51 205 47 206 11 207 8 208 1 214 1 215 2 
216 11 217 387 218 88 219 40 220 6 221 10 222 2 223 1 228 2 229 1 
230 3 231 10 232 6 233 22 234 13 235 3 236 1 240 2 241 1 242 5 
243 2 244 2 246 2 247 1 248 3 249 1 256 8 257 5 258 2 259 1 
262 10 263 2 264 1 265 1 272 2 274 4 275 1 277 35 278 12 279 6 
280 1 288 3 290 1 291 5 292 1 302 1 305 3 306 2 307 140 308 43 
309 22 310 4 311 1 316 1 318 1 319 1 330 5 331 4 332 2 362 2 
364 1 
