Name: Indole-3-acetonitrile
CAS: 771-51-7
MW: 156
Formula: C10H8N2
Synonym: KEGG: C02938
Synonym: MassBank: KZ000215
Synonym: Indole-3-acetonitrile
Structure: 31322031332020302020302020302020302020302020302020302020303939392056323030300A20202031362E3638313820202D31342E3233343320202020302E303030302043202020302020302020302020302020302020302020302020302020302020302020302020300A20202031362E3638313820202D31352E3536343920202020302E303030302043202020302020302020302020302020302020302020302020302020302020302020302020300A20202031382E3938303120202D31342E3233343320202020302E303030302043202020302020302020302020302020302020302020302020302020302020302020302020300A20202031352E3532363620202D31332E3538313120202020302E303030302043202020302020302020302020302020302020302020302020302020302020302020302020300A20202031372E3833313020202D31362E3233363420202020302E30303030204E202020302020302020302020302020302020302020302020302020302020302020302020300A20202031352E3532363620202D31362E3233363420202020302E303030302043202020302020302020302020302020302020302020302020302020302020302020302020300A20202031382E3938303120202D31352E3536343920202020302E303030302043202020302020302020302020302020302020302020302020302020302020302020302020300A20202031392E3931313720202D31332E3330383920202020302E303030302043202020302020302020302020302020302020302020302020302020302020302020302020300A20202031342E3338333320202D31342E3233343320202020302E303030302043202020302020302020302020302020302020302020302020302020302020302020302020300A20202031342E3338333320202D31352E3536343920202020302E303030302043202020302020302020302020302020302020302020302020302020302020302020302020300A20202032312E3138313820202D31332E3634373620202020302E303030302043202020302020302020302020302020302020302020302020302020302020302020302020300A20202032322E3435313920202D31332E3938363320202020302E30303030204E202020302020302020302020302020302020302020302020302020302020302020302020300A2020312020322020322020302020202020302020300A2020312020332020312020302020202020302020300A2020312020342020312020302020202020302020300A2020322020352020312020302020202020302020300A2020322020362020312020302020202020302020300A2020332020372020322020302020202020302020300A2020332020382020312020302020202020302020300A2020342020392020322020302020202020302020300A2020362031302020322020302020202020302020300A2020382031312020312020302020202020302020300A2031312031322020332020302020202020302020300A2020352020372020312020302020202020302020300A2020392031302020312020302020202020302020300A4D2020454E44
Contributor: Ara T, Morishita Y, Shibata D, Kazusa DNA Research Institute
InstType: EI
InstName: Pegasus III TOF-MS system, Leco; GC 6890, Agilent Technologies
IoniMethod: EI
IonPolarity: pos
Date: 2010-10-09 19:48:36+02:00
Num Peaks: 117
82 4 83 4 84 298 85 31 86 19 87 17 88 19 89 34 90 13 91 21 
92 9 93 10 94 5 95 2 96 2 97 1 98 18 99 19 100 53 101 205 
102 199 103 78 104 18 105 25 106 6 107 3 108 1 111 1 112 1 113 8 
114 11 115 42 116 15 117 27 118 8 119 10 120 4 121 1 123 1 125 1 
126 8 127 70 128 191 129 999 130 292 131 38 132 13 133 5 134 4 135 1 
139 1 140 9 141 8 142 19 143 33 144 26 145 20 146 14 147 4 148 1 
152 1 153 10 154 26 155 151 156 93 157 20 158 15 159 6 160 12 161 3 
162 1 166 1 167 3 168 7 169 15 170 54 171 14 172 41 173 9 174 4 
175 1 180 1 181 7 182 7 183 11 184 15 185 7 186 35 187 28 188 34 
189 6 190 1 194 2 195 4 196 1 197 3 198 2 199 5 200 15 201 5 
202 34 203 9 204 2 210 1 211 7 212 3 213 290 214 56 215 14 216 1 
225 3 226 1 227 65 228 502 229 106 230 27 231 3 
