Name: Nonadecanoic acid methyl ester
CAS: 1731-94-8
MW: 312
Formula: C20H40O2
Synonym: MassBank: KZ000252
Synonym: Nonadecanoic acid methyl ester
Structure: 32332032322020302020302020302020302020302020302020302020303939392056323030300A2020202D332E3933333720202020302E3136393920202020302E303030302043202020302020302020302020302020302020302020302020302020302020302020302020300A2020202D332E3230303520202020302E3538313120202020302E303030302043202020302020302020302020302020302020302020302020302020302020302020302020300A2020202D342E3634323920202020302E3538373120202020302E303030302043202020302020302020302020302020302020302020302020302020302020302020302020300A2020202D322E3439373220202020302E3136333920202020302E303030302043202020302020302020302020302020302020302020302020302020302020302020302020300A2020202D352E3335323220202020302E3138313820202020302E303030302043202020302020302020302020302020302020302020302020302020302020302020302020300A2020202D312E3737363120202020302E3536393220202020302E303030302043202020302020302020302020302020302020302020302020302020302020302020302020300A2020202D362E3037333320202020302E3539393120202020302E30303030204F202020302020302020302020302020302020302020302020302020302020302020302020300A2020202D352E333538312020202D302E3631363920202020302E30303030204F202020302020302020302020302020302020302020302020302020302020302020302020300A2020202D312E3036303920202020302E3135313920202020302E303030302043202020302020302020302020302020302020302020302020302020302020302020302020300A2020202D362E3738383520202020302E3139393620202020302E303030302043202020302020302020302020302020302020302020302020302020302020302020302020300A2020202D302E3334353720202020302E3535373220202020302E303030302043202020302020302020302020302020302020302020302020302020302020302020302020300A2020202D372E3530393620202020302E3631363920202020302E303030302043202020302020302020302020302020302020302020302020302020302020302020302020300A20202020302E3334353720202020302E3134303020202020302E303030302043202020302020302020302020302020302020302020302020302020302020302020302020300A20202020312E3036303920202020302E3534353320202020302E303030302043202020302020302020302020302020302020302020302020302020302020302020302020300A20202020312E3737363120202020302E3132383220202020302E303030302043202020302020302020302020302020302020302020302020302020302020302020302020300A20202020322E3439373220202020302E3533333420202020302E303030302043202020302020302020302020302020302020302020302020302020302020302020302020300A20202020332E3230303520202020302E3132323220202020302E303030302043202020302020302020302020302020302020302020302020302020302020302020302020300A20202020332E3933333720202020302E3532373520202020302E303030302043202020302020302020302020302020302020302020302020302020302020302020302020300A20202020342E3634323920202020302E3131303320202020302E303030302043202020302020302020302020302020302020302020302020302020302020302020302020300A20202020352E3335323220202020302E3531353620202020302E303030302043202020302020302020302020302020302020302020302020302020302020302020302020300A20202020362E3037333320202020302E3039323520202020302E303030302043202020302020302020302020302020302020302020302020302020302020302020302020300A20202020362E3738383520202020302E3530333720202020302E303030302043202020302020302020302020302020302020302020302020302020302020302020302020300A20202020372E3530393620202020302E3038363420202020302E303030302043202020302020302020302020302020302020302020302020302020302020302020302020300A2020312020322020312020302020202020200A2020312020332020312020302020202020200A2020322020342020312020302020202020200A2020332020352020312020302020202020200A2020342020362020312020302020202020200A2020352020372020312020302020202020200A2020352020382020322020302020202020200A2020362020392020312020302020202020200A2020372031302020312020302020202020200A2020392031312020312020302020202020200A2031302031322020312020302020202020200A2031312031332020312020302020202020200A2031332031342020312020302020202020200A2031342031352020312020302020202020200A2031352031362020312020302020202020200A2031362031372020312020302020202020200A2031372031382020312020302020202020200A2031382031392020312020302020202020200A2031392032302020312020302020202020200A2032302032312020312020302020202020200A2032312032322020312020302020202020200A2032322032332020312020302020202020200A56202020203120300A56202020203220310A56202020203320320A56202020203420330A56202020203520340A56202020203620350A56202020203720360A56202020203820370A56202020203920380A56202020313020390A5620202031312031300A5620202031322031310A5620202031332031320A5620202031342031330A5620202031352031340A5620202031362031350A5620202031372031360A5620202031382031370A5620202031392031380A5620202032302031390A5620202032312032300A5620202032322032310A5620202032332032320A4D2020454E44
Contributor: Ara T, Morishita Y, Shibata D, Kazusa DNA Research Institute
InstType: EI
InstName: Pegasus III TOF-MS system, Leco; GC 6890, Agilent Technologies
IoniMethod: EI
IonPolarity: pos
Date: 2010-10-09 19:48:36+02:00
Num Peaks: 130
37 1 38 4 39 48 40 10 41 364 42 98 43 471 44 2 45 4 47 1 
52 1 53 19 54 25 55 293 56 78 57 213 58 12 59 55 61 2 65 1 
66 6 67 61 68 11 69 142 70 30 71 82 72 6 73 38 74 999 75 160 
76 2 77 6 78 1 79 16 80 2 81 25 82 17 83 149 84 42 85 56 
86 3 87 645 88 46 89 5 91 2 92 1 93 7 94 1 95 34 96 11 
97 80 98 35 99 12 100 5 101 66 102 6 105 2 107 5 109 16 110 6 
111 28 112 9 113 4 115 15 116 11 120 1 121 5 123 5 124 4 125 10 
126 1 127 1 129 42 130 6 135 6 136 1 137 3 138 3 139 6 141 1 
143 110 144 13 149 2 151 1 152 3 153 3 154 1 155 1 157 17 158 7 
159 1 163 2 164 1 168 1 171 11 172 1 177 1 181 1 183 1 185 20 
186 1 196 1 199 30 200 1 205 1 211 1 213 36 214 1 222 1 223 1 
227 16 230 1 237 2 238 2 241 5 255 8 256 1 257 1 268 1 269 28 
270 7 271 2 272 1 281 12 282 4 283 2 311 6 312 92 313 17 314 2 
