Name: L-Norleucine
CAS: 327-57-1
MW: 131
Formula: C6H13NO2
Synonym: KEGG: C01933
Synonym: MassBank: KZ000051
Synonym: L-Norleucine
Structure: 310A32330A200A200A200A2020392020382020302020302020312020302020302020302020302020303939392056323030300A20202032332E3335313520202D31362E3530343120202020302E303030302043202020302020302020322020302020302020302020302020302020302020302020302020300A20202032342E3537353220202D31352E3830383620202020302E303030302043202020302020302020302020302020302020302020302020302020302020302020302020300A20202032322E3133343420202D31352E3830383620202020302E303030302043202020302020302020302020302020302020302020302020302020302020302020302020300A20202032332E3335313520202D31382E3035343520202020302E30303030204E202020302020302020302020302020302020302020302020302020302020302020302020300A20202032352E3738353820202D31362E3531303420202020302E30303030204F202020302020302020302020302020302020302020302020302020302020302020302020300A20202032342E3537353220202D31342E3431373420202020302E30303030204F202020302020302020302020302020302020302020302020302020302020302020302020300A20202032302E3932333620202D31362E3530343120202020302E303030302043202020302020302020302020302020302020302020302020302020302020302020302020300A20202031392E3634383320202D31352E3933373320202020302E303030302043202020302020302020302020302020302020302020302020302020302020302020302020300A20202031382E3531343920202D31362E3735353320202020302E303030302043202020302020302020302020302020302020302020302020302020302020302020302020300A2020312020322020312020302020202020302020300A2020312020332020312020302020202020302020300A2020312020342020312020312020202020302020300A2020322020352020312020302020202020302020300A2020322020362020322020302020202020302020300A2020332020372020312020302020202020302020300A2020372020382020312020302020202020302020300A2020382020392020312020302020202020302020300A4D2020454E44
Contributor: Ara T, Morishita Y, Shibata D, Kazusa DNA Research Institute
InstType: EI
InstName: Pegasus III TOF-MS system, Leco; GC 6890, Agilent Technologies
IoniMethod: EI
IonPolarity: pos
Date: 2010-10-09 19:48:36+02:00
Num Peaks: 80
82 7 83 4 84 20 85 12 86 45 87 10 88 4 89 3 93 1 94 1 
95 1 96 5 97 3 98 13 99 4 100 93 101 18 102 39 103 26 104 4 
105 5 106 1 110 2 111 1 112 5 113 3 114 42 115 27 116 8 117 14 
118 4 119 5 120 1 126 2 127 1 128 22 129 10 130 20 131 19 132 19 
133 35 134 7 135 3 142 8 143 3 144 4 145 1 146 4 147 112 148 19 
149 11 150 1 156 6 157 3 158 999 159 149 160 47 161 5 162 1 163 1 
170 12 171 3 172 2 174 4 175 1 176 1 186 3 187 1 188 1 202 2 
203 2 216 1 218 21 219 4 220 1 232 28 233 8 234 3 260 6 261 1 
