Name: DL-Isocitric acid
CAS: 320-77-4
MW: 192
Formula: C6H8O7
Synonym: KEGG: C00311
Synonym: MassBank: KZ000038
Synonym: DL-Isocitric acid
Structure: 31332031322020302020202020302020302020202020202020202020203939392056323030300A20202020352E393931372020202D352E3331363120202020302E303030302043202020302020302020332020302020302020302020202020202020202020302020302020300A20202020362E373032352020202D352E3732393420202020302E303030302043202020302020302020332020302020302020302020202020202020202020302020302020300A20202020352E323736372020202D352E3732393420202020302E303030302043202020302020302020302020302020302020302020202020202020202020302020302020300A20202020352E393931372020202D342E3439323820202020302E303030302043202020302020302020302020302020302020302020202020202020202020302020302020300A20202020362E373032352020202D362E3535363120202020302E303030302043202020302020302020302020302020302020302020202020202020202020302020302020300A20202020372E343230382020202D352E3331363120202020302E30303030204F202020302020302020302020302020302020302020202020202020202020302020302020300A20202020342E353632352020202D352E3331363120202020302E303030302043202020302020302020302020302020302020302020202020202020202020302020302020300A20202020362E373035392020202D342E3038323920202020302E30303030204F202020302020302020302020302020302020302020202020202020202020302020302020300A20202020352E323733332020202D342E3038323920202020302E30303030204F202020302020302020302020302020302020302020202020202020202020302020302020300A20202020352E393931372020202D362E3936363120202020302E30303030204F202020302020302020302020302020302020302020202020202020202020302020302020300A20202020372E343230382020202D362E3936363120202020302E30303030204F202020302020302020302020302020302020302020202020202020202020302020302020300A20202020342E353635392020202D342E3439323820202020302E30303030204F202020302020302020302020302020302020302020202020202020202020302020302020300A20202020332E383437352020202D352E3733323920202020302E30303030204F202020302020302020302020302020302020302020202020202020202020302020302020300A2020312020322020312020302020202020302020300A2020312020332020312020302020202020302020300A2020312020342020312020302020202020302020300A2020322020352020312020302020202020302020300A2020322020362020312020302020202020302020300A2020332020372020312020302020202020302020300A2020342020382020312020302020202020302020300A2020342020392020322020302020202020302020300A2020352031302020312020302020202020302020300A2020352031312020322020302020202020302020300A2020372031322020312020302020202020302020300A2020372031332020322020302020202020302020300A4D2020454E44
Contributor: Ara T, Morishita Y, Shibata D, Kazusa DNA Research Institute
InstType: EI
InstName: Pegasus III TOF-MS system, Leco; GC 6890, Agilent Technologies
IoniMethod: EI
IonPolarity: pos
Date: 2010-10-09 19:48:36+02:00
Num Peaks: 216
82 4 83 146 84 17 85 21 86 3 87 10 88 8 89 8 90 2 91 1 
92 3 93 13 94 2 95 40 96 3 97 9 98 4 99 19 100 3 101 16 
102 10 103 21 104 3 105 7 106 1 108 1 109 1 110 2 111 7 112 2 
113 38 114 6 115 15 116 31 117 39 118 6 119 14 120 2 121 1 125 2 
126 1 127 7 128 10 129 85 130 12 131 55 132 10 133 121 134 17 135 13 
136 1 137 1 139 10 140 1 141 11 142 4 143 88 144 12 145 10 146 3 
147 999 148 155 149 127 150 15 151 6 152 1 154 1 155 3 156 8 157 41 
158 6 159 5 160 1 161 8 162 4 163 5 164 1 165 1 169 8 170 1 
171 11 172 2 173 5 174 1 175 2 176 1 177 12 178 2 179 1 182 1 
183 5 184 2 185 14 186 2 187 3 188 1 189 9 190 5 191 35 192 7 
193 4 194 1 199 1 201 4 202 3 203 17 204 48 205 14 206 5 207 11 
208 2 209 1 211 54 212 8 213 24 214 4 215 9 216 3 217 36 218 8 
219 8 220 3 221 37 222 9 223 5 224 1 228 1 229 8 230 4 231 10 
232 3 233 1 243 3 244 4 245 282 246 113 247 38 248 8 249 1 256 1 
257 7 258 3 259 13 260 4 261 3 262 1 263 1 264 1 265 7 266 3 
267 1 271 1 272 15 273 341 274 75 275 31 276 5 277 1 284 1 285 22 
286 5 287 5 288 1 289 1 291 2 292 2 293 1 301 4 302 2 303 15 
304 7 305 29 306 8 307 4 308 1 317 1 318 11 319 112 320 55 321 24 
322 7 323 2 331 2 332 1 333 3 334 3 335 2 336 1 346 5 347 70 
348 24 349 13 350 3 351 1 362 6 363 46 364 14 365 7 366 1 373 1 
374 9 375 72 376 23 377 12 378 3 379 1 389 1 390 7 391 2 392 1 
464 5 465 34 466 14 467 7 468 2 480 1 
