Name: L-(-)-Malic acid
CAS: 636-61-3
MW: 134
Formula: C4H6O5
Synonym: KEGG: C00497
Synonym: MassBank: KZ000219
Synonym: L-(-)-Malic acid
Structure: 310A32330A200A200A200A2020392020382020302020302020312020302020302020302020302020303939392056323030300A20202032352E3039313320202D31382E3631383320202020302E303030302043202020302020302020312020302020302020302020302020302020302020302020302020300A20202032362E3239323220202D31392E3331313020202020302E303030302043202020302020302020302020302020302020302020302020302020302020302020302020300A20202032332E3839373020202D31392E3331313020202020302E303030302043202020302020302020302020302020302020302020302020302020302020302020302020300A20202032372E3438363520202D31382E3631383320202020302E303030302043202020302020302020302020302020302020302020302020302020302020302020302020300A20202032322E3730323620202D31382E3631323120202020302E30303030204F202020302020302020302020302020302020302020302020302020302020302020302020300A20202032332E3930333220202D32302E3832373920202020302E30303030204F202020302020302020302020302020302020302020302020302020302020302020302020300A20202032382E3638303920202D31392E3331313020202020302E30303030204F202020302020302020302020302020302020302020302020302020302020302020302020300A20202032372E3438303220202D31372E3233333520202020302E30303030204F202020302020302020302020302020302020302020302020302020302020302020302020300A20202032352E3038393520202D31372E3232303320202020302E30303030204F202020302020302020302020302020302020302020302020302020302020302020302020300A2020312020322020312020302020202020302020300A2020312020332020312020302020202020302020300A2020322020342020312020302020202020302020300A2020332020352020312020302020202020302020300A2020332020362020322020302020202020302020300A2020342020372020312020302020202020302020300A2020342020382020322020302020202020302020300A2020312020392020312020362020202020302020300A4D2020454E44
Contributor: Ara T, Morishita Y, Shibata D, Kazusa DNA Research Institute
InstType: EI
InstName: Pegasus III TOF-MS system, Leco; GC 6890, Agilent Technologies
IoniMethod: EI
IonPolarity: pos
Date: 2010-10-09 19:48:36+02:00
Num Peaks: 160
82 1 83 5 84 7 85 19 86 6 87 14 88 3 89 10 90 1 91 1 
97 1 98 1 99 25 100 4 101 248 102 28 103 22 104 3 105 7 106 1 
107 1 113 3 114 1 115 19 116 25 117 87 118 13 119 12 120 2 121 1 
127 1 128 2 129 32 130 5 131 96 132 19 133 288 134 38 135 23 136 2 
137 1 141 1 142 1 143 34 144 5 145 5 146 2 147 999 148 153 149 72 
150 10 151 6 152 2 153 1 155 1 156 1 157 4 158 1 159 5 160 1 
161 4 162 2 163 5 164 1 165 1 171 102 172 14 173 18 175 175 176 34 
177 44 178 7 179 3 180 1 185 4 186 1 187 1 188 1 189 287 190 270 
191 200 192 47 193 16 194 2 195 1 201 1 202 1 203 14 204 9 205 8 
206 3 207 7 208 2 209 2 210 1 211 1 212 1 213 1 214 1 215 2 
216 2 217 60 218 16 219 10 220 2 221 22 222 7 223 4 224 1 229 1 
230 1 231 4 232 2 233 585 234 129 235 66 236 10 237 3 238 1 244 1 
245 348 246 73 247 42 248 7 249 2 259 3 260 9 261 2 263 66 264 19 
265 86 266 23 267 13 268 3 291 1 292 2 293 1 294 1 305 15 306 28 
307 69 308 41 309 18 310 6 311 1 319 27 320 10 321 5 322 2 323 1 
324 1 325 1 326 1 327 1 328 1 335 106 336 30 337 14 338 2 350 1 
