Name: MassBank: KZ000172
CAS: 515-94-6
MW: 104
Formula: C3H8N2O2
Synonym: KEGG: C06393
Synonym: MassBank: KZ000172
Synonym: 2,3-Diaminopropionic acid
Structure: 310A31390A2020372020362020302020202020302020302020202020202020202020203939392056323030300A20202020302E313030302020202D302E3137353920202020302E303030302043202020302020302020332020302020302020302020202020202020202020302020302020300A2020202D302E3631303320202020302E3233343520202020302E303030302043202020302020302020302020302020302020302020202020202020202020302020302020300A20202020302E3831373220202020302E3233343520202020302E303030302043202020302020302020302020302020302020302020202020202020202020302020302020300A20202020302E313030302020202D312E3030333520202020302E30303030204E202020302020302020302020302020302020302020202020202020202020302020302020300A2020202D312E333237362020202D302E3137353920202020302E30303030204F202020302020302020302020302020302020302020202020202020202020302020302020300A2020202D302E3631303320202020312E3036353520202020302E30303030204F202020302020302020302020302020302020302020202020202020202020302020302020300A20202020312E353331302020202D302E3137353920202020302E30303030204E202020302020302020302020302020302020302020202020202020202020302020302020300A2020312020322020312020302020202020302020300A2020312020332020312020302020202020302020300A2020312020342020312020302020202020302020300A2020322020352020312020302020202020302020300A2020322020362020322020302020202020302020300A2020332020372020312020302020202020302020300A4D2020454E44
Contributor: Ara T, Morishita Y, Shibata D, Kazusa DNA Research Institute
InstType: EI
InstName: Pegasus III TOF-MS system, Leco; GC 6890, Agilent Technologies
IoniMethod: EI
IonPolarity: pos
Date: 2010-10-09 19:48:36+02:00
Num Peaks: 84
82 1 83 2 84 41 85 11 86 299 87 29 88 23 89 1 92 1 93 2 
98 3 99 22 100 185 101 100 102 70 103 17 104 1 105 1 113 10 114 8 
115 23 116 14 117 16 118 5 119 7 127 1 129 17 130 70 131 20 132 30 
133 18 137 1 142 2 143 2 144 10 145 1 146 44 147 53 148 9 149 4 
151 1 157 1 158 7 159 8 160 10 161 2 162 1 170 1 171 22 172 19 
173 6 174 999 175 66 186 1 187 7 188 4 190 2 191 11 192 1 201 1 
202 2 203 9 204 2 205 1 207 1 218 4 219 1 220 1 221 1 243 2 
246 2 247 1 248 7 249 2 250 1 259 8 260 3 275 9 276 4 277 3 
290 11 291 32 292 8 349 2 
