Name: MassBank: KZ000001
CAS: 66-71-7
MW: 180
Formula: C12H8N2
Synonym: KEGG: C00604
Synonym: MassBank: KZ000001
Synonym: 1,10-Phenanthroline
Structure: 31342031362020302020302020302020302020302020302020302020303939392056323030300A20202032312E3437353320202D31362E3537363920202020302E303030302043202020302020302020302020302020302020302020302020302020302020302020302020300A20202032322E3638333920202D31352E3837343620202020302E303030302043202020302020302020302020302020302020302020302020302020302020302020302020300A20202032312E3437353320202D31372E3936393220202020302E303030302043202020302020302020302020302020302020302020302020302020302020302020302020300A20202032302E3237323920202D31352E3839333520202020302E30303030204E202020302020302020302020302020302020302020302020302020302020302020302020300A20202032332E3839393020202D31362E3537303620202020302E303030302043202020302020302020302020302020302020302020302020302020302020302020302020300A20202032322E3637313320202D31342E3436333420202020302E30303030204E202020302020302020302020302020302020302020302020302020302020302020302020300A20202032322E3639303320202D31382E3637313520202020302E303030302043202020302020302020302020302020302020302020302020302020302020302020302020300A20202032302E3237323920202D31382E3637313520202020302E303030302043202020302020302020302020302020302020302020302020302020302020302020302020300A20202031392E3037373020202D31362E3537363920202020302E303030302043202020302020302020302020302020302020302020302020302020302020302020302020300A20202032332E3931313620202D31372E3937353420202020302E303030302043202020302020302020302020302020302020302020302020302020302020302020302020300A20202032352E3132303220202D31352E3836313920202020302E303030302043202020302020302020302020302020302020302020302020302020302020302020302020300A20202032332E3839323720202D31332E3735343620202020302E303030302043202020302020302020302020302020302020302020302020302020302020302020302020300A20202031392E3037373020202D31372E3936393220202020302E303030302043202020302020302020302020302020302020302020302020302020302020302020302020300A20202032352E3132363720202D31342E3435303720202020302E303030302043202020302020302020302020302020302020302020302020302020302020302020302020300A2020312020322020312020302020202020302020300A2020312020332020322020302020202020302020300A2020312020342020312020302020202020302020300A2020322020352020322020302020202020302020300A2020322020362020312020302020202020302020300A2020332020372020312020302020202020302020300A2020332020382020312020302020202020302020300A2020342020392020322020302020202020302020300A2020352031302020312020302020202020302020300A2020352031312020312020302020202020302020300A2020362031322020322020302020202020302020300A2020382031332020322020302020202020302020300A2031312031342020322020302020202020302020300A2020372031302020322020302020202020302020300A2020392031332020312020302020202020302020300A2031322031342020312020302020202020302020300A4D2020454E44
Contributor: Ara T, Morishita Y, Shibata D, Kazusa DNA Research Institute
InstType: EI
InstName: Pegasus III TOF-MS system, Leco; GC 6890, Agilent Technologies
IoniMethod: EI
IonPolarity: pos
Date: 2010-10-09 19:48:36+02:00
Num Peaks: 55
84 4 85 19 86 42 87 73 88 36 89 30 90 162 91 3 96 1 97 11 
98 72 99 125 100 134 101 82 102 55 103 21 104 4 109 2 110 6 111 9 
112 7 113 11 114 12 115 3 116 1 120 1 121 1 122 8 123 15 124 28 
125 166 126 151 127 180 128 45 129 93 130 9 138 1 139 1 140 3 141 1 
142 1 150 7 151 52 152 167 153 273 154 284 155 35 156 2 177 9 178 15 
179 472 180 999 181 149 182 11 183 1 
