Name: Putrescine
CAS: 110-60-1
MW: 88
Formula: C4H12N2
Synonym: KEGG: C00134
Synonym: MassBank: KZ000260
Synonym: Putrescine
Structure: 310A31370A2020362020352020302020202020302020302020202020202020202020203939392056323030300A2020202D302E333538362020202D302E3230363920202020302E303030302043202020302020302020302020302020302020302020202020202020202020302020302020300A20202020302E3335383620202020302E3230363920202020302E303030302043202020302020302020302020302020302020302020202020202020202020302020302020300A2020202D312E3037323420202020302E3230363920202020302E303030302043202020302020302020302020302020302020302020202020202020202020302020302020300A20202020312E303732342020202D302E3230363920202020302E303030302043202020302020302020302020302020302020302020202020202020202020302020302020300A2020202D312E373836322020202D302E3230363920202020302E30303030204E202020302020302020302020302020302020302020202020202020202020302020302020300A20202020312E3738363220202020302E3230363920202020302E30303030204E202020302020302020302020302020302020302020202020202020202020302020302020300A2020312020322020312020302020202020302020300A2020312020332020312020302020202020302020300A2020322020342020312020302020202020302020300A2020332020352020312020302020202020302020300A2020342020362020312020302020202020302020300A4D2020454E44
Contributor: Ara T, Morishita Y, Shibata D, Kazusa DNA Research Institute
InstType: EI
InstName: Pegasus III TOF-MS system, Leco; GC 6890, Agilent Technologies
IoniMethod: EI
IonPolarity: pos
Date: 2010-10-09 19:48:36+02:00
Num Peaks: 89
82 1 83 3 84 11 85 17 86 286 87 36 88 16 89 1 96 1 97 4 
98 14 99 42 100 151 101 31 102 24 103 6 104 2 110 10 111 2 112 15 
113 13 114 33 115 17 116 32 117 26 118 7 119 2 124 2 125 2 126 40 
127 7 128 22 129 9 130 91 131 41 132 21 133 4 134 1 139 2 140 14 
141 3 142 38 143 8 144 12 145 3 146 50 147 9 148 4 156 4 157 2 
158 11 159 3 160 6 161 4 162 1 170 6 171 3 172 75 173 19 174 999 
175 201 176 94 177 12 178 2 182 1 184 3 185 1 186 9 187 15 188 9 
189 3 190 1 197 1 198 3 199 6 200 81 201 19 202 10 203 2 204 1 
213 3 214 116 215 28 216 12 217 2 218 1 228 1 361 2 362 1 
