Name: 4-Hydroxyphenylacetic acid
CAS: 156-38-7
MW: 152
Formula: C8H8O3
Synonym: KEGG: C00642
Synonym: MassBank: KZ000101
Synonym: 4-Hydroxyphenylacetic acid
Structure: 31312031312020302020202020302020302020202020202020202020203939392056323030300A2020202D302E3036353520202020302E3333373920202020302E303030302043202020302020302020302020302020302020302020202020202020202020302020302020300A20202020302E3635383620202020302E3735313720202020302E303030302043202020302020302020302020302020302020302020202020202020202020302020302020300A2020202D302E303639302020202D302E3438393720202020302E303030302043202020302020302020302020302020302020302020202020202020202020302020302020300A2020202D302E3737353920202020302E3735383620202020302E303030302043202020302020302020302020302020302020302020202020202020202020302020302020300A20202020312E3337323420202020302E3332373620202020302E303030302043202020302020302020302020302020302020302020202020202020202020302020302020300A20202020302E363434382020202D302E3930363920202020302E303030302043202020302020302020302020302020302020302020202020202020202020302020302020300A2020202D312E3439363620202020302E3334383320202020302E303030302043202020302020302020302020302020302020302020202020202020202020302020302020300A20202020312E333635352020202D302E3530333420202020302E303030302043202020302020302020302020302020302020302020202020202020202020302020302020300A2020202D322E3231333820202020302E3736393020202020302E30303030204F202020302020302020302020302020302020302020202020202020202020302020302020300A2020202D312E353036392020202D302E3437353920202020302E30303030204F202020302020302020302020302020302020302020202020202020202020302020302020300A20202020322E303739332020202D302E3932303720202020302E30303030204F202020302020302020302020302020302020302020202020202020202020302020302020300A2020312020322020312020302020202020302020300A2020312020332020322020302020202020302020300A2020312020342020312020302020202020302020300A2020322020352020322020302020202020302020300A2020332020362020312020302020202020302020300A2020342020372020312020302020202020302020300A2020352020382020312020302020202020302020300A2020372020392020312020302020202020302020300A2020372031302020322020302020202020302020300A2020382031312020312020302020202020302020300A2020362020382020322020302020202020302020300A4D2020454E44
Contributor: Ara T, Morishita Y, Shibata D, Kazusa DNA Research Institute
InstType: EI
InstName: Pegasus III TOF-MS system, Leco; GC 6890, Agilent Technologies
IoniMethod: EI
IonPolarity: pos
Date: 2010-10-09 19:48:36+02:00
Num Peaks: 165
82 14 83 13 84 1 85 15 86 2 87 10 88 7 89 135 90 84 91 42 
92 4 93 6 94 1 95 10 96 2 97 3 98 1 99 6 101 6 102 12 
103 47 104 40 105 56 106 10 107 23 108 2 109 9 110 1 111 3 113 1 
115 11 116 5 117 67 118 15 119 25 120 5 121 18 122 3 123 7 124 1 
125 1 129 1 130 2 131 27 132 6 133 162 134 29 135 72 136 14 137 17 
138 2 139 1 140 1 141 1 143 5 144 1 145 15 146 5 147 251 148 57 
149 178 150 33 151 13 152 2 153 1 155 1 156 1 157 2 158 1 159 4 
160 2 161 50 162 17 163 207 164 574 165 110 166 29 167 4 168 1 175 6 
176 5 177 96 178 27 179 999 180 181 181 55 182 6 183 1 189 2 190 2 
191 78 192 15 193 24 194 6 195 6 196 2 197 1 203 1 204 1 205 3 
206 21 207 10 208 16 209 13 210 6 211 5 212 2 213 1 219 3 220 2 
221 5 222 4 223 6 224 2 225 35 226 19 227 6 228 2 229 1 230 1 
233 1 234 1 235 2 236 4 237 26 238 13 239 5 240 1 249 1 250 1 
251 4 252 349 253 167 254 77 255 19 256 4 257 1 265 6 266 10 267 5 
268 2 269 1 270 1 271 1 272 1 273 2 274 2 275 1 276 1 277 1 
278 1 279 2 280 8 281 263 282 76 283 32 284 7 285 2 286 1 295 17 
296 292 297 89 298 36 299 6 300 1 
