Name: 3-Methyladenine
CAS: 5142-23-4
MW: 149
Formula: C6H7N5
Synonym: KEGG: C00913
Synonym: MassBank: KZ000096
Synonym: 3-Methyladenine
Structure: 31312031322020302020202020302020302020202020202020202020203939392056323030300A20202020302E3235353220202020302E3430363920202020302E303030302043202020302020302020302020302020302020302020202020202020202020302020302020300A20202020302E323535322020202D302E3430363920202020302E303030302043202020302020302020302020302020302020302020202020202020202020302020302020300A2020202D302E3434383320202020302E3832343120202020302E303030302043202020302020302020302020302020302020302020202020202020202020302020302020300A20202020312E3034343820202020302E3636353520202020302E30303030204E202020302020302020302020302020302020302020202020202020202020302020302020300A2020202D302E343438332020202D302E3832373620202020302E30303030204E202020302020302020332020302020302020302020202020202020202020302020302020300A20202020312E303434382020202D302E3636353520202020302E30303030204E202020302020302020302020302020302020302020202020202020202020302020302020300A2020202D312E3136353520202020302E3430363920202020302E30303030204E202020302020302020302020302020302020302020202020202020202020302020302020300A2020202D302E3434383320202020312E3635313720202020302E30303030204E202020302020302020302020302020302020302020202020202020202020302020302020300A20202020312E3533313020202020302E3030333420202020302E303030302043202020302020302020302020302020302020302020202020202020202020302020302020300A2020202D312E313635352020202D302E3430363920202020302E303030302043202020302020302020302020302020302020302020202020202020202020302020302020300A2020202D302E343438332020202D312E3635353220202020302E303030302043202020302020302020302020302020302020302020202020202020202020302020302020300A2020312020322020312020302020202020302020300A2020312020332020322020302020202020302020300A2020312020342020312020302020202020302020300A2020322020352020312020302020202020302020300A2020322020362020322020302020202020302020300A2020332020372020312020302020202020302020300A2020332020382020312020302020202020302020300A2020342020392020322020302020202020302020300A2020352031302020312020302020202020302020300A2020352031312020312020302020202020302020300A2020362020392020312020302020202020302020300A2020372031302020322020302020202020302020300A4D2020454E44
Contributor: Ara T, Morishita Y, Shibata D, Kazusa DNA Research Institute
InstType: EI
InstName: Pegasus III TOF-MS system, Leco; GC 6890, Agilent Technologies
IoniMethod: EI
IonPolarity: pos
Date: 2010-10-09 19:48:36+02:00
Num Peaks: 108
82 17 83 21 84 237 85 75 86 28 87 6 88 11 89 2 91 3 92 11 
93 23 94 110 95 55 96 38 97 17 98 24 99 61 100 20 101 6 102 1 
103 31 104 1 105 1 106 6 107 14 108 13 109 13 110 14 111 172 112 21 
113 22 114 5 115 6 119 8 120 6 121 69 122 105 123 25 124 15 125 29 
126 6 127 3 132 1 133 5 134 10 135 14 136 22 137 13 138 73 139 10 
140 4 147 5 148 14 149 56 150 17 151 24 152 73 153 12 154 4 155 1 
160 2 161 5 162 10 163 8 164 15 165 23 166 8 167 3 168 1 174 3 
175 5 176 124 177 24 178 21 179 289 180 52 181 14 182 1 187 1 188 1 
189 9 190 30 191 13 192 5 193 11 194 17 195 4 196 1 197 1 199 1 
203 1 204 13 205 123 206 999 207 169 208 47 209 5 212 1 213 1 214 1 
215 1 216 1 219 1 220 51 221 356 222 60 223 16 224 2 
