Name: D-Glucuronic acid
CAS: 6556-12-3
MW: 194
Formula: C6H10O7
Synonym: KEGG: C00191
Synonym: MassBank: KZ000204
Synonym: D-Glucuronic acid
Structure: 31332031332020302020302020312020302020302020302020302020303939392056323030300A20202032352E3030383120202D31382E3336393620202020302E303030302043202020302020302020322020302020302020302020302020302020302020302020302020300A20202032352E3030383120202D31392E3736383620202020302E303030302043202020302020302020322020302020302020302020302020302020302020302020302020300A20202032362E3230383820202D31372E3636343320202020302E30303030204F202020302020302020302020302020302020302020302020302020302020302020302020300A20202032332E3739353620202D31372E3733343320202020302E303030302043202020302020302020302020302020302020302020302020302020302020302020302020300A20202032362E3230383820202D32302E3436323320202020302E303030302043202020302020302020312020302020302020302020302020302020302020302020302020300A20202032332E3739353620202D32302E3436323320202020302E30303030204F202020302020302020302020302020302020302020302020302020302020302020302020300A20202032372E3432373120202D31382E3336393620202020302E303030302043202020302020302020332020302020302020302020302020302020302020302020302020300A20202032322E3732383920202D31382E3634333620202020302E30303030204F202020302020302020302020302020302020302020302020302020302020302020302020300A20202032332E3738333920202D31362E3237373020202020302E30303030204F202020302020302020302020302020302020302020302020302020302020302020302020300A20202032372E3432373120202D31392E3736383620202020302E303030302043202020302020302020322020302020302020302020302020302020302020302020302020300A20202032362E3230383820202D32312E3836313320202020302E30303030204F202020302020302020302020302020302020302020302020302020302020302020302020300A20202032382E3633333720202D31372E3636343320202020302E30303030204F202020302020302020302020302020302020302020302020302020302020302020302020300A20202032382E3633333720202D32302E3436323320202020302E30303030204F202020302020302020302020302020302020302020302020302020302020302020302020300A2020312020322020312020302020202020302020300A2020312020332020312020302020202020302020300A2020312020342020312020312020202020302020300A2020322020352020312020302020202020302020300A2020322020362020312020362020202020302020300A2020332020372020312020302020202020302020300A2020342020382020312020302020202020302020300A2020342020392020322020302020202020302020300A2020352031302020312020302020202020302020300A2020352031312020312020312020202020302020300A2020372031322020312020342020202020302020300A2031302031332020312020362020202020302020300A2020372031302020312020302020202020302020300A4D2020454E44
Contributor: Ara T, Morishita Y, Shibata D, Kazusa DNA Research Institute
InstType: EI
InstName: Pegasus III TOF-MS system, Leco; GC 6890, Agilent Technologies
IoniMethod: EI
IonPolarity: pos
Date: 2010-10-09 19:48:36+02:00
Num Peaks: 287
82 10 83 9 84 7 85 11 86 16 87 11 88 5 89 147 90 12 91 5 
94 1 97 1 98 3 99 10 100 24 101 20 102 34 103 96 104 10 105 57 
106 6 107 2 110 1 111 2 112 3 113 4 114 18 115 11 116 6 117 13 
118 3 119 6 120 1 126 3 127 6 128 9 129 40 130 22 131 40 132 9 
133 77 134 12 135 7 136 1 138 1 139 1 140 2 141 3 142 11 143 139 
144 22 145 22 146 5 147 694 148 105 149 64 150 8 151 4 152 2 153 1 
154 3 155 3 156 3 157 9 158 18 159 9 160 999 161 127 162 39 163 23 
164 4 165 2 166 1 168 3 169 1 170 3 171 42 172 20 173 12 174 8 
175 9 176 2 177 5 178 2 179 1 182 3 183 2 184 1 185 2 186 5 
187 3 188 3 189 155 190 40 191 64 192 13 193 7 194 2 195 1 196 1 
197 1 198 3 199 1 200 4 201 5 202 3 203 7 204 69 205 24 206 9 
207 20 208 5 209 3 210 4 211 1 212 1 213 1 214 6 215 13 216 39 
217 159 218 36 219 101 220 22 221 48 222 11 223 6 224 2 225 1 226 1 
227 1 228 5 229 6 230 6 231 23 232 10 233 9 234 7 235 3 236 1 
237 1 238 1 239 1 240 3 241 2 242 3 243 3 244 4 245 8 246 7 
247 3 248 3 249 1 250 1 251 1 252 1 253 1 254 1 255 1 256 7 
257 3 258 2 259 1 260 1 261 3 262 8 263 5 264 2 265 2 266 1 
268 1 269 1 270 1 271 1 272 2 273 2 274 32 275 9 276 4 277 23 
278 9 279 7 280 2 281 1 282 2 283 1 284 1 285 1 286 2 287 1 
288 1 289 1 290 2 291 13 292 52 293 23 294 10 295 3 296 1 302 6 
303 5 304 4 305 49 306 27 307 13 308 4 309 1 314 16 315 7 316 3 
317 2 318 5 319 5 320 2 321 3 322 1 323 1 328 1 330 1 331 1 
332 6 333 562 334 187 335 101 336 23 337 6 338 1 344 2 345 8 346 3 
347 4 348 2 349 1 351 3 352 1 353 1 356 1 357 1 358 1 360 1 
361 5 362 2 363 1 364 76 365 25 366 12 367 5 368 2 369 1 372 1 
373 1 374 1 376 3 377 1 379 5 380 2 381 1 388 12 389 5 390 2 
391 1 392 1 393 16 394 8 395 5 396 2 397 1 404 1 405 1 407 1 
408 2 409 1 418 4 419 10 420 5 421 3 422 2 423 41 424 16 425 9 
426 2 435 1 446 1 447 1 450 1 451 1 478 1 
