Name: Cadaverine
CAS: 462-94-2
MW: 102
Formula: C5H14N2
Synonym: KEGG: C01672
Synonym: MassBank: KZ000112
Synonym: Cadaverine
Structure: 310A31390A200A200A200A2020372020362020302020302020302020302020302020302020302020303939392056323030300A20202032322E3132303020202D31352E3834313120202020302E303030302043202020302020302020302020302020302020302020302020302020302020302020302020300A20202032302E3931303420202D31362E3534323420202020302E303030302043202020302020302020302020302020302020302020302020302020302020302020302020300A20202032332E3332393620202D31362E3534323420202020302E303030302043202020302020302020302020302020302020302020302020302020302020302020302020300A20202031392E3639343620202D31352E3834313120202020302E303030302043202020302020302020302020302020302020302020302020302020302020302020302020300A20202032342E3534353420202D31352E3834313120202020302E303030302043202020302020302020302020302020302020302020302020302020302020302020302020300A20202031382E3438353020202D31362E3534323420202020302E30303030204E202020302020302020302020302020302020302020302020302020302020302020302020300A20202032352E3735353020202D31362E3534323420202020302E30303030204E202020302020302020302020302020302020302020302020302020302020302020302020300A2020312020322020312020302020202020302020300A2020312020332020312020302020202020302020300A2020322020342020312020302020202020302020300A2020332020352020312020302020202020302020300A2020342020362020312020302020202020302020300A2020352020372020312020302020202020302020300A4D2020454E44
Contributor: Ara T, Morishita Y, Shibata D, Kazusa DNA Research Institute
InstType: EI
InstName: Pegasus III TOF-MS system, Leco; GC 6890, Agilent Technologies
IoniMethod: EI
IonPolarity: pos
Date: 2010-10-09 19:48:36+02:00
Num Peaks: 86
84 2 85 7 86 188 87 6 88 28 97 1 98 2 99 6 100 100 101 5 
102 16 112 40 113 4 114 12 115 5 116 5 117 4 118 1 124 2 126 9 
127 1 128 8 129 2 130 52 131 18 132 12 138 3 139 1 140 17 141 2 
142 4 143 3 144 4 145 2 146 22 147 3 154 10 155 2 156 9 157 1 
158 19 159 2 160 25 161 3 162 1 170 2 171 1 172 18 173 3 174 999 
175 112 176 47 177 4 180 3 184 4 185 1 186 35 187 7 188 8 189 2 
198 5 199 1 200 29 201 6 202 4 204 1 212 6 213 5 214 11 215 1 
216 11 217 1 218 1 227 2 228 6 229 28 230 7 231 2 244 1 374 4 
375 28 376 8 377 2 378 1 379 2 391 1 
