Name: MassBank: KZ000093
CAS: 66-71-7
MW: 180
Formula: C12H8N2
Synonym: KEGG: C00604
Synonym: MassBank: KZ000093
Synonym: 1,10-Phenanthroline
Structure: 31342031362020302020302020302020302020302020302020302020303939392056323030300A20202032312E3437353320202D31362E3537363920202020302E303030302043202020302020302020302020302020302020302020302020302020302020302020302020300A20202032322E3638333920202D31352E3837343620202020302E303030302043202020302020302020302020302020302020302020302020302020302020302020302020300A20202032312E3437353320202D31372E3936393220202020302E303030302043202020302020302020302020302020302020302020302020302020302020302020302020300A20202032302E3237323920202D31352E3839333520202020302E30303030204E202020302020302020302020302020302020302020302020302020302020302020302020300A20202032332E3839393020202D31362E3537303620202020302E303030302043202020302020302020302020302020302020302020302020302020302020302020302020300A20202032322E3637313320202D31342E3436333420202020302E30303030204E202020302020302020302020302020302020302020302020302020302020302020302020300A20202032322E3639303320202D31382E3637313520202020302E303030302043202020302020302020302020302020302020302020302020302020302020302020302020300A20202032302E3237323920202D31382E3637313520202020302E303030302043202020302020302020302020302020302020302020302020302020302020302020302020300A20202031392E3037373020202D31362E3537363920202020302E303030302043202020302020302020302020302020302020302020302020302020302020302020302020300A20202032332E3931313620202D31372E3937353420202020302E303030302043202020302020302020302020302020302020302020302020302020302020302020302020300A20202032352E3132303220202D31352E3836313920202020302E303030302043202020302020302020302020302020302020302020302020302020302020302020302020300A20202032332E3839323720202D31332E3735343620202020302E303030302043202020302020302020302020302020302020302020302020302020302020302020302020300A20202031392E3037373020202D31372E3936393220202020302E303030302043202020302020302020302020302020302020302020302020302020302020302020302020300A20202032352E3132363720202D31342E3435303720202020302E303030302043202020302020302020302020302020302020302020302020302020302020302020302020300A2020312020322020312020302020202020302020300A2020312020332020322020302020202020302020300A2020312020342020312020302020202020302020300A2020322020352020322020302020202020302020300A2020322020362020312020302020202020302020300A2020332020372020312020302020202020302020300A2020332020382020312020302020202020302020300A2020342020392020322020302020202020302020300A2020352031302020312020302020202020302020300A2020352031312020312020302020202020302020300A2020362031322020322020302020202020302020300A2020382031332020322020302020202020302020300A2031312031342020322020302020202020302020300A2020372031302020322020302020202020302020300A2020392031332020312020302020202020302020300A2031322031342020312020302020202020302020300A4D2020454E44
Contributor: Ara T, Morishita Y, Shibata D, Kazusa DNA Research Institute
InstType: EI
InstName: Pegasus III TOF-MS system, Leco; GC 6890, Agilent Technologies
IoniMethod: EI
IonPolarity: pos
Date: 2010-10-09 19:48:36+02:00
Num Peaks: 51
84 2 85 13 86 28 87 48 88 25 89 22 90 125 91 2 97 8 98 51 
99 89 100 96 101 60 102 40 103 15 104 3 109 1 110 4 111 6 112 5 
113 8 114 9 115 2 121 1 122 5 123 11 124 20 125 123 126 108 127 131 
128 32 129 71 130 7 138 1 139 1 140 3 141 1 150 5 151 36 152 122 
153 207 154 223 155 26 156 1 177 9 178 17 179 476 180 999 181 148 182 12 
183 1 
