Name: Hypotaurine
CAS: 300-84-5
MW: 109
Formula: C2H7NO2S
Synonym: KEGG: C00519
Synonym: MassBank: KZ000034
Synonym: Hypotaurine
Structure: 310A31370A200A200A200A2020362020352020302020302020302020302020302020302020302020303939392056323030300A20202032322E3133303520202D31372E3234353520202020302E303030302043202020302020302020302020302020302020302020302020302020302020302020302020300A20202032332E3334303220202D31362E3534343120202020302E303030302053202020302020302020332020302020302020302020302020302020302020302020302020300A20202032302E3932303820202D31362E3535303720202020302E303030302043202020302020302020302020302020302020302020302020302020302020302020302020300A20202032342E3536323820202D31372E3233323720202020302E30303030204F202020302020302020302020302020302020302020302020302020302020302020302020300A20202032332E3332303820202D31352E3030313520202020302E30303030204F202020302020302020302020302020302020302020302020302020302020302020302020300A20202031392E3730343720202D31372E3234353520202020302E30303030204E202020302020302020302020302020302020302020302020302020302020302020302020300A2020312020322020312020302020202020302020300A2020312020332020312020302020202020302020300A2020322020342020312020302020202020302020300A2020322020352020322020302020202020302020300A2020332020362020312020302020202020302020300A4D2020454E44
Contributor: Ara T, Morishita Y, Shibata D, Kazusa DNA Research Institute
InstType: EI
InstName: Pegasus III TOF-MS system, Leco; GC 6890, Agilent Technologies
IoniMethod: EI
IonPolarity: pos
Date: 2010-10-09 19:48:36+02:00
Num Peaks: 108
82 1 83 3 84 16 85 18 86 177 87 27 88 12 89 6 90 3 91 8 
92 3 93 3 95 1 97 1 98 11 99 14 100 999 101 130 102 63 103 16 
104 6 105 7 106 3 107 1 108 2 111 1 112 1 113 25 114 182 115 44 
116 63 117 29 118 9 119 17 120 4 121 3 122 28 123 3 124 2 128 2 
129 10 130 208 131 61 132 35 133 106 134 17 135 19 136 2 137 17 138 3 
139 2 140 1 142 2 143 1 144 3 145 2 146 31 147 273 148 49 149 30 
150 4 151 2 156 2 157 1 158 7 159 2 160 7 161 2 162 1 163 1 
164 1 165 1 170 1 172 99 173 19 174 143 175 26 176 41 177 7 178 2 
179 1 186 1 187 13 188 640 189 131 190 58 191 8 192 1 194 8 195 1 
196 1 204 2 205 1 206 1 209 7 210 1 211 1 220 2 221 1 222 5 
223 1 248 17 249 4 250 2 309 1 310 20 311 5 312 3 
