Name: 4-Methyl-2-oxovaleric acid
CAS: 816-66-0
MW: 130
Formula: C6H10O3
Synonym: KEGG: C00233
Synonym: MassBank: KZ000180
Synonym: 4-Methyl-2-oxovaleric acid
Structure: 310A32330A200A200A200A2020392020382020302020302020302020302020302020302020302020303939392056323030300A20202032322E3733303620202D31352E3830353520202020302E303030302043202020302020302020302020302020302020302020302020302020302020302020302020300A20202032312E3531343320202D31362E3530373020202020302E303030302043202020302020302020302020302020302020302020302020302020302020302020302020300A20202032332E3934303320202D31362E3530373020202020302E303030302043202020302020302020302020302020302020302020302020302020302020302020302020300A20202032322E3733303620202D31342E3437323720202020302E30303030204F202020302020302020302020302020302020302020302020302020302020302020302020300A20202032302E3330343620202D31352E3830353520202020302E303030302043202020302020302020332020302020302020302020302020302020302020302020302020300A20202032352E3135303120202D31352E3830353520202020302E30303030204F202020302020302020302020302020302020302020302020302020302020302020302020300A20202032332E3934303320202D31382E3131333420202020302E30303030204F202020302020302020302020302020302020302020302020302020302020302020302020300A20202031392E3039343720202D31362E3530373020202020302E303030302043202020302020302020302020302020302020302020302020302020302020302020302020300A20202032302E3330343620202D31342E3437323720202020302E303030302043202020302020302020302020302020302020302020302020302020302020302020302020300A2020312020322020312020302020202020302020300A2020312020332020312020302020202020302020300A2020312020342020322020302020202020302020300A2020322020352020312020302020202020302020300A2020332020362020312020302020202020302020300A2020332020372020322020302020202020302020300A2020352020382020312020302020202020302020300A2020352020392020312020302020202020302020300A4D2020454E44
Contributor: Ara T, Morishita Y, Shibata D, Kazusa DNA Research Institute
InstType: EI
InstName: Pegasus III TOF-MS system, Leco; GC 6890, Agilent Technologies
IoniMethod: EI
IonPolarity: pos
Date: 2010-10-09 19:48:36+02:00
Num Peaks: 108
82 495 83 67 84 223 85 34 86 56 87 15 88 13 89 999 90 95 91 70 
92 7 93 10 94 5 95 6 96 6 97 13 98 182 99 744 100 176 101 34 
102 12 103 51 104 7 105 7 106 1 108 2 109 7 110 579 111 47 112 18 
113 47 114 253 115 575 116 123 117 58 118 14 119 44 120 4 121 2 124 4 
125 2 126 78 127 8 128 22 129 13 130 14 131 7 132 1 133 2 138 2 
139 1 140 68 141 30 142 29 143 54 144 55 145 8 146 4 147 3 148 1 
149 1 150 1 151 1 152 1 153 1 154 30 155 10 156 26 157 8 158 96 
159 19 160 32 161 4 162 2 163 1 164 1 165 1 166 4 167 2 168 2 
169 1 170 5 171 2 172 9 173 8 174 62 175 8 176 4 182 22 183 17 
184 9 185 3 186 1 188 1 189 464 190 61 191 22 192 2 198 2 199 1 
200 532 201 89 202 27 203 3 216 546 217 86 218 27 219 2 
