Name: Ibuprofen
CAS: 15687-27-1
MW: 206
Formula: C13H18O2
Synonym: KEGG: C01588
Synonym: MassBank: KZ000037
Synonym: Ibuprofen
Structure: 31352031352020302020302020302020302020302020302020302020303939392056323030300A20202032362E3633333220202D31362E3332333920202020302E30303030204F202020302020302020302020302020302020302020302020302020302020302020302020300A20202032352E3432313120202D31372E3032343620202020302E303030302043202020302020302020302020302020302020302020302020302020302020302020302020300A20202032342E3230383120202D31362E3332353120202020302E303030302043202020302020302020332020302020302020302020302020302020302020302020302020300A20202032352E3432313720202D31382E3432343720202020302E30303030204F202020302020302020302020302020302020302020302020302020302020302020302020300A20202032322E3939363020202D31372E3032353820202020302E303030302043202020302020302020302020302020302020302020302020302020302020302020302020300A20202032312E3738383820202D31362E3332333520202020302E303030302043202020302020302020302020302020302020302020302020302020302020302020302020300A20202032302E3537363820202D31372E3032343320202020302E303030302043202020302020302020302020302020302020302020302020302020302020302020302020300A20202032302E3537373420202D31382E3432343420202020302E303030302043202020302020302020302020302020302020302020302020302020302020302020302020300A20202032312E3739303320202D31392E3132333720202020302E303030302043202020302020302020302020302020302020302020302020302020302020302020302020300A20202032332E3030323320202D31382E3432323920202020302E303030302043202020302020302020302020302020302020302020302020302020302020302020302020300A20202031392E3336353220202D31392E3132343920202020302E303030302043202020302020302020302020302020302020302020302020302020302020302020302020300A20202031382E3135323320202D31382E3432353620202020302E303030302043202020302020302020332020302020302020302020302020302020302020302020302020300A20202031362E3934303220202D31392E3132363220202020302E303030302043202020302020302020302020302020302020302020302020302020302020302020302020300A20202031382E3135313620202D31372E3032353520202020302E303030302043202020302020302020302020302020302020302020302020302020302020302020302020300A20202032342E3230373320202D31342E3931393720202020302E303030302043202020302020302020302020302020302020302020302020302020302020302020302020300A2020322020342020322020302020202020302020300A2020332020352020312020302020202020302020300A2020352020362020322020302020202020302020300A2020362020372020312020302020202020302020300A2020372020382020322020302020202020302020300A2020382020392020312020302020202020302020300A2020392031302020322020302020202020302020300A2031302020352020312020302020202020302020300A2020382031312020312020302020202020302020300A2020312020322020312020302020202020302020300A2031312031322020312020302020202020302020300A2031322031332020312020302020202020302020300A2020322020332020312020302020202020302020300A2031322031342020312020302020202020302020300A2020332031352020312020302020202020302020300A4D2020454E44
Contributor: Ara T, Morishita Y, Shibata D, Kazusa DNA Research Institute
InstType: EI
InstName: Pegasus III TOF-MS system, Leco; GC 6890, Agilent Technologies
IoniMethod: EI
IonPolarity: pos
Date: 2010-10-09 19:48:36+02:00
Num Peaks: 103
83 1 84 2 85 2 86 5 87 6 88 4 89 64 90 19 91 369 92 34 
93 13 94 1 95 1 99 1 101 5 102 27 103 71 104 36 105 77 106 7 
107 2 109 1 110 14 111 1 113 3 114 4 115 303 116 88 117 839 118 312 
119 233 120 22 121 3 126 3 127 19 128 56 129 44 130 16 131 66 132 9 
133 5 134 1 135 2 139 2 141 7 142 3 143 9 144 6 145 83 146 14 
147 4 148 3 149 2 150 2 151 1 157 2 158 5 159 29 160 999 161 457 
162 54 163 6 164 1 173 1 174 1 175 2 176 1 177 3 178 1 187 2 
188 3 189 1 191 26 192 6 193 15 194 2 195 1 204 1 205 44 206 10 
207 3 217 1 219 7 220 22 221 4 222 1 233 1 234 172 235 45 236 11 
237 1 248 1 249 1 261 1 262 2 263 216 264 47 265 12 266 1 277 4 
278 53 279 11 280 3 
