Name: L-Methionine
CAS: 63-68-3
MW: 149
Formula: C5H11NO2S
Synonym: KEGG: C00073
Synonym: MassBank: KZ000050
Synonym: L-Methionine
Structure: 310A32330A200A200A200A2020392020382020302020302020312020302020302020302020302020303939392056323030300A20202032342E3530343720202D31392E3431393720202020302E303030302043202020302020302020322020302020302020302020302020302020302020302020302020300A20202032332E3335393820202D31382E3637313920202020302E303030302043202020302020302020302020302020302020302020302020302020302020302020302020300A20202032352E3733313320202D31382E3733363120202020302E303030302043202020302020302020302020302020302020302020302020302020302020302020302020300A20202032342E3534353520202D32302E3832373320202020302E30303030204E202020302020302020302020302020302020302020302020302020302020302020302020300A20202032322E3133333220202D31392E3335353320202020302E30303030204F202020302020302020302020302020302020302020302020302020302020302020302020300A20202032332E3337373220202D31372E3236343120202020302E30303030204F202020302020302020302020302020302020302020302020302020302020302020302020300A20202032362E3934303520202D31392E3435343620202020302E303030302043202020302020302020302020302020302020302020302020302020302020302020302020300A20202032382E3136373220202D31382E3737313220202020302E303030302053202020302020302020302020302020302020302020302020302020302020302020302020300A20202032392E3336343720202D31392E3438393620202020302E303030302043202020302020302020302020302020302020302020302020302020302020302020302020300A2020312020322020312020302020202020302020300A2020312020332020312020302020202020302020300A2020312020342020312020362020202020302020300A2020322020352020312020302020202020302020300A2020322020362020322020302020202020302020300A2020332020372020312020302020202020302020300A2020372020382020312020302020202020302020300A2020382020392020312020302020202020302020300A4D2020454E44
Contributor: Ara T, Morishita Y, Shibata D, Kazusa DNA Research Institute
InstType: EI
InstName: Pegasus III TOF-MS system, Leco; GC 6890, Agilent Technologies
IoniMethod: EI
IonPolarity: pos
Date: 2010-10-09 19:48:36+02:00
Num Peaks: 128
82 9 83 10 84 22 85 23 86 45 87 22 88 13 89 7 90 4 91 16 
92 2 93 2 94 1 95 1 96 5 97 4 98 31 99 10 100 216 101 53 
102 45 103 56 104 15 105 49 106 6 107 7 108 1 110 3 111 1 112 18 
113 7 114 86 115 29 116 15 117 22 118 7 119 10 120 2 121 2 126 5 
127 3 128 999 129 171 130 82 131 36 132 27 133 45 134 10 135 5 140 3 
141 4 142 5 143 3 144 21 145 5 146 14 147 378 148 65 149 32 150 5 
151 4 152 1 153 1 154 2 155 2 156 5 157 8 158 9 159 6 160 48 
161 9 162 6 163 4 164 2 165 1 172 2 173 2 174 6 175 3 176 748 
177 154 178 102 179 13 180 3 186 1 188 51 189 9 190 6 191 1 200 1 
202 60 203 37 204 13 205 5 206 1 214 1 216 2 217 1 218 91 219 179 
220 45 221 19 222 3 223 1 230 12 231 4 232 32 233 7 234 3 235 1 
244 1 245 2 246 2 250 111 251 37 252 19 253 4 254 1 263 11 264 3 
265 2 278 8 279 2 280 1 293 119 294 32 295 19 296 3 
