Name: Indole-3-acetic acid
CAS: 87-51-4
MW: 175
Formula: C10H9NO2
Synonym: KEGG: C00954
Synonym: MassBank: KZ000143
Synonym: Indole-3-acetic acid
Structure: 31332031342020302020302020302020302020302020302020302020303939392056323030300A20202032322E3131353220202D32302E3234363120202020302E303030302043202020302020302020302020302020302020302020302020302020302020302020302020300A20202032322E3131353220202D31382E3931373420202020302E303030302043202020302020302020302020302020302020302020302020302020302020302020302020300A20202032342E3431363220202D32302E3234363120202020302E303030302043202020302020302020302020302020302020302020302020302020302020302020302020300A20202032302E3936373620202D32302E3931363420202020302E303030302043202020302020302020302020302020302020302020302020302020302020302020302020300A20202032332E3236383720202D31382E3234363920202020302E30303030204E202020302020302020302020302020302020302020302020302020302020302020302020300A20202032302E3936373620202D31382E3235393020202020302E303030302043202020302020302020302020302020302020302020302020302020302020302020302020300A20202032342E3431363220202D31382E3931373420202020302E303030302043202020302020302020302020302020302020302020302020302020302020302020302020300A20202032352E3334363320202D32312E3137363120202020302E303030302043202020302020302020302020302020302020302020302020302020302020302020302020300A20202031392E3832363120202D32302E3234363120202020302E303030302043202020302020302020302020302020302020302020302020302020302020302020302020300A20202031392E3832363120202D31382E3931373420202020302E303030302043202020302020302020302020302020302020302020302020302020302020302020302020300A20202032352E3030323220202D32322E3434343620202020302E303030302043202020302020302020302020302020302020302020302020302020302020302020302020300A20202032332E3733333720202D32322E3738323720202020302E30303030204F202020302020302020302020302020302020302020302020302020302020302020302020300A20202032362E3030373820202D32332E3433383120202020302E30303030204F202020302020302020302020302020302020302020302020302020302020302020302020300A2020312020322020322020302020202020302020300A2020312020332020312020302020202020302020300A2020312020342020312020302020202020302020300A2020322020352020312020302020202020302020300A2020322020362020312020302020202020302020300A2020332020372020322020302020202020302020300A2020332020382020312020302020202020302020300A2020342020392020322020302020202020302020300A2020362031302020322020302020202020302020300A2020382031312020312020302020202020302020300A2031312031322020312020302020202020302020300A2031312031332020322020302020202020302020300A2020352020372020312020302020202020302020300A2020392031302020312020302020202020302020300A4D2020454E44
Contributor: Ara T, Morishita Y, Shibata D, Kazusa DNA Research Institute
InstType: EI
InstName: Pegasus III TOF-MS system, Leco; GC 6890, Agilent Technologies
IoniMethod: EI
IonPolarity: pos
Date: 2010-10-09 19:48:36+02:00
Num Peaks: 174
83 3 84 6 85 2 87 5 88 1 89 12 90 4 91 7 92 1 93 2 
97 2 98 2 99 4 100 1 101 28 102 56 103 29 104 8 105 13 106 2 
107 1 113 1 114 1 115 20 116 7 117 21 118 4 119 9 126 1 127 4 
128 29 129 69 130 58 131 20 132 7 133 7 134 5 135 4 136 2 139 1 
140 5 141 5 142 8 143 15 144 12 145 50 146 12 147 47 148 8 149 2 
151 1 152 5 153 4 154 2 155 1 156 24 157 8 158 3 159 5 160 18 
161 5 162 2 163 3 166 1 168 3 169 8 170 24 171 5 172 23 173 6 
174 5 181 2 182 3 183 2 184 14 185 7 186 59 187 26 188 13 189 3 
192 2 197 2 198 3 199 5 200 52 201 20 202 999 203 191 204 47 205 6 
206 1 208 1 209 2 211 1 214 2 215 1 216 4 218 2 219 1 220 1 
223 1 225 1 226 1 228 1 229 3 230 4 231 3 232 4 234 1 240 1 
245 1 248 1 252 1 255 1 257 1 260 3 266 1 272 1 275 1 276 22 
277 7 278 1 283 1 289 1 290 1 300 1 303 1 304 23 305 5 306 2 
309 1 317 1 318 3 319 80 320 22 321 9 322 1 323 1 329 1 334 2 
338 2 340 1 342 1 347 1 364 2 367 1 368 1 371 1 381 1 389 1 
407 2 411 1 416 1 424 1 425 2 428 1 432 1 433 1 434 2 436 1 
438 1 454 1 464 1 465 1 471 2 476 1 477 1 478 1 481 1 483 3 
490 1 491 1 494 1 500 2 
