Name: L-Tryptophan
CAS: 73-22-3
MW: 204
Formula: C11H12N2O2
Synonym: KEGG: C00078
Synonym: MassBank: KZ000162
Synonym: L-Tryptophan
Structure: 31352031362020302020302020312020302020302020302020302020303939392056323030300A20202032342E3632323420202D31372E3133323620202020302E303030302043202020302020302020302020302020302020302020302020302020302020302020302020300A20202032322E3239353020202D31372E3136313720202020302E303030302043202020302020302020302020302020302020302020302020302020302020302020302020300A20202032342E3633393920202D31382E3436383220202020302E303030302043202020302020302020302020302020302020302020302020302020302020302020302020300A20202032352E3736353620202D31362E3435363020202020302E303030302043202020302020302020302020302020302020302020302020302020302020302020302020300A20202032312E3134303020202D31362E3438353120202020302E303030302043202020302020302020302020302020302020302020302020302020302020302020302020300A20202032322E3331323520202D31382E3530333320202020302E303030302043202020302020302020302020302020302020302020302020302020302020302020302020300A20202032332E3437393120202D31392E3135363520202020302E30303030204E202020302020302020302020302020302020302020302020302020302020302020302020300A20202032352E3830303620202D31392E3132313520202020302E303030302043202020302020302020302020302020302020302020302020302020302020302020302020300A20202032362E3932363320202D31372E3130333320202020302E303030302043202020302020302020302020302020302020302020302020302020302020302020302020300A20202031392E3937333620202D31372E3136313720202020302E303030302043202020302020302020312020302020302020302020302020302020302020302020302020300A20202032362E3934333920202D31382E3433393120202020302E303030302043202020302020302020302020302020302020302020302020302020302020302020302020300A20202031382E3831323820202D31362E3438353120202020302E303030302043202020302020302020302020302020302020302020302020302020302020302020302020300A20202031392E3937333620202D31382E3530333320202020302E30303030204E202020302020302020302020302020302020302020302020302020302020302020302020300A20202031372E3635323120202D31372E3136313720202020302E30303030204F202020302020302020302020302020302020302020302020302020302020302020302020300A20202031382E3831323820202D31352E3134393320202020302E30303030204F202020302020302020302020302020302020302020302020302020302020302020302020300A2020312020322020312020302020202020302020300A2020312020332020322020302020202020302020300A2020312020342020312020302020202020302020300A2020322020352020312020302020202020302020300A2020322020362020322020302020202020302020300A2020332020372020312020302020202020302020300A2020332020382020312020302020202020302020300A2020342020392020322020302020202020302020300A2020352031302020312020302020202020302020300A2020382031312020322020302020202020302020300A2031302031322020312020302020202020302020300A2031302031332020312020362020202020302020300A2031322031342020312020302020202020302020300A2031322031352020322020302020202020302020300A2020362020372020312020302020202020302020300A2020392031312020312020302020202020302020300A4D2020454E44
Contributor: Ara T, Morishita Y, Shibata D, Kazusa DNA Research Institute
InstType: EI
InstName: Pegasus III TOF-MS system, Leco; GC 6890, Agilent Technologies
IoniMethod: EI
IonPolarity: pos
Date: 2010-10-09 19:48:36+02:00
Num Peaks: 126
83 1 84 10 85 3 86 10 87 3 88 2 89 4 90 2 91 1 92 1 
98 1 99 1 100 68 101 31 102 21 103 13 104 2 105 5 106 1 112 1 
113 1 114 2 115 11 116 4 117 8 118 3 119 5 120 1 121 1 128 6 
129 24 130 43 131 18 132 24 133 13 134 5 135 1 136 1 140 1 141 1 
142 3 143 4 144 6 145 15 146 7 147 52 148 10 149 4 150 1 152 1 
154 1 155 1 156 7 157 3 158 5 159 6 160 9 161 2 162 1 163 2 
168 1 169 3 170 8 171 3 172 8 173 2 174 6 175 2 176 1 182 1 
183 1 184 7 185 4 186 13 187 6 188 11 189 3 190 13 191 3 192 1 
198 2 199 7 200 32 201 12 202 999 203 208 204 63 205 9 206 2 213 1 
214 3 215 4 216 3 217 1 218 44 219 9 220 4 221 1 228 1 229 2 
230 9 231 2 232 1 241 1 242 1 246 1 248 2 276 1 288 1 290 6 
291 68 292 21 293 10 294 2 301 1 302 4 303 7 304 2 305 1 306 1 
377 3 378 2 379 1 404 1 405 3 406 2 
