Name: Harmaline
CAS: 304-21-2
MW: 214
Formula: C13H14N2O
Synonym: KEGG: C06536
Synonym: MassBank: KZ000213
Synonym: Harmaline
Structure: 31362031382020302020202020302020302020202020202020202020203939392056323030300A20202020302E353438332020202D302E3533343520202020302E303030302043202020302020302020302020302020302020302020202020202020202020302020302020300A2020202D302E323331302020202D302E3238323820202020302E303030302043202020302020302020302020302020302020302020202020202020202020302020302020300A20202020312E3033373920202020302E3132373620202020302E303030302043202020302020302020302020302020302020302020202020202020202020302020302020300A20202020302E383739332020202D312E3238393720202020302E303030302043202020302020302020302020302020302020302020202020202020202020302020302020300A2020202D302E3232373620202020302E3534313420202020302E303030302043202020302020302020302020302020302020302020202020202020202020302020302020300A2020202D302E393337392020202D302E3639363620202020302E303030302043202020302020302020302020302020302020302020202020202020202020302020302020300A20202020302E3535353220202020302E3738393720202020302E30303030204E202020302020302020302020302020302020302020202020202020202020302020302020300A20202020312E3835353220202020302E3033343520202020302E303030302043202020302020302020302020302020302020302020202020202020202020302020302020300A20202020312E363936352020202D312E3337393320202020302E303030302043202020302020302020302020302020302020302020202020202020202020302020302020300A2020202D302E3933373920202020302E3935353220202020302E303030302043202020302020302020302020302020302020302020202020202020202020302020302020300A2020202D312E363535322020202D302E3238323820202020302E303030302043202020302020302020302020302020302020302020202020202020202020302020302020300A20202020322E313836322020202D302E3731373220202020302E30303030204E202020302020302020302020302020302020302020202020202020202020302020302020300A20202020322E3334343820202020302E3730303020202020302E303030302043202020302020302020302020302020302020302020202020202020202020302020302020300A2020202D312E3635353220202020302E3534313420202020302E303030302043202020302020302020302020302020302020302020202020202020202020302020302020300A2020202D322E3336393020202020302E3935353220202020302E30303030204F202020302020302020302020302020302020302020202020202020202020302020302020300A2020202D332E3038363220202020302E3534313420202020302E303030302043202020302020302020302020302020302020302020202020202020202020302020302020300A2020312020322020312020302020202020302020300A2020312020332020322020302020202020302020300A2020312020342020312020302020202020302020300A2020322020352020312020302020202020302020300A2020322020362020322020302020202020302020300A2020332020372020312020302020202020302020300A2020332020382020312020302020202020302020300A2020342020392020312020302020202020302020300A2020352031302020322020302020202020302020300A2020362031312020312020302020202020302020300A2020382031322020322020302020202020302020300A2020382031332020312020302020202020302020300A2031302031342020312020302020202020302020300A2031342031352020312020302020202020302020300A2031352031362020312020302020202020302020300A2020352020372020312020302020202020302020300A2020392031322020312020302020202020302020300A2031312031342020322020302020202020302020300A4D2020454E44
Contributor: Ara T, Morishita Y, Shibata D, Kazusa DNA Research Institute
InstType: EI
InstName: Pegasus III TOF-MS system, Leco; GC 6890, Agilent Technologies
IoniMethod: EI
IonPolarity: pos
Date: 2010-10-09 19:48:36+02:00
Num Peaks: 126
83 1 84 7 85 8 86 435 87 44 88 23 89 81 90 13 91 5 92 2 
93 1 98 2 99 4 100 200 101 43 102 42 103 20 104 7 105 2 106 1 
107 1 108 2 113 6 114 14 115 26 116 45 117 37 118 7 119 4 120 1 
121 1 122 1 126 1 127 6 128 13 129 19 130 61 131 23 132 11 133 4 
134 1 135 1 140 4 141 5 142 21 143 12 144 21 145 10 146 14 147 4 
148 2 149 1 153 1 154 3 155 8 156 10 157 23 158 22 159 32 160 16 
161 3 162 1 167 1 168 2 169 7 170 16 171 7 172 13 173 9 174 999 
175 197 176 86 177 10 178 2 182 1 183 3 184 10 185 39 186 13 187 4 
188 3 189 2 190 49 191 9 192 4 197 1 198 9 199 15 200 54 201 18 
202 11 203 2 204 1 211 1 212 2 213 24 214 8 215 7 216 17 217 8 
218 3 227 1 228 1 229 3 230 3 231 7 232 3 241 1 242 1 243 5 
244 3 245 2 257 7 258 5 259 4 260 1 271 1 273 2 286 2 287 1 
288 1 289 1 374 2 375 1 405 4 406 1 
