Name: L-Glutathione
CAS: 70-18-8
MW: 307
Formula: C10H17N3O6S
Synonym: KEGG: C00051
Synonym: MassBank: KZ000226
Synonym: L-Glutathione
Structure: 32302031392020302020302020312020302020302020302020302020303939392056323030300A20202032342E3031303020202D31362E3331303020202020302E30303030204F202020302020302020302020302020302020302020302020302020302020302020302020300A20202032352E3230303020202D31352E3631303020202020302E303030302043202020302020302020302020302020302020302020302020302020302020302020302020300A20202032362E3436303020202D31362E3331303020202020302E303030302043202020302020302020302020302020302020302020302020302020302020302020302020300A20202032372E3635303020202D31352E3631303020202020302E303030302043202020302020302020302020302020302020302020302020302020302020302020302020300A20202032382E3834303020202D31362E3331303020202020302E303030302043202020302020302020302020302020302020302020302020302020302020302020302020300A20202033302E3130303020202D31352E3631303020202020302E303030302043202020302020302020302020302020302020302020302020302020302020302020302020300A20202033312E3239303020202D31362E3331303020202020302E30303030204E202020302020302020302020302020302020302020302020302020302020302020302020300A20202033322E3438303020202D31352E3631303020202020302E303030302043202020302020302020302020302020302020302020302020302020302020302020302020300A20202033332E3734303020202D31362E3331303020202020302E303030302043202020302020302020302020302020302020302020302020302020302020302020302020300A20202033342E3933303020202D31352E3631303020202020302E30303030204E202020302020302020302020302020302020302020302020302020302020302020302020300A20202033362E3132303020202D31362E3331303020202020302E303030302043202020302020302020302020302020302020302020302020302020302020302020302020300A20202033372E3338303020202D31352E3631303020202020302E303030302043202020302020302020302020302020302020302020302020302020302020302020302020300A20202033382E3537303020202D31362E3331303020202020302E30303030204F202020302020302020302020302020302020302020302020302020302020302020302020300A20202032352E3230303020202D31342E3231303020202020302E30303030204F202020302020302020302020302020302020302020302020302020302020302020302020300A20202032362E3436303020202D31372E3731303020202020302E30303030204E202020302020302020302020302020302020302020302020302020302020302020302020300A20202033302E3130303020202D31342E3231303020202020302E30303030204F202020302020302020302020302020302020302020302020302020302020302020302020300A20202033322E3438303020202D31342E3231303020202020302E303030302043202020302020302020302020302020302020302020302020302020302020302020302020300A20202033332E3637303020202D31332E3531303020202020302E303030302053202020302020302020302020302020302020302020302020302020302020302020302020300A20202033332E3734303020202D31372E3731303020202020302E30303030204F202020302020302020302020302020302020302020302020302020302020302020302020300A20202033372E3338303020202D31342E3231303020202020302E30303030204F202020302020302020302020302020302020302020302020302020302020302020302020300A2020312020322020312020302020202020302020300A2020322020332020312020302020202020302020300A2020332020342020312020302020202020302020300A2020342020352020312020302020202020302020300A2020352020362020312020302020202020302020300A2020362020372020312020302020202020302020300A2020372020382020312020302020202020302020300A2020382020392020312020302020202020302020300A2020392031302020312020302020202020302020300A2031302031312020312020302020202020302020300A2031312031322020312020302020202020302020300A2031322031332020312020302020202020302020300A2020322031342020322020302020202020302020300A2020332031352020312020362020202020302020300A2020362031362020322020302020202020302020300A2020382031372020312020312020202020302020300A2031372031382020312020302020202020302020300A2020392031392020322020302020202020302020300A2031322032302020322020302020202020302020300A4D2020454E44
Contributor: Ara T, Morishita Y, Shibata D, Kazusa DNA Research Institute
InstType: EI
InstName: Pegasus III TOF-MS system, Leco; GC 6890, Agilent Technologies
IoniMethod: EI
IonPolarity: pos
Date: 2010-10-09 19:48:36+02:00
Num Peaks: 83
82 7 83 7 84 34 85 22 86 27 87 9 88 2 89 7 93 2 94 2 
95 1 96 3 97 3 98 8 99 17 100 20 101 5 102 5 103 7 104 1 
105 5 108 1 110 6 111 3 112 30 113 9 114 16 115 9 116 3 117 11 
118 2 119 3 122 3 124 1 125 1 126 4 127 3 128 3 129 5 130 2 
131 21 132 5 133 37 134 5 135 3 139 2 140 31 141 10 142 8 143 2 
144 1 147 197 148 33 149 19 150 2 154 9 155 6 156 999 157 139 158 49 
159 4 160 1 168 2 170 3 171 1 172 2 173 1 174 2 175 1 186 1 
190 1 203 1 214 10 215 2 228 2 230 64 231 13 232 5 233 1 258 49 
259 10 260 4 273 1 
