Name: Glutathione disulfide
CAS: 27025-41-8
MW: 612
Formula: C20H32N6O12S2
Synonym: KEGG: C00127
Synonym: MassBank: KZ000208
Synonym: Glutathione disulfide
Structure: 34302033392020302020302020312020302020302020302020302020303939392056323030300A20202032342E3738303020202D31332E3635303020202020302E30303030204F202020302020302020302020302020302020302020302020302020302020302020302020300A20202032352E3937303020202D31342E3335303020202020302E303030302043202020302020302020302020302020302020302020302020302020302020302020302020300A20202032372E3136303020202D31332E3635303020202020302E303030302043202020302020302020302020302020302020302020302020302020302020302020302020300A20202032382E3432303020202D31342E3335303020202020302E303030302043202020302020302020302020302020302020302020302020302020302020302020302020300A20202032392E3631303020202D31332E3635303020202020302E303030302043202020302020302020302020302020302020302020302020302020302020302020302020300A20202033302E3837303020202D31342E3335303020202020302E303030302043202020302020302020302020302020302020302020302020302020302020302020302020300A20202033322E3036303020202D31332E3635303020202020302E30303030204E202020302020302020302020302020302020302020302020302020302020302020302020300A20202033332E3235303020202D31342E3335303020202020302E303030302043202020302020302020302020302020302020302020302020302020302020302020302020300A20202033342E3531303020202D31332E3635303020202020302E303030302043202020302020302020302020302020302020302020302020302020302020302020302020300A20202033352E3730303020202D31342E3335303020202020302E30303030204E202020302020302020302020302020302020302020302020302020302020302020302020300A20202033362E3839303020202D31332E3635303020202020302E303030302043202020302020302020302020302020302020302020302020302020302020302020302020300A20202033382E3135303020202D31342E3335303020202020302E303030302043202020302020302020302020302020302020302020302020302020302020302020302020300A20202033392E3334303020202D31332E3635303020202020302E30303030204F202020302020302020302020302020302020302020302020302020302020302020302020300A20202032352E3937303020202D31352E3735303020202020302E30303030204F202020302020302020302020302020302020302020302020302020302020302020302020300A20202033302E3837303020202D31352E3735303020202020302E30303030204F202020302020302020302020302020302020302020302020302020302020302020302020300A20202032372E3136303020202D31322E3235303020202020302E30303030204E202020302020302020302020302020302020302020302020302020302020302020302020300A20202033332E3235303020202D31352E3735303020202020302E303030302043202020302020302020302020302020302020302020302020302020302020302020302020300A20202033342E3531303020202D31322E3235303020202020302E30303030204F202020302020302020302020302020302020302020302020302020302020302020302020300A20202033382E3135303020202D31352E3735303020202020302E30303030204F202020302020302020302020302020302020302020302020302020302020302020302020300A20202033322E3036303020202D31362E3435303020202020302E303030302053202020302020302020302020302020302020302020302020302020302020302020302020300A20202033322E3036303020202D31372E3835303020202020302E303030302053202020302020302020302020302020302020302020302020302020302020302020302020300A20202033332E3332303020202D31382E3632303020202020302E303030302043202020302020302020302020302020302020302020302020302020302020302020302020300A20202033332E3332303020202D32302E3032303020202020302E303030302043202020302020302020302020302020302020302020302020302020302020302020302020300A20202033342E3531303020202D32302E3635303020202020302E303030302043202020302020302020302020302020302020302020302020302020302020302020302020300A20202033322E3036303020202D32302E3732303020202020302E30303030204E202020302020302020302020302020302020302020302020302020302020302020302020300A20202033352E3730303020202D32302E3032303020202020302E30303030204E202020302020302020302020302020302020302020302020302020302020302020302020300A20202033362E3839303020202D32302E3635303020202020302E303030302043202020302020302020302020302020302020302020302020302020302020302020302020300A20202033382E3038303020202D32302E3032303020202020302E303030302043202020302020302020302020302020302020302020302020302020302020302020302020300A20202033342E3531303020202D32322E3132303020202020302E30303030204F202020302020302020302020302020302020302020302020302020302020302020302020300A20202033392E3237303020202D32302E3635303020202020302E30303030204F202020302020302020302020302020302020302020302020302020302020302020302020300A20202033382E3038303020202D31382E3535303020202020302E30303030204F202020302020302020302020302020302020302020302020302020302020302020302020300A20202033302E3837303020202D32302E3032303020202020302E303030302043202020302020302020302020302020302020302020302020302020302020302020302020300A20202032392E3638303020202D32302E3732303020202020302E303030302043202020302020302020302020302020302020302020302020302020302020302020302020300A20202033302E3837303020202D31382E3535303020202020302E30303030204F202020302020302020302020302020302020302020302020302020302020302020302020300A20202032382E3439303020202D32302E3032303020202020302E303030302043202020302020302020302020302020302020302020302020302020302020302020302020300A20202032372E3330303020202D32302E3732303020202020302E303030302043202020302020302020302020302020302020302020302020302020302020302020302020300A20202032362E3131303020202D32302E3032303020202020302E303030302043202020302020302020302020302020302020302020302020302020302020302020302020300A20202032372E3330303020202D32322E3132303020202020302E30303030204E202020302020302020302020302020302020302020302020302020302020302020302020300A20202032342E3932303020202D32302E3635303020202020302E30303030204F202020302020302020302020302020302020302020302020302020302020302020302020300A20202032362E3131303020202D31382E3535303020202020302E30303030204F202020302020302020302020302020302020302020302020302020302020302020302020300A2020312020322020312020302020202020302020300A2020332020322020312020312020202020302020300A2020332020342020312020302020202020302020300A2020342020352020312020302020202020302020300A2020352020362020312020302020202020302020300A2020362020372020312020302020202020302020300A2020372020382020312020302020202020302020300A2020382020392020312020302020202020302020300A2020392031302020312020302020202020302020300A2031302031312020312020302020202020302020300A2031312031322020312020302020202020302020300A2031322031332020312020302020202020302020300A2020322031342020322020302020202020302020300A2020362031352020322020302020202020302020300A2020332031362020312020302020202020302020300A2020382031372020312020362020202020302020300A2020392031382020322020302020202020302020300A2031322031392020322020302020202020302020300A2031372032302020312020302020202020302020300A2032302032312020312020302020202020302020300A2032312032322020312020302020202020302020300A2032332032322020312020312020202020302020300A2032332032342020312020302020202020302020300A2032332032352020312020302020202020302020300A2032342032362020312020302020202020302020300A2032362032372020312020302020202020302020300A2032372032382020312020302020202020302020300A2032342032392020322020302020202020302020300A2032382033302020312020302020202020302020300A2032382033312020322020302020202020302020300A2032352033322020312020302020202020302020300A2033322033332020312020302020202020302020300A2033322033342020322020302020202020302020300A2033332033352020312020302020202020302020300A2033352033362020312020302020202020302020300A2033362033372020312020362020202020302020300A2033362033382020312020302020202020302020300A2033372033392020312020302020202020302020300A2033372034302020322020302020202020302020300A4D2020454E44
Contributor: Ara T, Morishita Y, Shibata D, Kazusa DNA Research Institute
InstType: EI
InstName: Pegasus III TOF-MS system, Leco; GC 6890, Agilent Technologies
IoniMethod: EI
IonPolarity: pos
Date: 2010-10-09 19:48:36+02:00
Num Peaks: 93
82 8 83 9 84 39 85 24 86 30 87 10 88 3 89 3 92 1 93 2 
94 3 95 2 96 3 97 3 98 9 99 11 100 21 101 6 102 6 103 10 
104 2 105 4 106 1 108 2 110 6 111 3 112 32 113 10 114 16 115 10 
116 3 117 12 118 2 119 4 120 1 121 1 122 3 124 1 125 1 126 5 
127 3 128 3 129 5 130 2 131 21 132 6 133 37 134 6 135 3 139 2 
140 31 141 10 142 8 143 2 144 1 145 1 147 195 148 32 149 19 150 2 
152 1 153 1 154 9 155 6 156 999 157 138 158 49 159 5 160 1 161 1 
168 2 170 3 172 1 174 3 183 1 184 1 186 2 190 1 198 1 214 9 
215 2 216 1 228 2 229 1 230 60 231 14 232 5 233 1 257 1 258 46 
259 9 260 4 273 1 
