Name: L-Histidine
CAS: 71-00-1
MW: 155
Formula: C6H9N3O2
Synonym: KEGG: C00135
Synonym: MassBank: KZ000045
Synonym: L-Histidine
Structure: 31312031312020302020302020312020302020302020302020302020303939392056323030300A20202032342E3933303120202D31362E3137303420202020302E303030302043202020302020302020302020302020302020302020302020302020302020302020302020300A20202032332E3734313720202D31352E3438383720202020302E303030302043202020302020302020302020302020302020302020302020302020302020302020302020300A20202032342E3933303120202D31372E3431363920202020302E303030302043202020302020302020302020302020302020302020302020302020302020302020302020300A20202032372E3039373020202D31362E3137303420202020302E30303030204E202020302020302020302020302020302020302020302020302020302020302020302020300A20202032322E3534373620202D31362E3137303420202020302E303030302043202020302020302020312020302020302020302020302020302020302020302020302020300A20202032362E3030373720202D31382E3034303220202020302E30303030204E202020302020302020302020302020302020302020302020302020302020302020302020300A20202032372E3039373020202D31372E3431363920202020302E303030302043202020302020302020302020302020302020302020302020302020302020302020302020300A20202032312E3336353120202D31352E3438383720202020302E303030302043202020302020302020302020302020302020302020302020302020302020302020302020300A20202032322E3534373620202D31372E3534353120202020302E30303030204E202020302020302020302020302020302020302020302020302020302020302020302020300A20202032302E3137303920202D31362E3137303420202020302E30303030204F202020302020302020302020302020302020302020302020302020302020302020302020300A20202032312E3336353120202D31342E3130383220202020302E30303030204F202020302020302020302020302020302020302020302020302020302020302020302020300A2020312020322020312020302020202020302020300A2020312020332020322020302020202020302020300A2020312020342020312020302020202020302020300A2020322020352020312020302020202020302020300A2020332020362020312020302020202020302020300A2020342020372020322020302020202020302020300A2020352020382020312020302020202020302020300A2020352020392020312020362020202020302020300A2020382031302020312020302020202020302020300A2020382031312020322020302020202020302020300A2020362020372020312020302020202020302020300A4D2020454E44
Contributor: Ara T, Morishita Y, Shibata D, Kazusa DNA Research Institute
InstType: EI
InstName: Pegasus III TOF-MS system, Leco; GC 6890, Agilent Technologies
IoniMethod: EI
IonPolarity: pos
Date: 2010-10-09 19:48:36+02:00
Num Peaks: 133
82 40 83 16 85 8 86 10 87 3 95 1 96 4 97 3 98 7 99 2 
100 84 101 13 102 1 105 1 110 8 111 6 112 17 114 3 115 2 116 4 
117 6 118 1 119 1 123 2 124 2 125 3 126 13 127 4 128 4 130 10 
131 7 132 17 133 7 134 1 135 1 136 1 138 2 139 4 140 2 141 1 
142 1 144 3 145 1 146 3 147 41 148 5 149 4 150 6 151 3 152 2 
153 42 154 999 155 312 156 55 157 9 158 3 159 4 160 4 162 1 163 1 
165 2 166 27 167 10 168 2 169 1 170 2 172 1 174 2 175 1 180 1 
181 3 182 21 183 9 184 5 185 2 190 3 191 1 195 1 197 1 199 1 
201 1 202 1 203 6 206 1 210 1 211 4 212 2 213 2 217 1 218 68 
219 10 220 4 223 1 224 2 225 3 226 16 227 4 228 3 237 3 238 42 
239 16 240 6 241 1 252 3 253 3 254 453 255 90 256 27 257 21 258 4 
264 1 266 15 267 4 268 1 280 1 282 2 284 1 326 1 327 1 328 9 
329 5 330 2 338 3 339 2 340 1 354 1 355 1 356 36 357 11 358 2 
371 8 372 2 373 1 
