Name: L-Norleucine
CAS: 327-57-1
MW: 131
Formula: C6H13NO2
Synonym: KEGG: C01933
Synonym: MassBank: KZ000160
Synonym: L-Norleucine
Structure: 310A32330A200A200A200A2020392020382020302020302020312020302020302020302020302020303939392056323030300A20202032332E3335313520202D31362E3530343120202020302E303030302043202020302020302020322020302020302020302020302020302020302020302020302020300A20202032342E3537353220202D31352E3830383620202020302E303030302043202020302020302020302020302020302020302020302020302020302020302020302020300A20202032322E3133343420202D31352E3830383620202020302E303030302043202020302020302020302020302020302020302020302020302020302020302020302020300A20202032332E3335313520202D31382E3035343520202020302E30303030204E202020302020302020302020302020302020302020302020302020302020302020302020300A20202032352E3738353820202D31362E3531303420202020302E30303030204F202020302020302020302020302020302020302020302020302020302020302020302020300A20202032342E3537353220202D31342E3431373420202020302E30303030204F202020302020302020302020302020302020302020302020302020302020302020302020300A20202032302E3932333620202D31362E3530343120202020302E303030302043202020302020302020302020302020302020302020302020302020302020302020302020300A20202031392E3634383320202D31352E3933373320202020302E303030302043202020302020302020302020302020302020302020302020302020302020302020302020300A20202031382E3531343920202D31362E3735353320202020302E303030302043202020302020302020302020302020302020302020302020302020302020302020302020300A2020312020322020312020302020202020302020300A2020312020332020312020302020202020302020300A2020312020342020312020312020202020302020300A2020322020352020312020302020202020302020300A2020322020362020322020302020202020302020300A2020332020372020312020302020202020302020300A2020372020382020312020302020202020302020300A2020382020392020312020302020202020302020300A4D2020454E44
Contributor: Ara T, Morishita Y, Shibata D, Kazusa DNA Research Institute
InstType: EI
InstName: Pegasus III TOF-MS system, Leco; GC 6890, Agilent Technologies
IoniMethod: EI
IonPolarity: pos
Date: 2010-10-09 19:48:36+02:00
Num Peaks: 75
82 3 83 2 84 9 85 7 86 17 87 5 88 2 89 1 94 1 96 3 
97 2 98 8 99 3 100 60 101 12 102 29 103 20 104 3 105 3 110 1 
112 3 113 2 114 27 115 19 116 6 117 12 118 3 119 4 120 1 126 1 
128 17 129 7 130 16 131 16 132 15 133 29 134 6 135 2 142 6 143 3 
144 2 146 3 147 100 148 17 149 9 150 1 156 7 157 2 158 999 159 162 
160 55 161 6 162 1 163 1 170 15 171 3 172 2 174 4 175 1 176 1 
186 4 187 1 188 1 202 3 203 2 204 1 216 2 218 27 219 6 220 2 
232 40 233 12 234 4 260 10 261 2 
