Name: D-Xylulose
CAS: 551-84-8
MW: 150
Formula: C5H10O5
Synonym: KEGG: C00310
Synonym: MassBank: KZ000130
Synonym: D-Xylulose
Structure: 31302031302020302020202020312020302020202020202020202020203939392056323030300A20202020302E3230303020202020302E3333373920202020302E303030302043202020302020302020332020302020302020302020202020202020202020302020302020300A2020202D302E303434382020202D302E3433343520202020302E303030302043202020302020302020322020302020302020302020202020202020202020302020302020300A2020202D302E3438323820202020302E3833313020202020302E30303030204F202020302020302020302020302020302020302020202020202020202020302020302020300A20202020302E3738363220202020302E3932373620202020302E303030302043202020302020302020302020302020302020302020202020202020202020302020302020300A20202020302E3936323120202020302E3035383620202020302E30303030204F202020302020302020302020302020302020302020202020202020202020302020302020300A2020202D302E383832382020202D302E3433343520202020302E303030302043202020302020302020312020302020302020302020202020202020202020302020302020300A20202020302E343337392020202D312E3130363920202020302E30303030204F202020302020302020302020302020302020302020202020202020202020302020302020300A2020202D312E3134383320202020302E3335313720202020302E303030302043202020302020302020302020302020302020302020202020202020202020302020302020300A20202020312E3533373920202020302E3537393320202020302E30303030204F202020302020302020302020302020302020302020202020202020202020302020302020300A2020202D312E333635352020202D312E3131303320202020302E30303030204F202020302020302020302020302020302020302020202020202020202020302020302020300A2020312020322020312020302020202020302020300A2020312020332020312020302020202020302020300A2020312020342020312020342020202020302020300A2020312020352020312020302020202020302020300A2020322020362020312020302020202020302020300A2020322020372020312020312020202020302020300A2020332020382020312020302020202020302020300A2020342020392020312020302020202020302020300A2020362031302020312020362020202020302020300A2020362020382020312020302020202020302020300A4D2020454E44
Contributor: Ara T, Morishita Y, Shibata D, Kazusa DNA Research Institute
InstType: EI
InstName: Pegasus III TOF-MS system, Leco; GC 6890, Agilent Technologies
IoniMethod: EI
IonPolarity: pos
Date: 2010-10-09 19:48:36+02:00
Num Peaks: 146
39 2 40 1 41 22 42 9 43 34 44 19 45 127 46 5 47 11 51 1 
52 3 53 3 54 5 55 10 56 4 57 5 58 15 59 67 60 6 61 7 
66 6 67 2 68 2 69 1 70 7 71 5 72 21 73 999 74 95 75 65 
76 3 77 2 82 6 83 1 84 31 85 6 86 2 87 5 88 4 89 73 
90 7 91 3 96 1 98 2 99 2 100 9 101 20 102 6 103 116 104 14 
105 12 106 1 112 1 113 3 114 19 115 9 116 6 117 152 118 14 119 13 
120 1 126 7 127 1 128 3 129 11 130 4 131 16 132 3 133 48 134 6 
135 4 140 1 141 1 142 23 143 7 144 3 145 3 146 1 147 308 148 49 
149 28 150 2 151 1 154 5 155 1 156 2 157 2 158 3 159 5 160 1 
161 1 163 10 164 1 165 1 168 1 170 1 172 11 173 98 174 17 175 8 
176 1 177 3 178 1 184 1 186 2 187 1 188 1 189 7 190 2 191 5 
192 1 198 1 200 2 201 11 202 9 203 4 204 12 205 140 206 27 207 13 
208 2 214 2 216 4 217 12 218 3 219 2 221 3 228 1 230 1 231 2 
232 4 233 1 244 1 256 1 260 1 262 5 263 62 264 15 265 6 288 3 
291 1 333 1 334 1 335 1 364 4 365 1 
