Name: Ethanolamine
CAS: 141-43-5
MW: 61
Formula: C2H7NO
Synonym: KEGG: C00189
Synonym: MassBank: KZ000029
Synonym: Ethanolamine
Structure: 310A31330A200A200A200A2020342020332020302020302020302020302020302020302020302020303939392056323030300A20202032352E3636373820202D31372E3336303720202020302E303030302043202020302020302020302020302020302020302020302020302020302020302020302020300A20202032342E3435323220202D31362E3635393320202020302E303030302043202020302020302020302020302020302020302020302020302020302020302020302020300A20202032362E3837373520202D31362E3635393320202020302E30303030204E202020302020302020302020302020302020302020302020302020302020302020302020300A20202032332E3234323520202D31372E3336303720202020302E30303030204F202020302020302020302020302020302020302020302020302020302020302020302020300A2020312020322020312020302020202020302020300A2020312020332020312020302020202020302020300A2020322020342020312020302020202020302020300A4D2020454E44
Contributor: Ara T, Morishita Y, Shibata D, Kazusa DNA Research Institute
InstType: EI
InstName: Pegasus III TOF-MS system, Leco; GC 6890, Agilent Technologies
IoniMethod: EI
IonPolarity: pos
Date: 2010-10-09 19:48:36+02:00
Num Peaks: 64
84 9 85 12 86 425 87 57 88 26 89 16 91 1 99 5 100 429 101 61 
102 56 103 24 104 4 112 1 113 12 114 54 115 23 116 18 117 37 118 8 
119 19 120 1 128 1 129 3 130 67 131 49 132 20 133 98 134 18 135 8 
137 1 142 1 143 2 144 11 145 4 146 11 147 216 148 35 149 13 150 2 
158 12 159 3 160 3 162 1 172 21 173 2 174 999 175 219 176 92 177 14 
178 1 188 9 189 2 190 1 191 1 202 1 204 1 260 1 261 1 262 15 
263 3 264 2 276 1 277 1 
