Name: Oxalic acid
CAS: 144-62-7
MW: 89
Formula: C2H2O4
Synonym: KEGG: C00209
Synonym: MassBank: KZ000258
Synonym: Oxalic acid
Structure: 310A31370A200A200A200A2020362020352020302020302020302020302020302020302020302020303939392056323030300A20202032312E3531353420202D31362E3531373420202020302E303030302043202020302020302020302020302020302020302020302020302020302020302020302020300A20202032322E3732343620202D31352E3832323620202020302E303030302043202020302020302020302020302020302020302020302020302020302020302020302020300A20202032302E3239393420202D31352E3832323620202020302E30303030204F202020302020302020302020302020302020302020302020302020302020302020302020300A20202032312E3531353420202D31372E3938393720202020302E30303030204F202020302020302020302020302020302020302020302020302020302020302020302020300A20202032332E3934303620202D31362E3531373420202020302E30303030204F202020302020302020302020302020302020302020302020302020302020302020302020300A20202032322E3732343620202D31342E3536303320202020302E30303030204F202020302020302020302020302020302020302020302020302020302020302020302020300A2020312020322020312020302020202020302020300A2020312020332020312020302020202020302020300A2020312020342020322020302020202020302020300A2020322020352020312020302020202020302020300A2020322020362020322020302020202020302020300A4D2020454E44
Contributor: Ara T, Morishita Y, Shibata D, Kazusa DNA Research Institute
InstType: EI
InstName: Pegasus III TOF-MS system, Leco; GC 6890, Agilent Technologies
IoniMethod: EI
IonPolarity: pos
Date: 2010-10-09 19:48:36+02:00
Num Peaks: 48
84 3 85 2 86 2 87 23 88 4 89 10 90 1 91 2 92 2 93 19 
94 1 95 6 99 1 100 1 101 12 102 35 103 40 104 6 105 15 106 1 
107 1 108 1 113 4 115 22 116 7 117 31 118 4 119 5 131 56 132 9 
133 64 134 8 135 4 146 1 147 999 148 175 149 89 150 9 151 2 175 28 
176 5 177 2 190 48 191 9 192 4 219 26 220 4 221 2 
