Name: L-Leucine
CAS: 61-90-5
MW: 131
Formula: C6H13NO2
Synonym: KEGG: C00123
Synonym: MassBank: KZ000049
Synonym: L-Leucine
Structure: 310A32330A200A200A200A2020392020382020302020302020312020302020302020302020302020303939392056323030300A20202032352E3037363120202D31392E3431333820202020302E303030302043202020302020302020312020302020302020302020302020302020302020302020302020300A20202032362E3236333320202D31382E3637363920202020302E303030302043202020302020302020302020302020302020302020302020302020302020302020302020300A20202032332E3834323020202D31382E3735383620202020302E303030302043202020302020302020302020302020302020302020302020302020302020302020302020300A20202032352E3132323920202D32302E3831373320202020302E30303030204E202020302020302020302020302020302020302020302020302020302020302020302020300A20202032372E3439373420202D31392E3333373720202020302E303030302043202020302020302020332020302020302020302020302020302020302020302020302020300A20202032322E3638343120202D31392E3534383320202020302E30303030204F202020302020302020302020302020302020302020302020302020302020302020302020300A20202032332E3836353420202D31372E3335353120202020302E30303030204F202020302020302020302020302020302020302020302020302020302020302020302020300A20202032382E3638343620202D31382E3630303720202020302E303030302043202020302020302020302020302020302020302020302020302020302020302020302020300A20202032372E3534343220202D32302E3733353620202020302E303030302043202020302020302020302020302020302020302020302020302020302020302020302020300A2020312020322020312020302020202020302020300A2020312020332020312020302020202020302020300A2020312020342020312020362020202020302020300A2020322020352020312020302020202020302020300A2020332020362020312020302020202020302020300A2020332020372020322020302020202020302020300A2020352020382020312020302020202020302020300A2020352020392020312020302020202020302020300A4D2020454E44
Contributor: Ara T, Morishita Y, Shibata D, Kazusa DNA Research Institute
InstType: EI
InstName: Pegasus III TOF-MS system, Leco; GC 6890, Agilent Technologies
IoniMethod: EI
IonPolarity: pos
Date: 2010-10-09 19:48:36+02:00
Num Peaks: 107
82 10 83 8 84 35 85 15 86 67 87 17 88 8 89 5 90 1 91 1 
94 2 95 2 96 8 97 6 98 12 99 20 100 222 101 47 102 443 103 104 
104 22 105 14 106 1 107 1 110 4 111 2 112 7 113 7 114 14 115 68 
116 88 117 42 118 11 119 12 120 2 121 1 122 1 123 1 124 1 125 1 
126 5 127 2 128 48 129 21 130 80 131 42 132 43 133 80 134 15 135 7 
136 1 137 1 138 1 139 1 140 2 141 1 142 36 143 10 144 9 145 3 
146 9 147 268 148 43 149 20 150 2 156 5 157 3 158 999 159 210 160 75 
161 9 162 1 163 3 170 26 171 9 172 6 173 2 174 13 175 4 176 8 
177 8 178 2 184 1 186 3 187 1 188 4 189 1 190 1 202 3 203 6 
204 4 205 1 216 2 217 1 218 78 219 19 220 7 221 1 230 1 231 5 
232 105 233 35 234 15 235 3 260 36 261 8 262 3 
