Name: 4-Hydroxybenzoic acid
CAS: 99-96-7
MW: 138
Formula: C7H6O3
Synonym: KEGG: C00156
Synonym: MassBank: KZ000178
Synonym: 4-Hydroxybenzoic acid
Structure: 31302031302020302020202020302020302020202020202020202020203939392056323030300A20202020302E3030303020202020302E3337393320202020302E303030302043202020302020302020302020302020302020302020202020202020202020302020302020300A2020202D302E3030333420202020312E3133313020202020302E303030302043202020302020302020302020302020302020302020202020202020202020302020302020300A2020202D302E3635313720202020302E3030333420202020302E303030302043202020302020302020302020302020302020302020202020202020202020302020302020300A20202020302E3635383620202020302E3030333420202020302E303030302043202020302020302020302020302020302020302020202020202020202020302020302020300A2020202D302E3635313720202020312E3530333520202020302E30303030204F202020302020302020302020302020302020302020202020202020202020302020302020300A20202020302E3634343820202020312E3530363920202020302E30303030204F202020302020302020302020302020302020302020202020202020202020302020302020300A2020202D302E363531372020202D302E3735313720202020302E303030302043202020302020302020302020302020302020302020202020202020202020302020302020300A20202020302E363538362020202D302E3735313720202020302E303030302043202020302020302020302020302020302020302020202020202020202020302020302020300A20202020302E303030302020202D312E3133373920202020302E303030302043202020302020302020302020302020302020302020202020202020202020302020302020300A2020202D302E303033342020202D312E3838363220202020302E30303030204F202020302020302020302020302020302020302020202020202020202020302020302020300A2020312020322020312020302020202020302020300A2020312020332020312020302020202020302020300A2020312020342020322020302020202020302020300A2020322020352020312020302020202020302020300A2020322020362020322020302020202020302020300A2020332020372020322020302020202020302020300A2020342020382020312020302020202020302020300A2020372020392020312020302020202020302020300A2020392031302020312020302020202020302020300A2020382020392020322020302020202020302020300A4D2020454E44
Contributor: Ara T, Morishita Y, Shibata D, Kazusa DNA Research Institute
InstType: EI
InstName: Pegasus III TOF-MS system, Leco; GC 6890, Agilent Technologies
IoniMethod: EI
IonPolarity: pos
Date: 2010-10-09 19:48:36+02:00
Num Peaks: 111
82 3 83 11 84 4 85 10 87 4 88 1 89 41 90 15 91 68 92 32 
93 15 94 2 95 14 96 6 97 6 98 2 99 2 101 2 102 3 103 26 
104 34 105 38 106 4 107 15 108 2 109 8 110 1 111 10 115 11 116 1 
117 10 118 12 119 21 120 12 121 24 122 17 123 9 125 1 126 53 129 1 
131 11 132 1 133 36 134 7 135 60 136 6 137 6 143 1 145 3 147 27 
148 5 149 34 150 8 151 62 152 1 153 1 157 1 161 1 163 7 164 2 
165 7 166 7 167 1 176 2 177 6 178 1 179 44 180 5 181 5 191 10 
192 4 193 312 194 42 195 13 196 1 207 31 208 6 209 4 221 8 222 7 
223 780 224 125 225 38 226 3 237 3 238 1 239 1 240 1 241 1 242 1 
243 1 244 1 245 1 246 1 247 1 248 1 249 1 250 1 251 2 252 1 
253 1 254 1 265 3 266 13 267 999 268 180 269 49 270 3 273 1 282 37 
283 1 
