Name: L-Hydroxyproline
CAS: 51-35-4
MW: 131
Formula: C5H9NO3
Synonym: KEGG: C01015
Synonym: MassBank: KZ000229
Synonym: L-Hydroxyproline
Structure: 310A32340A200A200A200A2020392020392020302020302020312020302020302020302020302020303939392056323030300A20202032322E3238373320202D31352E3632343920202020302E303030302043202020302020302020322020302020302020302020302020302020302020302020302020300A20202032312E3136383220202D31362E3434313620202020302E303030302043202020302020302020302020302020302020302020302020302020302020302020302020300A20202032332E3432353620202D31362E3434313620202020302E30303030204E202020302020302020302020302020302020302020302020302020302020302020302020300A20202032322E3238373320202D31342E3433393220202020302E303030302043202020302020302020302020302020302020302020302020302020302020302020302020300A20202032312E3539323520202D31372E3737393420202020302E303030302043202020302020302020332020302020302020302020302020302020302020302020302020300A20202032322E3939343820202D31372E3737393420202020302E303030302043202020302020302020302020302020302020302020302020302020302020302020302020300A20202032332E3439363320202D31332E3733383020202020302E30303030204F202020302020302020302020302020302020302020302020302020302020302020302020300A20202032312E3036353220202D31332E3734343620202020302E30303030204F202020302020302020302020302020302020302020302020302020302020302020302020300A20202032302E3736323920202D31382E3931313320202020302E30303030204F202020302020302020302020302020302020302020302020302020302020302020302020300A2020312020322020312020302020202020302020300A2020312020332020312020302020202020302020300A2020312020342020312020312020202020302020300A2020322020352020312020302020202020302020300A2020332020362020312020302020202020302020300A2020342020372020312020302020202020302020300A2020342020382020322020302020202020302020300A2020352020392020312020302020202020302020300A2020352020362020312020302020202020302020300A4D2020454E44
Contributor: Ara T, Morishita Y, Shibata D, Kazusa DNA Research Institute
InstType: EI
InstName: Pegasus III TOF-MS system, Leco; GC 6890, Agilent Technologies
IoniMethod: EI
IonPolarity: pos
Date: 2010-10-09 19:48:36+02:00
Num Peaks: 140
82 6 83 28 84 26 85 26 86 30 87 18 88 6 89 14 90 2 91 1 
92 2 93 4 94 8 95 8 96 11 97 15 98 21 99 26 100 67 101 87 
102 20 103 31 104 4 105 11 106 2 107 1 108 4 109 2 110 5 111 11 
112 18 113 24 114 15 115 27 116 26 117 29 118 6 119 16 120 2 121 1 
122 1 124 49 125 7 126 12 127 2 128 11 129 38 130 9 131 47 132 11 
133 90 134 13 135 8 136 1 138 5 139 20 140 999 141 152 142 146 143 22 
144 6 145 3 146 2 147 276 148 47 149 38 150 5 151 2 152 5 153 1 
154 2 155 2 156 15 157 6 158 22 159 5 160 2 161 1 166 4 167 1 
168 3 170 15 171 2 172 12 173 4 175 8 176 2 177 3 178 1 180 1 
182 3 183 1 184 2 185 1 186 1 187 7 188 27 189 9 190 3 191 3 
192 1 193 1 196 2 197 1 198 3 199 1 200 2 201 1 202 1 203 3 
204 1 205 1 212 1 214 24 215 5 216 8 217 2 218 2 221 1 228 8 
229 5 230 820 231 188 232 81 233 12 234 2 240 4 241 1 242 1 244 1 
258 3 259 2 260 1 304 37 305 13 306 6 307 1 332 21 333 7 334 3 
