Name: Isoguvacine
CAS: 64603-90-3
MW: 127
Formula: C6H9NO2
Synonym: KEGG: C13694
Synonym: MassBank: KZ000146
Synonym: Isoguvacine
Structure: 310A32340A200A200A200A2020392020392020302020302020302020302020302020302020302020303939392056323030300A20202031322E393234352020202D382E3430333620202020302E303030302043202020302020302020302020302020302020302020302020302020302020302020302020300A20202031322E393234352020202D392E3830333820202020302E303030302043202020302020302020302020302020302020302020302020302020302020302020302020300A20202031342E3134303120202D31302E3530333920202020302E303030302043202020302020302020302020302020302020302020302020302020302020302020302020300A20202031352E333438352020202D392E3830333820202020302E303030302043202020302020302020302020302020302020302020302020302020302020302020302020300A20202031352E333438352020202D382E3430333620202020302E303030302043202020302020302020302020302020302020302020302020302020302020302020302020300A20202031342E313430312020202D372E3730333520202020302E30303030204E202020302020302020302020302020302020302020302020302020302020302020302020300A20202031342E3134313820202D31312E3930343220202020302E303030302043202020302020302020302020302020302020302020302020302020302020302020302020300A20202031322E3933303020202D31322E3630353820202020302E30303030204F202020302020302020302020302020302020302020302020302020302020302020302020300A20202031352E3335353320202D31322E3630323820202020302E30303030204F202020302020302020302020302020302020302020302020302020302020302020302020300A2020332020342020312020302020202020302020300A2020342020352020312020302020202020302020300A2020352020362020312020302020202020302020300A2020362020312020312020302020202020302020300A2020332020372020312020302020202020302020300A2020312020322020312020302020202020302020300A2020372020382020322020302020202020302020300A2020322020332020322020302020202020302020300A2020372020392020312020302020202020302020300A4D2020454E44
Contributor: Ara T, Morishita Y, Shibata D, Kazusa DNA Research Institute
InstType: EI
InstName: Pegasus III TOF-MS system, Leco; GC 6890, Agilent Technologies
IoniMethod: EI
IonPolarity: pos
Date: 2010-10-09 19:48:36+02:00
Num Peaks: 107
82 13 83 16 84 9 85 16 86 211 87 19 88 7 89 1 92 2 93 1 
94 4 95 4 96 4 97 9 98 3 99 3 100 23 101 98 102 12 103 6 
105 1 106 2 108 15 109 8 110 3 111 11 112 4 113 3 114 1 115 1 
116 2 117 5 118 1 119 3 120 2 121 10 122 3 123 1 124 3 125 1 
126 2 127 1 128 2 129 1 131 6 132 1 133 19 134 2 135 1 137 1 
138 14 139 4 140 2 141 1 143 1 147 116 148 18 149 8 150 2 151 2 
152 63 153 32 154 999 155 151 156 42 157 5 158 1 166 5 167 1 168 1 
169 1 170 1 171 1 172 1 180 8 181 45 182 68 183 12 184 3 196 2 
198 4 199 1 210 1 211 4 212 2 213 1 226 2 227 1 228 4 229 3 
230 1 240 1 243 7 244 1 254 1 255 20 256 156 257 36 258 14 259 2 
268 3 269 1 270 27 271 153 272 36 273 13 274 2 
