Name: MassBank: KZ000027
CAS: 2577-62-0
MW: 190
Formula: C7H14N2O4
Synonym: KEGG: C00680
Synonym: MassBank: KZ000027
Synonym: DL-2,6-Diaminopimelic acid
Structure: 31332031322020302020202020312020302020202020202020202020203939392056323030300A20202020312E343334352020202D302E3138393720202020302E303030302043202020302020302020322020302020302020302020202020202020202020302020302020300A20202020322E3135353220202020302E3232303720202020302E303030302043202020302020302020302020302020302020302020202020202020202020302020302020300A20202020302E3731373220202020302E3232303720202020302E303030302043202020302020302020302020302020302020302020202020202020202020302020302020300A20202020312E343334352020202D312E3032303720202020302E30303030204E202020302020302020302020302020302020302020202020202020202020302020302020300A20202020322E383639302020202D302E3138393720202020302E30303030204F202020302020302020302020302020302020302020202020202020202020302020302020300A20202020322E3135353220202020312E3035313720202020302E30303030204F202020302020302020302020302020302020302020202020202020202020302020302020300A20202020302E303030302020202D302E3138393720202020302E303030302043202020302020302020302020302020302020302020202020202020202020302020302020300A2020202D302E3732303720202020302E3232303720202020302E303030302043202020302020302020302020302020302020302020202020202020202020302020302020300A2020202D312E343334352020202D302E3138393720202020302E303030302043202020302020302020312020302020302020302020202020202020202020302020302020300A2020202D322E3135353220202020302E3232303720202020302E303030302043202020302020302020302020302020302020302020202020202020202020302020302020300A2020202D312E343334352020202D312E3032303720202020302E30303030204E202020302020302020302020302020302020302020202020202020202020302020302020300A2020202D322E383639302020202D302E3138393720202020302E30303030204F202020302020302020302020302020302020302020202020202020202020302020302020300A2020202D322E3135353220202020312E3035313720202020302E30303030204F202020302020302020302020302020302020302020202020202020202020302020302020300A2020312020322020312020302020202020302020300A2020312020332020312020302020202020302020300A2020312020342020312020312020202020302020300A2020322020352020312020302020202020302020300A2020322020362020322020302020202020302020300A2020332020372020312020302020202020302020300A2020372020382020312020302020202020302020300A2020382020392020312020302020202020302020300A2020392031302020312020302020202020302020300A2020392031312020312020362020202020302020300A2031302031322020312020302020202020302020300A2031302031332020322020302020202020302020300A4D2020454E44
Contributor: Ara T, Morishita Y, Shibata D, Kazusa DNA Research Institute
InstType: EI
InstName: Pegasus III TOF-MS system, Leco; GC 6890, Agilent Technologies
IoniMethod: EI
IonPolarity: pos
Date: 2010-10-09 19:48:36+02:00
Num Peaks: 222
82 556 83 51 84 31 85 23 86 35 87 19 88 12 89 10 90 11 91 3 
92 14 93 18 94 6 95 9 96 9 97 11 98 37 99 17 100 306 101 58 
102 81 103 83 104 11 105 10 106 3 107 4 108 10 109 41 110 48 111 9 
112 38 113 15 114 84 115 82 116 72 117 63 118 19 119 15 120 7 121 3 
122 29 123 4 124 5 125 3 126 120 127 31 128 833 129 137 130 88 131 77 
132 60 133 106 134 20 135 11 136 2 137 2 138 7 139 4 140 23 141 12 
142 54 143 12 144 54 145 11 146 33 147 481 148 91 149 55 150 11 151 4 
152 8 153 5 154 133 155 157 156 94 157 27 158 14 159 9 160 9 161 6 
162 9 163 9 164 4 165 10 166 19 167 8 168 11 169 6 170 19 171 26 
172 54 173 14 174 20 175 5 176 4 177 3 178 1 179 1 180 3 181 142 
182 147 183 37 184 73 185 11 186 13 187 3 188 25 189 7 190 37 191 35 
192 9 193 6 194 3 195 1 196 1 197 1 198 6 199 5 200 999 201 180 
202 87 203 19 204 6 205 3 206 2 207 2 208 1 209 3 210 2 211 1 
212 2 213 1 214 7 215 5 216 11 217 7 218 86 219 44 220 16 221 10 
222 3 223 1 224 1 225 1 226 2 227 3 228 14 229 8 230 22 231 6 
232 10 233 2 234 1 236 1 237 1 238 1 239 2 240 1 241 1 242 7 
243 8 244 13 245 7 246 5 247 2 248 1 253 1 254 2 255 20 256 14 
257 5 258 5 259 1 260 4 261 1 270 1 271 75 272 656 273 175 274 72 
275 12 276 2 283 10 284 9 285 3 286 1 287 2 288 1 291 1 299 3 
300 1 301 1 302 1 304 1 317 1 318 1 344 1 345 4 346 12 347 5 
348 2 355 1 356 3 357 1 359 1 360 1 361 4 362 1 372 2 373 21 
374 15 375 6 376 2 388 1 389 1 463 2 464 1 477 6 478 29 479 15 
480 7 481 2 
