Name: L-Valine
CAS: 72-18-4
MW: 117
Formula: C5H11NO2
Synonym: KEGG: C00183
Synonym: MassBank: KZ000241
Synonym: L-Valine
Structure: 310A32310A200A200A200A2020382020372020302020302020312020302020302020302020302020303939392056323030300A20202032342E3835303020202D31392E3037363420202020302E303030302043202020302020302020312020302020302020302020302020302020302020302020302020300A20202032362E3036363620202D31382E3338303420202020302E303030302043202020302020302020332020302020302020302020302020302020302020302020302020300A20202032332E3633333420202D31382E3336323920202020302E303030302043202020302020302020302020302020302020302020302020302020302020302020302020300A20202032342E3834343220202D32302E3438303220202020302E30303030204E202020302020302020302020302020302020302020302020302020302020302020302020300A20202032372E3237313620202D31392E3038383120202020302E303030302043202020302020302020302020302020302020302020302020302020302020302020302020300A20202032362E3037323520202D31362E3938323520202020302E303030302043202020302020302020302020302020302020302020302020302020302020302020302020300A20202032322E3432323620202D31392E3035383920202020302E30303030204F202020302020302020302020302020302020302020302020302020302020302020302020300A20202032332E3633393220202D31362E3937303720202020302E30303030204F202020302020302020302020302020302020302020302020302020302020302020302020300A2020312020322020312020302020202020302020300A2020312020332020312020302020202020302020300A2020312020342020312020362020202020302020300A2020322020352020312020302020202020302020300A2020322020362020312020302020202020302020300A2020332020372020312020302020202020302020300A2020332020382020322020302020202020302020300A4D2020454E44
Contributor: Ara T, Morishita Y, Shibata D, Kazusa DNA Research Institute
InstType: EI
InstName: Pegasus III TOF-MS system, Leco; GC 6890, Agilent Technologies
IoniMethod: EI
IonPolarity: pos
Date: 2010-10-09 19:48:36+02:00
Num Peaks: 85
82 19 83 15 84 19 85 20 86 40 87 12 88 5 89 1 90 1 91 1 
92 1 93 2 94 1 95 1 96 4 97 2 98 17 99 8 100 231 101 39 
102 22 103 65 104 5 105 7 107 1 108 1 109 1 110 5 111 2 112 13 
113 6 114 33 115 18 116 6 117 22 118 6 119 7 120 1 126 3 128 38 
129 26 130 27 131 27 132 36 133 46 134 6 135 2 142 3 143 5 144 999 
145 132 146 53 147 308 148 37 149 21 150 4 156 49 157 8 158 11 159 9 
160 13 161 3 162 1 163 10 164 2 172 3 174 10 175 2 176 1 186 1 
189 1 190 1 202 1 203 10 204 2 218 374 219 80 220 37 221 3 222 1 
228 1 231 1 246 25 247 4 248 2 
