Name: D-(+)-Trehalose
CAS: 99-20-7
MW: 342
Formula: C12H22O11
Synonym: KEGG: C01083
Synonym: MassBank: KZ000129
Synonym: D-(+)-Trehalose
Structure: 32332032342020302020202020312020302020202020202020202020203939392056323030300A20202020302E3731333820202020302E3431373220202020302E303030302043202020302020302020312020302020302020302020202020202020202020302020302020300A20202020302E3030303020202020302E3030303020202020302E30303030204F202020302020302020302020302020302020302020202020202020202020302020302020300A20202020312E3433343520202020302E3030303020202020302E30303030204F202020302020302020302020302020302020302020202020202020202020302020302020300A20202020302E3731333820202020312E3234343820202020302E303030302043202020302020302020312020302020302020302020202020202020202020302020302020300A2020202D302E373133382020202D302E3431373220202020302E303030302043202020302020302020312020302020302020302020202020202020202020302020302020300A20202020322E3134383320202020302E3431373220202020302E303030302043202020302020302020312020302020302020302020202020202020202020302020302020300A20202020312E3433343520202020312E3635353220202020302E303030302043202020302020302020322020302020302020302020202020202020202020302020302020300A20202020302E3030303020202020312E3635353220202020302E30303030204F202020302020302020302020302020302020302020202020202020202020302020302020300A2020202D312E3433343520202020302E3030303020202020302E30303030204F202020302020302020302020302020302020302020202020202020202020302020302020300A2020202D302E373133382020202D312E3234343820202020302E303030302043202020302020302020312020302020302020302020202020202020202020302020302020300A20202020322E3134383320202020312E3234343820202020302E303030302043202020302020302020322020302020302020302020202020202020202020302020302020300A20202020322E3836353520202020302E3030303020202020302E303030302043202020302020302020302020302020302020302020202020202020202020302020302020300A20202020312E3433343520202020322E3438323820202020302E30303030204F202020302020302020302020302020302020302020202020202020202020302020302020300A2020202D322E313438332020202D302E3431373220202020302E303030302043202020302020302020312020302020302020302020202020202020202020302020302020300A2020202D312E343334352020202D312E3635353220202020302E303030302043202020302020302020322020302020302020302020202020202020202020302020302020300A20202020302E303030302020202D312E3635353220202020302E30303030204F202020302020302020302020302020302020302020202020202020202020302020302020300A20202020322E3836353520202020312E3635353220202020302E30303030204F202020302020302020302020302020302020302020202020202020202020302020302020300A20202020332E3439333120202020302E3533373920202020302E30303030204F202020302020302020302020302020302020302020202020202020202020302020302020300A2020202D322E313438332020202D312E3234343820202020302E303030302043202020302020302020322020302020302020302020202020202020202020302020302020300A2020202D322E3836353520202020302E3030303020202020302E303030302043202020302020302020302020302020302020302020202020202020202020302020302020300A2020202D312E343334352020202D322E3438323820202020302E30303030204F202020302020302020302020302020302020302020202020202020202020302020302020300A2020202D322E383635352020202D312E3635353220202020302E30303030204F202020302020302020302020302020302020302020202020202020202020302020302020300A2020202D332E343933312020202D302E3534313420202020302E30303030204F202020302020302020302020302020302020302020202020202020202020302020302020300A2020312020322020312020362020202020302020300A2020312020332020312020302020202020302020300A2020312020342020312020302020202020302020300A2020352020322020312020362020202020302020300A2020332020362020312020302020202020302020300A2020342020372020312020302020202020302020300A2020342020382020312020362020202020302020300A2020352020392020312020302020202020302020300A2020352031302020312020302020202020302020300A2020362031312020312020302020202020302020300A2020362031322020312020312020202020302020300A2020372031332020312020312020202020302020300A2020392031342020312020302020202020302020300A2031302031352020312020302020202020302020300A2031302031362020312020362020202020302020300A2031312031372020312020362020202020302020300A2031322031382020312020302020202020302020300A2031342031392020312020302020202020302020300A2031342032302020312020312020202020302020300A2031352032312020312020312020202020302020300A2031392032322020312020362020202020302020300A2032302032332020312020302020202020302020300A2020372031312020312020302020202020302020300A2031352031392020312020302020202020302020300A4D2020454E44
Contributor: Ara T, Morishita Y, Shibata D, Kazusa DNA Research Institute
InstType: EI
InstName: Pegasus III TOF-MS system, Leco; GC 6890, Agilent Technologies
IoniMethod: EI
IonPolarity: pos
Date: 2010-10-09 19:48:36+02:00
Num Peaks: 280
82 5 83 11 85 21 86 1 87 14 88 3 89 33 90 2 91 1 97 7 
98 2 99 15 100 2 101 52 102 14 103 957 104 80 105 26 106 1 109 18 
110 2 111 2 112 1 113 32 114 10 115 9 116 19 117 150 118 18 119 11 
120 2 121 1 122 1 123 1 124 1 125 2 126 2 127 17 128 6 129 533 
130 62 131 76 132 11 133 24 134 7 135 3 136 1 137 1 138 1 139 7 
140 3 141 15 142 19 143 78 144 13 145 30 146 6 147 811 148 112 149 57 
150 8 151 1 152 1 153 3 154 3 155 36 156 10 157 44 158 9 159 8 
160 3 161 9 162 2 163 10 164 3 165 1 166 1 167 3 168 2 169 243 
170 41 171 21 172 4 173 11 174 3 175 5 176 3 177 3 178 2 179 1 
180 1 181 4 182 1 183 9 184 2 185 3 186 2 187 9 188 3 189 101 
190 31 191 999 192 156 193 69 194 9 195 4 196 2 197 2 198 2 199 12 
200 4 201 7 202 8 203 33 204 323 205 146 206 47 207 21 208 5 209 2 
210 1 211 1 212 1 213 2 214 1 215 17 216 7 217 778 218 171 219 83 
220 14 221 35 222 10 223 6 224 2 225 1 226 1 227 8 228 7 229 69 
230 35 231 50 232 14 233 36 234 15 235 6 236 2 237 1 238 1 239 2 
240 1 241 25 242 11 243 190 244 77 245 67 246 17 247 19 248 5 249 3 
250 1 251 1 252 1 253 1 254 1 255 7 256 4 257 21 258 7 259 23 
260 7 261 4 262 2 263 27 264 7 265 16 266 4 267 2 268 1 269 1 
270 3 271 237 272 65 273 33 274 7 275 3 276 1 277 2 278 3 279 8 
280 3 281 1 283 1 285 1 287 5 288 2 289 5 290 9 291 26 292 12 
293 7 294 2 295 1 296 1 301 1 302 1 303 2 304 7 305 31 306 20 
307 11 308 4 309 2 310 1 312 1 313 1 314 1 315 1 316 1 317 11 
318 14 319 81 320 47 321 20 322 7 323 3 324 1 325 1 329 1 330 5 
331 51 332 47 333 25 334 10 335 3 336 1 337 1 344 1 345 4 346 6 
347 2 348 1 349 1 350 1 359 1 361 889 362 324 363 169 364 45 365 12 
366 2 367 1 373 2 377 12 378 4 379 4 380 1 393 2 394 1 395 1 
405 1 406 1 407 2 408 1 409 1 435 17 436 9 437 5 438 2 450 3 
451 24 452 11 453 6 454 1 463 10 464 5 465 4 466 2 467 2 475 1 
