Name: L-Tyrosine
CAS: 60-18-4
MW: 181
Formula: C9H11NO3
Synonym: KEGG: C00082
Synonym: MassBank: KZ000054
Synonym: L-Tyrosine
Structure: 31332031332020302020302020312020302020302020302020302020303939392056323030300A20202032322E3836303820202D31372E3137313320202020302E303030302043202020302020302020302020302020302020302020302020302020302020302020302020300A20202032322E3836303820202D31382E3537343220202020302E303030302043202020302020302020302020302020302020302020302020302020302020302020302020300A20202032342E3037353620202D31392E3237353620202020302E303030302043202020302020302020302020302020302020302020302020302020302020302020302020300A20202032352E3239303620202D31382E3537343220202020302E303030302043202020302020302020302020302020302020302020302020302020302020302020302020300A20202032352E3239303620202D31372E3137313320202020302E303030302043202020302020302020302020302020302020302020302020302020302020302020302020300A20202032342E3037353620202D31362E3436393920202020302E303030302043202020302020302020302020302020302020302020302020302020302020302020302020300A20202032312E3634353920202D31362E3436393920202020302E303030302043202020302020302020302020302020302020302020302020302020302020302020302020300A20202032362E3532343220202D31392E3238363620202020302E30303030204F202020302020302020302020302020302020302020302020302020302020302020302020300A20202032302E3434373920202D31372E3136313720202020302E303030302043202020302020302020302020302020302020302020302020302020302020302020302020300A20202031392E3235383120202D31362E3437343820202020302E303030302043202020302020302020302020302020302020302020302020302020302020302020302020300A20202031382E3036343520202D31372E3136343220202020302E30303030204F202020302020302020302020302020302020302020302020302020302020302020302020300A20202031392E3235373920202D31352E3036373220202020302E30303030204F202020302020302020302020302020302020302020302020302020302020302020302020300A20202032302E3434373820202D31382E3537333920202020302E30303030204E202020302020302020302020302020302020302020302020302020302020302020302020300A2020312020322020322020302020202020302020300A2020322020332020312020302020202020302020300A2020332020342020322020302020202020302020300A2020342020352020312020302020202020302020300A2020352020362020322020302020202020302020300A2020312020362020312020302020202020302020300A2020312020372020312020302020202020302020300A2020342020382020312020302020202020302020300A2020372020392020312020302020202020302020300A2020392031302020312020302020202020302020300A2031302031312020312020302020202020302020300A2031302031322020322020302020202020302020300A2020392031332020312020362020202020302020300A4D2020454E44
Contributor: Ara T, Morishita Y, Shibata D, Kazusa DNA Research Institute
InstType: EI
InstName: Pegasus III TOF-MS system, Leco; GC 6890, Agilent Technologies
IoniMethod: EI
IonPolarity: pos
Date: 2010-10-09 19:48:36+02:00
Num Peaks: 126
82 1 83 3 85 4 86 15 87 6 88 1 89 15 90 10 91 25 92 4 
95 3 97 1 98 2 99 2 100 292 101 46 102 21 103 16 104 6 105 14 
106 3 107 4 108 1 109 1 110 1 115 12 116 4 117 16 118 10 119 10 
120 2 121 4 123 1 128 2 129 2 130 24 131 19 132 31 133 33 134 9 
135 13 136 2 137 2 138 1 140 1 142 1 143 2 144 3 145 5 146 10 
147 133 148 32 149 35 150 7 151 6 152 1 157 1 158 3 159 5 160 9 
161 5 162 4 163 24 164 9 165 10 166 2 167 1 172 1 173 1 174 8 
175 6 176 8 177 7 178 2 179 65 180 18 181 6 182 2 188 1 189 1 
190 5 191 3 192 12 193 5 194 2 195 1 203 6 204 2 205 1 206 1 
207 7 208 2 209 2 216 1 217 3 218 999 219 232 220 108 221 15 222 3 
223 3 248 2 249 1 250 2 251 1 264 3 265 10 266 4 267 2 278 2 
279 6 280 99 281 33 282 13 283 3 292 3 293 1 353 1 354 21 355 12 
356 7 357 2 358 1 382 10 383 4 384 2 
