Name: Nonadecanoic acid methyl ester
CAS: 1731-94-8
MW: 312
Formula: C20H40O2
Synonym: MassBank: KZ000253
Synonym: Nonadecanoic acid methyl ester
Structure: 32332032322020302020302020302020302020302020302020302020303939392056323030300A2020202D332E3933333720202020302E3136393920202020302E303030302043202020302020302020302020302020302020302020302020302020302020302020302020300A2020202D332E3230303520202020302E3538313120202020302E303030302043202020302020302020302020302020302020302020302020302020302020302020302020300A2020202D342E3634323920202020302E3538373120202020302E303030302043202020302020302020302020302020302020302020302020302020302020302020302020300A2020202D322E3439373220202020302E3136333920202020302E303030302043202020302020302020302020302020302020302020302020302020302020302020302020300A2020202D352E3335323220202020302E3138313820202020302E303030302043202020302020302020302020302020302020302020302020302020302020302020302020300A2020202D312E3737363120202020302E3536393220202020302E303030302043202020302020302020302020302020302020302020302020302020302020302020302020300A2020202D362E3037333320202020302E3539393120202020302E30303030204F202020302020302020302020302020302020302020302020302020302020302020302020300A2020202D352E333538312020202D302E3631363920202020302E30303030204F202020302020302020302020302020302020302020302020302020302020302020302020300A2020202D312E3036303920202020302E3135313920202020302E303030302043202020302020302020302020302020302020302020302020302020302020302020302020300A2020202D362E3738383520202020302E3139393620202020302E303030302043202020302020302020302020302020302020302020302020302020302020302020302020300A2020202D302E3334353720202020302E3535373220202020302E303030302043202020302020302020302020302020302020302020302020302020302020302020302020300A2020202D372E3530393620202020302E3631363920202020302E303030302043202020302020302020302020302020302020302020302020302020302020302020302020300A20202020302E3334353720202020302E3134303020202020302E303030302043202020302020302020302020302020302020302020302020302020302020302020302020300A20202020312E3036303920202020302E3534353320202020302E303030302043202020302020302020302020302020302020302020302020302020302020302020302020300A20202020312E3737363120202020302E3132383220202020302E303030302043202020302020302020302020302020302020302020302020302020302020302020302020300A20202020322E3439373220202020302E3533333420202020302E303030302043202020302020302020302020302020302020302020302020302020302020302020302020300A20202020332E3230303520202020302E3132323220202020302E303030302043202020302020302020302020302020302020302020302020302020302020302020302020300A20202020332E3933333720202020302E3532373520202020302E303030302043202020302020302020302020302020302020302020302020302020302020302020302020300A20202020342E3634323920202020302E3131303320202020302E303030302043202020302020302020302020302020302020302020302020302020302020302020302020300A20202020352E3335323220202020302E3531353620202020302E303030302043202020302020302020302020302020302020302020302020302020302020302020302020300A20202020362E3037333320202020302E3039323520202020302E303030302043202020302020302020302020302020302020302020302020302020302020302020302020300A20202020362E3738383520202020302E3530333720202020302E303030302043202020302020302020302020302020302020302020302020302020302020302020302020300A20202020372E3530393620202020302E3038363420202020302E303030302043202020302020302020302020302020302020302020302020302020302020302020302020300A2020312020322020312020302020202020200A2020312020332020312020302020202020200A2020322020342020312020302020202020200A2020332020352020312020302020202020200A2020342020362020312020302020202020200A2020352020372020312020302020202020200A2020352020382020322020302020202020200A2020362020392020312020302020202020200A2020372031302020312020302020202020200A2020392031312020312020302020202020200A2031302031322020312020302020202020200A2031312031332020312020302020202020200A2031332031342020312020302020202020200A2031342031352020312020302020202020200A2031352031362020312020302020202020200A2031362031372020312020302020202020200A2031372031382020312020302020202020200A2031382031392020312020302020202020200A2031392032302020312020302020202020200A2032302032312020312020302020202020200A2032312032322020312020302020202020200A2032322032332020312020302020202020200A56202020203120300A56202020203220310A56202020203320320A56202020203420330A56202020203520340A56202020203620350A56202020203720360A56202020203820370A56202020203920380A56202020313020390A5620202031312031300A5620202031322031310A5620202031332031320A5620202031342031330A5620202031352031340A5620202031362031350A5620202031372031360A5620202031382031370A5620202031392031380A5620202032302031390A5620202032312032300A5620202032322032310A5620202032332032320A4D2020454E44
Contributor: Ara T, Morishita Y, Shibata D, Kazusa DNA Research Institute
InstType: EI
InstName: Pegasus III TOF-MS system, Leco; GC 6890, Agilent Technologies
IoniMethod: EI
IonPolarity: pos
Date: 2010-10-09 19:48:36+02:00
Num Peaks: 144
37 1 38 3 39 44 40 11 41 337 42 71 43 436 44 27 45 24 50 2 
51 5 52 2 53 44 54 37 55 385 56 100 57 256 58 14 59 67 60 5 
61 3 65 6 66 3 67 37 68 26 69 167 70 42 71 93 72 9 73 23 
74 999 75 288 76 11 77 5 78 2 79 16 80 6 81 68 82 26 83 170 
84 45 85 63 86 5 87 814 88 77 89 6 91 4 92 1 93 19 94 4 
95 53 96 21 97 120 98 40 99 16 100 5 101 110 102 13 103 1 105 1 
107 13 108 2 109 23 110 7 111 55 112 10 113 9 114 2 115 32 116 17 
117 1 121 14 122 2 123 13 124 4 125 19 126 4 127 4 128 1 129 87 
130 26 131 2 135 10 136 1 137 6 138 3 139 11 140 2 141 2 143 241 
144 27 145 2 149 6 150 1 151 2 152 1 153 4 154 1 155 1 157 50 
158 8 163 3 165 1 167 3 171 33 172 7 177 1 181 1 185 39 186 8 
191 1 195 1 199 57 200 9 209 1 210 1 213 41 214 7 215 1 226 1 
227 21 228 3 238 1 240 1 241 11 242 3 254 1 255 18 256 4 257 1 
261 1 268 4 269 45 270 10 271 2 280 2 281 14 282 3 283 7 284 3 
311 10 312 81 313 17 314 1 
