Name: Cysteamine
CAS: 60-23-1
MW: 77
Formula: C2H7NS
Synonym: KEGG: C01678
Synonym: MassBank: KZ000020
Synonym: Cysteamine
Structure: 310A31330A200A200A200A2020342020332020302020302020302020302020302020302020302020303939392056323030300A20202032322E3538343820202D31352E3838393020202020302E303030302043202020302020302020302020302020302020302020302020302020302020302020302020300A20202032312E3337353220202D31352E3139313020202020302E303030302043202020302020302020302020302020302020302020302020302020302020302020302020300A20202032332E3830303420202D31352E3139313020202020302E30303030204E202020302020302020302020302020302020302020302020302020302020302020302020300A20202032302E3135393620202D31352E3838393020202020302E303030302053202020302020302020302020302020302020302020302020302020302020302020302020300A2020312020322020312020302020202020302020300A2020312020332020312020302020202020302020300A2020322020342020312020302020202020302020300A4D2020454E44
Contributor: Ara T, Morishita Y, Shibata D, Kazusa DNA Research Institute
InstType: EI
InstName: Pegasus III TOF-MS system, Leco; GC 6890, Agilent Technologies
IoniMethod: EI
IonPolarity: pos
Date: 2010-10-09 19:48:36+02:00
Num Peaks: 79
82 1 83 2 84 11 85 14 86 404 87 41 88 18 89 7 90 4 91 18 
92 2 93 1 95 1 98 10 99 10 100 398 101 63 102 39 103 8 104 6 
105 23 106 3 107 2 112 1 113 15 114 49 115 20 116 74 117 27 118 24 
119 5 120 2 128 2 129 7 130 143 131 41 132 55 133 11 134 5 135 1 
142 2 143 1 144 7 145 2 146 37 147 12 148 17 149 7 150 2 151 1 
156 1 158 9 159 2 160 1 161 1 163 1 164 1 172 44 173 9 174 999 
175 200 176 91 177 11 178 2 187 2 188 71 189 14 190 74 191 14 192 10 
193 1 204 11 205 4 206 3 219 2 220 122 221 25 222 16 223 2 
