Name: MassBank: KZ000092
CAS: 109-76-2
MW: 74
Formula: C3H10N2
Synonym: KEGG: C00986
Synonym: MassBank: KZ000092
Synonym: 1,3-Diaminopropane
Structure: 310A31340A200A200A200A2020352020342020302020302020302020302020302020302020302020303939392056323030300A20202032322E3132303020202D31362E3532323920202020302E303030302043202020302020302020302020302020302020302020302020302020302020302020302020300A20202032302E3931313220202D31352E3832323120202020302E303030302043202020302020302020302020302020302020302020302020302020302020302020302020300A20202032332E3332383820202D31352E3832323120202020302E303030302043202020302020302020302020302020302020302020302020302020302020302020302020300A20202031392E3639363020202D31362E3532323920202020302E30303030204E202020302020302020302020302020302020302020302020302020302020302020302020300A20202032342E3534343020202D31362E3532323920202020302E30303030204E202020302020302020302020302020302020302020302020302020302020302020302020300A2020312020322020312020302020202020302020300A2020312020332020312020302020202020302020300A2020322020342020312020302020202020302020300A2020332020352020312020302020202020302020300A4D2020454E44
Contributor: Ara T, Morishita Y, Shibata D, Kazusa DNA Research Institute
InstType: EI
InstName: Pegasus III TOF-MS system, Leco; GC 6890, Agilent Technologies
IoniMethod: EI
IonPolarity: pos
Date: 2010-10-09 19:48:36+02:00
Num Peaks: 85
82 1 83 2 84 11 85 15 86 382 87 39 88 17 89 2 98 13 99 10 
100 233 101 41 102 39 103 11 104 2 111 1 112 14 113 20 114 39 115 22 
116 52 117 43 118 10 119 2 120 1 125 1 126 3 127 3 128 59 129 20 
130 241 131 62 132 33 133 6 134 2 140 1 142 6 143 2 144 17 145 4 
146 27 147 5 148 2 156 3 157 1 158 20 159 3 160 94 162 6 170 16 
171 12 172 483 173 88 174 999 175 173 176 62 177 7 178 1 184 3 185 8 
186 163 187 29 188 27 189 5 190 2 191 2 192 1 193 1 199 1 200 6 
201 324 202 61 203 16 204 3 217 1 243 1 244 1 257 1 259 31 260 7 
261 4 273 3 287 1 347 2 362 1 
