Name: DL-alpha-Lipoic acid
CAS: 62-46-4
MW: 206
Formula: C8H14O2S2
Synonym: KEGG: C00725
Synonym: MassBank: KZ000107
Synonym: DL-alpha-Lipoic acid
Structure: 31322031322020302020302020302020302020302020302020302020303939392056323030300A20202033312E3836303620202D31312E3431373720202020302E303030302053202020302020302020302020302020302020302020302020302020302020302020302020300A20202033302E3435393620202D31312E3431373720202020302E303030302053202020302020302020302020302020302020302020302020302020302020302020302020300A20202033302E3032363820202D31322E3735303120202020302E303030302043202020302020302020302020302020302020302020302020302020302020302020302020300A20202033312E3136303120202D31332E3537333620202020302E303030302043202020302020302020302020302020302020302020302020302020302020302020302020300A20202033322E3239333520202D31322E3735303120202020302E303030302043202020302020302020302020302020302020302020302020302020302020302020302020300A20202033332E3439343220202D31332E3434393120202020302E303030302043202020302020302020302020302020302020302020302020302020302020302020302020300A20202033342E3730373520202D31322E3734383620202020302E303030302043202020302020302020302020302020302020302020302020302020302020302020302020300A20202033352E3932303720202D31332E3434393120202020302E303030302043202020302020302020302020302020302020302020302020302020302020302020302020300A20202033372E3133333920202D31322E3734383620202020302E303030302043202020302020302020302020302020302020302020302020302020302020302020302020300A20202033382E3334373320202D31332E3434393120202020302E303030302043202020302020302020302020302020302020302020302020302020302020302020302020300A20202033392E3536303520202D31322E3734383620202020302E30303030204F202020302020302020302020302020302020302020302020302020302020302020302020300A20202033382E3334373320202D31342E3835303120202020302E30303030204F202020302020302020302020302020302020302020302020302020302020302020302020300A2020312020322020312020302020202020302020300A2020322020332020312020302020202020302020300A2020332020342020312020302020202020302020300A2020342020352020312020302020202020302020300A2020312020352020312020302020202020302020300A2020352020362020312020302020202020302020300A2020362020372020312020302020202020302020300A2020372020382020312020302020202020302020300A2020382020392020312020302020202020302020300A2020392031302020312020302020202020302020300A2031302031312020312020302020202020302020300A2031302031322020322020302020202020302020300A4D2020454E44
Contributor: Ara T, Morishita Y, Shibata D, Kazusa DNA Research Institute
InstType: EI
InstName: Pegasus III TOF-MS system, Leco; GC 6890, Agilent Technologies
IoniMethod: EI
IonPolarity: pos
Date: 2010-10-09 19:48:36+02:00
Num Peaks: 147
82 83 83 37 84 20 85 178 86 52 87 148 88 27 89 35 90 10 91 106 
92 20 93 207 94 37 95 684 96 163 97 78 98 27 99 141 100 71 101 83 
102 13 103 53 104 10 105 689 106 57 107 75 108 6 109 24 110 15 111 45 
112 45 113 320 114 39 115 45 116 80 117 429 118 51 119 48 120 5 121 86 
122 17 123 999 124 255 125 39 126 47 127 178 128 81 129 266 130 43 131 40 
132 42 133 10 134 4 135 7 136 4 137 65 138 15 139 19 140 4 141 15 
142 8 143 14 144 5 145 38 146 20 147 12 148 4 149 5 150 1 151 10 
152 2 153 18 154 27 155 352 156 50 157 52 158 8 159 20 160 21 161 16 
162 4 163 3 164 1 165 3 166 1 167 7 168 2 169 16 170 9 171 61 
172 9 173 11 174 2 175 1 176 1 177 3 179 8 180 2 181 5 182 2 
183 10 184 1 185 38 186 7 187 6 188 85 189 12 190 9 191 2 194 1 
195 11 196 3 197 75 198 21 199 21 200 4 201 3 203 1 211 2 212 1 
213 74 214 16 215 5 216 1 217 3 227 1 228 1 229 14 230 5 231 2 
235 1 244 3 245 25 246 11 247 4 248 2 262 2 263 51 264 9 265 7 
266 1 277 6 278 199 279 39 280 28 281 4 282 2 
