Name: Methylmalonic acid
CAS: 516-05-2
MW: 118
Formula: C4H6O4
Synonym: KEGG: C02170
Synonym: MassBank: KZ000060
Synonym: Methylmalonic acid
Structure: 310A32310A200A200A200A2020382020372020302020302020302020302020302020302020302020303939392056323030300A20202031392E3030363220202D31342E3739393420202020302E303030302043202020302020302020332020302020302020302020302020302020302020302020302020300A20202031392E3035303520202D31362E3139333820202020302E303030302043202020302020302020302020302020302020302020302020302020302020302020302020300A20202031372E3831373520202D31342E3037333420202020302E303030302043202020302020302020302020302020302020302020302020302020302020302020302020300A20202032302E3233333420202D31342E3132343620202020302E303030302043202020302020302020302020302020302020302020302020302020302020302020302020300A20202031372E3831363920202D31362E3836383520202020302E30303030204F202020302020302020302020302020302020302020302020302020302020302020302020300A20202032302E3235323220202D31362E3932363320202020302E30303030204F202020302020302020302020302020302020302020302020302020302020302020302020300A20202031362E3539303220202D31342E3734313620202020302E30303030204F202020302020302020302020302020302020302020302020302020302020302020302020300A20202031372E3834333220202D31322E3637323520202020302E30303030204F202020302020302020302020302020302020302020302020302020302020302020302020300A2020312020322020312020302020202020302020300A2020312020332020312020302020202020302020300A2020312020342020312020302020202020302020300A2020322020352020312020302020202020302020300A2020322020362020322020302020202020302020300A2020332020372020312020302020202020302020300A2020332020382020322020302020202020302020300A4D2020454E44
Contributor: Ara T, Morishita Y, Shibata D, Kazusa DNA Research Institute
InstType: EI
InstName: Pegasus III TOF-MS system, Leco; GC 6890, Agilent Technologies
IoniMethod: EI
IonPolarity: pos
Date: 2010-10-09 19:48:36+02:00
Num Peaks: 83
83 91 84 10 85 19 86 55 87 26 88 6 89 10 90 1 91 1 92 1 
93 3 94 36 95 4 97 1 99 15 100 3 101 10 102 12 103 26 104 4 
105 16 106 2 107 1 112 1 113 118 114 15 115 60 116 39 117 58 118 7 
119 12 120 1 121 1 128 1 129 46 130 27 131 61 132 10 133 83 134 11 
135 6 143 1 145 1 146 1 147 999 148 166 149 89 150 10 151 2 157 18 
158 3 159 2 163 8 164 1 165 1 172 16 173 4 174 1 175 5 176 1 
187 2 189 1 190 7 191 4 192 1 203 33 204 7 205 3 217 6 218 123 
219 26 220 11 221 2 231 12 232 3 233 1 247 126 248 26 249 12 250 1 
262 12 263 2 264 1 
