Name: 4-Aminobutyric acid
CAS: 56-12-2
MW: 103
Formula: C4H9NO2
Synonym: KEGG: C00334
Synonym: MassBank: KZ000098
Synonym: 4-Aminobutyric acid
Structure: 310A31390A200A200A200A2020372020362020302020302020302020302020302020302020302020303939392056323030300A20202032312E3833373620202D31382E3337383720202020302E303030302043202020302020302020302020302020302020302020302020302020302020302020302020300A20202032332E3034373820202D31372E3637373020202020302E303030302043202020302020302020302020302020302020302020302020302020302020302020302020300A20202032302E3632373420202D31372E3637373020202020302E303030302043202020302020302020302020302020302020302020302020302020302020302020302020300A20202032342E3235383020202D31382E3338353020202020302E30303030204F202020302020302020302020302020302020302020302020302020302020302020302020300A20202032332E3034373820202D31362E3238303320202020302E30303030204F202020302020302020302020302020302020302020302020302020302020302020302020300A20202031392E3431303820202D31382E3337383720202020302E303030302043202020302020302020302020302020302020302020302020302020302020302020302020300A20202031382E3230303620202D31372E3637373020202020302E30303030204E202020302020302020302020302020302020302020302020302020302020302020302020300A2020312020322020312020302020202020302020300A2020312020332020312020302020202020302020300A2020322020342020312020302020202020302020300A2020322020352020322020302020202020302020300A2020332020362020312020302020202020302020300A2020362020372020312020302020202020302020300A4D2020454E44
Contributor: Ara T, Morishita Y, Shibata D, Kazusa DNA Research Institute
InstType: EI
InstName: Pegasus III TOF-MS system, Leco; GC 6890, Agilent Technologies
IoniMethod: EI
IonPolarity: pos
Date: 2010-10-09 19:48:36+02:00
Num Peaks: 101
82 4 83 4 84 10 85 21 86 324 87 48 88 19 89 8 90 1 96 1 
97 2 98 14 99 22 100 169 101 38 102 27 103 11 104 3 105 3 110 1 
111 1 112 13 113 12 114 25 115 18 116 21 117 30 118 8 119 9 120 2 
121 1 124 1 126 3 127 1 128 11 129 10 130 46 131 43 132 16 133 51 
134 13 135 7 136 1 140 17 141 4 142 42 143 92 144 30 145 15 146 27 
147 428 148 77 149 49 150 6 151 1 156 12 157 2 158 6 159 2 160 1 
161 1 170 1 171 1 172 35 173 12 174 999 175 247 176 113 177 17 178 3 
186 2 187 3 188 2 189 1 190 1 198 1 200 6 201 1 204 2 205 2 
206 1 214 17 215 5 216 63 217 20 218 11 219 6 220 2 221 1 230 7 
231 1 232 2 246 32 247 10 248 5 249 1 304 246 305 83 306 49 307 11 
308 2 
