Name: L-Isoleucine
CAS: 73-32-5
MW: 131
Formula: C6H13NO2
Synonym: KEGG: C00407
Synonym: MassBank: KZ000231
Synonym: L-Isoleucine
Structure: 310A32330A200A200A200A2020392020382020302020302020312020302020302020302020302020303939392056323030300A20202032322E3439323220202D31372E3133393720202020302E303030302043202020302020302020312020302020302020302020302020302020302020302020302020300A20202032332E3637393620202D31362E3430323920202020302E303030302043202020302020302020322020302020302020302020302020302020302020302020302020300A20202032312E3235383120202D31362E3437383920202020302E303030302043202020302020302020302020302020302020302020302020302020302020302020302020300A20202032322E3533393120202D31382E3533373720202020302E30303030204E202020302020302020302020302020302020302020302020302020302020302020302020300A20202032342E3931333720202D31372E3036333720202020302E303030302043202020302020302020302020302020302020302020302020302020302020302020302020300A20202032332E3633383720202D31352E3030343920202020302E303030302043202020302020302020302020302020302020302020302020302020302020302020302020300A20202032302E3130303120202D31372E3237343220202020302E30303030204F202020302020302020302020302020302020302020302020302020302020302020302020300A20202032312E3238313520202D31352E3038303920202020302E30303030204F202020302020302020302020302020302020302020302020302020302020302020302020300A20202032362E3130363920202D31362E3332363820202020302E303030302043202020302020302020302020302020302020302020302020302020302020302020302020300A2020312020322020312020302020202020302020300A2020312020332020312020302020202020302020300A2020312020342020312020362020202020302020300A2020322020352020312020302020202020302020300A2020322020362020312020312020202020302020300A2020332020372020312020302020202020302020300A2020332020382020322020302020202020302020300A2020352020392020312020302020202020302020300A4D2020454E44
Contributor: Ara T, Morishita Y, Shibata D, Kazusa DNA Research Institute
InstType: EI
InstName: Pegasus III TOF-MS system, Leco; GC 6890, Agilent Technologies
IoniMethod: EI
IonPolarity: pos
Date: 2010-10-09 19:48:36+02:00
Num Peaks: 99
82 13 83 1 84 28 85 14 86 21 87 7 88 5 89 7 90 16 91 1 
93 2 94 3 95 5 96 10 97 8 98 29 99 16 100 291 101 35 102 57 
103 29 105 8 106 2 108 2 109 2 110 1 111 2 112 9 113 1 114 34 
115 8 116 9 117 27 118 2 119 17 120 3 123 1 124 2 126 5 127 6 
128 43 129 24 130 34 131 26 132 56 133 60 134 8 138 1 140 1 141 2 
142 36 143 17 144 9 145 2 146 11 147 316 148 26 149 2 150 1 151 1 
154 1 157 2 158 999 159 73 161 2 163 11 164 2 170 24 171 4 172 4 
174 11 175 5 176 3 183 1 186 1 187 1 188 2 190 2 191 1 199 1 
200 2 202 3 203 10 216 2 217 2 218 476 219 54 220 18 232 133 233 37 
234 10 235 2 242 1 245 1 246 6 247 2 260 27 261 8 262 1 
