Name: Tyramine
CAS: 51-67-2
MW: 137
Formula: C8H11NO
Synonym: KEGG: C00483
Synonym: MassBank: KZ000078
Synonym: Tyramine
Structure: 31302031302020302020202020302020302020202020202020202020203939392056323030300A2020202D302E3232343120202020302E3238363220202020302E303030302043202020302020302020302020302020302020302020202020202020202020302020302020300A2020202D302E323130332020202D302E3533343520202020302E303030302043202020302020302020302020302020302020302020202020202020202020302020302020300A20202020302E3438363220202020302E3732303720202020302E303030302043202020302020302020302020302020302020302020202020202020202020302020302020300A2020202D302E3934383320202020302E3638363220202020302E303030302043202020302020302020302020302020302020302020202020202020202020302020302020300A20202020302E353137322020202D302E3934313420202020302E303030302043202020302020302020302020302020302020302020202020202020202020302020302020300A20202020312E3231373220202020302E3331373220202020302E303030302043202020302020302020302020302020302020302020202020202020202020302020302020300A2020202D312E3635353220202020302E3235383620202020302E303030302043202020302020302020302020302020302020302020202020202020202020302020302020300A20202020312E323334352020202D302E3532343120202020302E303030302043202020302020302020302020302020302020302020202020202020202020302020302020300A2020202D322E3337353920202020302E3635383620202020302E30303030204E202020302020302020302020302020302020302020202020202020202020302020302020300A20202020312E393535322020202D302E3932343120202020302E30303030204F202020302020302020302020302020302020302020202020202020202020302020302020300A2020312020322020322020302020202020302020300A2020312020332020312020302020202020302020300A2020312020342020312020302020202020302020300A2020322020352020312020302020202020302020300A2020332020362020322020302020202020302020300A2020342020372020312020302020202020302020300A2020352020382020322020302020202020302020300A2020372020392020312020302020202020302020300A2020382031302020312020302020202020302020300A2020362020382020312020302020202020302020300A4D2020454E44
Contributor: Ara T, Morishita Y, Shibata D, Kazusa DNA Research Institute
InstType: EI
InstName: Pegasus III TOF-MS system, Leco; GC 6890, Agilent Technologies
IoniMethod: EI
IonPolarity: pos
Date: 2010-10-09 19:48:36+02:00
Num Peaks: 108
82 6 83 4 84 15 85 11 86 417 87 40 88 16 89 19 90 14 91 29 
92 3 93 3 95 4 96 1 97 1 98 1 99 5 100 192 101 37 102 29 
103 17 104 8 105 16 106 2 107 5 109 3 111 1 113 6 114 5 115 11 
116 21 117 35 118 6 119 9 120 1 121 8 122 1 123 2 125 2 128 1 
129 3 130 46 131 30 132 8 133 17 134 4 135 15 136 2 137 2 143 2 
144 10 145 8 146 13 147 13 148 5 149 35 150 5 151 6 158 9 159 3 
160 4 161 5 162 6 163 14 164 10 165 9 166 1 169 1 172 10 173 3 
174 999 175 182 176 86 177 19 178 4 179 44 180 8 181 2 190 12 191 3 
192 4 193 9 194 2 195 2 205 1 206 1 207 8 208 2 209 1 221 2 
223 5 224 1 232 1 233 1 234 1 237 2 248 6 249 2 250 17 251 3 
252 1 264 12 265 3 266 1 337 2 338 24 339 7 340 2 
