Name: 1-Methylhistamine
CAS: 501-75-7
MW: 125
Formula: C6H11N3
Synonym: KEGG: C05127
Synonym: MassBank: KZ000170
Synonym: 1-Methylhistamine
Structure: 310A32340A2020392020392020302020202020302020302020202020202020202020203939392056323030300A20202020302E3232303720202020302E3234313420202020302E303030302043202020302020302020302020302020302020302020202020202020202020302020302020300A2020202D312E3037353920202020302E3234313420202020302E303030302043202020302020302020302020302020302020302020202020202020202020302020302020300A20202020302E323230372020202D302E3530363920202020302E30303030204E202020302020302020302020302020302020302020202020202020202020302020302020300A20202020302E3735313720202020302E3737323420202020302E303030302043202020302020302020302020302020302020302020202020202020202020302020302020300A2020202D312E303735392020202D302E3530363920202020302E30303030204E202020302020302020332020302020302020302020202020202020202020302020302020300A2020202D302E343331302020202D302E3838323820202020302E303030302043202020302020302020302020302020302020302020202020202020202020302020302020300A20202020312E3437353920202020302E3537393320202020302E303030302043202020302020302020302020302020302020302020202020202020202020302020302020300A2020202D322E303933312020202D312E3035313720202020302E303030302043202020302020302020302020302020302020302020202020202020202020302020302020300A20202020322E3030363920202020312E3131303320202020302E30303030204E202020302020302020302020302020302020302020202020202020202020302020302020300A2020312020322020322020302020202020302020300A2020312020332020312020302020202020302020300A2020312020342020312020302020202020302020300A2020322020352020312020302020202020302020300A2020332020362020322020302020202020302020300A2020342020372020312020302020202020302020300A2020352020382020312020302020202020302020300A2020372020392020312020302020202020302020300A2020352020362020312020302020202020302020300A4D2020454E44
Contributor: Ara T, Morishita Y, Shibata D, Kazusa DNA Research Institute
InstType: EI
InstName: Pegasus III TOF-MS system, Leco; GC 6890, Agilent Technologies
IoniMethod: EI
IonPolarity: pos
Date: 2010-10-09 19:48:36+02:00
Num Peaks: 110
82 12 83 16 84 30 85 23 86 747 87 82 88 36 89 2 90 2 91 1 
92 1 93 1 94 3 95 108 96 45 97 37 98 23 99 11 100 367 101 55 
102 37 103 6 104 2 107 8 108 10 109 17 110 9 111 5 112 53 113 20 
114 14 115 10 116 24 117 26 118 5 119 2 120 4 121 1 122 2 123 6 
124 4 125 6 126 29 127 13 128 5 129 3 130 91 131 25 132 14 133 3 
134 1 135 6 136 2 137 6 138 3 139 14 140 5 141 4 142 2 143 1 
144 5 145 1 146 37 147 12 148 4 149 2 150 4 151 5 152 2 153 12 
154 5 155 2 156 1 158 4 159 1 160 1 164 2 165 5 166 4 167 8 
168 116 169 23 170 12 171 2 172 12 173 4 174 999 175 206 176 102 177 13 
178 4 179 3 180 101 181 20 182 15 183 2 194 2 195 1 196 7 197 1 
224 1 225 1 238 2 252 3 253 2 254 168 255 46 256 18 257 3 268 1 
