Name: beta-Alanine
CAS: 107-95-9
MW: 89
Formula: C3H7NO2
Synonym: KEGG: C00099
Synonym: MassBank: KZ000082
Synonym: beta-Alanine
Structure: 310A31370A2020362020352020302020202020302020302020202020202020202020203939392056323030300A20202020302E313137322020202D302E3334343820202020302E303030302043202020302020302020302020302020302020302020202020202020202020302020302020300A2020202D302E3539363620202020302E3036393020202020302E303030302043202020302020302020302020302020302020302020202020202020202020302020302020300A20202020302E3833373920202020302E3036393020202020302E303030302043202020302020302020302020302020302020302020202020202020202020302020302020300A2020202D312E333137322020202D302E3334383320202020302E30303030204F202020302020302020302020302020302020302020202020202020202020302020302020300A2020202D302E3539363620202020302E3930303020202020302E30303030204F202020302020302020302020302020302020302020202020202020202020302020302020300A20202020312E353535322020202D302E3334343820202020302E30303030204E202020302020302020302020302020302020302020202020202020202020302020302020300A2020312020322020312020302020202020302020300A2020312020332020312020302020202020302020300A2020322020342020312020302020202020302020300A2020322020352020322020302020202020302020300A2020332020362020312020302020202020302020300A4D2020454E44
Contributor: Ara T, Morishita Y, Shibata D, Kazusa DNA Research Institute
InstType: EI
InstName: Pegasus III TOF-MS system, Leco; GC 6890, Agilent Technologies
IoniMethod: EI
IonPolarity: pos
Date: 2010-10-09 19:48:36+02:00
Num Peaks: 143
82 2 83 7 84 20 85 40 86 762 87 98 88 42 89 9 90 1 91 1 
93 1 95 12 96 3 97 3 98 9 99 120 100 623 101 123 102 83 103 43 
104 9 105 13 106 2 107 1 109 2 111 1 112 4 113 30 114 36 115 39 
116 51 117 101 118 18 119 32 120 5 121 2 125 1 126 3 127 1 128 6 
129 33 130 284 131 165 132 55 133 478 134 72 135 34 136 3 137 1 138 3 
139 1 140 2 141 1 142 28 143 7 144 12 145 7 146 93 147 971 148 162 
149 81 150 9 151 2 155 1 156 2 157 3 158 13 159 4 160 77 161 15 
162 7 163 4 164 1 171 2 172 26 173 28 174 999 175 217 176 104 177 13 
178 3 179 1 186 1 187 4 188 29 189 12 190 17 191 6 192 2 193 1 
200 4 201 1 202 18 203 4 204 21 205 9 206 3 207 1 214 2 215 1 
216 11 217 4 218 5 219 3 220 1 221 1 232 53 233 14 234 6 235 1 
248 530 249 180 250 96 251 21 252 5 253 1 262 1 265 1 266 1 267 1 
268 1 269 1 270 1 271 1 272 1 273 1 274 1 275 1 276 1 277 1 
278 1 279 1 288 8 289 5 290 146 291 58 292 27 293 7 294 1 304 32 
305 12 306 5 307 1 
