Name: L-Isoleucine
CAS: 73-32-5
MW: 131
Formula: C6H13NO2
Synonym: KEGG: C00407
Synonym: MassBank: KZ000233
Synonym: L-Isoleucine
Structure: 310A32330A200A200A200A2020392020382020302020302020312020302020302020302020302020303939392056323030300A20202032322E3439323220202D31372E3133393720202020302E303030302043202020302020302020312020302020302020302020302020302020302020302020302020300A20202032332E3637393620202D31362E3430323920202020302E303030302043202020302020302020322020302020302020302020302020302020302020302020302020300A20202032312E3235383120202D31362E3437383920202020302E303030302043202020302020302020302020302020302020302020302020302020302020302020302020300A20202032322E3533393120202D31382E3533373720202020302E30303030204E202020302020302020302020302020302020302020302020302020302020302020302020300A20202032342E3931333720202D31372E3036333720202020302E303030302043202020302020302020302020302020302020302020302020302020302020302020302020300A20202032332E3633383720202D31352E3030343920202020302E303030302043202020302020302020302020302020302020302020302020302020302020302020302020300A20202032302E3130303120202D31372E3237343220202020302E30303030204F202020302020302020302020302020302020302020302020302020302020302020302020300A20202032312E3238313520202D31352E3038303920202020302E30303030204F202020302020302020302020302020302020302020302020302020302020302020302020300A20202032362E3130363920202D31362E3332363820202020302E303030302043202020302020302020302020302020302020302020302020302020302020302020302020300A2020312020322020312020302020202020302020300A2020312020332020312020302020202020302020300A2020312020342020312020362020202020302020300A2020322020352020312020302020202020302020300A2020322020362020312020312020202020302020300A2020332020372020312020302020202020302020300A2020332020382020322020302020202020302020300A2020352020392020312020302020202020302020300A4D2020454E44
Contributor: Ara T, Morishita Y, Shibata D, Kazusa DNA Research Institute
InstType: EI
InstName: Pegasus III TOF-MS system, Leco; GC 6890, Agilent Technologies
IoniMethod: EI
IonPolarity: pos
Date: 2010-10-09 19:48:36+02:00
Num Peaks: 88
82 5 83 4 84 14 85 11 86 29 87 10 88 4 89 2 90 9 91 1 
92 1 95 1 96 8 97 6 98 12 99 8 100 149 101 35 102 85 103 28 
104 6 105 6 110 1 112 5 113 3 114 22 115 13 116 9 117 12 118 5 
119 5 120 1 126 3 127 2 128 24 129 20 130 23 131 22 132 33 133 43 
134 10 135 5 140 1 142 18 143 15 144 8 145 2 146 9 147 153 148 30 
149 19 150 1 152 1 157 1 158 999 159 167 160 86 161 11 162 1 163 5 
164 2 170 15 171 5 172 2 173 1 174 5 175 1 176 2 177 1 186 1 
192 1 202 1 203 7 204 2 205 1 216 4 217 2 218 396 219 79 220 46 
221 7 222 1 232 27 233 20 234 9 235 3 261 1 262 1 
