Name: Amantadine
CAS: 768-94-5
MW: 151
Formula: C10H17N
Synonym: KEGG: C06818
Synonym: MassBank: KZ000109
Synonym: Amantadine
Structure: 31312031332020302020302020302020302020302020302020302020303939392056323030300A20202032362E3130343320202D31362E3131373220202020302E303030302043202020302020302020332020302020302020302020302020302020302020302020302020300A20202032352E3035393820202D31362E3731383220202020302E303030302043202020302020302020302020302020302020302020302020302020302020302020302020300A20202032352E3438353920202D31372E3538313620202020302E303030302043202020302020302020302020302020302020302020302020302020302020302020302020300A20202032372E3134383520202D31362E3731383220202020302E303030302043202020302020302020302020302020302020302020302020302020302020302020302020300A20202032362E3131303020202D31342E3930333820202020302E30303030204E202020302020302020302020302020302020302020302020302020302020302020302020300A20202032352E3035393820202D31372E3932303020202020302E303030302043202020302020302020332020302020302020302020302020302020302020302020302020300A20202032352E3438353920202D31382E3639353920202020302E303030302043202020302020302020332020302020302020302020302020302020302020302020302020300A20202032372E3134383520202D31372E3932303020202020302E303030302043202020302020302020332020302020302020302020302020302020302020302020302020300A20202032332E3737363320202D31392E3136323820202020302E303030302043202020302020302020302020302020302020302020302020302020302020302020302020300A20202032362E3130343320202D31382E3532363820202020302E303030302043202020302020302020302020302020302020302020302020302020302020302020302020300A20202032362E3634313020202D31392E3736393520202020302E303030302043202020302020302020302020302020302020302020302020302020302020302020302020300A2020312020322020312020302020202020302020300A2020312020332020312020302020202020302020300A2020312020342020312020302020202020302020300A2020312020352020312020302020202020302020300A2020322020362020312020302020202020302020300A2020332020372020312020302020202020302020300A2020342020382020312020302020202020302020300A2020362020392020312020302020202020302020300A2020362031302020312020302020202020302020300A2020372031312020312020302020202020302020300A2020372020392020312020302020202020302020300A2020382031302020312020302020202020302020300A2020382031312020312020302020202020302020300A4D2020454E44
Contributor: Ara T, Morishita Y, Shibata D, Kazusa DNA Research Institute
InstType: EI
InstName: Pegasus III TOF-MS system, Leco; GC 6890, Agilent Technologies
IoniMethod: EI
IonPolarity: pos
Date: 2010-10-09 19:48:36+02:00
Num Peaks: 104
82 11 83 14 84 18 85 15 86 9 87 2 88 4 89 2 90 2 91 75 
92 14 93 78 94 52 95 19 96 9 97 10 98 26 99 9 100 21 101 4 
102 4 103 3 104 5 105 12 106 8 107 19 108 16 109 8 110 14 111 5 
112 10 113 12 114 79 115 21 116 6 117 3 118 1 119 4 120 8 121 4 
122 3 123 4 124 9 125 4 126 11 127 3 128 6 129 149 130 22 131 8 
132 4 133 5 134 13 135 25 136 15 137 3 138 7 139 5 140 7 141 3 
142 2 143 1 146 2 147 1 148 11 149 6 150 285 151 51 152 30 153 10 
154 9 155 3 156 1 157 1 158 1 159 1 160 1 161 1 162 2 163 2 
164 15 165 8 166 999 167 204 168 56 169 7 170 1 178 2 179 2 180 49 
181 12 182 6 183 1 192 1 194 1 206 2 207 1 208 118 209 22 210 6 
222 4 223 111 224 22 225 6 
