Name: Pentachlorophenol
CAS: 87-86-5
MW: 87
Formula: C6HCl5O
Synonym: KEGG: C02575
Synonym: MassBank: KZ000091
Synonym: Pentachlorophenol
Structure: 31322031322020302020202020302020302020202020202020202020203939392056323030300A20202020302E3635353220202020302E3337393320202020302E303030302043202020302020302020302020302020302020302020202020202020202020302020302020300A20202020302E363535322020202D302E3337393320202020302E303030302043202020302020302020302020302020302020302020202020202020202020302020302020300A2020202D302E3030333420202020302E3735353220202020302E303030302043202020302020302020302020302020302020302020202020202020202020302020302020300A20202020312E3330333520202020302E3735353220202020302E30303030204F202020302020302020302020302020302020302020202020202020202020302020302020300A2020202D302E303033342020202D302E3736323120202020302E303030302043202020302020302020302020302020302020302020202020202020202020302020302020300A20202020312E333036392020202D302E3735313720202020302E3030303020436C2020302020302020302020302020302020302020202020202020202020302020302020300A2020202D302E3635313720202020302E3337393320202020302E303030302043202020302020302020302020302020302020302020202020202020202020302020302020300A2020202D302E3030333420202020312E3530333520202020302E3030303020436C2020302020302020302020302020302020302020202020202020202020302020302020300A2020202D302E363531372020202D302E3337393320202020302E303030302043202020302020302020302020302020302020302020202020202020202020302020302020300A2020202D302E303033342020202D312E3531303320202020302E3030303020436C2020302020302020302020302020302020302020202020202020202020302020302020300A2020202D312E3330303020202020302E3735353220202020302E3030303020436C2020302020302020302020302020302020302020202020202020202020302020302020300A2020202D312E333033352020202D302E3735313720202020302E3030303020436C2020302020302020302020302020302020302020202020202020202020302020302020300A2020312020322020322020302020202020302020300A2020312020332020312020302020202020302020300A2020312020342020312020302020202020302020300A2020322020352020312020302020202020302020300A2020322020362020312020302020202020302020300A2020332020372020322020302020202020302020300A2020332020382020312020302020202020302020300A2020352020392020322020302020202020302020300A2020352031302020312020302020202020302020300A2020372031312020312020302020202020302020300A2020392031322020312020302020202020302020300A2020372020392020312020302020202020302020300A4D2020454E44
Contributor: Ara T, Morishita Y, Shibata D, Kazusa DNA Research Institute
InstType: EI
InstName: Pegasus III TOF-MS system, Leco; GC 6890, Agilent Technologies
IoniMethod: EI
IonPolarity: pos
Date: 2010-10-09 19:48:36+02:00
Num Peaks: 182
82 6 83 12 84 5 85 11 86 5 87 17 88 5 89 16 90 4 91 2 
92 18 93 999 94 49 95 411 96 38 97 44 98 15 99 21 100 4 101 26 
102 6 103 1 104 6 106 6 107 18 109 17 111 7 112 3 113 49 114 6 
115 33 117 8 118 7 119 1 120 4 121 1 122 3 123 3 124 1 125 5 
126 5 128 2 129 1 130 16 133 3 134 12 135 26 137 12 139 2 141 6 
142 9 143 15 145 10 146 2 147 12 148 1 150 1 151 1 154 1 155 2 
158 3 159 3 160 3 161 4 162 3 163 1 164 2 167 41 168 6 169 32 
170 2 171 8 172 3 173 4 174 1 175 2 177 5 181 4 182 1 184 1 
188 2 189 1 190 1 191 6 192 2 193 6 195 1 198 2 200 8 201 1 
202 6 203 3 204 3 205 2 206 1 212 3 214 3 215 17 216 4 217 11 
218 2 219 3 220 2 223 1 228 7 229 18 230 1 231 16 232 5 233 3 
234 2 235 6 237 14 239 17 241 6 243 3 247 1 248 1 249 3 250 7 
251 15 252 10 253 15 254 5 255 5 256 4 257 2 259 1 260 1 261 1 
263 1 264 7 265 2 266 7 267 6 268 6 269 2 270 2 275 1 276 1 
285 11 286 21 287 18 288 23 289 16 290 10 291 11 292 7 293 3 294 2 
295 1 297 1 301 1 302 1 303 2 305 2 308 2 309 1 311 1 315 1 
320 7 321 268 322 37 323 510 324 65 325 346 326 48 327 142 328 16 329 26 
330 2 331 3 333 1 336 70 337 4 338 123 339 16 340 92 341 9 342 28 
343 3 344 7 
