Name: L-Homoserine
CAS: 672-15-1
MW: 119
Formula: C4H9NO3
Synonym: KEGG: C00263
Synonym: MassBank: KZ000228
Synonym: L-Homoserine
Structure: 310A32300A2020382020372020302020302020312020302020302020302020302020302020312056323030300A20202031392E323537392020202D362E3732383720202020302E303030302043202020302020302020302020302020302020302020302020302020302020302020302020300A20202031392E393735312020202D362E3331343920202020302E303030302043202020302020302020302020302020302020302020302020302020302020302020302020300A20202031382E353430362020202D362E3331343920202020302E303030302043202020302020302020302020302020302020302020302020302020302020302020302020300A20202031392E323537392020202D372E3535363320202020302E30303030204E202020302020302020302020302020302020302020302020302020302020302020302020300A20202032302E363932342020202D362E3732383720202020302E303030302043202020302020302020302020302020302020302020302020302020302020302020302020300A20202031372E353637302020202D362E3837323920202020302E30303030204F202020302020302020302020302020302020302020302020302020302020302020302020300A20202031382E353430362020202D352E3438373320202020302E30303030204F202020302020302020302020302020302020302020302020302020302020302020302020300A20202032312E343039362020202D362E3331343920202020302E30303030204F202020302020302020302020302020302020302020302020302020302020302020302020300A2020312020322020312020302020302020302020300A2020312020332020312020302020302020302020300A2020312020342020312020362020302020302020300A2020322020352020312020302020302020302020300A2020332020362020312020302020302020302020300A2020332020372020322020302020302020302020300A2020352020382020312020302020302020302020300A4D2020454E44
Contributor: Ara T, Morishita Y, Shibata D, Kazusa DNA Research Institute
InstType: EI
InstName: Pegasus III TOF-MS system, Leco; GC 6890, Agilent Technologies
IoniMethod: EI
IonPolarity: pos
Date: 2010-10-09 19:48:36+02:00
Num Peaks: 130
82 7 83 12 84 41 85 20 86 42 87 37 88 14 89 16 90 3 91 2 
92 1 93 1 95 1 96 4 97 4 98 45 99 13 100 320 101 102 102 167 
103 887 104 101 105 54 106 4 107 1 110 5 111 2 112 26 113 11 114 53 
115 39 116 23 117 48 118 14 119 25 120 3 121 2 126 8 127 4 128 999 
129 168 130 183 131 161 132 87 133 179 134 32 135 19 136 2 137 1 140 5 
141 2 142 12 143 5 144 20 145 6 146 40 147 416 148 88 149 88 150 13 
151 5 156 14 157 7 158 31 159 11 160 8 161 5 162 2 163 6 164 1 
165 1 170 1 171 1 172 26 173 9 174 61 175 19 176 15 177 16 178 3 
179 1 184 2 185 1 186 5 187 2 188 16 189 7 190 5 191 9 192 2 
193 3 194 1 200 4 201 1 202 63 203 15 204 11 205 2 206 1 214 1 
215 1 216 21 217 13 218 919 219 205 220 101 221 20 222 4 223 1 230 51 
231 12 232 19 233 4 234 2 245 5 246 4 247 4 248 1 290 3 291 2 
292 55 293 20 294 9 295 2 320 20 321 6 322 3 335 7 336 2 337 1 
