Name: L-Valine
CAS: 72-18-4
MW: 117
Formula: C5H11NO2
Synonym: KEGG: C00183
Synonym: MassBank: KZ000240
Synonym: L-Valine
Structure: 310A32310A200A200A200A2020382020372020302020302020312020302020302020302020302020303939392056323030300A20202032342E3835303020202D31392E3037363420202020302E303030302043202020302020302020312020302020302020302020302020302020302020302020302020300A20202032362E3036363620202D31382E3338303420202020302E303030302043202020302020302020332020302020302020302020302020302020302020302020302020300A20202032332E3633333420202D31382E3336323920202020302E303030302043202020302020302020302020302020302020302020302020302020302020302020302020300A20202032342E3834343220202D32302E3438303220202020302E30303030204E202020302020302020302020302020302020302020302020302020302020302020302020300A20202032372E3237313620202D31392E3038383120202020302E303030302043202020302020302020302020302020302020302020302020302020302020302020302020300A20202032362E3037323520202D31362E3938323520202020302E303030302043202020302020302020302020302020302020302020302020302020302020302020302020300A20202032322E3432323620202D31392E3035383920202020302E30303030204F202020302020302020302020302020302020302020302020302020302020302020302020300A20202032332E3633393220202D31362E3937303720202020302E30303030204F202020302020302020302020302020302020302020302020302020302020302020302020300A2020312020322020312020302020202020302020300A2020312020332020312020302020202020302020300A2020312020342020312020362020202020302020300A2020322020352020312020302020202020302020300A2020322020362020312020302020202020302020300A2020332020372020312020302020202020302020300A2020332020382020322020302020202020302020300A4D2020454E44
Contributor: Ara T, Morishita Y, Shibata D, Kazusa DNA Research Institute
InstType: EI
InstName: Pegasus III TOF-MS system, Leco; GC 6890, Agilent Technologies
IoniMethod: EI
IonPolarity: pos
Date: 2010-10-09 19:48:36+02:00
Num Peaks: 74
82 12 83 9 84 16 85 13 86 31 87 11 88 6 89 4 90 1 96 4 
97 3 98 10 99 8 100 162 101 33 102 18 103 31 104 4 105 5 106 1 
108 1 110 2 111 1 112 11 113 5 114 23 115 12 116 5 117 15 118 5 
119 6 120 1 121 1 126 1 128 26 129 15 130 15 131 18 132 25 133 31 
134 6 135 3 142 11 143 6 144 999 145 188 146 80 147 245 148 48 149 28 
150 2 151 1 156 28 157 7 158 5 159 7 160 7 161 2 163 5 172 2 
174 6 175 2 202 1 203 6 204 1 218 204 219 56 220 30 221 6 222 1 
230 1 246 10 247 3 248 1 
