Name: L-Serine
CAS: 56-45-1
MW: 105
Formula: C3H7NO3
Synonym: KEGG: C00065
Synonym: MassBank: KZ000053
Synonym: L-Serine
Structure: 310A31390A200A200A200A2020372020362020302020302020312020302020302020302020302020303939392056323030300A20202032332E3539363120202D31372E3533353720202020302E303030302043202020302020302020322020302020302020302020302020302020302020302020302020300A20202032322E3434343520202D31362E3738373320202020302E303030302043202020302020302020302020302020302020302020302020302020302020302020302020300A20202032342E3832333820202D31362E3835313820202020302E303030302043202020302020302020302020302020302020302020302020302020302020302020302020300A20202032332E3633373020202D31382E3933383820202020302E30303030204E202020302020302020302020302020302020302020302020302020302020302020302020300A20202032312E3232323620202D31372E3437313420202020302E30303030204F202020302020302020302020302020302020302020302020302020302020302020302020300A20202032322E3436373720202D31352E3337383520202020302E30303030204F202020302020302020302020302020302020302020302020302020302020302020302020300A20202032362E3033333920202D31372E3537303820202020302E30303030204F202020302020302020302020302020302020302020302020302020302020302020302020300A2020312020322020312020302020202020302020300A2020312020332020312020302020202020302020300A2020312020342020312020362020202020302020300A2020322020352020312020302020202020302020300A2020322020362020322020302020202020302020300A2020332020372020312020302020202020302020300A4D2020454E44
Contributor: Ara T, Morishita Y, Shibata D, Kazusa DNA Research Institute
InstType: EI
InstName: Pegasus III TOF-MS system, Leco; GC 6890, Agilent Technologies
IoniMethod: EI
IonPolarity: pos
Date: 2010-10-09 19:48:36+02:00
Num Peaks: 127
82 4 83 5 84 21 85 21 86 66 87 35 88 76 89 55 90 8 91 4 
92 1 95 1 96 2 97 1 98 19 99 15 100 974 101 185 102 85 103 187 
104 22 105 24 106 3 107 2 111 1 112 3 113 15 114 147 115 113 116 294 
117 167 118 42 119 42 120 7 121 5 126 1 128 12 129 15 130 92 131 119 
132 153 133 279 134 51 135 32 136 4 137 1 138 1 141 1 142 11 143 9 
144 38 145 10 146 30 147 717 148 134 149 81 150 10 151 3 156 2 157 2 
158 24 159 24 160 16 161 5 162 8 163 34 164 6 165 3 172 28 173 7 
174 45 175 16 176 6 177 3 178 1 186 1 187 1 188 171 189 71 190 32 
191 12 192 3 193 1 196 1 197 1 198 1 199 1 200 2 202 3 203 23 
204 999 205 221 206 96 207 13 208 3 209 1 216 34 217 12 218 570 219 134 
220 65 221 16 222 5 223 2 230 1 231 2 232 2 233 2 234 1 235 1 
246 1 260 1 262 4 263 1 264 1 277 1 278 113 279 38 280 19 281 4 
282 1 291 1 292 1 306 50 307 14 308 7 309 1 
