Name: L-Leucine
CAS: 61-90-5
MW: 131
Formula: C6H13NO2
Synonym: KEGG: C00123
Synonym: MassBank: KZ000159
Synonym: L-Leucine
Structure: 310A32330A200A200A200A2020392020382020302020302020312020302020302020302020302020303939392056323030300A20202032352E3037363120202D31392E3431333820202020302E303030302043202020302020302020312020302020302020302020302020302020302020302020302020300A20202032362E3236333320202D31382E3637363920202020302E303030302043202020302020302020302020302020302020302020302020302020302020302020302020300A20202032332E3834323020202D31382E3735383620202020302E303030302043202020302020302020302020302020302020302020302020302020302020302020302020300A20202032352E3132323920202D32302E3831373320202020302E30303030204E202020302020302020302020302020302020302020302020302020302020302020302020300A20202032372E3439373420202D31392E3333373720202020302E303030302043202020302020302020332020302020302020302020302020302020302020302020302020300A20202032322E3638343120202D31392E3534383320202020302E30303030204F202020302020302020302020302020302020302020302020302020302020302020302020300A20202032332E3836353420202D31372E3335353120202020302E30303030204F202020302020302020302020302020302020302020302020302020302020302020302020300A20202032382E3638343620202D31382E3630303720202020302E303030302043202020302020302020302020302020302020302020302020302020302020302020302020300A20202032372E3534343220202D32302E3733353620202020302E303030302043202020302020302020302020302020302020302020302020302020302020302020302020300A2020312020322020312020302020202020302020300A2020312020332020312020302020202020302020300A2020312020342020312020362020202020302020300A2020322020352020312020302020202020302020300A2020332020362020312020302020202020302020300A2020332020372020322020302020202020302020300A2020352020382020312020302020202020302020300A2020352020392020312020302020202020302020300A4D2020454E44
Contributor: Ara T, Morishita Y, Shibata D, Kazusa DNA Research Institute
InstType: EI
InstName: Pegasus III TOF-MS system, Leco; GC 6890, Agilent Technologies
IoniMethod: EI
IonPolarity: pos
Date: 2010-10-09 19:48:36+02:00
Num Peaks: 77
82 4 83 3 84 14 85 6 86 31 87 6 88 3 89 2 91 1 93 1 
94 1 95 1 96 4 97 2 98 5 99 9 100 83 101 14 102 189 103 35 
104 7 105 4 110 1 111 1 112 3 113 2 114 5 115 28 116 38 117 15 
118 3 119 4 126 2 127 1 128 18 129 6 130 29 131 15 132 15 133 29 
134 5 135 2 142 16 143 4 144 3 145 1 146 3 147 92 148 15 149 7 
156 5 157 3 158 999 159 119 160 34 161 3 163 1 170 8 171 2 172 1 
174 3 175 1 176 2 177 2 188 1 202 1 203 2 204 1 218 22 219 4 
220 1 231 1 232 29 233 7 234 2 260 6 261 1 
