Name: Stearic acid
CAS: 57-11-4
MW: 284
Formula: C18H36O2
Synonym: KEGG: C01530
Synonym: MassBank: KZ000270
Synonym: Stearic acid
Structure: 32302031392020302020302020302020302020302020302020302020303939392056323030300A20202031392E3731313620202D31362E3439383420202020302E303030302043202020302020302020302020302020302020302020302020302020302020302020302020300A20202032302E3932383320202D31372E3139323820202020302E303030302043202020302020302020302020302020302020302020302020302020302020302020302020300A20202031382E3438383920202D31372E3139323820202020302E303030302043202020302020302020302020302020302020302020302020302020302020302020302020300A20202032322E3133383820202D31362E3439383420202020302E303030302043202020302020302020302020302020302020302020302020302020302020302020302020300A20202031372E3237383420202D31362E3439383420202020302E303030302043202020302020302020302020302020302020302020302020302020302020302020302020300A20202032332E3335353620202D31372E3139323820202020302E303030302043202020302020302020302020302020302020302020302020302020302020302020302020300A20202031362E3036313820202D31372E3139323820202020302E303030302043202020302020302020302020302020302020302020302020302020302020302020302020300A20202032342E3536363020202D31362E3439383420202020302E303030302043202020302020302020302020302020302020302020302020302020302020302020302020300A20202031342E3835313320202D31362E3439383420202020302E303030302043202020302020302020302020302020302020302020302020302020302020302020302020300A20202032352E3738383820202D31372E3139323820202020302E303030302043202020302020302020302020302020302020302020302020302020302020302020302020300A20202031332E3632383620202D31372E3139323820202020302E303030302043202020302020302020302020302020302020302020302020302020302020302020302020300A20202032362E3939393320202D31362E3439383420202020302E303030302043202020302020302020302020302020302020302020302020302020302020302020302020300A20202031322E3431373920202D31362E3439383420202020302E303030302043202020302020302020302020302020302020302020302020302020302020302020302020300A20202032382E3231363020202D31372E3139323820202020302E303030302043202020302020302020302020302020302020302020302020302020302020302020302020300A20202031312E3230313320202D31372E3139383920202020302E30303030204F202020302020302020302020302020302020302020302020302020302020302020302020300A20202032392E3432363420202D31362E3439383420202020302E303030302043202020302020302020302020302020302020302020302020302020302020302020302020300A20202033302E3634393320202D31372E3139323820202020302E303030302043202020302020302020302020302020302020302020302020302020302020302020302020300A20202033312E3835393820202D31362E3439383420202020302E303030302043202020302020302020302020302020302020302020302020302020302020302020302020300A20202033332E3037363320202D31372E3139323820202020302E303030302043202020302020302020302020302020302020302020302020302020302020302020302020300A20202031322E3431363720202D31352E3039353820202020302E30303030204F202020302020302020302020302020302020302020302020302020302020302020302020300A2031382031392020312020302020202020302020300A2020312020322020312020302020202020302020300A2020312020332020312020302020202020302020300A2020322020342020312020302020202020302020300A2020332020352020312020302020202020302020300A2020342020362020312020302020202020302020300A2020352020372020312020302020202020302020300A2020362020382020312020302020202020302020300A2020372020392020312020302020202020302020300A2020382031302020312020302020202020302020300A2020392031312020312020302020202020302020300A2031302031322020312020302020202020302020300A2031312031332020312020302020202020302020300A2031322031342020312020302020202020302020300A2031332031352020312020302020202020302020300A2031342031362020312020302020202020302020300A2031362031372020312020302020202020302020300A2031372031382020312020302020202020302020300A2031332032302020322020302020202020302020300A4D2020454E44
Contributor: Ara T, Morishita Y, Shibata D, Kazusa DNA Research Institute
InstType: EI
InstName: Pegasus III TOF-MS system, Leco; GC 6890, Agilent Technologies
IoniMethod: EI
IonPolarity: pos
Date: 2010-10-09 19:48:36+02:00
Num Peaks: 137
82 17 83 102 84 40 85 41 86 14 87 11 88 7 89 30 90 4 91 9 
92 1 93 24 94 4 95 71 96 12 97 70 98 51 99 26 100 3 101 14 
102 4 103 4 105 27 106 2 107 11 108 1 109 20 110 4 111 28 112 13 
113 5 114 2 115 9 116 63 117 999 118 101 119 42 120 2 121 11 122 2 
123 7 124 3 125 8 126 4 127 5 128 4 129 456 130 61 131 165 132 389 
133 84 134 20 135 10 136 1 137 2 138 1 139 4 140 3 141 3 142 2 
143 37 144 4 145 253 146 33 147 13 148 1 149 4 151 1 153 2 154 5 
155 3 157 9 158 1 159 23 160 3 161 1 163 1 167 2 168 2 169 1 
171 18 172 3 173 6 174 3 181 2 185 27 186 2 187 17 188 5 189 1 
195 1 199 6 200 1 201 48 202 8 203 2 210 1 213 5 214 1 215 6 
216 1 223 3 227 6 228 1 229 3 230 1 241 6 242 1 243 6 244 2 
255 4 256 1 257 10 258 2 269 1 271 4 272 1 283 1 285 1 297 8 
298 3 299 3 300 1 311 1 313 8 314 3 315 1 327 1 340 7 341 140 
342 39 343 10 344 1 355 1 356 12 357 3 358 1 
