Name: Nicotinamide
CAS: 98-92-0
MW: 122
Formula: C6H6N2O
Synonym: KEGG: C00153
Synonym: MassBank: KZ000064
Synonym: Nicotinamide
Structure: 310A32340A200A200A200A2020392020392020302020302020302020302020302020302020302020303939392056323030300A20202032352E3133303020202D31372E3031303020202020302E303030302043202020302020302020302020302020302020302020302020302020302020302020302020300A20202032332E3837303020202D31362E3331303020202020302E303030302043202020302020302020302020302020302020302020302020302020302020302020302020300A20202032352E3133303020202D31382E3431303020202020302E303030302043202020302020302020302020302020302020302020302020302020302020302020302020300A20202032362E3332303020202D31362E3331303020202020302E303030302043202020302020302020302020302020302020302020302020302020302020302020302020300A20202032322E3638303020202D31372E3031303020202020302E303030302043202020302020302020302020302020302020302020302020302020302020302020302020300A20202032332E3837303020202D31392E3131303020202020302E30303030204E202020302020302020302020302020302020302020302020302020302020302020302020300A20202032372E3531303020202D31372E3031303020202020302E30303030204E202020302020302020302020302020302020302020302020302020302020302020302020300A20202032362E3332303020202D31342E3931303020202020302E30303030204F202020302020302020302020302020302020302020302020302020302020302020302020300A20202032322E3638303020202D31382E3431303020202020302E303030302043202020302020302020302020302020302020302020302020302020302020302020302020300A2020312020322020312020302020202020302020300A2020312020332020322020302020202020302020300A2020312020342020312020302020202020302020300A2020322020352020322020302020202020302020300A2020332020362020312020302020202020302020300A2020342020372020312020302020202020302020300A2020342020382020322020302020202020302020300A2020352020392020312020302020202020302020300A2020362020392020322020302020202020302020300A4D2020454E44
Contributor: Ara T, Morishita Y, Shibata D, Kazusa DNA Research Institute
InstType: EI
InstName: Pegasus III TOF-MS system, Leco; GC 6890, Agilent Technologies
IoniMethod: EI
IonPolarity: pos
Date: 2010-10-09 19:48:36+02:00
Num Peaks: 66
82 9 83 6 84 5 85 3 86 6 87 1 88 1 89 5 90 5 91 3 
92 6 93 11 94 11 95 3 96 1 97 1 100 34 101 2 102 4 103 17 
104 331 105 181 106 49 107 7 108 5 109 5 110 3 116 1 118 4 119 13 
120 10 121 3 122 25 123 2 124 1 131 2 132 2 133 1 134 7 135 7 
136 416 137 37 138 6 147 4 148 1 149 4 150 7 151 5 152 1 161 4 
162 1 163 11 164 2 165 5 166 2 175 11 176 1 177 2 178 4 179 999 
180 90 181 8 192 1 193 64 194 29 195 2 
