Name: 4-Aminobutyric acid
CAS: 56-12-2
MW: 103
Formula: C4H9NO2
Synonym: KEGG: C00334
Synonym: MassBank: KZ000097
Synonym: 4-Aminobutyric acid
Structure: 310A31390A200A200A200A2020372020362020302020302020302020302020302020302020302020303939392056323030300A20202032312E3833373620202D31382E3337383720202020302E303030302043202020302020302020302020302020302020302020302020302020302020302020302020300A20202032332E3034373820202D31372E3637373020202020302E303030302043202020302020302020302020302020302020302020302020302020302020302020302020300A20202032302E3632373420202D31372E3637373020202020302E303030302043202020302020302020302020302020302020302020302020302020302020302020302020300A20202032342E3235383020202D31382E3338353020202020302E30303030204F202020302020302020302020302020302020302020302020302020302020302020302020300A20202032332E3034373820202D31362E3238303320202020302E30303030204F202020302020302020302020302020302020302020302020302020302020302020302020300A20202031392E3431303820202D31382E3337383720202020302E303030302043202020302020302020302020302020302020302020302020302020302020302020302020300A20202031382E3230303620202D31372E3637373020202020302E30303030204E202020302020302020302020302020302020302020302020302020302020302020302020300A2020312020322020312020302020202020302020300A2020312020332020312020302020202020302020300A2020322020342020312020302020202020302020300A2020322020352020322020302020202020302020300A2020332020362020312020302020202020302020300A2020362020372020312020302020202020302020300A4D2020454E44
Contributor: Ara T, Morishita Y, Shibata D, Kazusa DNA Research Institute
InstType: EI
InstName: Pegasus III TOF-MS system, Leco; GC 6890, Agilent Technologies
IoniMethod: EI
IonPolarity: pos
Date: 2010-10-09 19:48:36+02:00
Num Peaks: 101
82 3 83 4 84 11 85 20 86 281 87 39 88 16 89 7 90 1 96 1 
97 3 98 13 99 23 100 163 101 34 102 28 103 12 104 3 105 3 110 2 
111 1 112 14 113 13 114 26 115 21 116 23 117 33 118 7 119 10 120 1 
121 1 124 2 125 1 126 3 127 2 128 12 129 12 130 57 131 51 132 17 
133 75 134 12 135 7 136 1 140 19 141 4 142 71 143 75 144 22 145 9 
146 28 147 369 148 73 149 41 150 5 151 1 154 1 156 20 157 7 158 12 
159 3 160 3 161 1 170 5 171 2 172 46 173 10 174 999 175 194 176 88 
177 11 178 2 186 2 187 2 188 1 189 1 190 1 198 1 200 3 201 1 
204 2 205 1 214 11 215 3 216 50 217 11 218 6 219 4 220 1 230 4 
231 1 232 1 246 19 247 5 248 2 288 1 303 8 304 57 305 28 306 14 
307 3 
