Name: L-Aspartic acid
CAS: 56-84-8
MW: 133
Formula: C4H7NO4
Synonym: KEGG: C00049
Synonym: MassBank: KZ000151
Synonym: L-Aspartic acid
Structure: 310A32330A200A200A200A2020392020382020302020302020312020302020302020302020302020303939392056323030300A20202032392E3035303020202D31372E3530303020202020302E30303030204F202020302020302020302020302020302020302020302020302020302020302020302020300A20202033302E3234303020202D31362E3830303020202020302E303030302043202020302020302020302020302020302020302020302020302020302020302020302020300A20202033312E3530303020202D31372E3530303020202020302E303030302043202020302020302020302020302020302020302020302020302020302020302020302020300A20202033322E3639303020202D31362E3830303020202020302E303030302043202020302020302020302020302020302020302020302020302020302020302020302020300A20202033332E3838303020202D31372E3530303020202020302E303030302043202020302020302020302020302020302020302020302020302020302020302020302020300A20202033352E3134303020202D31362E3830303020202020302E30303030204F202020302020302020302020302020302020302020302020302020302020302020302020300A20202033302E3234303020202D31352E3430303020202020302E30303030204F202020302020302020302020302020302020302020302020302020302020302020302020300A20202033312E3530303020202D31382E3930303020202020302E30303030204E202020302020302020302020302020302020302020302020302020302020302020302020300A20202033332E3838303020202D31382E3930303020202020302E30303030204F202020302020302020302020302020302020302020302020302020302020302020302020300A2020312020322020312020302020202020302020300A2020322020332020312020302020202020302020300A2020332020342020312020302020202020302020300A2020342020352020312020302020202020302020300A2020352020362020312020302020202020302020300A2020322020372020322020302020202020302020300A2020332020382020312020362020202020302020300A2020352020392020322020302020202020302020300A4D2020454E44
Contributor: Ara T, Morishita Y, Shibata D, Kazusa DNA Research Institute
InstType: EI
InstName: Pegasus III TOF-MS system, Leco; GC 6890, Agilent Technologies
IoniMethod: EI
IonPolarity: pos
Date: 2010-10-09 19:48:36+02:00
Num Peaks: 137
82 5 83 10 84 41 85 17 86 40 87 16 88 10 89 11 90 2 91 4 
92 3 93 24 94 2 95 9 96 3 97 3 98 32 99 27 100 789 101 110 
102 46 103 55 104 6 105 9 106 1 108 1 110 2 111 1 112 3 113 6 
114 15 115 46 116 28 117 160 118 19 119 29 120 3 121 2 124 1 126 5 
127 2 128 20 129 17 130 68 131 59 132 45 133 133 134 21 135 12 136 1 
140 3 141 2 142 42 143 15 144 16 145 5 146 14 147 398 148 62 149 58 
150 7 151 3 152 1 154 3 155 1 156 2 157 2 158 9 159 6 160 14 
161 6 162 2 163 42 164 7 165 3 168 1 169 1 170 4 171 5 172 23 
173 7 174 39 175 8 176 7 177 8 178 1 179 1 184 3 185 1 186 2 
187 1 188 111 189 23 190 12 191 7 192 1 193 1 200 3 201 1 202 89 
203 14 204 22 205 8 206 3 207 2 208 1 214 2 215 3 216 49 217 11 
218 175 219 34 220 15 221 11 222 2 223 1 230 8 231 8 232 999 233 150 
234 70 235 8 236 1 244 8 245 11 246 5 247 1 262 1 291 1 292 3 
293 1 305 1 306 8 307 1 333 1 334 1 349 1 
