Name: Spermine
CAS: 71-44-3
MW: 202
Formula: C10H26N4
Synonym: KEGG: C00750
Synonym: MassBank: KZ000269
Synonym: Spermine
Structure: 31342031332020302020302020302020302020302020302020302020303939392056323030300A20202032302E3538303020202D31372E3038303020202020302E30303030204E202020302020302020302020302020302020302020302020302020302020302020302020300A20202032312E3739323420202D31362E3338303020202020302E303030302043202020302020302020302020302020302020302020302020302020302020302020302020300A20202032332E3030343920202D31372E3038303020202020302E303030302043202020302020302020302020302020302020302020302020302020302020302020302020300A20202032342E3231373320202D31362E3338303020202020302E303030302043202020302020302020302020302020302020302020302020302020302020302020302020300A20202032352E3432393720202D31372E3038303020202020302E30303030204E202020302020302020302020302020302020302020302020302020302020302020302020300A20202032362E3634323220202D31362E3338303020202020302E303030302043202020302020302020302020302020302020302020302020302020302020302020302020300A20202032372E3835343620202D31372E3038303020202020302E303030302043202020302020302020302020302020302020302020302020302020302020302020302020300A20202032392E3036373020202D31362E3338303020202020302E303030302043202020302020302020302020302020302020302020302020302020302020302020302020300A20202033302E3237393520202D31372E3038303020202020302E303030302043202020302020302020302020302020302020302020302020302020302020302020302020300A20202033312E3439313920202D31362E3338303020202020302E30303030204E202020302020302020302020302020302020302020302020302020302020302020302020300A20202033322E3730343420202D31372E3038303020202020302E303030302043202020302020302020302020302020302020302020302020302020302020302020302020300A20202033332E3931363820202D31362E3338303020202020302E303030302043202020302020302020302020302020302020302020302020302020302020302020302020300A20202033352E3132393220202D31372E3038303020202020302E303030302043202020302020302020302020302020302020302020302020302020302020302020302020300A20202033362E3334313720202D31362E3338303020202020302E30303030204E202020302020302020302020302020302020302020302020302020302020302020302020300A2020312020322020312020302020202020302020300A2020322020332020312020302020202020302020300A2020332020342020312020302020202020302020300A2020342020352020312020302020202020302020300A2020352020362020312020302020202020302020300A2020362020372020312020302020202020302020300A2020372020382020312020302020202020302020300A2020382020392020312020302020202020302020300A2020392031302020312020302020202020302020300A2031302031312020312020302020202020302020300A2031312031322020312020302020202020302020300A2031322031332020312020302020202020302020300A2031332031342020312020302020202020302020300A4D2020454E44
Contributor: Ara T, Morishita Y, Shibata D, Kazusa DNA Research Institute
InstType: EI
InstName: Pegasus III TOF-MS system, Leco; GC 6890, Agilent Technologies
IoniMethod: EI
IonPolarity: pos
Date: 2010-10-09 19:48:36+02:00
Num Peaks: 134
82 54 83 33 84 999 85 87 86 625 87 65 88 58 89 5 90 3 94 11 
95 2 96 46 97 15 98 195 99 34 100 333 101 60 102 149 103 19 104 7 
105 1 106 1 107 1 108 5 109 7 110 49 111 36 112 125 113 30 114 82 
115 129 116 792 117 113 118 40 119 4 120 1 121 1 122 1 124 3 125 5 
126 13 127 7 128 99 129 114 130 163 131 38 132 22 133 3 134 1 138 2 
139 2 140 17 141 10 142 281 143 76 144 777 145 105 146 123 147 21 148 8 
150 1 152 1 153 1 154 14 155 8 156 82 157 71 158 38 159 8 160 191 
161 33 162 21 163 3 164 1 168 11 169 5 170 62 171 31 172 225 173 48 
174 408 175 73 176 31 177 4 183 4 184 5 185 11 186 52 187 20 188 32 
189 7 190 3 197 3 198 1 199 3 200 5 201 75 202 20 203 8 204 1 
211 4 212 1 213 2 214 1 215 9 216 2 217 1 227 5 228 1 229 5 
230 1 231 4 241 1 244 11 245 2 255 3 256 1 257 31 258 7 259 4 
260 1 271 12 272 2 273 7 274 1 301 1 302 1 303 1 329 5 330 1 
345 1 372 2 373 1 388 1 
