Name: Sebacic acid
CAS: 111-20-6
MW: 202
Formula: C10H18O4
Synonym: KEGG: C08277
Synonym: MassBank: KZ000071
Synonym: Sebacic acid
Structure: 31342031332020302020202020302020302020202020202020202020203939392056323030300A2020202D332E3234343820202020302E3137393320202020302E303030302043202020302020302020302020302020302020302020202020202020202020302020302020300A2020202D322E353230372020202D302E3232303720202020302E303030302043202020302020302020302020302020302020302020202020202020202020302020302020300A2020202D332E393535322020202D302E3233313020202020302E30303030204F202020302020302020302020302020302020302020202020202020202020302020302020300A2020202D332E3234343820202020312E3031373220202020302E30303030204F202020302020302020302020302020302020302020202020202020202020302020302020300A2020202D312E3830333520202020302E3139363620202020302E303030302043202020302020302020302020302020302020302020202020202020202020302020302020300A2020202D312E303732342020202D302E3230333420202020302E303030302043202020302020302020302020302020302020302020202020202020202020302020302020300A2020202D302E3335353220202020302E3230303020202020302E303030302043202020302020302020302020302020302020302020202020202020202020302020302020300A20202020302E333632312020202D302E3139363620202020302E303030302043202020302020302020302020302020302020302020202020202020202020302020302020300A20202020312E3036393020202020302E3231303320202020302E303030302043202020302020302020302020302020302020302020202020202020202020302020302020300A20202020312E383036392020202D302E3139363620202020302E303030302043202020302020302020302020302020302020302020202020202020202020302020302020300A20202020322E3531333820202020302E3232373620202020302E303030302043202020302020302020302020302020302020302020202020202020202020302020302020300A20202020332E323431342020202D302E3138393720202020302E303030302043202020302020302020302020302020302020302020202020202020202020302020302020300A20202020332E3935313720202020302E3232373620202020302E30303030204F202020302020302020302020302020302020302020202020202020202020302020302020300A20202020332E323438332020202D312E3031303320202020302E30303030204F202020302020302020302020302020302020302020202020202020202020302020302020300A2020312020322020312020302020202020302020300A2020312020332020312020302020202020302020300A2020312020342020322020302020202020302020300A2020322020352020312020302020202020302020300A2020352020362020312020302020202020302020300A2020362020372020312020302020202020302020300A2020372020382020312020302020202020302020300A2020382020392020312020302020202020302020300A2020392031302020312020302020202020302020300A2031302031312020312020302020202020302020300A2031312031322020312020302020202020302020300A2031322031332020312020302020202020302020300A2031322031342020322020302020202020302020300A4D2020454E44
Contributor: Ara T, Morishita Y, Shibata D, Kazusa DNA Research Institute
InstType: EI
InstName: Pegasus III TOF-MS system, Leco; GC 6890, Agilent Technologies
IoniMethod: EI
IonPolarity: pos
Date: 2010-10-09 19:48:36+02:00
Num Peaks: 188
82 56 83 320 84 88 85 120 86 88 87 40 88 41 89 78 90 15 91 106 
92 28 93 412 94 54 95 294 96 75 97 470 98 121 99 113 100 17 101 76 
102 16 103 45 104 8 105 100 106 14 107 274 108 27 109 38 110 59 111 68 
112 32 113 18 114 7 115 47 116 236 117 862 118 93 119 130 120 46 121 350 
122 41 123 35 124 41 125 356 126 32 127 11 128 11 129 999 130 144 131 245 
132 99 133 148 134 24 135 19 136 4 137 77 138 240 139 82 140 9 141 17 
142 9 143 99 144 14 145 101 146 18 147 504 148 130 149 676 150 99 151 62 
152 7 153 5 154 1 155 32 156 48 157 63 158 27 159 61 160 10 161 6 
162 9 163 8 164 3 165 12 166 186 167 58 168 7 169 21 170 36 171 45 
172 11 173 49 174 10 175 4 176 1 177 5 178 1 179 5 180 2 181 12 
182 4 183 34 184 7 185 155 186 26 187 15 188 3 189 20 190 8 191 10 
192 2 193 2 195 7 196 2 197 28 198 6 199 50 200 13 201 7 202 25 
203 32 204 267 205 66 206 25 207 4 208 1 210 1 211 11 212 2 213 73 
214 29 215 470 216 83 217 251 218 54 219 22 220 3 221 1 222 1 223 30 
224 6 225 3 227 1 228 59 229 13 230 4 231 11 232 2 233 1 238 4 
239 13 240 3 241 5 242 1 243 1 244 1 245 3 246 1 255 3 256 4 
257 14 258 3 259 14 260 3 261 1 271 1 273 4 274 2 275 1 286 1 
287 36 288 11 289 4 290 1 303 1 313 5 314 5 315 41 316 14 317 5 
318 1 330 35 331 435 332 120 333 45 334 8 335 1 346 1 
