Name: L-Glutamine
CAS: 56-85-9
MW: 146
Formula: C5H10N2O3
Synonym: KEGG: C00064
Synonym: MassBank: KZ000044
Synonym: L-Glutamine
Structure: 31302020392020302020302020312020302020302020302020302020303939392056323030300A20202032332E3833373820202D31372E3436303620202020302E303030302043202020302020302020312020302020302020302020302020302020302020302020302020300A20202032352E3032353420202D31362E3731373820202020302E303030302043202020302020302020302020302020302020302020302020302020302020302020302020300A20202032322E3630333520202D31362E3739393520202020302E303030302043202020302020302020302020302020302020302020302020302020302020302020302020300A20202032332E3837383720202D31382E3835383720202020302E30303030204E202020302020302020302020302020302020302020302020302020302020302020302020300A20202032362E3235393720202D31372E3337383720202020302E303030302043202020302020302020302020302020302020302020302020302020302020302020302020300A20202032312E3434353120202D31372E3539353220202020302E30303030204F202020302020302020302020302020302020302020302020302020302020302020302020300A20202032322E3632303920202D31352E3430313520202020302E30303030204F202020302020302020302020302020302020302020302020302020302020302020302020300A20202032372E3434373220202D31362E3634313620202020302E303030302043202020302020302020302020302020302020302020302020302020302020302020302020300A20202032382E3638313420202D31372E3330323720202020302E30303030204E202020302020302020302020302020302020302020302020302020302020302020302020300A20202032372E3437303420202D31352E3234333520202020302E30303030204F202020302020302020302020302020302020302020302020302020302020302020302020300A2020312020322020312020302020202020302020300A2020312020332020312020302020202020302020300A2020312020342020312020362020202020302020300A2020322020352020312020302020202020302020300A2020332020362020312020302020202020302020300A2020332020372020322020302020202020302020300A2020352020382020312020302020202020302020300A2020382020392020312020302020202020302020300A2020382031302020322020302020202020302020300A4D2020454E44
Contributor: Ara T, Morishita Y, Shibata D, Kazusa DNA Research Institute
InstType: EI
InstName: Pegasus III TOF-MS system, Leco; GC 6890, Agilent Technologies
IoniMethod: EI
IonPolarity: pos
Date: 2010-10-09 19:48:36+02:00
Num Peaks: 154
82 10 83 75 84 47 85 17 86 22 87 10 88 4 89 8 90 9 91 3 
92 2 93 2 94 2 95 2 96 3 97 3 98 16 99 8 100 95 101 22 
102 16 103 20 104 3 105 4 106 1 107 1 108 1 110 4 111 3 112 26 
113 17 114 67 115 54 116 51 117 22 118 6 119 7 120 1 121 1 124 1 
125 1 126 24 127 6 128 106 129 31 130 35 131 88 132 32 133 57 134 10 
135 6 136 1 137 1 138 1 139 62 140 25 141 8 142 27 143 5 144 10 
145 46 146 12 147 216 148 43 149 44 150 7 151 3 152 1 153 4 154 8 
155 411 156 999 157 160 158 50 159 7 160 3 161 2 162 2 163 2 167 4 
168 2 169 1 170 1 171 2 172 9 173 9 174 5 175 1 176 1 182 1 
183 3 184 1 185 2 186 1 187 1 188 16 189 5 190 3 191 1 198 1 
200 3 201 1 202 4 203 63 204 17 205 7 206 1 211 4 212 2 213 4 
214 4 215 2 216 10 217 6 218 24 219 7 220 3 221 5 222 1 227 13 
228 7 229 32 230 20 231 6 232 13 233 2 234 1 239 1 240 1 241 1 
243 2 244 7 245 124 246 28 247 11 248 2 257 8 258 4 259 1 272 4 
273 10 274 2 275 1 301 9 302 4 303 2 304 1 344 1 346 2 347 19 
348 6 349 2 362 5 363 1 
