Name: O-Acetyl-L-serine
CAS: 5147-00-2
MW: 147
Formula: C5H9NO4
Synonym: KEGG: C00979
Synonym: MassBank: KZ000255
Synonym: O-Acetyl-L-serine
Structure: 31302020392020302020302020312020302020302020302020302020303939392056323030300A20202032302E3933383120202D31352E3131383420202020302E303030302043202020302020302020312020302020302020302020302020302020302020302020302020300A20202032322E3135343520202D31352E3832303020202020302E303030302043202020302020302020302020302020302020302020302020302020302020302020302020300A20202032302E3933383120202D31332E3732313820202020302E303030302043202020302020302020302020302020302020302020302020302020302020302020302020300A20202031392E3732383020202D31352E3832303020202020302E30303030204E202020302020302020302020302020302020302020302020302020302020302020302020300A20202032322E3135343520202D31372E3232333120202020302E30303030204F202020302020302020302020302020302020302020302020302020302020302020302020300A20202031392E3732383020202D31332E3032303220202020302E30303030204F202020302020302020302020302020302020302020302020302020302020302020302020300A20202032322E3135343520202D31332E3032303220202020302E30303030204F202020302020302020302020302020302020302020302020302020302020302020302020300A20202032332E3336343620202D31372E3931383220202020302E303030302043202020302020302020302020302020302020302020302020302020302020302020302020300A20202032332E3336343620202D31392E3533313420202020302E303030302043202020302020302020302020302020302020302020302020302020302020302020302020300A20202032342E3537343720202D31372E3232333120202020302E30303030204F202020302020302020302020302020302020302020302020302020302020302020302020300A2020312020322020312020302020202020302020300A2020312020332020312020302020202020302020300A2020312020342020312020362020202020302020300A2020322020352020312020302020202020302020300A2020332020362020312020302020202020302020300A2020332020372020322020302020202020302020300A2020352020382020312020302020202020302020300A2020382020392020312020302020202020302020300A2020382031302020322020302020202020302020300A4D2020454E44
Contributor: Ara T, Morishita Y, Shibata D, Kazusa DNA Research Institute
InstType: EI
InstName: Pegasus III TOF-MS system, Leco; GC 6890, Agilent Technologies
IoniMethod: EI
IonPolarity: pos
Date: 2010-10-09 19:48:36+02:00
Num Peaks: 102
82 8 83 22 84 240 85 37 86 45 87 35 88 36 89 41 90 8 92 6 
93 23 94 1 95 5 96 3 98 21 99 14 100 365 101 73 102 46 103 76 
104 6 105 2 106 1 107 3 109 1 110 2 111 3 112 8 113 7 114 103 
115 55 116 876 117 301 118 32 119 24 120 2 121 2 122 1 124 1 126 4 
127 10 128 10 129 39 130 40 131 67 132 758 133 145 134 27 135 8 142 17 
143 5 144 67 145 14 146 8 147 374 148 63 149 36 150 8 151 3 152 1 
156 10 157 7 158 47 159 25 160 7 161 3 163 6 166 1 170 1 171 2 
172 43 173 6 174 999 175 60 176 22 177 5 178 2 180 1 182 1 184 2 
185 2 186 40 187 2 188 60 189 9 190 4 193 1 201 1 202 4 203 3 
206 1 216 112 217 10 218 107 219 15 223 1 231 6 233 3 248 9 250 1 
276 2 277 1 
