Name: Succinic acid
CAS: 110-15-6
MW: 118
Formula: C4H6O4
Synonym: KEGG: C00042
Synonym: MassBank: KZ000074
Synonym: Succinic acid
Structure: 310A32310A200A200A200A2020382020372020302020302020302020302020302020302020302020303939392056323030300A20202031362E3934303020202D31332E3434303020202020302E30303030204F202020302020302020302020302020302020302020302020302020302020302020302020300A20202031382E3135323420202D31322E3734303020202020302E303030302043202020302020302020302020302020302020302020302020302020302020302020302020300A20202031392E3336343920202D31332E3434303020202020302E303030302043202020302020302020302020302020302020302020302020302020302020302020302020300A20202032302E3537373320202D31322E3734303020202020302E303030302043202020302020302020302020302020302020302020302020302020302020302020302020300A20202032312E3738393720202D31332E3434303020202020302E303030302043202020302020302020302020302020302020302020302020302020302020302020302020300A20202032332E3030323220202D31322E3734303020202020302E30303030204F202020302020302020302020302020302020302020302020302020302020302020302020300A20202031382E3135323420202D31312E3334303220202020302E30303030204F202020302020302020302020302020302020302020302020302020302020302020302020300A20202032312E3738393720202D31342E3833393920202020302E30303030204F202020302020302020302020302020302020302020302020302020302020302020302020300A2020312020322020312020302020202020302020300A2020322020332020312020302020202020302020300A2020332020342020312020302020202020302020300A2020342020352020312020302020202020302020300A2020352020362020312020302020202020302020300A2020322020372020322020302020202020302020300A2020352020382020322020302020202020302020300A4D2020454E44
Contributor: Ara T, Morishita Y, Shibata D, Kazusa DNA Research Institute
InstType: EI
InstName: Pegasus III TOF-MS system, Leco; GC 6890, Agilent Technologies
IoniMethod: EI
IonPolarity: pos
Date: 2010-10-09 19:48:36+02:00
Num Peaks: 82
82 9 83 7 84 9 85 25 86 36 87 16 88 9 89 16 90 2 91 1 
92 1 93 2 97 1 99 9 100 2 101 12 102 3 103 8 104 2 105 4 
106 1 111 1 113 17 114 4 115 18 116 33 117 21 118 4 119 4 120 1 
121 1 128 7 129 130 130 22 131 28 132 5 133 36 134 6 135 4 136 1 
143 1 147 999 148 143 149 118 150 16 151 4 156 3 157 8 158 1 159 1 
162 1 163 4 172 153 173 87 174 20 175 10 176 1 177 1 187 1 189 1 
190 3 191 1 192 1 203 5 204 2 205 1 206 1 215 1 217 4 218 16 
219 6 220 3 221 1 246 1 247 343 248 88 249 43 250 6 251 1 262 10 
263 2 264 1 
