Name: DL-Isocitric acid
CAS: 320-77-4
MW: 192
Formula: C6H8O7
Synonym: KEGG: C00311
Synonym: MassBank: KZ000145
Synonym: DL-Isocitric acid
Structure: 31332031322020302020202020302020302020202020202020202020203939392056323030300A20202020352E393931372020202D352E3331363120202020302E303030302043202020302020302020332020302020302020302020202020202020202020302020302020300A20202020362E373032352020202D352E3732393420202020302E303030302043202020302020302020332020302020302020302020202020202020202020302020302020300A20202020352E323736372020202D352E3732393420202020302E303030302043202020302020302020302020302020302020302020202020202020202020302020302020300A20202020352E393931372020202D342E3439323820202020302E303030302043202020302020302020302020302020302020302020202020202020202020302020302020300A20202020362E373032352020202D362E3535363120202020302E303030302043202020302020302020302020302020302020302020202020202020202020302020302020300A20202020372E343230382020202D352E3331363120202020302E30303030204F202020302020302020302020302020302020302020202020202020202020302020302020300A20202020342E353632352020202D352E3331363120202020302E303030302043202020302020302020302020302020302020302020202020202020202020302020302020300A20202020362E373035392020202D342E3038323920202020302E30303030204F202020302020302020302020302020302020302020202020202020202020302020302020300A20202020352E323733332020202D342E3038323920202020302E30303030204F202020302020302020302020302020302020302020202020202020202020302020302020300A20202020352E393931372020202D362E3936363120202020302E30303030204F202020302020302020302020302020302020302020202020202020202020302020302020300A20202020372E343230382020202D362E3936363120202020302E30303030204F202020302020302020302020302020302020302020202020202020202020302020302020300A20202020342E353635392020202D342E3439323820202020302E30303030204F202020302020302020302020302020302020302020202020202020202020302020302020300A20202020332E383437352020202D352E3733323920202020302E30303030204F202020302020302020302020302020302020302020202020202020202020302020302020300A2020312020322020312020302020202020302020300A2020312020332020312020302020202020302020300A2020312020342020312020302020202020302020300A2020322020352020312020302020202020302020300A2020322020362020312020302020202020302020300A2020332020372020312020302020202020302020300A2020342020382020312020302020202020302020300A2020342020392020322020302020202020302020300A2020352031302020312020302020202020302020300A2020352031312020322020302020202020302020300A2020372031322020312020302020202020302020300A2020372031332020322020302020202020302020300A4D2020454E44
Contributor: Ara T, Morishita Y, Shibata D, Kazusa DNA Research Institute
InstType: EI
InstName: Pegasus III TOF-MS system, Leco; GC 6890, Agilent Technologies
IoniMethod: EI
IonPolarity: pos
Date: 2010-10-09 19:48:36+02:00
Num Peaks: 222
82 3 83 110 84 11 85 14 86 2 87 7 88 7 89 7 95 34 96 3 
97 8 98 3 99 15 100 2 101 14 102 9 103 13 104 2 105 6 109 1 
110 2 111 7 112 2 113 37 114 5 115 13 116 31 117 36 118 6 119 13 
120 2 121 1 125 2 126 1 127 7 128 12 129 78 130 13 131 53 132 10 
133 112 134 17 135 14 136 1 137 1 139 12 140 2 141 12 142 5 143 98 
144 14 145 10 146 3 147 999 148 146 149 113 150 15 151 6 152 1 154 1 
155 4 156 8 157 39 158 6 159 6 160 1 161 9 162 5 163 6 164 1 
165 1 169 10 170 2 171 12 172 2 173 6 174 1 175 3 176 1 177 14 
178 3 179 2 182 1 183 6 184 2 185 15 186 2 187 4 188 1 189 11 
190 6 191 43 192 9 193 6 194 1 195 1 199 1 200 1 201 5 202 3 
203 20 204 59 205 18 206 7 207 14 208 3 209 2 210 1 211 66 212 11 
213 28 214 5 215 11 216 4 217 41 218 9 219 9 220 3 221 43 222 11 
223 6 224 1 227 1 228 1 229 9 230 5 231 12 232 3 233 2 243 4 
244 4 245 333 246 110 247 43 248 9 249 2 255 1 256 1 257 8 258 4 
259 16 260 5 261 4 262 2 263 1 264 1 265 9 266 4 267 2 271 1 
272 15 273 436 274 92 275 42 276 7 277 1 284 1 285 31 286 8 287 8 
288 2 289 1 291 3 292 2 293 1 301 5 302 2 303 19 304 8 305 35 
306 11 307 5 308 1 317 1 318 10 319 132 320 71 321 31 322 9 323 2 
324 1 331 2 332 2 333 4 334 4 335 2 336 1 337 1 338 1 339 1 
346 3 347 90 348 32 349 17 350 4 351 1 361 1 362 7 363 63 364 20 
365 10 366 2 373 1 374 5 375 101 376 35 377 20 378 5 379 1 389 2 
390 11 391 4 392 2 393 1 464 5 465 59 466 24 467 12 468 3 469 1 
480 2 481 1 
