Name: Caffeine
CAS: 58-08-2
MW: 194
Formula: C8H10N4O2
Synonym: KEGG: C07481
Synonym: MassBank: KZ000113
Synonym: Caffeine
Structure: 31342031352020302020302020302020302020302020302020302020303939392056323030300A20202032362E3638363320202D31382E3232323520202020302E303030302043202020302020302020302020302020302020302020302020302020302020302020302020300A20202032362E3638363320202D31392E3634383020202020302E303030302043202020302020302020302020302020302020302020302020302020302020302020302020300A20202032372E3838393920202D31372E3531353420202020302E303030302043202020302020302020302020302020302020302020302020302020302020302020302020300A20202032352E3338333320202D31372E3739303120202020302E30303030204E202020302020302020332020302020302020302020302020302020302020302020302020300A20202032372E3838393920202D32302E3333313720202020302E30303030204E202020302020302020332020302020302020302020302020302020302020302020302020300A20202032352E3338333320202D32302E3038303520202020302E30303030204E202020302020302020302020302020302020302020302020302020302020302020302020300A20202032392E3131313020202D31382E3235313720202020302E30303030204E202020302020302020332020302020302020302020302020302020302020302020302020300A20202032372E3838393920202D31362E3133363520202020302E30303030204F202020302020302020302020302020302020302020302020302020302020302020302020300A20202032342E3536353420202D31382E3934363920202020302E303030302043202020302020302020302020302020302020302020302020302020302020302020302020300A20202032342E3935303920202D31362E3436333720202020302E303030302043202020302020302020302020302020302020302020302020302020302020302020302020300A20202032392E3131313020202D31392E3539353520202020302E303030302043202020302020302020302020302020302020302020302020302020302020302020302020300A20202032372E3838393920202D32312E3736333220202020302E303030302043202020302020302020302020302020302020302020302020302020302020302020302020300A20202033302E3333323220202D31372E3536383120202020302E303030302043202020302020302020302020302020302020302020302020302020302020302020302020300A20202033302E3336313320202D32302E3239363720202020302E30303030204F202020302020302020302020302020302020302020302020302020302020302020302020300A2020312020322020322020302020202020302020300A2020312020332020312020302020202020302020300A2020312020342020312020302020202020302020300A2020322020352020312020302020202020302020300A2020322020362020312020302020202020302020300A2020332020372020312020302020202020302020300A2020332020382020322020302020202020302020300A2020342020392020312020302020202020302020300A2020342031302020312020302020202020302020300A2020352031312020312020302020202020302020300A2020352031322020312020302020202020302020300A2020372031332020312020302020202020302020300A2031312031342020322020302020202020302020300A2020362020392020322020302020202020302020300A2020372031312020312020302020202020302020300A4D2020454E44
Contributor: Ara T, Morishita Y, Shibata D, Kazusa DNA Research Institute
InstType: EI
InstName: Pegasus III TOF-MS system, Leco; GC 6890, Agilent Technologies
IoniMethod: EI
IonPolarity: pos
Date: 2010-10-09 19:48:36+02:00
Num Peaks: 54
82 574 83 66 84 4 91 1 92 6 93 20 94 97 95 29 96 14 97 32 
98 1 106 3 107 11 108 77 109 999 110 142 111 23 112 1 117 3 120 6 
121 6 122 27 123 12 124 14 125 1 129 1 132 3 133 2 134 2 135 9 
136 81 137 115 138 44 139 4 140 1 147 1 148 1 149 11 150 21 151 6 
152 9 161 1 163 3 164 7 165 82 166 16 167 1 179 2 192 1 193 188 
194 919 195 94 196 8 197 1 
