Name: 4-Aminobutyric acid
CAS: 56-12-2
MW: 103
Formula: C4H9NO2
Synonym: KEGG: C00334
Synonym: MassBank: KZ000086
Synonym: 4-Aminobutyric acid
Structure: 310A31390A200A200A200A2020372020362020302020302020302020302020302020302020302020303939392056323030300A20202032312E3833373620202D31382E3337383720202020302E303030302043202020302020302020302020302020302020302020302020302020302020302020302020300A20202032332E3034373820202D31372E3637373020202020302E303030302043202020302020302020302020302020302020302020302020302020302020302020302020300A20202032302E3632373420202D31372E3637373020202020302E303030302043202020302020302020302020302020302020302020302020302020302020302020302020300A20202032342E3235383020202D31382E3338353020202020302E30303030204F202020302020302020302020302020302020302020302020302020302020302020302020300A20202032332E3034373820202D31362E3238303320202020302E30303030204F202020302020302020302020302020302020302020302020302020302020302020302020300A20202031392E3431303820202D31382E3337383720202020302E303030302043202020302020302020302020302020302020302020302020302020302020302020302020300A20202031382E3230303620202D31372E3637373020202020302E30303030204E202020302020302020302020302020302020302020302020302020302020302020302020300A2020312020322020312020302020202020302020300A2020312020332020312020302020202020302020300A2020322020342020312020302020202020302020300A2020322020352020322020302020202020302020300A2020332020362020312020302020202020302020300A2020362020372020312020302020202020302020300A4D2020454E44
Contributor: Ara T, Morishita Y, Shibata D, Kazusa DNA Research Institute
InstType: EI
InstName: Pegasus III TOF-MS system, Leco; GC 6890, Agilent Technologies
IoniMethod: EI
IonPolarity: pos
Date: 2010-10-09 19:48:36+02:00
Num Peaks: 99
82 4 83 4 84 16 85 21 86 257 87 31 88 11 89 6 96 1 97 3 
98 12 99 19 100 134 101 27 102 23 103 10 104 2 105 3 110 1 111 1 
112 11 113 10 114 20 115 16 116 17 117 25 118 5 119 7 120 1 124 1 
125 1 126 3 127 1 128 9 129 11 130 44 131 38 132 12 133 53 134 8 
135 4 139 1 140 17 141 3 142 76 143 79 144 23 145 10 146 30 147 413 
148 62 149 30 150 3 151 1 154 1 156 16 157 6 158 9 159 2 160 2 
161 1 170 3 171 1 172 39 173 9 174 999 175 178 176 72 177 8 178 1 
186 3 187 2 188 2 189 1 198 1 200 3 201 1 204 2 205 1 214 14 
215 3 216 60 217 11 218 5 219 4 220 1 221 1 230 5 231 1 232 1 
246 25 247 5 248 2 288 1 303 2 304 153 305 44 306 20 307 3 
