Name: 3-Methyl-2-oxovaleric acid
CAS: 66872-74-0
MW: 130
Formula: C6H10O3
Synonym: KEGG: C03465
Synonym: MassBank: KZ000176
Synonym: 3-Methyl-2-oxovaleric acid
Structure: 310A32330A200A200A200A2020392020382020302020302020302020302020302020302020302020303939392056323030300A20202031392E3031343720202D31342E3432363220202020302E303030302043202020302020302020302020302020302020302020302020302020302020302020302020300A20202031372E3831373920202D31352E3139303120202020302E303030302043202020302020302020332020302020302020302020302020302020302020302020302020300A20202032302E3231373820202D31352E3132303120202020302E303030302043202020302020302020302020302020302020302020302020302020302020302020302020300A20202031392E3031343720202D31332E3034343720202020302E30303030204F202020302020302020302020302020302020302020302020302020302020302020302020300A20202031362E3632313020202D31342E3432363220202020302E303030302043202020302020302020302020302020302020302020302020302020302020302020302020300A20202031372E3831373920202D31362E3537373820202020302E303030302043202020302020302020302020302020302020302020302020302020302020302020302020300A20202032302E3234333320202D31362E3632323520202020302E30303030204F202020302020302020302020302020302020302020302020302020302020302020302020300A20202032312E3431343720202D31342E3432363220202020302E30303030204F202020302020302020302020302020302020302020302020302020302020302020302020300A20202031352E3431373920202D31352E3132303120202020302E303030302043202020302020302020302020302020302020302020302020302020302020302020302020300A2020312020322020312020302020202020302020300A2020312020332020312020302020202020302020300A2020312020342020322020302020202020302020300A2020322020352020312020302020202020302020300A2020322020362020312020302020202020302020300A2020332020372020312020302020202020302020300A2020332020382020322020302020202020302020300A2020352020392020312020302020202020302020300A4D2020454E44
Contributor: Ara T, Morishita Y, Shibata D, Kazusa DNA Research Institute
InstType: EI
InstName: Pegasus III TOF-MS system, Leco; GC 6890, Agilent Technologies
IoniMethod: EI
IonPolarity: pos
Date: 2010-10-09 19:48:36+02:00
Num Peaks: 88
82 217 83 64 84 164 85 179 86 52 87 11 88 10 89 999 90 92 91 52 
92 4 93 5 94 8 95 4 96 4 97 9 98 36 99 53 100 54 101 9 
102 4 103 12 104 3 105 12 106 1 107 1 108 1 109 1 110 136 111 13 
112 19 113 222 114 179 115 32 116 60 117 36 118 8 119 2 124 1 125 1 
126 22 127 13 128 26 129 18 130 6 131 2 133 1 140 22 141 9 142 8 
143 7 144 6 145 3 146 1 147 2 154 7 155 2 156 34 157 6 158 12 
159 2 160 2 166 1 170 1 171 1 172 113 173 18 174 7 175 1 182 1 
183 1 184 5 185 1 186 1 187 1 189 194 190 25 191 9 192 1 200 172 
201 28 202 9 203 88 204 13 205 4 216 23 217 3 218 1 
