Name: Fumaric acid
CAS: 110-17-8
MW: 116
Formula: C4H4O4
Synonym: KEGG: C00122
Synonym: MassBank: KZ000030
Synonym: Fumaric acid
Structure: 310A32310A200A200A200A2020382020372020302020302020302020302020302020302020302020303939392056323030300A20202032302E3434303620202D31352E3235393020202020302E303030302043202020302020302020302020302020302020302020302020302020302020302020302020300A20202032312E3635313620202D31352E3936313020202020302E303030302043202020302020302020302020302020302020302020302020302020302020302020302020300A20202031392E3232393720202D31352E3936313020202020302E30303030204F202020302020302020302020302020302020302020302020302020302020302020302020300A20202032302E3434303620202D31332E3836303920202020302E30303030204F202020302020302020302020302020302020302020302020302020302020302020302020300A20202032322E3836383420202D31352E3235393020202020302E303030302043202020302020302020302020302020302020302020302020302020302020302020302020300A20202032342E3037393420202D31352E3936313020202020302E303030302043202020302020302020302020302020302020302020302020302020302020302020302020300A20202032352E3239303320202D31352E3235393020202020302E30303030204F202020302020302020302020302020302020302020302020302020302020302020302020300A20202032342E3037393420202D31372E3335393120202020302E30303030204F202020302020302020302020302020302020302020302020302020302020302020302020300A2020312020322020312020302020202020302020300A2020312020332020312020302020202020302020300A2020312020342020322020302020202020302020300A2020322020352020322020302020202020302020300A2020352020362020312020302020202020302020300A2020362020372020312020302020202020302020300A2020362020382020322020302020202020302020300A4D2020454E44
Contributor: Ara T, Morishita Y, Shibata D, Kazusa DNA Research Institute
InstType: EI
InstName: Pegasus III TOF-MS system, Leco; GC 6890, Agilent Technologies
IoniMethod: EI
IonPolarity: pos
Date: 2010-10-09 19:48:36+02:00
Num Peaks: 106
82 37 83 404 84 167 85 75 86 14 87 21 88 5 89 23 90 3 91 2 
92 3 93 10 94 1 95 5 96 1 97 18 98 38 99 44 100 9 101 15 
102 9 103 41 104 8 105 16 106 2 107 8 108 2 109 1 110 2 111 8 
112 3 113 56 114 7 115 192 116 24 117 46 118 10 119 19 120 4 121 2 
122 1 125 1 126 26 127 75 128 36 129 16 130 3 131 37 132 14 133 205 
134 30 135 21 136 2 140 1 141 5 142 11 143 283 144 36 145 19 146 3 
147 993 148 177 149 151 150 19 151 9 152 1 153 1 155 113 156 21 157 53 
158 9 159 12 160 2 161 2 164 1 170 18 171 28 172 5 173 14 174 3 
175 1 176 1 183 1 185 1 186 2 187 2 201 11 202 4 203 2 206 1 
215 7 216 2 217 53 218 15 219 7 220 2 230 1 231 1 242 3 243 1 
244 7 245 999 246 228 247 105 248 15 249 3 
