Name: L-Lysine
CAS: 56-87-1
MW: 146
Formula: C6H14N2O2
Synonym: KEGG: C00047
Synonym: MassBank: KZ000234
Synonym: L-Lysine
Structure: 31302020392020302020302020312020302020302020302020302020303939392056323030300A20202032332E3834343520202D31392E3434383920202020302E303030302043202020302020302020312020302020302020302020302020302020302020302020302020300A20202032352E3035393720202D31382E3737313120202020302E303030302043202020302020302020302020302020302020302020302020302020302020302020302020300A20202032322E3639333620202D31382E3730313020202020302E303030302043202020302020302020302020302020302020302020302020302020302020302020302020300A20202032332E3838353420202D32302E3835363920202020302E30303030204E202020302020302020302020302020302020302020302020302020302020302020302020300A20202032362E3236393120202D31392E3438333920202020302E303030302043202020302020302020302020302020302020302020302020302020302020302020302020300A20202032312E3436363720202D31392E3338343720202020302E30303030204F202020302020302020302020302020302020302020302020302020302020302020302020300A20202032322E3634363820202D31372E3239383720202020302E30303030204F202020302020302020302020302020302020302020302020302020302020302020302020300A20202032372E3439363220202D31382E3830303320202020302E303030302043202020302020302020302020302020302020302020302020302020302020302020302020300A20202032382E3730353620202D31392E3531393020202020302E303030302043202020302020302020302020302020302020302020302020302020302020302020302020300A20202032392E3933323520202D31382E3833353320202020302E30303030204E202020302020302020302020302020302020302020302020302020302020302020302020300A2020312020322020312020302020202020302020300A2020312020332020312020302020202020302020300A2020312020342020312020362020202020302020300A2020322020352020312020302020202020302020300A2020332020362020312020302020202020302020300A2020332020372020322020302020202020302020300A2020352020382020312020302020202020302020300A2020382020392020312020302020202020302020300A2020392031302020312020302020202020302020300A4D2020454E44
Contributor: Ara T, Morishita Y, Shibata D, Kazusa DNA Research Institute
InstType: EI
InstName: Pegasus III TOF-MS system, Leco; GC 6890, Agilent Technologies
IoniMethod: EI
IonPolarity: pos
Date: 2010-10-09 19:48:36+02:00
Num Peaks: 128
82 73 83 16 84 282 85 33 86 235 87 30 88 52 89 7 90 4 91 2 
92 1 93 1 94 14 95 3 96 2 97 6 98 12 99 11 100 125 101 23 
102 50 103 20 104 4 105 1 107 1 109 1 110 6 111 3 112 24 113 10 
114 39 115 19 116 20 117 21 118 5 119 3 124 2 125 1 126 7 127 3 
128 60 129 15 130 64 131 30 132 18 133 17 134 3 135 1 138 1 139 1 
140 9 141 3 142 23 143 5 144 11 145 3 146 31 147 56 148 16 149 6 
150 2 151 1 154 6 155 5 156 135 157 22 158 16 159 3 160 5 161 2 
162 3 166 4 167 5 168 33 169 6 170 6 171 2 172 21 173 6 174 999 
175 176 176 78 177 9 178 1 182 1 183 3 184 7 185 2 186 12 187 3 
188 4 189 1 190 1 198 1 199 2 200 150 201 30 202 11 203 1 204 1 
214 2 215 1 216 5 217 1 218 1 227 1 228 1 229 2 230 20 231 6 
232 3 242 1 244 1 245 1 246 1 255 1 257 3 258 34 259 8 260 3 
289 4 290 1 317 1 347 2 361 1 362 10 363 3 364 1 
