Name: 4-Methyl-2-oxovaleric acid
CAS: 816-66-0
MW: 130
Formula: C6H10O3
Synonym: KEGG: C00233
Synonym: MassBank: KZ000179
Synonym: 4-Methyl-2-oxovaleric acid
Structure: 310A32330A200A200A200A2020392020382020302020302020302020302020302020302020302020303939392056323030300A20202032322E3733303620202D31352E3830353520202020302E303030302043202020302020302020302020302020302020302020302020302020302020302020302020300A20202032312E3531343320202D31362E3530373020202020302E303030302043202020302020302020302020302020302020302020302020302020302020302020302020300A20202032332E3934303320202D31362E3530373020202020302E303030302043202020302020302020302020302020302020302020302020302020302020302020302020300A20202032322E3733303620202D31342E3437323720202020302E30303030204F202020302020302020302020302020302020302020302020302020302020302020302020300A20202032302E3330343620202D31352E3830353520202020302E303030302043202020302020302020332020302020302020302020302020302020302020302020302020300A20202032352E3135303120202D31352E3830353520202020302E30303030204F202020302020302020302020302020302020302020302020302020302020302020302020300A20202032332E3934303320202D31382E3131333420202020302E30303030204F202020302020302020302020302020302020302020302020302020302020302020302020300A20202031392E3039343720202D31362E3530373020202020302E303030302043202020302020302020302020302020302020302020302020302020302020302020302020300A20202032302E3330343620202D31342E3437323720202020302E303030302043202020302020302020302020302020302020302020302020302020302020302020302020300A2020312020322020312020302020202020302020300A2020312020332020312020302020202020302020300A2020312020342020322020302020202020302020300A2020322020352020312020302020202020302020300A2020332020362020312020302020202020302020300A2020332020372020322020302020202020302020300A2020352020382020312020302020202020302020300A2020352020392020312020302020202020302020300A4D2020454E44
Contributor: Ara T, Morishita Y, Shibata D, Kazusa DNA Research Institute
InstType: EI
InstName: Pegasus III TOF-MS system, Leco; GC 6890, Agilent Technologies
IoniMethod: EI
IonPolarity: pos
Date: 2010-10-09 19:48:36+02:00
Num Peaks: 77
82 304 83 38 84 90 85 12 86 13 87 6 88 9 89 999 90 88 91 52 
92 3 93 2 94 2 95 2 96 2 97 3 98 28 99 338 100 53 101 8 
102 3 103 22 104 4 105 5 106 1 109 1 110 230 111 19 112 4 113 11 
114 106 115 63 116 36 117 14 118 5 119 1 126 4 128 5 129 2 130 4 
131 2 133 1 138 1 140 9 141 2 142 3 143 7 144 11 145 1 146 1 
154 9 155 2 156 6 157 2 158 35 159 7 160 3 161 3 162 1 166 1 
170 1 172 3 173 2 174 1 182 7 183 6 184 3 189 190 190 26 191 9 
192 1 200 128 201 21 202 6 216 16 217 4 218 1 
