Name: 1-Aminocyclopropane-1-carboxylic acid
CAS: 22059-21-8
MW: 101
Formula: C4H7NO2
Synonym: KEGG: C01234
Synonym: MassBank: KZ000169
Synonym: 1-Aminocyclopropane-1-carboxylic acid
Structure: 310A32300A200A200A200A2020372020372020302020302020302020302020302020302020302020303939392056323030300A20202032312E3633333720202D31362E3136353720202020302E303030302043202020302020302020332020302020302020302020302020302020302020302020302020300A20202032322E3537303320202D31352E3633353520202020302E303030302043202020302020302020302020302020302020302020302020302020302020302020302020300A20202032302E3731373220202D31372E3737363020202020302E303030302043202020302020302020302020302020302020302020302020302020302020302020302020300A20202032322E3536303420202D31372E3737363020202020302E303030302043202020302020302020302020302020302020302020302020302020302020302020302020300A20202032302E3830313420202D31352E3538313120202020302E30303030204E202020302020302020302020302020302020302020302020302020302020302020302020300A20202032332E3439363820202D31362E3138353520202020302E30303030204F202020302020302020302020302020302020302020302020302020302020302020302020300A20202032322E3530353220202D31342E3536303320202020302E30303030204F202020302020302020302020302020302020302020302020302020302020302020302020300A2020312020322020312020302020202020302020300A2020312020332020312020302020202020302020300A2020312020342020312020302020202020302020300A2020312020352020312020302020202020302020300A2020322020362020312020302020202020302020300A2020322020372020322020302020202020302020300A2020332020342020312020302020202020302020300A4D2020454E44
Contributor: Ara T, Morishita Y, Shibata D, Kazusa DNA Research Institute
InstType: EI
InstName: Pegasus III TOF-MS system, Leco; GC 6890, Agilent Technologies
IoniMethod: EI
IonPolarity: pos
Date: 2010-10-09 19:48:36+02:00
Num Peaks: 104
82 9 83 46 84 82 85 55 86 46 87 27 88 8 89 6 90 1 91 2 
92 1 93 2 94 6 95 2 96 11 97 6 98 65 99 19 100 68 101 17 
102 17 103 25 104 4 105 9 106 1 107 1 108 1 109 1 110 9 111 5 
112 93 113 27 114 40 115 23 116 20 117 26 118 7 119 7 120 1 124 1 
126 31 127 54 128 347 129 54 130 25 131 63 132 50 133 89 134 15 135 6 
140 5 141 1 142 4 143 2 144 4 145 2 146 10 147 999 148 178 149 90 
150 10 151 2 154 1 155 1 156 9 157 10 158 18 159 5 160 3 161 1 
162 1 169 1 170 2 171 1 172 10 173 9 174 17 175 10 176 3 177 1 
186 32 187 7 188 8 189 1 190 11 191 2 200 1 201 1 202 311 203 70 
204 29 205 4 214 2 216 12 217 10 218 2 219 1 230 67 231 15 232 6 
233 1 245 35 246 7 247 3 
