Name: Linoleic acid
CAS: 60-33-3
MW: 280
Formula: C18H32O2
Synonym: KEGG: C01595
Synonym: MassBank: KZ000056
Synonym: Linoleic acid
Structure: 32302031392020302020202020302020302020202020202020202020203939392056323030300A2020202D312E3135313720202020302E3131333820202020302E303030302043202020302020302020302020302020302020302020202020202020202020302020302020300A2020202D302E343832382020202D302E3236393020202020302E303030302043202020302020302020302020302020302020302020202020202020202020302020302020300A2020202D312E383234312020202D302E3237323420202020302E303030302043202020302020302020302020302020302020302020202020202020202020302020302020300A20202020302E3138393720202020302E3131373220202020302E303030302043202020302020302020302020302020302020302020202020202020202020302020302020300A2020202D322E3439333120202020302E3131303320202020302E303030302043202020302020302020302020302020302020302020202020202020202020302020302020300A20202020302E3936323120202020302E3131373220202020302E303030302043202020302020302020302020302020302020302020202020202020202020302020302020300A2020202D332E313632312020202D302E3237353920202020302E303030302043202020302020302020302020302020302020302020202020202020202020302020302020300A20202020312E363431342020202D302E3234383320202020302E303030302043202020302020302020302020302020302020302020202020202020202020302020302020300A2020202D332E3833313020202020302E3130363920202020302E303030302043202020302020302020302020302020302020302020202020202020202020302020302020300A20202020322E3331303320202020302E3133373920202020302E303030302043202020302020302020302020302020302020302020202020202020202020302020302020300A2020202D342E353033342020202D302E3237393320202020302E303030302043202020302020302020302020302020302020302020202020202020202020302020302020300A20202020332E3038323820202020302E3133373920202020302E303030302043202020302020302020302020302020302020302020202020202020202020302020302020300A2020202D352E3137323420202020302E3130333420202020302E303030302043202020302020302020302020302020302020302020202020202020202020302020302020300A20202020332E373632312020202D302E3233313020202020302E303030302043202020302020302020302020302020302020302020202020202020202020302020302020300A2020202D352E383434382020202D302E3238323820202020302E30303030204F202020302020302020302020302020302020302020202020202020202020302020302020300A2020202D352E3137353920202020302E3837323420202020302E30303030204F202020302020302020302020302020302020302020202020202020202020302020302020300A20202020342E3431373220202020302E3137323420202020302E303030302043202020302020302020302020302020302020302020202020202020202020302020302020300A20202020352E303936362020202D302E3138393720202020302E303030302043202020302020302020302020302020302020302020202020202020202020302020302020300A20202020352E3735313720202020302E3231333820202020302E303030302043202020302020302020302020302020302020302020202020202020202020302020302020300A20202020362E343331302020202D302E3134383320202020302E303030302043202020302020302020302020302020302020302020202020202020202020302020302020300A2020312020322020312020302020202020302020300A2020312020332020312020302020202020302020300A2020322020342020312020302020202020302020300A2020332020352020312020302020202020302020300A2020342020362020322020302020202020302020300A2020352020372020312020302020202020302020300A2020362020382020312020302020202020302020300A2020372020392020312020302020202020302020300A2020382031302020312020302020202020302020300A2020392031312020312020302020202020302020300A2031302031322020322020302020202020302020300A2031312031332020312020302020202020302020300A2031322031342020312020302020202020302020300A2031332031352020312020302020202020302020300A2031332031362020322020302020202020302020300A2031342031372020312020302020202020302020300A2031372031382020312020302020202020302020300A2031382031392020312020302020202020302020300A2031392032302020312020302020202020302020300A4D2020454E44
Contributor: Ara T, Morishita Y, Shibata D, Kazusa DNA Research Institute
InstType: EI
InstName: Pegasus III TOF-MS system, Leco; GC 6890, Agilent Technologies
IoniMethod: EI
IonPolarity: pos
Date: 2010-10-09 19:48:36+02:00
Num Peaks: 159
82 757 83 318 84 69 85 79 86 7 87 152 88 16 89 8 90 4 91 289 
92 58 93 333 94 277 95 999 96 654 97 243 98 58 99 40 100 9 101 46 
102 7 103 15 104 18 105 83 106 41 107 217 108 191 109 496 110 357 111 117 
112 18 113 20 114 10 115 65 116 10 117 33 118 16 119 59 120 46 121 222 
122 156 123 229 124 172 125 60 126 11 127 20 128 13 129 41 130 6 131 57 
132 20 133 61 134 27 135 208 136 177 137 115 138 87 139 32 140 20 141 24 
142 5 143 20 144 3 145 31 146 20 147 32 148 12 149 142 150 174 151 70 
152 47 153 24 154 20 155 10 156 2 157 9 158 2 159 25 160 9 161 14 
162 5 163 70 164 112 165 36 166 25 167 17 168 18 169 5 170 1 171 5 
172 1 173 28 174 7 175 9 176 3 177 36 178 66 179 22 180 10 181 13 
182 13 183 3 184 1 185 2 186 1 187 16 188 4 189 4 190 1 191 18 
192 19 193 8 194 3 195 9 196 11 197 2 199 2 201 6 202 2 203 2 
204 1 205 11 206 9 207 4 208 2 209 6 210 9 211 1 213 1 215 3 
216 1 218 3 219 5 220 23 221 5 222 1 223 4 224 6 225 1 227 1 
233 3 234 5 235 1 237 3 238 3 244 1 245 3 246 1 251 2 252 1 
261 1 262 48 263 57 264 10 265 2 293 2 294 47 295 10 296 1 
