Name: 4-Hydroxybenzyl alcohol
CAS: 623-05-2
MW: 124
Formula: C7H8O2
Synonym: MassBank: KZ000100
Synonym: 4-Hydroxybenzyl alcohol
Structure: 310A32330A342D487964726F787962656E7A796C20616C636F686F6C20283632332D30352D32290A20204143442F4C6162733034303330383138333832440A2020392020392020302020302020302020302020302020302020302020302020312056323030300A20202031332E373134372020202D362E3934363420202020302E303030302043202020302020302020302020302020302020302020302020302020302020302020302020300A20202031332E373134372020202D382E3237363420202020302E303030302043202020302020302020302020302020302020302020302020302020302020302020302020300A20202031322E353632382020202D362E3238313420202020302E303030302043202020302020302020302020302020302020302020302020302020302020302020302020300A20202031322E353632382020202D382E3934313420202020302E303030302043202020302020302020302020302020302020302020302020302020302020302020302020300A20202031312E343131302020202D362E3934363420202020302E303030302043202020302020302020302020302020302020302020302020302020302020302020302020300A20202031312E343131302020202D382E3237363420202020302E303030302043202020302020302020302020302020302020302020302020302020302020302020302020300A20202031322E353632382020202D342E3935313420202020302E303030302043202020302020302020302020302020302020302020302020302020302020302020302020300A20202031322E3536323820202D31302E3237313420202020302E30303030204F202020302020302020302020302020302020302020302020302020302020302020302020300A20202031332E373134362020202D342E3238363420202020302E30303030204F202020302020302020302020302020302020302020302020302020302020302020302020300A2020322020312020312020302020302020302020300A2020332020312020322020302020302020302020300A2020342020322020322020302020302020302020300A2020352020332020312020302020302020302020300A2020362020342020312020302020302020302020300A2020362020352020322020302020302020302020300A2020332020372020312020302020302020302020300A2020342020382020312020302020302020302020300A2020372020392020312020302020302020302020300A4D2020454E44
Contributor: Ara T, Morishita Y, Shibata D, Kazusa DNA Research Institute
InstType: EI
InstName: Pegasus III TOF-MS system, Leco; GC 6890, Agilent Technologies
IoniMethod: EI
IonPolarity: pos
Date: 2010-10-09 19:48:36+02:00
Num Peaks: 133
82 58 83 20 84 2 85 31 86 3 87 18 88 4 89 180 90 79 91 87 
92 7 93 10 94 1 95 24 96 6 97 9 98 2 99 5 101 5 102 16 
103 77 104 79 105 81 106 54 107 22 108 2 109 6 110 1 111 11 112 3 
113 1 115 12 116 3 117 15 118 6 119 88 120 7 121 10 122 2 123 5 
124 1 125 1 127 1 129 1 131 16 132 3 133 36 134 7 135 17 136 4 
137 7 138 2 139 1 143 4 144 1 145 13 146 3 147 542 148 51 149 30 
150 5 151 14 152 5 153 1 159 1 160 1 161 14 162 6 163 74 164 24 
165 36 166 2 167 1 175 1 176 1 177 25 178 13 179 999 180 89 181 8 
190 4 191 9 192 4 193 36 194 7 195 7 196 2 207 11 208 6 209 31 
210 16 211 6 212 1 219 2 220 2 221 3 222 1 223 73 224 22 225 21 
226 8 227 3 228 1 235 7 236 6 237 28 238 21 239 5 240 1 243 1 
244 1 245 1 246 1 247 1 249 1 251 10 252 4 253 339 254 82 255 18 
256 2 259 1 260 1 261 1 262 1 263 1 264 1 265 1 266 6 267 126 
268 191 269 38 270 11 
