Name: alpha-Tocopherol
CAS: 59-02-9
MW: 430
Formula: C29H50O2
Synonym: KEGG: C02477
Synonym: MassBank: KZ000184
Synonym: alpha-Tocopherol
Structure: 33312033322020302020302020312020302020302020302020302020303939392056323030300A20202020392E3932303520202D31332E3932353320202020302E303030302043202020302020302020302020302020302020302020302020302020302020302020302020300A20202020392E3932303520202D31322E3535343720202020302E303030302043202020302020302020302020302020302020302020302020302020302020302020302020300A20202031312E3136323020202D31342E3635303520202020302E30303030204F202020302020302020302020302020302020302020302020302020302020302020302020300A20202020382E3734363820202D31342E3635303520202020302E303030302043202020302020302020302020302020302020302020302020302020302020302020302020300A20202031312E3136323020202D31312E3833353620202020302E303030302043202020302020302020302020302020302020302020302020302020302020302020302020300A20202020382E3734363820202D31312E3833353620202020302E303030302043202020302020302020302020302020302020302020302020302020302020302020302020300A20202031322E3334313820202D31332E3932353320202020302E303030302043202020302020302020312020302020302020302020302020302020302020302020302020300A20202020372E3530353320202D31332E3932353320202020302E303030302043202020302020302020302020302020302020302020302020302020302020302020302020300A20202020382E3734363820202D31362E3034353420202020302E303030302043202020302020302020302020302020302020302020302020302020302020302020302020300A20202031322E3334313820202D31322E3535343720202020302E303030302043202020302020302020302020302020302020302020302020302020302020302020302020300A20202020372E3530353320202D31322E3535343720202020302E303030302043202020302020302020302020302020302020302020302020302020302020302020302020300A20202020382E3734363820202D31302E3434303720202020302E303030302043202020302020302020302020302020302020302020302020302020302020302020302020300A20202031332E3539353620202D31342E3635303520202020302E303030302043202020302020302020302020302020302020302020302020302020302020302020302020300A20202031322E3334313820202D31352E3330313920202020302E303030302043202020302020302020302020302020302020302020302020302020302020302020302020300A20202020362E3237303020202D31342E3635303520202020302E303030302043202020302020302020302020302020302020302020302020302020302020302020302020300A20202020362E3237303020202D31312E3833353620202020302E30303030204F202020302020302020302020302020302020302020302020302020302020302020302020300A20202031342E3738373820202D31342E3031313220202020302E303030302043202020302020302020302020302020302020302020302020302020302020302020302020300A20202031362E3031303720202D31342E3732343120202020302E303030302043202020302020302020302020302020302020302020302020302020302020302020302020300A20202031372E3235323220202D31342E3038353020202020302E303030302043202020302020302020312020302020302020302020302020302020302020302020302020300A20202031382E3436323920202D31342E3831303120202020302E303030302043202020302020302020302020302020302020302020302020302020302020302020302020300A20202031372E3239353220202D31322E3732363720202020302E303030302043202020302020302020302020302020302020302020302020302020302020302020302020300A20202031392E3639323120202D31342E3038353020202020302E303030302043202020302020302020302020302020302020302020302020302020302020302020302020300A20202032302E3837383120202D31342E3831303120202020302E303030302043202020302020302020302020302020302020302020302020302020302020302020302020300A20202032322E3131393520202D31342E3132313820202020302E303030302043202020302020302020312020302020302020302020302020302020302020302020302020300A20202032332E3331373820202D31342E3837373720202020302E303030302043202020302020302020302020302020302020302020302020302020302020302020302020300A20202032322E3131393520202D31322E3736393920202020302E303030302043202020302020302020302020302020302020302020302020302020302020302020302020300A20202032342E3533343720202D31342E3139353620202020302E303030302043202020302020302020302020302020302020302020302020302020302020302020302020300A20202032352E3732303820202D31342E3934353420202020302E303030302043202020302020302020302020302020302020302020302020302020302020302020302020300A20202032362E3935303020202D31342E3139353620202020302E303030302043202020302020302020332020302020302020302020302020302020302020302020302020300A20202032362E3935303020202D31322E3834333620202020302E303030302043202020302020302020302020302020302020302020302020302020302020302020302020300A20202032382E3134383420202D31342E3934353420202020302E303030302043202020302020302020302020302020302020302020302020302020302020302020302020300A2020312020322020312020302020202020302020300A2020312020332020312020302020202020302020300A2020312020342020322020302020202020302020300A2020322020352020312020302020202020302020300A2020322020362020322020302020202020302020300A2020332020372020312020302020202020302020300A2020342020382020312020302020202020302020300A2020342020392020312020302020202020302020300A2020352031302020312020302020202020302020300A2020362031312020312020302020202020302020300A2020362031322020312020302020202020302020300A2020372031332020312020312020202020302020300A2020372031342020312020302020202020302020300A2020382031352020312020302020202020302020300A2031312031362020312020302020202020302020300A2031332031372020312020302020202020302020300A2031372031382020312020302020202020302020300A2031382031392020312020302020202020302020300A2031392032302020312020302020202020302020300A2031392032312020312020362020202020302020300A2032302032322020312020302020202020302020300A2032322032332020312020302020202020302020300A2032332032342020312020302020202020302020300A2032342032352020312020302020202020302020300A2032342032362020312020362020202020302020300A2032352032372020312020302020202020302020300A2032372032382020312020302020202020302020300A2032382032392020312020302020202020302020300A2032392033302020312020302020202020302020300A2032392033312020312020302020202020302020300A2020372031302020312020302020202020302020300A2020382031312020322020302020202020302020300A4D2020454E44
Contributor: Ara T, Morishita Y, Shibata D, Kazusa DNA Research Institute
InstType: EI
InstName: Pegasus III TOF-MS system, Leco; GC 6890, Agilent Technologies
IoniMethod: EI
IonPolarity: pos
Date: 2010-10-09 19:48:36+02:00
Num Peaks: 214
82 11 83 62 84 10 85 43 86 3 87 3 88 3 89 8 90 1 91 56 
92 7 93 18 94 3 95 44 96 7 97 32 98 4 99 8 100 1 101 1 
102 2 103 21 104 6 105 33 106 5 107 18 108 4 109 21 110 3 111 20 
112 2 113 3 115 21 116 6 117 25 118 6 119 63 120 10 121 18 122 2 
123 11 124 3 125 4 126 2 127 5 128 13 129 14 130 6 131 22 132 4 
133 21 134 7 135 19 136 12 137 6 138 2 139 2 140 1 141 5 142 4 
143 9 144 5 145 16 146 4 147 13 148 8 149 26 150 4 151 4 152 2 
153 2 154 1 155 3 156 2 157 6 158 4 159 21 160 4 161 13 162 4 
163 19 164 8 165 24 166 4 167 2 168 1 169 2 170 1 171 4 172 4 
173 10 174 4 175 11 176 4 177 26 178 10 179 15 180 3 181 2 183 1 
185 3 186 3 187 13 188 3 189 14 190 4 191 19 192 9 193 48 194 15 
195 6 196 1 197 1 198 1 199 2 200 1 201 5 202 2 203 10 204 8 
205 16 206 9 207 31 208 65 209 31 210 9 211 2 213 1 214 1 215 3 
216 2 217 6 218 4 219 12 220 12 221 58 222 18 223 50 224 18 225 6 
226 2 227 1 228 1 229 3 230 3 231 7 232 4 233 15 234 15 235 24 
236 609 237 999 238 224 239 56 240 8 241 1 242 1 243 2 244 3 245 5 
246 4 247 15 248 10 249 18 250 6 251 4 257 1 258 1 259 4 260 3 
261 17 262 17 263 13 264 2 273 1 274 1 275 21 276 9 277 71 278 16 
279 4 289 1 290 1 291 1 304 1 318 1 332 2 333 1 345 1 346 3 
347 1 348 1 360 4 361 2 362 1 374 2 375 1 388 2 389 1 390 1 
402 1 403 1 413 1 414 1 415 1 416 2 417 1 428 1 430 2 431 1 
460 1 487 1 488 1 500 4 
