Name: Nonadecanoic acid methyl ester
CAS: 1731-94-8
MW: 312
Formula: C20H40O2
Synonym: MassBank: KZ000251
Synonym: Nonadecanoic acid methyl ester
Structure: 32332032322020302020302020302020302020302020302020302020303939392056323030300A2020202D332E3933333720202020302E3136393920202020302E303030302043202020302020302020302020302020302020302020302020302020302020302020302020300A2020202D332E3230303520202020302E3538313120202020302E303030302043202020302020302020302020302020302020302020302020302020302020302020302020300A2020202D342E3634323920202020302E3538373120202020302E303030302043202020302020302020302020302020302020302020302020302020302020302020302020300A2020202D322E3439373220202020302E3136333920202020302E303030302043202020302020302020302020302020302020302020302020302020302020302020302020300A2020202D352E3335323220202020302E3138313820202020302E303030302043202020302020302020302020302020302020302020302020302020302020302020302020300A2020202D312E3737363120202020302E3536393220202020302E303030302043202020302020302020302020302020302020302020302020302020302020302020302020300A2020202D362E3037333320202020302E3539393120202020302E30303030204F202020302020302020302020302020302020302020302020302020302020302020302020300A2020202D352E333538312020202D302E3631363920202020302E30303030204F202020302020302020302020302020302020302020302020302020302020302020302020300A2020202D312E3036303920202020302E3135313920202020302E303030302043202020302020302020302020302020302020302020302020302020302020302020302020300A2020202D362E3738383520202020302E3139393620202020302E303030302043202020302020302020302020302020302020302020302020302020302020302020302020300A2020202D302E3334353720202020302E3535373220202020302E303030302043202020302020302020302020302020302020302020302020302020302020302020302020300A2020202D372E3530393620202020302E3631363920202020302E303030302043202020302020302020302020302020302020302020302020302020302020302020302020300A20202020302E3334353720202020302E3134303020202020302E303030302043202020302020302020302020302020302020302020302020302020302020302020302020300A20202020312E3036303920202020302E3534353320202020302E303030302043202020302020302020302020302020302020302020302020302020302020302020302020300A20202020312E3737363120202020302E3132383220202020302E303030302043202020302020302020302020302020302020302020302020302020302020302020302020300A20202020322E3439373220202020302E3533333420202020302E303030302043202020302020302020302020302020302020302020302020302020302020302020302020300A20202020332E3230303520202020302E3132323220202020302E303030302043202020302020302020302020302020302020302020302020302020302020302020302020300A20202020332E3933333720202020302E3532373520202020302E303030302043202020302020302020302020302020302020302020302020302020302020302020302020300A20202020342E3634323920202020302E3131303320202020302E303030302043202020302020302020302020302020302020302020302020302020302020302020302020300A20202020352E3335323220202020302E3531353620202020302E303030302043202020302020302020302020302020302020302020302020302020302020302020302020300A20202020362E3037333320202020302E3039323520202020302E303030302043202020302020302020302020302020302020302020302020302020302020302020302020300A20202020362E3738383520202020302E3530333720202020302E303030302043202020302020302020302020302020302020302020302020302020302020302020302020300A20202020372E3530393620202020302E3038363420202020302E303030302043202020302020302020302020302020302020302020302020302020302020302020302020300A2020312020322020312020302020202020200A2020312020332020312020302020202020200A2020322020342020312020302020202020200A2020332020352020312020302020202020200A2020342020362020312020302020202020200A2020352020372020312020302020202020200A2020352020382020322020302020202020200A2020362020392020312020302020202020200A2020372031302020312020302020202020200A2020392031312020312020302020202020200A2031302031322020312020302020202020200A2031312031332020312020302020202020200A2031332031342020312020302020202020200A2031342031352020312020302020202020200A2031352031362020312020302020202020200A2031362031372020312020302020202020200A2031372031382020312020302020202020200A2031382031392020312020302020202020200A2031392032302020312020302020202020200A2032302032312020312020302020202020200A2032312032322020312020302020202020200A2032322032332020312020302020202020200A56202020203120300A56202020203220310A56202020203320320A56202020203420330A56202020203520340A56202020203620350A56202020203720360A56202020203820370A56202020203920380A56202020313020390A5620202031312031300A5620202031322031310A5620202031332031320A5620202031342031330A5620202031352031340A5620202031362031350A5620202031372031360A5620202031382031370A5620202031392031380A5620202032302031390A5620202032312032300A5620202032322032310A5620202032332032320A4D2020454E44
Contributor: Ara T, Morishita Y, Shibata D, Kazusa DNA Research Institute
InstType: EI
InstName: Pegasus III TOF-MS system, Leco; GC 6890, Agilent Technologies
IoniMethod: EI
IonPolarity: pos
Date: 2010-10-09 19:48:36+02:00
Num Peaks: 100
82 28 83 189 84 59 85 55 86 1 87 999 88 73 91 3 92 3 93 27 
94 5 95 79 96 25 97 170 98 77 99 27 100 8 101 177 102 18 103 7 
106 2 107 22 108 3 109 54 110 11 111 78 112 7 113 12 114 3 115 64 
116 18 117 1 118 1 119 4 121 29 122 4 123 19 124 3 125 34 127 11 
128 1 129 143 130 21 131 5 133 2 134 2 135 6 137 12 138 6 139 18 
140 2 141 4 143 307 144 22 145 2 149 6 151 1 152 4 153 9 157 78 
158 12 159 1 161 1 163 5 164 1 167 2 171 31 175 1 177 4 179 1 
180 1 181 1 183 1 185 29 186 6 196 2 198 1 199 65 213 70 214 4 
215 3 227 24 231 1 238 2 241 17 242 2 247 2 254 1 255 27 256 5 
269 102 270 13 278 1 281 24 282 1 283 15 284 2 311 2 312 55 313 12 
