Name: L-Histidine
CAS: 71-00-1
MW: 155
Formula: C6H9N3O2
Synonym: KEGG: C00135
Synonym: MassBank: KZ000155
Synonym: L-Histidine
Structure: 31312031312020302020302020312020302020302020302020302020303939392056323030300A20202032342E3933303120202D31362E3137303420202020302E303030302043202020302020302020302020302020302020302020302020302020302020302020302020300A20202032332E3734313720202D31352E3438383720202020302E303030302043202020302020302020302020302020302020302020302020302020302020302020302020300A20202032342E3933303120202D31372E3431363920202020302E303030302043202020302020302020302020302020302020302020302020302020302020302020302020300A20202032372E3039373020202D31362E3137303420202020302E30303030204E202020302020302020302020302020302020302020302020302020302020302020302020300A20202032322E3534373620202D31362E3137303420202020302E303030302043202020302020302020312020302020302020302020302020302020302020302020302020300A20202032362E3030373720202D31382E3034303220202020302E30303030204E202020302020302020302020302020302020302020302020302020302020302020302020300A20202032372E3039373020202D31372E3431363920202020302E303030302043202020302020302020302020302020302020302020302020302020302020302020302020300A20202032312E3336353120202D31352E3438383720202020302E303030302043202020302020302020302020302020302020302020302020302020302020302020302020300A20202032322E3534373620202D31372E3534353120202020302E30303030204E202020302020302020302020302020302020302020302020302020302020302020302020300A20202032302E3137303920202D31362E3137303420202020302E30303030204F202020302020302020302020302020302020302020302020302020302020302020302020300A20202032312E3336353120202D31342E3130383220202020302E30303030204F202020302020302020302020302020302020302020302020302020302020302020302020300A2020312020322020312020302020202020302020300A2020312020332020322020302020202020302020300A2020312020342020312020302020202020302020300A2020322020352020312020302020202020302020300A2020332020362020312020302020202020302020300A2020342020372020322020302020202020302020300A2020352020382020312020302020202020302020300A2020352020392020312020362020202020302020300A2020382031302020312020302020202020302020300A2020382031312020322020302020202020302020300A2020362020372020312020302020202020302020300A4D2020454E44
Contributor: Ara T, Morishita Y, Shibata D, Kazusa DNA Research Institute
InstType: EI
InstName: Pegasus III TOF-MS system, Leco; GC 6890, Agilent Technologies
IoniMethod: EI
IonPolarity: pos
Date: 2010-10-09 19:48:36+02:00
Num Peaks: 119
82 41 83 18 84 23 85 12 86 10 87 3 88 1 89 1 92 1 93 3 
94 1 95 2 96 4 97 3 98 10 99 3 100 70 101 13 102 6 103 5 
105 1 108 1 109 2 110 7 111 5 112 14 113 3 114 1 115 3 116 2 
117 5 118 1 119 2 120 1 121 1 123 1 124 2 125 3 126 10 127 2 
128 3 129 1 130 7 131 8 132 12 133 8 134 2 135 1 136 1 137 1 
138 1 139 4 140 1 141 1 144 1 146 1 147 40 148 7 149 4 150 3 
151 3 152 1 153 35 154 999 155 218 156 51 157 7 158 2 159 2 160 2 
163 2 165 1 166 16 167 6 168 2 172 1 174 2 180 1 181 1 182 9 
183 4 184 2 194 1 202 1 203 2 211 2 213 1 218 35 219 7 220 3 
225 2 226 10 227 3 228 1 237 1 238 27 239 8 240 4 241 1 252 1 
253 2 254 158 255 39 256 15 257 9 258 2 266 6 267 2 268 1 328 3 
329 2 330 1 338 1 355 1 356 10 357 3 358 1 371 3 372 1 
