Name: Glycerol
CAS: 56-81-5
MW: 92
Formula: C3H8O3
Synonym: KEGG: C00116
Synonym: MassBank: KZ000032
Synonym: Glycerol
Structure: 310A31370A200A200A200A2020362020352020302020302020302020302020302020302020302020303939392056323030300A20202032302E3134313520202D32302E3136303020202020302E303030302043202020302020302020332020302020302020302020302020302020302020302020302020300A20202032302E3133353720202D31382E3736303020202020302E303030302043202020302020302020302020302020302020302020302020302020302020302020302020300A20202032302E3133353720202D32312E3536303020202020302E303030302043202020302020302020302020302020302020302020302020302020302020302020302020300A20202031382E3734313520202D32302E3135343220202020302E30303030204F202020302020302020302020302020302020302020302020302020302020302020302020300A20202032312E3533353720202D31382E3736303020202020302E30303030204F202020302020302020302020302020302020302020302020302020302020302020302020300A20202032312E3533353720202D32312E3536303020202020302E30303030204F202020302020302020302020302020302020302020302020302020302020302020302020300A2020312020322020312020302020202020302020300A2020312020332020312020302020202020302020300A2020312020342020312020302020202020302020300A2020322020352020312020302020202020302020300A2020332020362020312020302020202020302020300A4D2020454E44
Contributor: Ara T, Morishita Y, Shibata D, Kazusa DNA Research Institute
InstType: EI
InstName: Pegasus III TOF-MS system, Leco; GC 6890, Agilent Technologies
IoniMethod: EI
IonPolarity: pos
Date: 2010-10-09 19:48:36+02:00
Num Peaks: 78
83 2 84 3 85 21 87 32 88 20 89 106 90 9 94 1 95 1 99 11 
100 2 101 151 102 21 103 536 104 53 105 37 106 2 113 13 114 2 115 48 
116 39 117 599 118 59 119 58 120 5 121 3 128 2 129 89 130 11 131 95 
132 14 133 363 134 15 135 26 143 1 145 4 146 2 147 999 148 161 149 109 
150 13 151 5 152 1 159 6 160 1 161 3 162 1 163 15 164 2 165 2 
173 1 174 4 175 59 176 10 177 35 178 5 179 3 189 11 190 3 191 39 
192 8 193 3 203 42 204 56 205 362 206 72 207 33 208 4 209 1 217 21 
218 106 219 22 220 9 221 5 222 1 263 1 293 6 294 1 
