Name: L-Asparagine
CAS: 70-47-3
MW: 132
Formula: C4H8N2O3
Synonym: KEGG: C00152
Synonym: MassBank: KZ000041
Synonym: L-Asparagine
Structure: 310A32330A2020392020382020302020202020312020302020202020202020202020203939392056323030300A2020202D302E333036392020202D302E3034383320202020302E303030302043202020302020302020312020302020302020302020202020202020202020302020302020300A20202020302E3430303020202020302E3335383620202020302E303030302043202020302020302020302020302020302020302020202020202020202020302020302020300A2020202D312E3035383620202020302E3237393320202020302E303030302043202020302020302020302020302020302020302020202020202020202020302020302020300A2020202D302E323635352020202D302E3934343820202020302E30303030204E202020302020302020302020302020302020302020202020202020202020302020302020300A20202020312E313033352020202D302E3035353220202020302E303030302043202020302020302020302020302020302020302020202020202020202020302020302020300A2020202D312E373334352020202D302E3138363220202020302E30303030204F202020302020302020302020302020302020302020202020202020202020302020302020300A2020202D312E3130333520202020312E3039333120202020302E30303030204F202020302020302020302020302020302020302020202020202020202020302020302020300A20202020312E3834383320202020302E3335353220202020302E30303030204E202020302020302020302020302020302020302020202020202020202020302020302020300A20202020312E313133382020202D302E3834383320202020302E30303030204F202020302020302020302020302020302020302020202020202020202020302020302020300A2020312020322020312020302020202020302020300A2020312020332020312020302020202020302020300A2020312020342020312020362020202020302020300A2020322020352020312020302020202020302020300A2020332020362020312020302020202020302020300A2020332020372020322020302020202020302020300A2020352020382020312020302020202020302020300A2020352020392020322020302020202020302020300A4D2020454E44
Contributor: Ara T, Morishita Y, Shibata D, Kazusa DNA Research Institute
InstType: EI
InstName: Pegasus III TOF-MS system, Leco; GC 6890, Agilent Technologies
IoniMethod: EI
IonPolarity: pos
Date: 2010-10-09 19:48:36+02:00
Num Peaks: 149
82 5 83 6 84 65 85 18 86 42 87 16 88 8 89 11 90 17 91 5 
92 3 93 4 94 1 95 3 96 3 97 4 98 51 99 19 100 280 101 40 
102 32 103 39 104 5 105 6 106 1 110 4 111 5 112 4 113 10 114 65 
115 100 116 999 117 132 118 52 119 11 120 2 121 1 123 1 124 1 125 26 
126 8 127 9 128 52 129 22 130 106 131 164 132 439 133 118 134 30 135 8 
136 1 139 3 140 10 141 491 142 87 143 40 144 40 145 7 146 23 147 440 
148 79 149 59 150 7 151 3 153 6 154 37 155 5 156 6 157 4 158 12 
159 85 160 14 161 6 162 1 163 4 164 1 168 1 169 17 170 5 171 6 
172 24 173 7 174 17 175 4 176 4 177 2 178 1 183 1 184 2 185 1 
186 2 187 1 188 221 189 49 190 37 191 7 192 2 197 1 198 1 199 7 
200 4 201 5 202 84 203 21 204 27 205 6 206 5 207 1 208 1 213 15 
214 9 215 43 216 27 217 13 218 85 219 17 220 9 221 2 227 1 228 2 
229 6 230 5 231 376 232 88 233 36 234 6 235 1 241 4 242 6 243 32 
244 13 245 9 246 2 258 47 259 14 260 5 261 1 262 3 263 1 292 1 
316 7 317 4 318 1 333 16 334 5 335 2 348 12 349 4 350 1 
