Name: O-Phospho-L-serine
CAS: 407-41-0
MW: 185
Formula: C3H8NO6P
Synonym: KEGG: C01005
Synonym: MassBank: KZ000257
Synonym: O-Phospho-L-serine
Structure: 31312031302020302020302020312020302020302020302020302020303939392056323030300A20202032332E3333333720202D31372E3535363720202020302E303030302050202020302020302020332020302020302020302020302020302020302020302020302020300A20202032312E3933353820202D31372E3536333220202020302E30303030204F202020302020302020302020302020302020302020302020302020302020302020302020300A20202032342E3733313520202D31372E3535363720202020302E30303030204F202020302020302020302020302020302020302020302020302020302020302020302020300A20202032332E3332373220202D31362E3038323420202020302E30303030204F202020302020302020302020302020302020302020302020302020302020302020302020300A20202032332E3333333720202D31382E3935343620202020302E30303030204F202020302020302020302020302020302020302020302020302020302020302020302020300A20202032312E3933353820202D31362E3135383920202020302E303030302043202020302020302020302020302020302020302020302020302020302020302020302020300A20202032302E3732343720202D31352E3435363720202020302E303030302043202020302020302020312020302020302020302020302020302020302020302020302020300A20202032302E3732343720202D31342E3035383720202020302E303030302043202020302020302020302020302020302020302020302020302020302020302020302020300A20202031392E3531333520202D31362E3135383920202020302E30303030204E202020302020302020302020302020302020302020302020302020302020302020302020300A20202032312E3933353820202D31332E3335363720202020302E30303030204F202020302020302020302020302020302020302020302020302020302020302020302020300A20202031392E3531333520202D31332E3335363720202020302E30303030204F202020302020302020302020302020302020302020302020302020302020302020302020300A2020312020322020312020302020202020302020300A2020312020332020312020302020202020302020300A2020312020342020312020302020202020302020300A2020312020352020322020302020202020302020300A2020322020362020312020302020202020302020300A2020362020372020312020302020202020302020300A2020372020382020312020302020202020302020300A2020372020392020312020362020202020302020300A2020382031302020312020302020202020302020300A2020382031312020322020302020202020302020300A4D2020454E44
Contributor: Ara T, Morishita Y, Shibata D, Kazusa DNA Research Institute
InstType: EI
InstName: Pegasus III TOF-MS system, Leco; GC 6890, Agilent Technologies
IoniMethod: EI
IonPolarity: pos
Date: 2010-10-09 19:48:36+02:00
Num Peaks: 223
82 4 83 24 84 39 85 32 86 44 87 53 88 88 89 63 90 13 91 33 
92 8 93 21 94 3 95 7 96 5 97 4 98 41 99 27 100 206 101 35 
102 36 103 88 104 18 105 38 106 13 107 28 108 4 109 12 110 2 111 4 
112 7 113 20 114 70 115 114 116 703 117 122 118 38 119 57 120 9 121 51 
122 7 123 25 124 2 125 4 126 2 127 3 128 16 129 41 130 27 131 79 
132 33 133 537 134 78 135 172 136 21 137 78 138 9 139 13 140 3 141 2 
142 5 143 15 144 322 145 41 146 25 147 235 148 39 149 38 150 7 151 33 
152 5 153 18 154 3 155 35 156 5 157 2 158 13 159 58 160 212 161 29 
162 10 163 17 164 4 165 17 166 4 167 22 168 4 169 4 170 1 171 2 
172 9 173 3 174 3 175 2 176 2 177 9 178 21 179 21 180 7 181 119 
182 20 183 54 184 12 185 6 186 1 187 2 188 33 189 14 190 6 191 31 
192 8 193 43 194 35 195 115 196 25 197 39 198 7 199 5 200 2 201 7 
202 2 203 3 204 2 205 6 206 3 207 52 208 13 209 13 210 20 211 999 
212 176 213 99 214 14 215 4 216 53 217 21 218 23 219 8 220 5 221 7 
222 4 223 5 224 2 225 72 226 18 227 335 228 58 229 35 230 5 231 4 
232 21 233 5 234 3 235 1 236 6 237 3 238 2 239 2 240 6 241 216 
242 46 243 367 244 80 245 35 246 6 247 2 249 1 250 1 251 1 252 16 
253 7 254 3 255 7 256 75 257 14 258 7 259 1 260 1 261 1 262 1 
267 2 268 11 269 8 270 3 271 2 272 1 273 3 274 1 275 1 282 1 
283 30 284 664 285 146 286 65 287 10 288 2 295 2 296 3 297 2 298 21 
299 480 300 121 301 65 302 12 303 4 313 2 314 18 315 33 316 10 317 6 
318 1 326 1 328 5 342 2 355 6 356 62 357 19 358 9 359 2 369 2 
370 1 385 1 386 1 
