Name: beta-Alanine
CAS: 107-95-9
MW: 89
Formula: C3H7NO2
Synonym: KEGG: C00099
Synonym: MassBank: KZ000110
Synonym: beta-Alanine
Structure: 310A31370A2020362020352020302020202020302020302020202020202020202020203939392056323030300A20202020302E313137322020202D302E3334343820202020302E303030302043202020302020302020302020302020302020302020202020202020202020302020302020300A2020202D302E3539363620202020302E3036393020202020302E303030302043202020302020302020302020302020302020302020202020202020202020302020302020300A20202020302E3833373920202020302E3036393020202020302E303030302043202020302020302020302020302020302020302020202020202020202020302020302020300A2020202D312E333137322020202D302E3334383320202020302E30303030204F202020302020302020302020302020302020302020202020202020202020302020302020300A2020202D302E3539363620202020302E3930303020202020302E30303030204F202020302020302020302020302020302020302020202020202020202020302020302020300A20202020312E353535322020202D302E3334343820202020302E30303030204E202020302020302020302020302020302020302020202020202020202020302020302020300A2020312020322020312020302020202020302020300A2020312020332020312020302020202020302020300A2020322020342020312020302020202020302020300A2020322020352020322020302020202020302020300A2020332020362020312020302020202020302020300A4D2020454E44
Contributor: Ara T, Morishita Y, Shibata D, Kazusa DNA Research Institute
InstType: EI
InstName: Pegasus III TOF-MS system, Leco; GC 6890, Agilent Technologies
IoniMethod: EI
IonPolarity: pos
Date: 2010-10-09 19:48:36+02:00
Num Peaks: 149
82 1 83 7 84 11 85 36 86 671 87 91 88 37 89 7 90 1 95 11 
96 4 97 3 98 7 99 99 100 434 101 87 102 59 103 28 104 7 105 8 
106 1 109 2 110 1 111 1 112 3 113 15 114 23 115 23 116 33 117 58 
118 13 119 20 120 4 121 2 122 1 123 1 124 1 125 1 126 2 127 1 
128 4 129 13 130 162 131 83 132 30 133 211 134 46 135 21 136 4 137 2 
138 3 139 1 140 2 141 1 142 17 143 5 144 8 145 5 146 38 147 455 
148 82 149 39 150 6 151 2 156 1 157 1 158 9 159 3 160 32 161 8 
162 3 163 2 171 1 172 17 173 17 174 999 175 207 176 85 177 12 178 3 
186 1 187 3 188 22 189 11 190 18 191 7 192 3 193 1 200 3 201 1 
202 8 203 2 204 18 205 9 206 4 207 1 214 2 215 2 216 9 217 4 
218 4 219 4 220 1 221 1 228 1 229 1 231 1 232 64 233 15 234 6 
235 1 247 2 248 551 249 216 250 179 251 39 252 10 253 1 262 2 263 1 
264 1 265 1 266 2 267 2 268 2 269 1 270 1 271 1 272 1 273 1 
274 2 275 2 276 2 277 1 278 1 279 1 280 1 281 1 288 1 289 7 
290 62 291 63 292 32 293 8 294 2 304 56 305 21 306 10 307 2 
