Name: L-Histidinol
MW: 141
Formula: C6H11N3O
Synonym: KEGG: C00860
Synonym: MassBank: KZ000156
Synonym: L-Histidinol
Structure: 31302031302020302020202020312020302020202020202020202020203939392056323030300A20202020362E383237332020202D362E3933383420202020302E303030302043202020302020302020302020302020302020302020202020202020202020302020302020300A20202020362E313238302020202D362E3533393120202020302E303030302043202020302020302020302020302020302020302020202020202020202020302020302020300A20202020362E383237332020202D372E3637363320202020302E303030302043202020302020302020302020302020302020302020202020202020202020302020302020300A20202020382E313031372020202D362E3933383420202020302E30303030204E202020302020302020302020302020302020302020202020202020202020302020302020300A20202020352E343235332020202D362E3933383420202020302E303030302043202020302020302020312020302020302020302020202020202020202020302020302020300A20202020372E343631312020202D382E3034313120202020302E30303030204E202020302020302020302020302020302020302020202020202020202020302020302020300A20202020382E313031372020202D372E3637363320202020302E303030302043202020302020302020302020302020302020302020202020202020202020302020302020300A20202020342E373235332020202D362E3533393120202020302E303030302043202020302020302020302020302020302020302020202020202020202020302020302020300A20202020342E303232352020202D362E3933383420202020302E30303030204F202020302020302020302020302020302020302020202020202020202020302020302020300A20202020352E343233352020202D372E3736333420202020302E30303030204E202020302020302020302020302020302020302020202020202020202020302020302020300A2020312020322020312020302020202020302020300A2020312020332020322020302020202020302020300A2020312020342020312020302020202020302020300A2020322020352020312020302020202020302020300A2020332020362020312020302020202020302020300A2020342020372020322020302020202020302020300A2020352020382020312020302020202020302020300A2020382020392020312020302020202020302020300A2020362020372020312020302020202020302020300A2020352031302020312020362020202020302020300A4D2020454E44
Contributor: Ara T, Morishita Y, Shibata D, Kazusa DNA Research Institute
InstType: EI
InstName: Pegasus III TOF-MS system, Leco; GC 6890, Agilent Technologies
IoniMethod: EI
IonPolarity: pos
Date: 2010-10-09 19:48:36+02:00
Num Peaks: 166
82 109 83 45 84 55 85 29 86 24 87 12 88 40 89 27 90 5 91 1 
92 2 93 3 94 3 95 14 96 13 97 11 98 33 99 11 100 138 101 21 
102 15 103 18 104 3 105 4 106 1 107 8 108 3 109 5 110 19 111 13 
112 40 113 14 114 65 115 26 116 126 117 22 118 9 119 5 120 2 121 3 
122 2 123 5 124 6 125 10 126 18 127 7 128 8 129 3 130 29 131 25 
132 23 133 24 134 5 135 5 136 3 137 3 138 4 139 14 140 5 141 8 
142 2 143 2 144 2 145 1 146 14 147 105 148 21 149 11 150 10 151 12 
152 5 153 188 154 999 155 409 156 77 157 16 158 8 159 2 160 1 161 1 
162 3 163 3 164 2 165 4 166 37 167 31 168 8 169 3 170 3 171 1 
172 6 173 2 174 5 175 1 176 2 177 1 178 2 179 8 180 7 181 6 
182 24 183 5 184 5 185 1 186 1 188 68 189 16 190 6 191 1 192 1 
193 1 194 4 195 4 196 3 197 4 198 3 199 3 200 2 201 1 202 3 
203 13 204 767 205 141 206 62 207 8 208 2 209 1 210 2 211 8 212 3 
213 4 214 1 222 1 223 2 224 3 225 9 226 137 227 38 228 15 229 3 
237 1 238 40 239 14 240 5 241 1 250 1 251 1 252 35 253 27 254 684 
255 152 256 62 257 9 258 1 266 1 267 2 268 6 269 2 270 1 326 2 
327 1 341 4 342 41 343 14 344 6 345 1 
