Name: Taurine
CAS: 107-35-7
MW: 125
Formula: C2H7NO3S
Synonym: KEGG: C00245
Synonym: MassBank: KZ000076
Synonym: Taurine
Structure: 310A31390A200A200A200A2020372020362020302020302020302020302020302020302020302020303939392056323030300A20202032362E3330363720202D31372E3533323820202020302E303030302043202020302020302020302020302020302020302020302020302020302020302020302020300A20202032372E3531363320202D31362E3833353020202020302E303030302053202020302020302020332020302020302020302020302020302020302020302020302020300A20202032352E3039313420202D31362E3833353020202020302E303030302043202020302020302020302020302020302020302020302020302020302020302020302020300A20202032382E3732353620202D31372E3533323820202020302E30303030204F202020302020302020302020302020302020302020302020302020302020302020302020300A20202032332E3838323020202D31372E3533323820202020302E30303030204E202020302020302020302020302020302020302020302020302020302020302020302020300A20202032382E3634343520202D31352E3938363320202020302E30303030204F202020302020302020302020302020302020302020302020302020302020302020302020300A20202032362E3330353620202D31362E3133363020202020302E30303030204F202020302020302020302020302020302020302020302020302020302020302020302020300A2020312020322020312020302020202020302020300A2020312020332020312020302020202020302020300A2020322020342020312020302020202020302020300A2020332020352020312020302020202020302020300A2020322020362020322020302020202020302020300A2020322020372020322020302020202020302020300A4D2020454E44
Contributor: Ara T, Morishita Y, Shibata D, Kazusa DNA Research Institute
InstType: EI
InstName: Pegasus III TOF-MS system, Leco; GC 6890, Agilent Technologies
IoniMethod: EI
IonPolarity: pos
Date: 2010-10-09 19:48:36+02:00
Num Peaks: 145
82 2 83 5 84 19 85 30 86 275 87 51 88 21 89 14 90 4 91 4 
92 4 93 34 94 3 95 15 96 2 97 2 98 15 99 20 100 532 101 81 
102 55 103 38 104 9 105 16 106 3 107 3 108 2 109 1 110 1 111 1 
112 2 113 39 114 120 115 59 116 52 117 63 118 13 119 36 120 5 121 4 
122 7 123 9 124 2 125 1 126 1 127 1 128 3 129 14 130 282 131 139 
132 49 133 398 134 59 135 35 136 4 137 5 138 1 139 1 140 1 141 1 
142 3 143 2 144 5 145 4 146 35 147 999 148 169 149 95 150 11 151 8 
152 8 153 15 154 2 155 1 156 3 157 1 158 13 159 3 160 96 161 18 
162 8 163 1 164 1 165 4 170 1 171 2 172 92 173 20 174 400 175 75 
176 34 177 5 178 1 180 2 181 1 182 1 186 1 187 6 188 211 189 43 
190 19 191 5 192 1 193 1 194 1 195 4 196 12 197 3 198 1 204 6 
205 3 206 1 207 1 209 2 210 3 211 21 212 4 213 2 225 133 226 24 
227 18 228 2 229 1 238 94 239 17 240 13 241 3 242 1 246 1 248 37 
249 10 250 4 252 4 253 1 254 4 255 1 262 1 324 1 325 18 326 519 
327 150 328 97 329 21 330 7 331 1 
