Name: N-6-(delta-2-Isopentenyl)adenosine
CAS: 7724-76-7
MW: 335
Formula: C15H21N5O4
Synonym: MassBank: KZ000166
Synonym: N-6-(delta-2-Isopentenyl)adenosine
Structure: 31352031362020302020302020302020302020302020302020302020303939392056323030300A20202031392E3936373620202D31382E3238373020202020302E303030302043202020302020302020302020302020302020302020302020302020302020302020302020300A20202031392E3936373620202D31392E3639363320202020302E303030302043202020302020302020302020302020302020302020302020302020302020302020302020300A20202031382E3735303420202D31372E3538383720202020302E303030302043202020302020302020302020302020302020302020302020302020302020302020302020300A20202032312E3331323720202D31372E3835313420202020302E30303030204E202020302020302020302020302020302020302020302020302020302020302020302020300A20202032312E3330363420202D32302E3131393120202020302E30303030204E202020302020302020302020302020302020302020302020302020302020302020302020300A20202031382E3735303420202D32302E3430373420202020302E30303030204E202020302020302020302020302020302020302020302020302020302020302020302020300A20202031372E3533393720202D31382E3238373020202020302E30303030204E202020302020302020302020302020302020302020302020302020302020302020302020300A20202031382E3734343120202D31362E3139323320202020302E30303030204E202020302020302020302020302020302020302020302020302020302020302020302020300A20202032322E3132363420202D31382E3939383020202020302E303030302043202020302020302020302020302020302020302020302020302020302020302020302020300A20202031372E3533393720202D31392E3639363320202020302E303030302043202020302020302020302020302020302020302020302020302020302020302020302020300A20202031372E3533393720202D31352E3530303520202020302E303030302043202020302020302020302020302020302020302020302020302020302020302020302020300A20202031362E3332393120202D31362E3139323320202020302E303030302043202020302020302020302020302020302020302020302020302020302020302020302020300A20202031352E3132343820202D31352E3530303520202020302E303030302043202020302020302020302020302020302020302020302020302020302020302020302020300A20202031332E3932303420202D31362E3139323320202020302E303030302043202020302020302020302020302020302020302020302020302020302020302020302020300A20202031352E3132343820202D31342E3130333920202020302E303030302043202020302020302020302020302020302020302020302020302020302020302020302020300A2020312020322020322020302020202020302020300A2020312020332020312020302020202020302020300A2020312020342020312020302020202020302020300A2020322020352020312020302020202020302020300A2020322020362020312020302020202020302020300A2020332020372020322020302020202020302020300A2020332020382020312020302020202020302020300A2020342020392020322020302020202020302020300A2020362031302020322020302020202020302020300A2020382031312020312020302020202020302020300A2031312031322020312020302020202020302020300A2031322031332020322020302020202020302020300A2031332031342020312020302020202020302020300A2031332031352020312020302020202020302020300A2020352020392020312020302020202020302020300A2020372031302020312020302020202020302020300A4D2020454E44
Contributor: Ara T, Morishita Y, Shibata D, Kazusa DNA Research Institute
InstType: EI
InstName: Pegasus III TOF-MS system, Leco; GC 6890, Agilent Technologies
IoniMethod: EI
IonPolarity: pos
Date: 2010-10-09 19:48:36+02:00
Num Peaks: 176
82 43 83 34 84 394 85 135 86 43 87 14 88 11 89 6 90 5 91 14 
92 63 93 96 94 60 95 55 96 32 97 28 98 36 99 108 100 40 101 156 
102 18 103 9 104 8 105 29 106 31 107 35 108 56 109 43 110 27 111 71 
112 15 113 12 114 3 115 5 116 2 117 6 118 13 119 128 120 50 121 39 
122 27 123 62 124 23 125 16 126 14 127 2 128 1 129 1 130 3 131 11 
132 26 133 30 134 34 135 65 136 47 137 28 138 45 139 12 140 5 141 1 
142 3 143 2 144 7 145 9 146 13 147 12 148 28 149 18 150 44 151 31 
152 20 153 6 154 2 155 1 156 2 157 3 158 13 159 54 160 105 161 68 
162 26 163 11 164 57 165 107 166 75 167 13 168 4 169 1 170 1 171 12 
172 17 173 15 174 12 175 47 176 25 177 20 178 14 179 22 180 27 181 7 
182 2 183 1 184 2 185 40 186 31 187 13 188 49 189 10 190 10 191 39 
192 468 193 87 194 23 195 3 196 1 197 1 198 1 199 1 200 8 201 4 
202 35 203 10 204 5 205 7 206 88 207 154 208 34 209 8 210 1 215 1 
216 18 217 10 218 6 219 7 220 46 221 9 222 2 228 1 229 1 230 3 
231 21 232 999 233 252 234 70 235 10 236 1 242 1 243 12 244 13 245 27 
246 13 247 31 248 10 249 3 250 1 251 1 252 1 253 1 254 1 256 1 
257 22 258 13 259 28 260 461 261 96 262 26 263 4 264 2 265 1 272 2 
273 1 274 37 275 151 276 33 277 8 278 1 
