Name: L-Norvaline
CAS: 6600-40-4
MW: 117
Formula: C5H11NO2
Synonym: KEGG: C01826
Synonym: MassBank: KZ000235
Synonym: L-Norvaline
Structure: 310A32310A200A200A200A2020382020372020302020302020312020302020302020302020302020303939392056323030300A20202032312E3532323820202D31352E3739393820202020302E303030302043202020302020302020312020302020302020302020302020302020302020302020302020300A20202032322E3733393920202D31362E3530313820202020302E303030302043202020302020302020302020302020302020302020302020302020302020302020302020300A20202032312E3532323820202D31342E3430323320202020302E303030302043202020302020302020302020302020302020302020302020302020302020302020302020300A20202032302E3331323120202D31362E3530313820202020302E30303030204E202020302020302020302020302020302020302020302020302020302020302020302020300A20202032322E3733393920202D31372E3930353620202020302E303030302043202020302020302020302020302020302020302020302020302020302020302020302020300A20202032322E3733393920202D31332E3730363920202020302E30303030204F202020302020302020302020302020302020302020302020302020302020302020302020300A20202032302E3331323120202D31332E3730363920202020302E30303030204F202020302020302020302020302020302020302020302020302020302020302020302020300A20202032332E3935303620202D31382E3630313120202020302E303030302043202020302020302020302020302020302020302020302020302020302020302020302020300A2020312020322020312020302020202020302020300A2020312020332020312020302020202020302020300A2020312020342020312020362020202020302020300A2020322020352020312020302020202020302020300A2020332020362020312020302020202020302020300A2020332020372020322020302020202020302020300A2020352020382020312020302020202020302020300A4D2020454E44
Contributor: Ara T, Morishita Y, Shibata D, Kazusa DNA Research Institute
InstType: EI
InstName: Pegasus III TOF-MS system, Leco; GC 6890, Agilent Technologies
IoniMethod: EI
IonPolarity: pos
Date: 2010-10-09 19:48:36+02:00
Num Peaks: 84
82 9 83 6 84 17 85 14 86 13 87 10 88 7 89 4 90 1 91 2 
92 1 93 2 94 3 95 1 96 3 97 3 98 12 99 9 100 119 101 24 
102 34 103 45 104 5 105 9 106 1 107 3 108 1 110 16 111 1 112 6 
113 4 114 34 115 31 116 10 117 25 118 6 119 7 120 1 121 1 126 2 
128 25 129 10 130 18 131 21 132 16 133 36 134 14 135 2 136 1 141 1 
142 7 143 4 144 999 145 140 146 51 147 196 148 30 149 16 150 1 156 22 
157 5 158 8 159 3 160 2 163 1 172 3 173 1 174 5 175 2 176 1 
184 6 202 6 203 3 204 1 205 3 216 1 218 73 219 19 220 7 221 1 
228 8 246 10 247 1 248 1 
