Name: L-Cysteine
CAS: 52-90-4
MW: 121
Formula: C3H7NO2S
Synonym: KEGG: C00097
Synonym: MassBank: KZ000043
Synonym: L-Cysteine
Structure: 310A31390A200A200A200A2020372020362020302020302020312020302020302020302020302020303939392056323030300A20202032342E3531343120202D31352E3433373020202020302E303030302043202020302020302020322020302020302020302020302020302020302020302020302020300A20202032332E3334353920202D31342E3638393520202020302E303030302043202020302020302020302020302020302020302020302020302020302020302020302020300A20202032352E3732383920202D31342E3733363120202020302E303030302043202020302020302020302020302020302020302020302020302020302020302020302020300A20202032342E3536303920202D31362E3833383820202020302E30303030204E202020302020302020302020302020302020302020302020302020302020302020302020300A20202032322E3133313120202D31352E3334333620202020302E30303030204F202020302020302020302020302020302020302020302020302020302020302020302020300A20202032332E3334353920202D31332E3238373720202020302E30303030204F202020302020302020302020302020302020302020302020302020302020302020302020300A20202032362E3934333820202D31352E3438333820202020302E303030302053202020302020302020302020302020302020302020302020302020302020302020302020300A2020312020322020312020302020202020302020300A2020312020332020312020302020202020302020300A2020312020342020312020362020202020302020300A2020322020352020312020302020202020302020300A2020322020362020322020302020202020302020300A2020332020372020312020302020202020302020300A4D2020454E44
Contributor: Ara T, Morishita Y, Shibata D, Kazusa DNA Research Institute
InstType: EI
InstName: Pegasus III TOF-MS system, Leco; GC 6890, Agilent Technologies
IoniMethod: EI
IonPolarity: pos
Date: 2010-10-09 19:48:36+02:00
Num Peaks: 163
82 4 83 6 84 26 85 21 86 35 87 16 88 6 89 8 90 8 91 19 
92 4 93 6 94 1 95 2 96 2 97 1 98 17 99 11 100 520 101 81 
102 40 103 37 104 6 105 11 106 5 107 3 108 1 110 1 111 1 112 3 
113 5 114 54 115 156 116 80 117 34 118 11 119 8 120 18 121 3 122 2 
126 1 128 8 129 42 130 36 131 59 132 86 133 50 134 12 135 5 136 1 
137 1 141 1 142 5 143 4 144 32 145 13 146 919 147 512 148 207 149 53 
150 12 151 3 152 1 156 1 157 1 158 8 159 11 160 12 161 7 162 3 
163 10 164 2 165 2 170 1 172 19 173 5 174 21 175 5 176 5 177 1 
178 52 179 12 180 10 181 2 182 1 184 1 188 26 189 9 190 8 191 3 
192 1 193 1 194 1 198 1 200 2 201 1 202 7 203 14 204 7 205 3 
206 2 207 1 216 61 217 19 218 999 219 206 220 130 221 27 222 12 223 3 
224 1 230 1 231 4 232 106 233 23 234 10 235 2 236 1 246 2 247 1 
248 8 249 13 250 11 251 3 252 3 254 1 260 10 261 6 262 6 263 4 
264 107 265 54 266 171 267 40 268 23 269 4 270 1 288 15 289 13 290 5 
291 7 292 4 293 1 294 2 295 1 296 21 297 49 298 14 299 8 300 1 
321 1 322 5 323 2 324 1 338 8 339 3 340 2 410 7 411 74 412 28 
413 18 414 5 415 1 
