Name: MassBank: KZ000002
CAS: 109-76-2
MW: 74
Formula: C3H10N2
Synonym: KEGG: C00986
Synonym: MassBank: KZ000002
Synonym: 1,3-Diaminopropane
Structure: 310A31340A200A200A200A2020352020342020302020302020302020302020302020302020302020303939392056323030300A20202032322E3132303020202D31362E3532323920202020302E303030302043202020302020302020302020302020302020302020302020302020302020302020302020300A20202032302E3931313220202D31352E3832323120202020302E303030302043202020302020302020302020302020302020302020302020302020302020302020302020300A20202032332E3332383820202D31352E3832323120202020302E303030302043202020302020302020302020302020302020302020302020302020302020302020302020300A20202031392E3639363020202D31362E3532323920202020302E30303030204E202020302020302020302020302020302020302020302020302020302020302020302020300A20202032342E3534343020202D31362E3532323920202020302E30303030204E202020302020302020302020302020302020302020302020302020302020302020302020300A2020312020322020312020302020202020302020300A2020312020332020312020302020202020302020300A2020322020342020312020302020202020302020300A2020332020352020312020302020202020302020300A4D2020454E44
Contributor: Ara T, Morishita Y, Shibata D, Kazusa DNA Research Institute
InstType: EI
InstName: Pegasus III TOF-MS system, Leco; GC 6890, Agilent Technologies
IoniMethod: EI
IonPolarity: pos
Date: 2010-10-09 19:48:36+02:00
Num Peaks: 166
82 3 83 6 84 43 85 25 86 674 87 74 88 34 89 4 90 2 91 1 
94 1 96 2 97 3 98 18 99 13 100 303 101 53 102 47 103 15 104 5 
105 1 106 1 107 1 108 1 111 1 112 23 113 28 114 46 115 28 116 57 
117 51 118 11 119 4 120 1 122 1 123 1 124 1 125 2 126 8 127 5 
128 76 129 31 130 258 131 69 132 35 133 7 134 3 135 2 136 1 137 1 
138 1 139 1 140 2 141 1 142 7 143 4 144 23 145 8 146 63 147 13 
148 5 149 2 150 1 151 1 152 1 153 1 154 2 155 2 156 8 157 6 
158 36 159 8 160 446 161 79 162 37 163 5 164 2 165 1 166 1 167 1 
168 1 169 1 170 21 171 13 172 526 173 116 174 999 175 186 176 81 177 11 
178 3 179 1 180 1 181 1 182 1 183 1 184 4 185 9 186 156 187 37 
188 30 189 7 190 5 191 2 192 2 193 2 194 1 197 1 198 2 199 3 
200 6 201 289 202 65 203 26 204 6 205 2 206 1 210 1 212 1 213 1 
214 1 215 2 216 1 217 2 218 1 219 1 225 1 227 1 228 2 229 1 
230 1 236 1 238 1 241 1 243 2 244 1 257 1 259 15 260 4 261 2 
262 1 265 1 273 1 275 1 278 1 282 1 286 1 287 1 302 1 304 1 
333 1 341 1 343 1 344 1 347 1 359 1 365 1 368 1 369 1 382 1 
391 1 394 1 395 1 397 1 398 1 400 1 
