Name: L-Proline
CAS: 147-85-3
MW: 115
Formula: C5H9NO2
Synonym: KEGG: C00148
Synonym: MassBank: KZ000238
Synonym: L-Proline
Structure: 310A32320A200A200A200A2020382020382020302020302020312020302020302020302020302020303939392056323030300A20202032352E3439313620202D31382E3537333220202020302E303030302043202020302020302020322020302020302020302020302020302020302020302020302020300A20202032342E3238323720202D31372E3837383220202020302E303030302043202020302020302020302020302020302020302020302020302020302020302020302020300A20202032372E3631313420202D31382E3537333220202020302E303030302043202020302020302020302020302020302020302020302020302020302020302020302020300A20202032352E3439313620202D31392E3739333620202020302E30303030204E202020302020302020302020302020302020302020302020302020302020302020302020300A20202032332E3037333920202D31382E3537333220202020302E30303030204F202020302020302020302020302020302020302020302020302020302020302020302020300A20202032342E3238323720202D31362E3437363620202020302E30303030204F202020302020302020302020302020302020302020302020302020302020302020302020300A20202032372E3631313420202D31392E3739333620202020302E303030302043202020302020302020302020302020302020302020302020302020302020302020302020300A20202032362E3535343420202D32302E3430363820202020302E303030302043202020302020302020302020302020302020302020302020302020302020302020302020300A2020312020322020312020302020202020302020300A2020312020332020312020302020202020302020300A2020312020342020312020362020202020302020300A2020322020352020312020302020202020302020300A2020322020362020322020302020202020302020300A2020332020372020312020302020202020302020300A2020342020382020312020302020202020302020300A2020372020382020312020302020202020302020300A4D2020454E44
Contributor: Ara T, Morishita Y, Shibata D, Kazusa DNA Research Institute
InstType: EI
InstName: Pegasus III TOF-MS system, Leco; GC 6890, Agilent Technologies
IoniMethod: EI
IonPolarity: pos
Date: 2010-10-09 19:48:36+02:00
Num Peaks: 112
82 5 83 7 84 25 85 17 86 22 87 9 88 7 89 4 90 1 92 1 
93 4 94 2 95 3 96 10 97 6 98 18 99 59 100 37 101 17 102 9 
103 6 104 1 105 4 106 1 107 3 108 1 110 3 111 2 112 4 113 14 
114 5 115 14 116 10 117 38 118 6 119 6 120 2 121 1 122 1 123 1 
124 4 125 2 126 17 127 2 128 6 130 2 131 23 132 6 133 43 134 7 
135 4 136 2 137 4 138 1 139 1 140 12 141 7 142 999 143 148 144 46 
145 5 146 2 147 251 148 42 149 22 150 2 152 1 154 2 156 1 158 2 
159 3 160 1 161 1 166 1 167 1 168 1 169 1 170 21 171 5 172 4 
173 1 174 2 176 1 184 2 185 4 186 585 187 85 188 27 190 1 198 2 
199 1 200 1 213 3 214 2 215 1 216 165 217 32 218 14 219 2 244 9 
245 2 246 1 260 2 261 1 287 5 288 54 289 13 290 5 291 1 302 1 
303 4 304 1 
