Name: L-Isoleucine
CAS: 73-32-5
MW: 131
Formula: C6H13NO2
Synonym: KEGG: C00407
Synonym: MassBank: KZ000232
Synonym: L-Isoleucine
Structure: 310A32330A200A200A200A2020392020382020302020302020312020302020302020302020302020303939392056323030300A20202032322E3439323220202D31372E3133393720202020302E303030302043202020302020302020312020302020302020302020302020302020302020302020302020300A20202032332E3637393620202D31362E3430323920202020302E303030302043202020302020302020322020302020302020302020302020302020302020302020302020300A20202032312E3235383120202D31362E3437383920202020302E303030302043202020302020302020302020302020302020302020302020302020302020302020302020300A20202032322E3533393120202D31382E3533373720202020302E30303030204E202020302020302020302020302020302020302020302020302020302020302020302020300A20202032342E3931333720202D31372E3036333720202020302E303030302043202020302020302020302020302020302020302020302020302020302020302020302020300A20202032332E3633383720202D31352E3030343920202020302E303030302043202020302020302020302020302020302020302020302020302020302020302020302020300A20202032302E3130303120202D31372E3237343220202020302E30303030204F202020302020302020302020302020302020302020302020302020302020302020302020300A20202032312E3238313520202D31352E3038303920202020302E30303030204F202020302020302020302020302020302020302020302020302020302020302020302020300A20202032362E3130363920202D31362E3332363820202020302E303030302043202020302020302020302020302020302020302020302020302020302020302020302020300A2020312020322020312020302020202020302020300A2020312020332020312020302020202020302020300A2020312020342020312020362020202020302020300A2020322020352020312020302020202020302020300A2020322020362020312020312020202020302020300A2020332020372020312020302020202020302020300A2020332020382020322020302020202020302020300A2020352020392020312020302020202020302020300A4D2020454E44
Contributor: Ara T, Morishita Y, Shibata D, Kazusa DNA Research Institute
InstType: EI
InstName: Pegasus III TOF-MS system, Leco; GC 6890, Agilent Technologies
IoniMethod: EI
IonPolarity: pos
Date: 2010-10-09 19:48:36+02:00
Num Peaks: 89
82 5 83 3 84 23 85 13 86 72 87 12 88 5 89 2 90 13 91 2 
92 1 94 1 95 1 96 6 97 5 98 10 99 8 100 166 101 29 102 55 
103 27 104 4 105 5 110 2 111 1 112 6 113 3 114 24 115 14 116 12 
117 14 118 4 119 6 120 1 121 1 124 1 126 3 127 2 128 23 129 18 
130 21 131 20 132 28 133 34 134 6 135 2 140 1 142 22 143 12 144 6 
145 1 146 10 147 150 148 26 149 15 150 2 156 10 157 4 158 999 159 154 
160 50 161 6 162 1 163 5 164 1 170 15 171 3 172 2 173 1 174 4 
175 1 176 1 188 1 192 1 203 6 204 1 216 1 217 1 218 136 219 27 
220 12 221 1 232 35 233 11 234 4 235 1 246 1 260 6 261 1 
