Name: Glycerol
CAS: 56-81-5
MW: 92
Formula: C3H8O3
Synonym: KEGG: C00116
Synonym: MassBank: KZ000139
Synonym: Glycerol
Structure: 310A31370A200A200A200A2020362020352020302020302020302020302020302020302020302020303939392056323030300A20202032302E3134313520202D32302E3136303020202020302E303030302043202020302020302020332020302020302020302020302020302020302020302020302020300A20202032302E3133353720202D31382E3736303020202020302E303030302043202020302020302020302020302020302020302020302020302020302020302020302020300A20202032302E3133353720202D32312E3536303020202020302E303030302043202020302020302020302020302020302020302020302020302020302020302020302020300A20202031382E3734313520202D32302E3135343220202020302E30303030204F202020302020302020302020302020302020302020302020302020302020302020302020300A20202032312E3533353720202D31382E3736303020202020302E30303030204F202020302020302020302020302020302020302020302020302020302020302020302020300A20202032312E3533353720202D32312E3536303020202020302E30303030204F202020302020302020302020302020302020302020302020302020302020302020302020300A2020312020322020312020302020202020302020300A2020312020332020312020302020202020302020300A2020312020342020312020302020202020302020300A2020322020352020312020302020202020302020300A2020332020362020312020302020202020302020300A4D2020454E44
Contributor: Ara T, Morishita Y, Shibata D, Kazusa DNA Research Institute
InstType: EI
InstName: Pegasus III TOF-MS system, Leco; GC 6890, Agilent Technologies
IoniMethod: EI
IonPolarity: pos
Date: 2010-10-09 19:48:36+02:00
Num Peaks: 97
83 2 85 18 86 3 87 16 88 15 89 55 90 5 91 2 95 1 97 1 
99 10 100 1 101 140 102 18 103 704 104 56 105 24 106 2 107 1 111 1 
113 14 114 2 115 33 116 64 117 627 118 54 119 37 120 4 121 2 128 4 
129 128 130 17 131 86 132 14 133 244 134 32 135 18 136 1 143 1 145 3 
146 2 147 999 148 153 149 83 150 10 151 4 159 6 160 1 161 4 162 2 
163 16 164 3 165 2 169 1 170 1 171 1 172 1 173 2 174 5 175 54 
176 11 177 60 178 10 179 5 180 1 181 1 182 1 183 1 185 1 186 1 
187 1 188 1 189 9 190 5 191 43 192 9 193 4 203 39 204 65 205 539 
206 116 207 58 208 8 209 2 217 40 218 235 219 52 220 21 221 10 222 2 
223 1 263 5 264 2 265 1 293 31 294 8 295 4 
