Name: Glycine
CAS: 56-40-6
MW: 75
Formula: C2H5NO2
Synonym: KEGG: C00037
Synonym: MassBank: KZ000211
Synonym: Glycine
Structure: 310A31350A200A200A200A2020352020342020302020302020302020302020302020302020302020303939392056323030300A20202032332E3136343720202D31372E3236373720202020302E303030302043202020302020302020302020302020302020302020302020302020302020302020302020300A20202032342E3331363920202D31382E3032343220202020302E303030302043202020302020302020302020302020302020302020302020302020302020302020302020300A20202032312E3933363820202D31372E3936303320202020302E30303030204F202020302020302020302020302020302020302020302020302020302020302020302020300A20202032332E3138383120202D31352E3836353420202020302E30303030204F202020302020302020302020302020302020302020302020302020302020302020302020300A20202032342E3238373620202D31392E3433323420202020302E30303030204E202020302020302020302020302020302020302020302020302020302020302020302020300A2020312020322020312020302020202020302020300A2020312020332020312020302020202020302020300A2020312020342020322020302020202020302020300A2020322020352020312020302020202020302020300A4D2020454E44
Contributor: Ara T, Morishita Y, Shibata D, Kazusa DNA Research Institute
InstType: EI
InstName: Pegasus III TOF-MS system, Leco; GC 6890, Agilent Technologies
IoniMethod: EI
IonPolarity: pos
Date: 2010-10-09 19:48:36+02:00
Num Peaks: 79
82 1 83 2 84 23 85 15 86 499 87 72 88 27 89 5 93 2 95 4 
98 2 99 8 100 320 101 80 102 50 103 32 104 6 105 9 106 1 112 1 
113 14 114 11 115 18 116 27 117 74 118 14 119 18 120 1 121 1 128 1 
129 4 130 55 131 62 132 18 133 143 134 23 135 15 136 2 142 2 143 1 
144 18 145 5 146 9 147 372 148 62 149 33 150 3 151 1 158 10 159 3 
160 5 161 1 172 11 173 4 174 999 175 182 176 96 177 19 178 3 179 1 
187 1 188 11 189 3 190 3 191 1 192 1 202 6 203 1 204 5 205 1 
246 14 247 3 248 178 249 46 250 26 251 5 276 18 277 2 278 1 
