Name: 3-Methyl-2-oxovaleric acid
CAS: 66872-74-0
MW: 130
Formula: C6H10O3
Synonym: KEGG: C03465
Synonym: MassBank: KZ000177
Synonym: 3-Methyl-2-oxovaleric acid
Structure: 310A32330A200A200A200A2020392020382020302020302020302020302020302020302020302020303939392056323030300A20202031392E3031343720202D31342E3432363220202020302E303030302043202020302020302020302020302020302020302020302020302020302020302020302020300A20202031372E3831373920202D31352E3139303120202020302E303030302043202020302020302020332020302020302020302020302020302020302020302020302020300A20202032302E3231373820202D31352E3132303120202020302E303030302043202020302020302020302020302020302020302020302020302020302020302020302020300A20202031392E3031343720202D31332E3034343720202020302E30303030204F202020302020302020302020302020302020302020302020302020302020302020302020300A20202031362E3632313020202D31342E3432363220202020302E303030302043202020302020302020302020302020302020302020302020302020302020302020302020300A20202031372E3831373920202D31362E3537373820202020302E303030302043202020302020302020302020302020302020302020302020302020302020302020302020300A20202032302E3234333320202D31362E3632323520202020302E30303030204F202020302020302020302020302020302020302020302020302020302020302020302020300A20202032312E3431343720202D31342E3432363220202020302E30303030204F202020302020302020302020302020302020302020302020302020302020302020302020300A20202031352E3431373920202D31352E3132303120202020302E303030302043202020302020302020302020302020302020302020302020302020302020302020302020300A2020312020322020312020302020202020302020300A2020312020332020312020302020202020302020300A2020312020342020322020302020202020302020300A2020322020352020312020302020202020302020300A2020322020362020312020302020202020302020300A2020332020372020312020302020202020302020300A2020332020382020322020302020202020302020300A2020352020392020312020302020202020302020300A4D2020454E44
Contributor: Ara T, Morishita Y, Shibata D, Kazusa DNA Research Institute
InstType: EI
InstName: Pegasus III TOF-MS system, Leco; GC 6890, Agilent Technologies
IoniMethod: EI
IonPolarity: pos
Date: 2010-10-09 19:48:36+02:00
Num Peaks: 103
82 364 83 90 84 320 85 210 86 138 87 24 88 12 89 999 90 90 91 54 
92 5 93 8 94 5 95 5 96 7 97 18 98 48 99 66 100 66 101 14 
102 7 103 17 104 3 105 15 106 2 107 1 108 1 109 3 110 175 111 17 
112 33 113 249 114 192 115 132 116 21 117 39 118 8 119 2 124 2 125 1 
126 32 127 17 128 53 129 139 130 21 131 8 132 1 133 1 138 1 139 1 
140 53 141 36 142 24 143 14 144 8 145 4 146 1 147 2 148 1 152 1 
153 1 154 9 155 4 156 47 157 17 158 14 159 3 160 10 161 2 162 1 
166 2 167 1 168 1 169 1 170 2 171 2 172 117 173 21 174 11 175 2 
176 1 182 1 183 1 184 7 185 2 186 1 187 7 188 1 189 206 190 28 
191 10 192 1 200 227 201 38 202 12 203 103 204 15 205 5 215 1 216 237 
217 36 218 11 219 1 
