Name: Isonicotinic acid
CAS: 55-22-1
MW: 123
Formula: C6H5NO2
Synonym: KEGG: C07446
Synonym: MassBank: KZ000147
Synonym: Isonicotinic acid
Structure: 310A32340A2020392020392020302020202020302020302020202020202020202020203939392056323030300A20202020302E3030303020202020302E3138323820202020302E303030302043202020302020302020302020302020302020302020202020202020202020302020302020300A2020202D302E373230372020202D302E3233313020202020302E303030302043202020302020302020302020302020302020302020202020202020202020302020302020300A20202020302E373137322020202D302E3233313020202020302E303030302043202020302020302020302020302020302020302020202020202020202020302020302020300A20202020302E3030303020202020312E3031333820202020302E303030302043202020302020302020302020302020302020302020202020202020202020302020302020300A2020202D302E373230372020202D312E3035383620202020302E303030302043202020302020302020302020302020302020302020202020202020202020302020302020300A20202020302E373137322020202D312E3035383620202020302E303030302043202020302020302020302020302020302020302020202020202020202020302020302020300A20202020302E3732303720202020312E3432373620202020302E30303030204F202020302020302020302020302020302020302020202020202020202020302020302020300A2020202D302E3731373220202020312E3433313020202020302E30303030204F202020302020302020302020302020302020302020202020202020202020302020302020300A20202020302E303030302020202D312E3437353920202020302E30303030204E202020302020302020302020302020302020302020202020202020202020302020302020300A2020312020322020312020302020202020302020300A2020312020332020322020302020202020302020300A2020312020342020312020302020202020302020300A2020322020352020322020302020202020302020300A2020332020362020312020302020202020302020300A2020342020372020312020302020202020302020300A2020342020382020322020302020202020302020300A2020352020392020312020302020202020302020300A2020362020392020322020302020202020302020300A4D2020454E44
Contributor: Ara T, Morishita Y, Shibata D, Kazusa DNA Research Institute
InstType: EI
InstName: Pegasus III TOF-MS system, Leco; GC 6890, Agilent Technologies
IoniMethod: EI
IonPolarity: pos
Date: 2010-10-09 19:48:36+02:00
Num Peaks: 51
82 1 83 13 84 3 85 2 86 1 90 62 91 3 92 2 93 6 94 3 
95 2 96 2 97 1 99 1 105 4 106 999 107 72 108 8 109 9 110 8 
111 1 119 2 120 10 121 2 122 8 123 1 134 3 135 4 136 851 137 107 
138 25 139 1 150 3 151 3 152 2 153 1 162 1 163 1 164 4 165 2 
166 2 167 1 179 4 180 924 181 127 182 29 183 1 194 10 195 75 196 10 
197 2 
