Name: L-Threonine
CAS: 72-19-5
MW: 119
Formula: C4H9NO3
Synonym: KEGG: C00188
Synonym: MassBank: KZ000239
Synonym: L-Threonine
Structure: 310A32310A200A200A200A2020382020372020302020302020312020302020302020302020302020303939392056323030300A20202032322E3534303720202D31382E3237303420202020302E30303030204F202020302020302020302020302020302020302020302020302020302020302020302020300A20202032332E3735333120202D31372E3537303420202020302E303030302043202020302020302020302020302020302020302020302020302020302020302020302020300A20202032342E3936353720202D31382E3237303420202020302E303030302043202020302020302020302020302020302020302020302020302020302020302020302020300A20202032362E3137383120202D31372E3537303420202020302E303030302043202020302020302020302020302020302020302020302020302020302020302020302020300A20202032372E3339303620202D31382E3237303420202020302E303030302043202020302020302020302020302020302020302020302020302020302020302020302020300A20202032332E3735333120202D31362E3137303520202020302E30303030204F202020302020302020302020302020302020302020302020302020302020302020302020300A20202032342E3936353720202D31392E3637303320202020302E30303030204E202020302020302020302020302020302020302020302020302020302020302020302020300A20202032362E3137383120202D31362E3137303320202020302E30303030204F202020302020302020302020302020302020302020302020302020302020302020302020300A2020312020322020312020302020202020302020300A2020322020332020312020302020202020302020300A2020332020342020312020302020202020302020300A2020342020352020312020302020202020302020300A2020322020362020322020302020202020302020300A2020332020372020312020362020202020302020300A2020342020382020312020362020202020302020300A4D2020454E44
Contributor: Ara T, Morishita Y, Shibata D, Kazusa DNA Research Institute
InstType: EI
InstName: Pegasus III TOF-MS system, Leco; GC 6890, Agilent Technologies
IoniMethod: EI
IonPolarity: pos
Date: 2010-10-09 19:48:36+02:00
Num Peaks: 136
82 5 83 5 84 51 85 33 86 105 87 94 88 21 89 13 90 3 91 2 
92 1 95 2 96 5 97 5 98 27 99 20 100 462 101 753 102 157 103 99 
104 13 105 18 106 2 107 2 110 3 111 2 112 23 113 12 114 112 115 99 
116 37 117 999 118 134 119 74 120 9 121 2 122 1 124 1 125 1 126 4 
128 291 129 299 130 194 131 192 132 186 133 218 134 42 135 25 136 3 137 1 
140 3 141 1 142 7 143 7 144 29 145 10 146 31 147 521 148 109 149 74 
150 10 151 4 152 1 154 1 155 1 156 9 157 4 158 29 159 50 160 46 
161 13 162 6 163 16 164 3 165 1 170 1 171 1 172 19 173 5 174 27 
175 7 176 10 177 18 178 3 179 4 184 1 185 1 186 18 187 6 188 13 
189 7 190 7 191 20 192 4 193 2 194 1 200 1 201 1 202 78 203 90 
204 37 205 12 206 4 207 2 214 2 216 7 217 7 218 570 219 550 220 165 
221 74 222 14 223 4 224 1 230 20 231 8 232 7 233 2 234 1 246 1 
248 6 249 2 250 1 276 3 277 1 278 1 290 2 291 160 292 115 293 48 
294 16 295 3 319 1 320 22 321 6 322 3 
