Name: D-(-)-Ribose
CAS: 50-69-1
MW: 150
Formula: C5H10O5
Synonym: KEGG: C00121
Synonym: MassBank: KZ000122
Synonym: D-(-)-Ribose
Structure: 31302031302020302020202020312020302020202020202020202020203939392056323030300A2020202D302E3438363220202020302E3339333120202020302E303030302043202020302020302020322020302020302020302020202020202020202020302020302020300A2020202D302E323133382020202D302E3339333120202020302E303030302043202020302020302020322020302020302020302020202020202020202020302020302020300A20202020302E3138323820202020302E3837393320202020302E30303030204F202020302020302020302020302020302020302020202020202020202020302020302020300A2020202D312E3236323120202020302E3634313420202020302E303030302043202020302020302020302020302020302020302020202020202020202020302020302020300A20202020302E363230372020202D302E3339333120202020302E303030302043202020302020302020322020302020302020302020202020202020202020302020302020300A2020202D302E373033342020202D312E3036353520202020302E30303030204F202020302020302020302020302020302020302020202020202020202020302020302020300A20202020302E3836353520202020302E3337393320202020302E303030302043202020302020302020332020302020302020302020202020202020202020302020302020300A2020202D312E373632312020202D302E3032303720202020302E30303030204F202020302020302020302020302020302020302020202020202020202020302020302020300A20202020312E313033352020202D312E3036323120202020302E30303030204F202020302020302020302020302020302020302020202020202020202020302020302020300A20202020312E3635313720202020302E3633373920202020302E30303030204F202020302020302020302020302020302020302020202020202020202020302020302020300A2020312020322020312020302020202020302020300A2020312020332020312020302020202020302020300A2020312020342020312020312020202020302020300A2020322020352020312020302020202020302020300A2020322020362020312020362020202020302020300A2020332020372020312020302020202020302020300A2020342020382020312020302020202020302020300A2020352020392020312020362020202020302020300A2020372031302020312020342020202020302020300A2020352020372020312020302020202020302020300A4D2020454E44
Contributor: Ara T, Morishita Y, Shibata D, Kazusa DNA Research Institute
InstType: EI
InstName: Pegasus III TOF-MS system, Leco; GC 6890, Agilent Technologies
IoniMethod: EI
IonPolarity: pos
Date: 2010-10-09 19:48:36+02:00
Num Peaks: 204
82 9 83 4 84 25 85 16 86 51 87 29 88 9 94 3 95 4 96 3 
97 1 98 14 99 20 100 30 101 96 102 34 103 885 104 193 105 218 106 18 
107 6 110 1 111 5 112 16 113 25 114 89 115 56 116 28 117 236 118 18 
119 23 120 3 121 1 124 1 125 2 126 14 127 19 128 30 129 175 130 39 
131 94 132 20 133 253 134 29 135 24 136 2 139 2 140 15 141 15 142 32 
143 57 144 13 145 45 146 7 147 685 148 96 149 103 150 12 151 9 152 6 
153 2 154 8 155 3 156 11 157 7 158 61 159 15 160 297 161 36 162 15 
163 48 164 6 165 6 166 1 167 5 168 46 169 17 170 18 171 4 172 34 
173 25 174 21 175 35 176 7 177 8 182 2 183 1 184 8 185 3 186 11 
187 7 189 372 190 80 191 88 192 16 193 8 194 2 196 1 197 1 198 27 
199 3 200 17 201 68 202 18 203 6 204 139 205 67 206 24 207 18 208 5 
209 3 213 1 215 10 216 76 217 999 218 300 219 117 220 15 221 28 222 4 
225 1 226 2 227 3 228 13 229 1 230 7 231 24 232 12 233 6 234 15 
235 1 240 4 241 4 242 35 243 15 244 10 245 2 246 12 247 4 248 10 
249 3 250 1 255 1 256 24 257 29 258 12 259 4 260 3 262 29 263 8 
264 5 265 3 267 1 270 1 272 14 273 4 274 20 275 4 276 4 277 56 
278 27 279 10 280 2 281 1 284 1 288 12 289 2 290 5 291 14 292 3 
293 1 301 1 302 10 303 2 304 4 305 16 306 35 307 556 308 143 309 66 
310 13 311 4 314 2 315 4 316 12 317 4 318 3 319 1 329 1 330 14 
331 17 332 9 333 4 334 1 346 1 362 23 363 7 364 6 365 1 420 2 
421 2 422 1 452 4 467 1 
