Name: L-Tyrosine
CAS: 60-18-4
MW: 181
Formula: C9H11NO3
Synonym: KEGG: C00082
Synonym: MassBank: KZ000164
Synonym: L-Tyrosine
Structure: 31332031332020302020302020312020302020302020302020302020303939392056323030300A20202032322E3836303820202D31372E3137313320202020302E303030302043202020302020302020302020302020302020302020302020302020302020302020302020300A20202032322E3836303820202D31382E3537343220202020302E303030302043202020302020302020302020302020302020302020302020302020302020302020302020300A20202032342E3037353620202D31392E3237353620202020302E303030302043202020302020302020302020302020302020302020302020302020302020302020302020300A20202032352E3239303620202D31382E3537343220202020302E303030302043202020302020302020302020302020302020302020302020302020302020302020302020300A20202032352E3239303620202D31372E3137313320202020302E303030302043202020302020302020302020302020302020302020302020302020302020302020302020300A20202032342E3037353620202D31362E3436393920202020302E303030302043202020302020302020302020302020302020302020302020302020302020302020302020300A20202032312E3634353920202D31362E3436393920202020302E303030302043202020302020302020302020302020302020302020302020302020302020302020302020300A20202032362E3532343220202D31392E3238363620202020302E30303030204F202020302020302020302020302020302020302020302020302020302020302020302020300A20202032302E3434373920202D31372E3136313720202020302E303030302043202020302020302020302020302020302020302020302020302020302020302020302020300A20202031392E3235383120202D31362E3437343820202020302E303030302043202020302020302020302020302020302020302020302020302020302020302020302020300A20202031382E3036343520202D31372E3136343220202020302E30303030204F202020302020302020302020302020302020302020302020302020302020302020302020300A20202031392E3235373920202D31352E3036373220202020302E30303030204F202020302020302020302020302020302020302020302020302020302020302020302020300A20202032302E3434373820202D31382E3537333920202020302E30303030204E202020302020302020302020302020302020302020302020302020302020302020302020300A2020312020322020322020302020202020302020300A2020322020332020312020302020202020302020300A2020332020342020322020302020202020302020300A2020342020352020312020302020202020302020300A2020352020362020322020302020202020302020300A2020312020362020312020302020202020302020300A2020312020372020312020302020202020302020300A2020342020382020312020302020202020302020300A2020372020392020312020302020202020302020300A2020392031302020312020302020202020302020300A2031302031312020312020302020202020302020300A2031302031322020322020302020202020302020300A2020392031332020312020362020202020302020300A4D2020454E44
Contributor: Ara T, Morishita Y, Shibata D, Kazusa DNA Research Institute
InstType: EI
InstName: Pegasus III TOF-MS system, Leco; GC 6890, Agilent Technologies
IoniMethod: EI
IonPolarity: pos
Date: 2010-10-09 19:48:36+02:00
Num Peaks: 135
82 4 83 4 84 11 85 6 86 20 87 7 88 2 89 19 90 14 91 37 
92 4 93 2 95 4 96 1 97 1 98 2 99 3 100 378 101 52 102 22 
103 24 104 8 105 19 106 3 107 5 108 1 109 2 110 1 113 1 114 1 
115 16 116 7 117 21 118 14 119 12 120 2 121 5 122 1 123 2 128 2 
129 2 130 35 131 28 132 40 133 41 134 10 135 19 136 3 137 2 142 1 
143 1 144 4 145 7 146 11 147 172 148 33 149 41 150 7 151 7 152 1 
157 1 158 4 159 6 160 11 161 7 162 5 163 33 164 11 165 15 166 3 
167 1 172 2 173 1 174 10 175 8 176 10 177 9 178 3 179 84 180 20 
181 6 182 2 188 2 189 1 190 7 191 3 192 19 193 6 194 1 195 1 
202 1 203 8 204 2 205 2 206 2 207 12 208 3 209 3 216 1 217 5 
218 999 219 178 220 74 221 11 222 2 223 3 224 1 234 1 237 1 248 2 
249 1 250 2 251 1 264 3 265 11 266 4 267 2 278 2 279 9 280 80 
281 22 282 8 283 1 291 1 292 3 293 1 353 4 354 21 355 10 356 5 
357 1 381 2 382 8 383 3 384 1 
