Name: Mesaconic acid
CAS: 498-24-8
MW: 130
Formula: C5H6O4
Synonym: KEGG: C01732
Synonym: MassBank: KZ000059
Synonym: Mesaconic acid
Structure: 310A32330A200A200A200A2020392020382020302020302020302020302020302020302020302020303939392056323030300A20202032322E3131353220202D31352E3438323620202020302E303030302043202020302020302020302020302020302020302020302020302020302020302020302020300A20202032322E3131353220202D31362E3838363520202020302E303030302043202020302020302020302020302020302020302020302020302020302020302020302020300A20202032332E3332363020202D31342E3738373120202020302E303030302043202020302020302020302020302020302020302020302020302020302020302020302020300A20202032302E3930343420202D31342E3738373120202020302E303030302043202020302020302020302020302020302020302020302020302020302020302020302020300A20202032302E3930343420202D31372E3538383620202020302E303030302043202020302020302020302020302020302020302020302020302020302020302020302020300A20202032342E3533363920202D31352E3438383920202020302E30303030204F202020302020302020302020302020302020302020302020302020302020302020302020300A20202032332E3332363020202D31332E3532333120202020302E30303030204F202020302020302020302020302020302020302020302020302020302020302020302020300A20202031392E3639333820202D31362E3838303220202020302E30303030204F202020302020302020302020302020302020302020302020302020302020302020302020300A20202032302E3930343420202D31392E3132363220202020302E30303030204F202020302020302020302020302020302020302020302020302020302020302020302020300A2020312020322020322020302020202020302020300A2020312020332020312020302020202020302020300A2020312020342020312020302020202020302020300A2020322020352020312020302020202020302020300A2020332020362020312020302020202020302020300A2020332020372020322020302020202020302020300A2020352020382020312020302020202020302020300A2020352020392020322020302020202020302020300A4D2020454E44
Contributor: Ara T, Morishita Y, Shibata D, Kazusa DNA Research Institute
InstType: EI
InstName: Pegasus III TOF-MS system, Leco; GC 6890, Agilent Technologies
IoniMethod: EI
IonPolarity: pos
Date: 2010-10-09 19:48:36+02:00
Num Peaks: 105
82 19 83 77 84 13 85 20 86 7 87 11 88 2 89 10 90 1 91 1 
92 2 94 2 95 14 96 14 97 209 98 64 99 49 100 11 101 8 102 5 
103 12 104 2 105 6 106 1 107 1 109 1 111 7 112 44 113 23 114 5 
115 16 116 4 117 27 118 4 119 8 120 1 121 1 122 49 123 7 125 7 
126 2 127 15 128 2 129 3 130 1 131 19 132 6 133 73 134 12 135 9 
136 1 139 1 140 17 141 87 142 25 143 14 144 2 145 3 146 1 147 999 
148 191 149 136 150 17 151 6 152 1 154 3 155 5 156 24 157 39 158 7 
159 4 163 6 164 1 169 29 170 6 171 12 172 3 173 3 174 4 175 1 
183 1 184 512 185 95 186 34 187 8 188 1 199 4 200 1 201 1 213 1 
215 6 216 2 217 1 229 3 230 1 231 19 232 7 233 3 258 6 259 298 
260 78 261 38 262 6 263 1 274 2 
