Name: trans-Cinnamic acid
CAS: 140-10-3
MW: 148
Formula: C9H8O2
Synonym: KEGG: C00423
Synonym: MassBank: KZ000090
Synonym: trans-Cinnamic acid
Structure: 31312031312020302020302020302020302020302020302020302020303939392056323030300A20202031332E3337303020202D31362E3934303020202020302E30303030204F202020302020302020302020302020302020302020302020302020302020302020302020300A20202031342E3538323420202D31362E3234303020202020302E303030302043202020302020302020302020302020302020302020302020302020302020302020302020300A20202031352E3739343920202D31362E3934303020202020302E303030302043202020302020302020302020302020302020302020302020302020302020302020302020300A20202031372E3030373320202D31362E3234303020202020302E303030302043202020302020302020302020302020302020302020302020302020302020302020302020300A20202031382E3231393720202D31362E3934303020202020302E303030302043202020302020302020302020302020302020302020302020302020302020302020302020300A20202031342E3538323420202D31342E3834303220202020302E30303030204F202020302020302020302020302020302020302020302020302020302020302020302020300A20202031382E3231393720202D31382E3333393920202020302E303030302043202020302020302020302020302020302020302020302020302020302020302020302020300A20202031392E3433323220202D31392E3033393920202020302E303030302043202020302020302020302020302020302020302020302020302020302020302020302020300A20202032302E3634343620202D31382E3333393920202020302E303030302043202020302020302020302020302020302020302020302020302020302020302020302020300A20202032302E3634343620202D31362E3934303020202020302E303030302043202020302020302020302020302020302020302020302020302020302020302020302020300A20202031392E3433323220202D31362E3234303020202020302E303030302043202020302020302020302020302020302020302020302020302020302020302020302020300A2020312020322020312020302020202020302020300A2020322020332020312020302020202020302020300A2020332020342020322020302020202020302020300A2020342020352020312020302020202020302020300A2020322020362020322020302020202020302020300A2020352020372020322020302020202020302020300A2020372020382020312020302020202020302020300A2020382020392020322020302020202020302020300A2020392031302020312020302020202020302020300A2031302031312020322020302020202020302020300A2020352031312020312020302020202020302020300A4D2020454E44
Contributor: Ara T, Morishita Y, Shibata D, Kazusa DNA Research Institute
InstType: EI
InstName: Pegasus III TOF-MS system, Leco; GC 6890, Agilent Technologies
IoniMethod: EI
IonPolarity: pos
Date: 2010-10-09 19:48:36+02:00
Num Peaks: 91
83 3 85 54 86 8 87 11 88 4 89 10 90 4 91 23 92 1 94 2 
98 5 99 43 100 6 101 37 102 253 103 953 104 106 109 2 112 1 113 1 
114 1 115 12 116 3 117 3 118 4 119 2 121 6 122 2 123 1 129 13 
130 3 131 999 132 173 133 27 134 13 135 246 136 65 137 25 138 2 142 20 
143 25 144 6 145 403 146 120 147 45 148 61 149 10 150 3 151 2 152 2 
153 5 154 2 155 3 156 2 157 1 158 1 160 4 161 112 162 113 163 86 
164 9 165 1 175 4 176 23 177 8 178 3 179 1 180 1 181 2 184 1 
185 2 186 2 187 1 188 2 189 2 190 1 191 1 192 13 193 6 194 3 
195 2 206 102 207 74 208 12 209 1 218 1 219 52 220 335 221 75 222 21 
223 3 
