Name: O-Phospho-L-serine
CAS: 407-41-0
MW: 185
Formula: C3H8NO6P
Synonym: KEGG: C01005
Synonym: MassBank: KZ000256
Synonym: O-Phospho-L-serine
Structure: 31312031302020302020302020312020302020302020302020302020303939392056323030300A20202032332E3333333720202D31372E3535363720202020302E303030302050202020302020302020332020302020302020302020302020302020302020302020302020300A20202032312E3933353820202D31372E3536333220202020302E30303030204F202020302020302020302020302020302020302020302020302020302020302020302020300A20202032342E3733313520202D31372E3535363720202020302E30303030204F202020302020302020302020302020302020302020302020302020302020302020302020300A20202032332E3332373220202D31362E3038323420202020302E30303030204F202020302020302020302020302020302020302020302020302020302020302020302020300A20202032332E3333333720202D31382E3935343620202020302E30303030204F202020302020302020302020302020302020302020302020302020302020302020302020300A20202032312E3933353820202D31362E3135383920202020302E303030302043202020302020302020302020302020302020302020302020302020302020302020302020300A20202032302E3732343720202D31352E3435363720202020302E303030302043202020302020302020312020302020302020302020302020302020302020302020302020300A20202032302E3732343720202D31342E3035383720202020302E303030302043202020302020302020302020302020302020302020302020302020302020302020302020300A20202031392E3531333520202D31362E3135383920202020302E30303030204E202020302020302020302020302020302020302020302020302020302020302020302020300A20202032312E3933353820202D31332E3335363720202020302E30303030204F202020302020302020302020302020302020302020302020302020302020302020302020300A20202031392E3531333520202D31332E3335363720202020302E30303030204F202020302020302020302020302020302020302020302020302020302020302020302020300A2020312020322020312020302020202020302020300A2020312020332020312020302020202020302020300A2020312020342020312020302020202020302020300A2020312020352020322020302020202020302020300A2020322020362020312020302020202020302020300A2020362020372020312020302020202020302020300A2020372020382020312020302020202020302020300A2020372020392020312020362020202020302020300A2020382031302020312020302020202020302020300A2020382031312020322020302020202020302020300A4D2020454E44
Contributor: Ara T, Morishita Y, Shibata D, Kazusa DNA Research Institute
InstType: EI
InstName: Pegasus III TOF-MS system, Leco; GC 6890, Agilent Technologies
IoniMethod: EI
IonPolarity: pos
Date: 2010-10-09 19:48:36+02:00
Num Peaks: 248
82 10 83 7 84 36 85 62 86 94 87 58 88 57 89 45 90 12 91 19 
92 6 93 10 94 3 95 8 96 5 97 10 98 66 99 50 100 680 101 118 
102 58 103 74 104 15 105 43 106 6 107 20 109 16 111 2 112 21 113 36 
114 509 115 336 116 530 117 126 118 30 119 59 120 16 121 42 123 27 125 6 
126 4 127 2 128 13 129 68 130 41 131 105 132 76 133 529 134 108 135 210 
136 29 137 69 138 9 139 10 140 2 141 1 142 34 143 17 144 238 145 46 
146 33 147 999 148 241 149 141 150 20 151 51 152 8 153 13 154 3 155 1 
156 7 157 3 158 21 159 16 160 8 161 8 162 4 163 20 164 5 165 27 
166 4 167 28 168 3 170 1 171 1 172 62 173 19 174 16 175 5 177 21 
178 12 179 24 180 8 181 64 182 24 183 39 184 15 185 3 186 4 187 4 
188 252 189 95 190 41 191 76 192 16 193 81 194 24 195 111 196 19 197 18 
198 7 199 4 200 1 201 4 202 9 203 8 204 5 205 15 206 10 207 124 
208 37 209 37 210 19 211 356 212 89 213 50 214 11 215 4 216 319 217 83 
218 282 219 55 220 34 221 11 222 3 223 6 224 2 225 117 226 41 227 87 
228 14 229 7 230 10 231 21 232 336 233 90 234 40 235 4 236 11 237 2 
238 3 239 5 240 3 241 27 242 6 243 17 244 3 246 1 248 1 251 2 
252 20 253 9 254 6 255 9 257 5 261 2 262 2 263 2 266 2 267 1 
268 16 269 19 270 8 271 3 272 3 273 1 274 1 280 1 282 2 283 20 
284 15 285 30 286 9 287 2 288 1 295 1 298 8 299 252 300 111 301 67 
302 14 303 5 309 2 311 1 312 2 313 4 315 71 316 19 317 16 318 4 
319 1 320 2 325 1 326 2 328 13 329 18 330 6 331 2 332 1 341 5 
342 4 343 3 344 1 351 1 355 9 359 9 360 2 361 2 365 1 368 4 
369 4 371 3 374 4 378 1 385 1 387 5 388 1 389 3 390 1 391 1 
395 1 402 1 403 1 406 1 414 1 417 1 430 16 431 9 432 6 433 1 
456 1 457 2 458 43 459 23 460 16 461 4 462 1 466 1 
