Name: cis-Aconitic acid
CAS: 585-84-2
MW: 174
Formula: C6H6O6
Synonym: KEGG: C00417
Synonym: MassBank: KZ000084
Synonym: cis-Aconitic acid
Structure: 31332031322020302020302020302020302020302020302020302020303939392056323030300A20202032322E3530313120202D31362E3138333720202020302E303030302043202020302020302020302020302020302020302020302020302020302020302020302020300A20202032332E3231353220202D31342E3934353320202020302E303030302043202020302020302020302020302020302020302020302020302020302020302020302020300A20202032312E3037393120202D31362E3138333720202020302E303030302043202020302020302020302020302020302020302020302020302020302020302020302020300A20202032332E3231353220202D31372E3431353720202020302E303030302043202020302020302020302020302020302020302020302020302020302020302020302020300A20202032342E3633373220202D31342E3934353320202020302E303030302043202020302020302020302020302020302020302020302020302020302020302020302020300A20202032302E3336343720202D31372E3431353720202020302E303030302043202020302020302020302020302020302020302020302020302020302020302020302020300A20202032322E3835343920202D31382E3738353420202020302E30303030204F202020302020302020302020302020302020302020302020302020302020302020302020300A20202032342E3633373220202D31372E3430393020202020302E30303030204F202020302020302020302020302020302020302020302020302020302020302020302020300A20202032352E3334343920202D31362E3235333720202020302E30303030204F202020302020302020302020302020302020302020302020302020302020302020302020300A20202032352E3238313520202D31332E3835333320202020302E30303030204F202020302020302020302020302020302020302020302020302020302020302020302020300A20202031382E3933363320202D31372E3430393020202020302E30303030204F202020302020302020302020302020302020302020302020302020302020302020302020300A20202032302E3835363220202D31382E3735373020202020302E30303030204F202020302020302020302020302020302020302020302020302020302020302020302020300A20202032302E3337323020202D31342E3935363420202020302E303030302048202020302020302020302020302020302020302020302020302020302020302020302020300A2020312020322020312020302020202020302020300A2020312020332020322020302020202020302020300A2020312020342020312020302020202020302020300A2020322020352020312020302020202020302020300A2020332020362020312020302020202020302020300A2020342020372020312020302020202020302020300A2020342020382020322020302020202020302020300A2020352020392020312020302020202020302020300A2020352031302020322020302020202020302020300A2020362031312020312020302020202020302020300A2020362031322020322020302020202020302020300A2020332031332020312020302020202020302020300A4D2020454E44
Contributor: Ara T, Morishita Y, Shibata D, Kazusa DNA Research Institute
InstType: EI
InstName: Pegasus III TOF-MS system, Leco; GC 6890, Agilent Technologies
IoniMethod: EI
IonPolarity: pos
Date: 2010-10-09 19:48:36+02:00
Num Peaks: 179
82 16 83 33 84 13 85 15 86 3 87 13 88 4 89 11 90 1 91 2 
92 3 93 25 94 5 95 28 96 28 97 95 98 17 99 19 100 4 101 10 
102 5 103 24 104 4 105 10 106 1 107 4 108 3 109 5 110 8 111 16 
112 12 113 14 114 2 115 21 116 9 117 36 118 5 119 17 120 2 121 7 
122 1 123 8 124 2 125 5 126 2 127 5 128 2 129 4 130 1 131 43 
132 8 133 152 134 20 135 19 136 2 137 1 138 2 139 8 140 8 141 27 
142 5 143 12 144 2 145 3 146 1 147 999 148 172 149 179 150 23 151 11 
152 1 153 2 154 3 155 13 156 9 157 22 158 4 159 6 160 1 161 3 
162 1 163 3 167 1 168 1 169 22 170 5 171 10 172 3 173 5 174 1 
175 1 177 9 178 1 179 1 182 4 183 14 184 26 185 11 186 3 187 2 
189 2 190 1 191 5 192 1 193 1 195 3 196 1 197 1 198 1 199 4 
200 1 201 5 202 2 203 1 204 1 205 2 207 9 208 2 209 1 210 1 
211 204 212 33 213 23 214 5 215 90 216 19 217 9 218 1 221 17 222 4 
223 2 227 3 228 16 229 307 230 68 231 29 232 4 233 1 241 1 243 4 
244 1 245 7 246 1 247 1 256 6 257 22 258 7 259 7 260 1 271 2 
272 19 273 10 274 3 275 3 276 1 284 1 285 101 286 23 287 25 288 5 
289 3 300 17 301 5 302 2 303 9 304 3 305 1 318 1 331 2 332 1 
333 1 346 10 347 3 348 1 374 6 375 79 376 25 377 12 378 2 
