Name: 3-Methyladenine
CAS: 5142-23-4
MW: 149
Formula: C6H7N5
Synonym: KEGG: C00913
Synonym: MassBank: KZ000005
Synonym: 3-Methyladenine
Structure: 31312031322020302020202020302020302020202020202020202020203939392056323030300A20202020302E3235353220202020302E3430363920202020302E303030302043202020302020302020302020302020302020302020202020202020202020302020302020300A20202020302E323535322020202D302E3430363920202020302E303030302043202020302020302020302020302020302020302020202020202020202020302020302020300A2020202D302E3434383320202020302E3832343120202020302E303030302043202020302020302020302020302020302020302020202020202020202020302020302020300A20202020312E3034343820202020302E3636353520202020302E30303030204E202020302020302020302020302020302020302020202020202020202020302020302020300A2020202D302E343438332020202D302E3832373620202020302E30303030204E202020302020302020332020302020302020302020202020202020202020302020302020300A20202020312E303434382020202D302E3636353520202020302E30303030204E202020302020302020302020302020302020302020202020202020202020302020302020300A2020202D312E3136353520202020302E3430363920202020302E30303030204E202020302020302020302020302020302020302020202020202020202020302020302020300A2020202D302E3434383320202020312E3635313720202020302E30303030204E202020302020302020302020302020302020302020202020202020202020302020302020300A20202020312E3533313020202020302E3030333420202020302E303030302043202020302020302020302020302020302020302020202020202020202020302020302020300A2020202D312E313635352020202D302E3430363920202020302E303030302043202020302020302020302020302020302020302020202020202020202020302020302020300A2020202D302E343438332020202D312E3635353220202020302E303030302043202020302020302020302020302020302020302020202020202020202020302020302020300A2020312020322020312020302020202020302020300A2020312020332020322020302020202020302020300A2020312020342020312020302020202020302020300A2020322020352020312020302020202020302020300A2020322020362020322020302020202020302020300A2020332020372020312020302020202020302020300A2020332020382020312020302020202020302020300A2020342020392020322020302020202020302020300A2020352031302020312020302020202020302020300A2020352031312020312020302020202020302020300A2020362020392020312020302020202020302020300A2020372031302020322020302020202020302020300A4D2020454E44
Contributor: Ara T, Morishita Y, Shibata D, Kazusa DNA Research Institute
InstType: EI
InstName: Pegasus III TOF-MS system, Leco; GC 6890, Agilent Technologies
IoniMethod: EI
IonPolarity: pos
Date: 2010-10-09 19:48:36+02:00
Num Peaks: 129
82 29 83 32 84 349 85 106 86 38 87 8 88 16 89 3 90 2 91 3 
92 14 93 28 94 119 95 71 96 49 97 21 98 30 99 68 100 22 101 9 
102 1 103 42 104 3 105 1 106 8 107 19 108 17 109 15 110 17 111 196 
112 23 113 25 114 6 115 7 116 1 117 1 118 1 119 12 120 8 121 73 
122 115 123 30 124 17 125 32 126 8 127 4 132 1 133 5 134 13 135 18 
136 25 137 15 138 75 139 12 140 4 144 1 145 1 146 2 147 6 148 14 
149 62 150 19 151 25 152 74 153 14 154 4 155 2 156 1 157 1 159 1 
160 2 161 6 162 11 163 10 164 16 165 25 166 10 167 4 168 1 169 1 
174 5 175 6 176 120 177 26 178 22 179 273 180 62 181 15 182 2 183 1 
186 1 187 1 188 3 189 11 190 32 191 14 192 8 193 12 194 19 195 5 
196 2 197 1 198 2 199 1 200 1 203 1 204 13 205 114 206 999 207 168 
208 48 209 5 210 1 211 1 212 1 213 2 214 1 215 1 216 1 217 1 
219 1 220 48 221 339 222 60 223 16 224 3 225 1 310 1 406 1 
