Name: DL-threo-beta-Methylaspartic acid
CAS: 6667-60-3
MW: 147
Formula: C5H9NO4
Synonym: MassBank: KZ000088
Synonym: DL-threo-beta-Methylaspartic acid
Structure: 31302020392020302020302020312020302020302020302020302020303939392056323030300A20202031372E3834333720202D31342E3436373220202020302E303030302043202020302020302020312020302020302020302020302020302020302020302020302020300A20202031392E3038343120202D31352E3130333520202020302E303030302043202020302020302020312020302020302020302020302020302020302020302020302020300A20202031362E3639333320202D31352E3232353620202020302E303030302043202020302020302020302020302020302020302020302020302020302020302020302020300A20202031372E3835303220202D31332E3131363820202020302E303030302043202020302020302020302020302020302020302020302020302020302020302020302020300A20202032302E3332343620202D31342E3438363420202020302E303030302043202020302020302020302020302020302020302020302020302020302020302020302020300A20202031392E3231313220202D31362E3638333820202020302E30303030204E202020302020302020302020302020302020302020302020302020302020302020302020300A20202031362E3638303520202D31362E3637303320202020302E30303030204F202020302020302020302020302020302020302020302020302020302020302020302020300A20202031352E3430373820202D31342E3630323220202020302E30303030204F202020302020302020302020302020302020302020302020302020302020302020302020300A20202032312E3531333620202D31352E3231393120202020302E30303030204F202020302020302020302020302020302020302020302020302020302020302020302020300A20202032302E3332343620202D31332E3130343820202020302E30303030204F202020302020302020302020302020302020302020302020302020302020302020302020300A2020312020322020312020302020202020302020300A2020312020332020312020302020202020302020300A2020312020342020312020312020202020302020300A2020322020352020312020302020202020302020300A2020322020362020312020312020202020302020300A2020332020372020312020302020202020302020300A2020332020382020322020302020202020302020300A2020352020392020312020302020202020302020300A2020352031302020322020302020202020302020300A4D2020454E44
Contributor: Ara T, Morishita Y, Shibata D, Kazusa DNA Research Institute
InstType: EI
InstName: Pegasus III TOF-MS system, Leco; GC 6890, Agilent Technologies
IoniMethod: EI
IonPolarity: pos
Date: 2010-10-09 19:48:36+02:00
Num Peaks: 167
82 28 83 28 84 272 85 102 86 148 87 32 88 4 89 16 90 5 91 7 
92 10 93 51 94 9 95 22 96 10 97 17 98 79 99 56 100 653 101 85 
102 34 103 90 104 9 105 15 106 1 107 2 108 2 110 6 111 4 112 59 
113 26 114 521 115 79 116 33 117 82 118 14 119 25 120 1 121 3 122 1 
124 4 125 4 126 4 127 12 128 239 129 131 130 188 131 234 132 72 133 152 
134 19 135 12 136 2 140 7 142 44 143 53 144 11 145 7 146 29 147 566 
148 57 149 65 150 9 151 3 154 2 156 40 157 21 158 28 159 11 160 7 
161 4 162 2 163 51 164 9 165 2 166 1 167 1 168 7 169 2 170 2 
171 1 172 28 173 9 174 46 175 4 176 10 177 8 184 8 185 8 186 16 
187 3 188 22 189 4 190 23 191 5 192 4 193 3 195 1 196 1 198 4 
199 3 200 5 201 4 202 167 203 39 204 13 205 4 206 1 207 3 211 1 
213 1 214 14 215 3 216 24 217 9 218 364 219 42 220 15 221 12 222 4 
223 2 224 1 225 1 226 1 227 1 228 1 229 3 230 45 231 11 232 9 
236 1 238 2 243 1 244 3 245 36 246 999 247 135 252 1 257 1 258 13 
259 11 260 8 263 1 264 1 265 1 274 1 275 1 276 2 277 2 290 1 
291 3 292 12 293 2 296 1 304 3 307 1 319 8 320 33 321 1 323 1 
330 1 347 2 348 5 349 2 362 1 363 3 365 1 
