Name: MassBank: KZ000173
CAS: 59-92-7
MW: 197
Formula: C9H11NO4
Synonym: KEGG: C00355
Synonym: MassBank: KZ000173
Synonym: 3,4-Dihydroxy-L-phenylalanine
Structure: 31342031342020302020302020312020302020302020302020302020303939392056323030300A20202032382E3732373020202D31392E3036333620202020302E303030302043202020302020302020302020302020302020302020302020302020302020302020302020300A20202032382E3732373020202D32302E3436383220202020302E303030302043202020302020302020302020302020302020302020302020302020302020302020302020300A20202032372E3532303520202D31382E3336393920202020302E303030302043202020302020302020302020302020302020302020302020302020302020302020302020300A20202032392E3934353020202D31382E3336393920202020302E30303030204F202020302020302020302020302020302020302020302020302020302020302020302020300A20202032372E3532303520202D32312E3137333520202020302E303030302043202020302020302020302020302020302020302020302020302020302020302020302020300A20202032392E3934353020202D32312E3136373620202020302E30303030204F202020302020302020302020302020302020302020302020302020302020302020302020300A20202032362E3330323320202D31392E3036333620202020302E303030302043202020302020302020302020302020302020302020302020302020302020302020302020300A20202032362E3330323320202D32302E3436383220202020302E303030302043202020302020302020302020302020302020302020302020302020302020302020302020300A20202032352E3038343220202D31382E3337353820202020302E303030302043202020302020302020302020302020302020302020302020302020302020302020302020300A20202032332E3837313820202D31392E3036393320202020302E303030302043202020302020302020312020302020302020302020302020302020302020302020302020300A20202032322E3635333620202D31382E3337353820202020302E303030302043202020302020302020302020302020302020302020302020302020302020302020302020300A20202032332E3837313820202D32302E3436383220202020302E30303030204E202020302020302020302020302020302020302020302020302020302020302020302020300A20202032312E3434313420202D31392E3036393320202020302E30303030204F202020302020302020302020302020302020302020302020302020302020302020302020300A20202032322E3635333620202D31362E3938323720202020302E30303030204F202020302020302020302020302020302020302020302020302020302020302020302020300A2020312020322020312020302020202020302020300A2020312020332020322020302020202020302020300A2020312020342020312020302020202020302020300A2020322020352020322020302020202020302020300A2020322020362020312020302020202020302020300A2020332020372020312020302020202020302020300A2020352020382020312020302020202020302020300A2020372020392020312020302020202020302020300A2020392031302020312020302020202020302020300A2031302031312020312020302020202020302020300A2031302031322020312020362020202020302020300A2031312031332020312020302020202020302020300A2031312031342020322020302020202020302020300A2020372020382020322020302020202020302020300A4D2020454E44
Contributor: Ara T, Morishita Y, Shibata D, Kazusa DNA Research Institute
InstType: EI
InstName: Pegasus III TOF-MS system, Leco; GC 6890, Agilent Technologies
IoniMethod: EI
IonPolarity: pos
Date: 2010-10-09 19:48:36+02:00
Num Peaks: 166
82 5 83 5 84 8 85 6 86 26 87 10 88 3 89 8 90 3 91 13 
92 3 93 4 95 4 97 2 98 2 99 5 100 278 101 54 102 23 103 29 
104 15 105 21 106 2 107 2 109 1 111 1 113 2 114 1 115 17 116 6 
117 19 118 6 119 17 120 2 121 3 123 1 128 2 129 6 130 51 131 38 
132 36 133 45 134 8 135 8 136 2 137 2 142 1 143 2 144 4 145 4 
146 7 147 162 148 28 149 44 150 7 151 7 152 1 153 1 157 1 158 4 
159 7 160 7 161 8 162 4 163 17 164 3 165 6 166 5 167 2 172 4 
173 2 174 6 175 4 176 2 177 8 178 3 179 176 180 32 181 32 182 5 
183 1 184 1 188 2 189 1 190 4 191 13 192 4 193 7 194 2 195 3 
196 1 202 2 203 11 204 3 205 3 206 2 207 6 208 2 209 4 210 1 
216 1 217 4 218 999 219 209 220 94 221 14 222 3 223 4 224 1 233 1 
234 1 235 1 236 1 237 7 238 2 239 1 248 2 249 1 250 1 251 3 
252 1 253 2 264 1 265 6 266 4 267 116 268 38 269 14 270 2 278 1 
279 2 280 33 281 13 282 4 291 6 292 2 293 1 294 1 295 3 296 1 
306 2 307 2 308 1 352 1 353 2 354 2 355 1 366 1 367 9 368 41 
369 16 370 7 371 1 378 1 379 2 380 9 381 4 382 1 441 2 442 8 
443 4 444 2 469 1 470 5 471 2 472 1 
