Name: Hypoxanthine
CAS: 68-94-0
MW: 136
Formula: C5H4N4O
Synonym: KEGG: C00262
Synonym: MassBank: KZ000035
Synonym: Hypoxanthine
Structure: 31302031312020302020302020302020302020302020302020302020303939392056323030300A20202032322E3133373220202D31362E3138303920202020302E303030302043202020302020302020302020302020302020302020302020302020302020302020302020300A20202032322E3133373220202D31372E3439363320202020302E303030302043202020302020302020302020302020302020302020302020302020302020302020302020300A20202032302E3939353120202D31352E3533353120202020302E303030302043202020302020302020302020302020302020302020302020302020302020302020302020300A20202032332E3237333320202D31352E3532333120202020302E30303030204E202020302020302020302020302020302020302020302020302020302020302020302020300A20202032302E3939353120202D31382E3136363220202020302E30303030204E202020302020302020302020302020302020302020302020302020302020302020302020300A20202032342E3431353420202D31372E3439363320202020302E30303030204E202020302020302020302020302020302020302020302020302020302020302020302020300A20202031392E3837303920202D31362E3138303920202020302E30303030204E202020302020302020302020302020302020302020302020302020302020302020302020300A20202032302E3939353120202D31342E3233313620202020302E30303030204F202020302020302020302020302020302020302020302020302020302020302020302020300A20202032342E3431353420202D31362E3138303920202020302E303030302043202020302020302020302020302020302020302020302020302020302020302020302020300A20202031392E3837303920202D31372E3439363320202020302E303030302043202020302020302020302020302020302020302020302020302020302020302020302020300A2020312020322020322020302020202020302020300A2020312020332020312020302020202020302020300A2020312020342020312020302020202020302020300A2020322020352020312020302020202020302020300A2020322020362020312020302020202020302020300A2020332020372020312020302020202020302020300A2020332020382020322020302020202020302020300A2020342020392020322020302020202020302020300A2020352031302020322020302020202020302020300A2020362020392020312020302020202020302020300A2020372031302020312020302020202020302020300A4D2020454E44
Contributor: Ara T, Morishita Y, Shibata D, Kazusa DNA Research Institute
InstType: EI
InstName: Pegasus III TOF-MS system, Leco; GC 6890, Agilent Technologies
IoniMethod: EI
IonPolarity: pos
Date: 2010-10-09 19:48:36+02:00
Num Peaks: 177
82 17 83 27 84 486 85 166 86 89 87 26 88 8 89 12 90 9 91 13 
92 23 93 37 94 22 95 82 96 44 97 33 98 72 99 79 100 165 101 34 
102 19 103 15 104 6 105 8 106 10 107 16 108 11 109 17 110 70 111 128 
112 57 113 23 114 13 115 19 116 12 117 22 118 7 119 22 120 7 121 10 
122 14 123 74 124 46 125 179 126 30 127 12 128 26 129 7 130 17 131 112 
132 34 133 39 134 12 135 7 136 18 137 15 138 53 139 46 140 15 141 12 
142 15 143 12 144 8 145 2 146 3 147 131 148 33 149 14 150 29 151 18 
152 48 153 30 154 13 155 11 156 13 157 14 158 129 159 30 160 12 161 4 
162 3 163 14 164 12 165 50 166 160 167 31 168 14 169 11 170 16 171 14 
172 144 173 68 174 19 175 11 176 3 177 34 178 9 179 16 180 46 181 134 
182 28 183 14 184 6 185 4 186 1 187 1 189 2 190 2 191 45 192 51 
193 170 194 30 195 14 196 5 197 23 198 7 199 3 200 1 204 1 205 10 
206 234 207 128 208 60 209 16 210 7 211 29 212 10 213 5 214 1 219 1 
220 2 221 4 222 25 223 24 224 17 225 6 226 2 227 1 233 1 234 1 
235 14 236 9 237 10 238 53 239 28 240 9 241 2 248 1 249 27 250 11 
251 6 252 5 253 2 254 1 255 1 263 3 264 13 265 999 266 254 267 100 
268 16 269 3 270 1 271 1 272 1 273 1 274 1 275 1 276 1 277 1 
278 1 279 39 280 367 281 93 282 37 283 6 284 1 
