Name: (R)-(-)-Phenylephrine
CAS: 61-76-7
MW: 167
Formula: C9H13NO2
Synonym: MassBank: KZ000067
Synonym: (R)-(-)-Phenylephrine
Structure: 31322031322020302020302020312020302020302020302020302020303939392056323030300A20202032352E3831373520202D31392E3837393320202020302E303030302043202020302020302020302020302020302020302020302020302020302020302020302020300A20202032342E3630303820202D32302E3538333620202020302E303030302043202020302020302020322020302020302020302020302020302020302020302020302020300A20202032352E3831373520202D31382E3438323120202020302E303030302043202020302020302020302020302020302020302020302020302020302020302020302020300A20202032372E3032383420202D32302E3537373920202020302E303030302043202020302020302020302020302020302020302020302020302020302020302020302020300A20202032332E3338343120202D31392E3837393320202020302E303030302043202020302020302020302020302020302020302020302020302020302020302020302020300A20202032342E3630303820202D32312E3938303920202020302E30303030204F202020302020302020302020302020302020302020302020302020302020302020302020300A20202032372E3032383420202D31372E3738333520202020302E303030302043202020302020302020302020302020302020302020302020302020302020302020302020300A20202032382E3233393420202D31392E3837393320202020302E303030302043202020302020302020302020302020302020302020302020302020302020302020302020300A20202032322E3137333320202D32302E3538333620202020302E30303030204E202020302020302020302020302020302020302020302020302020302020302020302020300A20202032382E3233393420202D31382E3438323120202020302E303030302043202020302020302020302020302020302020302020302020302020302020302020302020300A20202032372E3032383420202D31362E3338303520202020302E30303030204F202020302020302020302020302020302020302020302020302020302020302020302020300A20202032302E3936323320202D31392E3837393320202020302E303030302043202020302020302020302020302020302020302020302020302020302020302020302020300A2020312020322020312020302020202020302020300A2020312020332020322020302020202020302020300A2020312020342020312020302020202020302020300A2020322020352020312020302020202020302020300A2020322020362020312020312020202020302020300A2020332020372020312020302020202020302020300A2020342020382020322020302020202020302020300A2020352020392020312020302020202020302020300A2020372031302020322020302020202020302020300A2020372031312020312020302020202020302020300A2020392031322020312020302020202020302020300A2020382031302020312020302020202020302020300A4D2020454E44
Contributor: Ara T, Morishita Y, Shibata D, Kazusa DNA Research Institute
InstType: EI
InstName: Pegasus III TOF-MS system, Leco; GC 6890, Agilent Technologies
IoniMethod: EI
IonPolarity: pos
Date: 2010-10-09 19:48:36+02:00
Num Peaks: 95
83 1 84 2 85 1 86 17 87 4 88 4 89 5 90 2 91 14 92 1 
93 1 95 3 97 1 100 6 101 5 102 4 103 6 104 2 105 7 106 1 
107 1 114 2 115 7 116 999 117 125 118 45 119 8 120 1 121 2 123 1 
129 1 130 3 131 11 132 3 133 16 134 2 135 8 136 1 137 1 145 2 
146 2 147 88 148 15 149 14 150 2 151 9 152 1 159 1 160 1 161 6 
162 2 163 10 164 2 165 2 174 1 175 1 176 1 177 9 178 2 179 9 
180 1 181 1 189 1 190 1 191 2 192 2 193 7 194 2 195 1 204 2 
205 1 206 2 207 2 209 1 219 1 220 3 221 2 222 1 223 1 237 9 
238 2 239 1 251 6 252 2 253 1 264 1 265 1 267 7 268 4 269 1 
280 1 294 1 368 6 369 2 370 1 
