Name: Ethanolamine
CAS: 141-43-5
MW: 61
Formula: C2H7NO
Synonym: KEGG: C00189
Synonym: MassBank: KZ000132
Synonym: Ethanolamine
Structure: 310A31330A200A200A200A2020342020332020302020302020302020302020302020302020302020303939392056323030300A20202032352E3636373820202D31372E3336303720202020302E303030302043202020302020302020302020302020302020302020302020302020302020302020302020300A20202032342E3435323220202D31362E3635393320202020302E303030302043202020302020302020302020302020302020302020302020302020302020302020302020300A20202032362E3837373520202D31362E3635393320202020302E30303030204E202020302020302020302020302020302020302020302020302020302020302020302020300A20202032332E3234323520202D31372E3336303720202020302E30303030204F202020302020302020302020302020302020302020302020302020302020302020302020300A2020312020322020312020302020202020302020300A2020312020332020312020302020202020302020300A2020322020342020312020302020202020302020300A4D2020454E44
Contributor: Ara T, Morishita Y, Shibata D, Kazusa DNA Research Institute
InstType: EI
InstName: Pegasus III TOF-MS system, Leco; GC 6890, Agilent Technologies
IoniMethod: EI
IonPolarity: pos
Date: 2010-10-09 19:48:36+02:00
Num Peaks: 64
83 2 84 5 85 8 86 344 87 40 88 19 89 11 90 1 96 1 98 2 
99 5 100 344 101 48 102 31 103 18 104 3 105 5 112 1 113 9 114 40 
115 17 116 18 117 27 118 5 119 11 120 1 121 1 128 1 129 4 130 49 
131 43 132 12 133 92 134 13 135 7 136 1 142 1 143 1 144 8 145 2 
146 7 147 168 148 27 149 13 150 1 158 7 159 2 160 1 171 1 172 19 
173 5 174 999 175 175 176 76 177 9 178 1 187 1 188 9 189 2 190 1 
204 2 262 11 263 3 264 1 
