Name: L-Glutamine
CAS: 56-85-9
MW: 146
Formula: C5H10N2O3
Synonym: KEGG: C00064
Synonym: MassBank: KZ000154
Synonym: L-Glutamine
Structure: 31302020392020302020302020312020302020302020302020302020303939392056323030300A20202032332E3833373820202D31372E3436303620202020302E303030302043202020302020302020312020302020302020302020302020302020302020302020302020300A20202032352E3032353420202D31362E3731373820202020302E303030302043202020302020302020302020302020302020302020302020302020302020302020302020300A20202032322E3630333520202D31362E3739393520202020302E303030302043202020302020302020302020302020302020302020302020302020302020302020302020300A20202032332E3837383720202D31382E3835383720202020302E30303030204E202020302020302020302020302020302020302020302020302020302020302020302020300A20202032362E3235393720202D31372E3337383720202020302E303030302043202020302020302020302020302020302020302020302020302020302020302020302020300A20202032312E3434353120202D31372E3539353220202020302E30303030204F202020302020302020302020302020302020302020302020302020302020302020302020300A20202032322E3632303920202D31352E3430313520202020302E30303030204F202020302020302020302020302020302020302020302020302020302020302020302020300A20202032372E3434373220202D31362E3634313620202020302E303030302043202020302020302020302020302020302020302020302020302020302020302020302020300A20202032382E3638313420202D31372E3330323720202020302E30303030204E202020302020302020302020302020302020302020302020302020302020302020302020300A20202032372E3437303420202D31352E3234333520202020302E30303030204F202020302020302020302020302020302020302020302020302020302020302020302020300A2020312020322020312020302020202020302020300A2020312020332020312020302020202020302020300A2020312020342020312020362020202020302020300A2020322020352020312020302020202020302020300A2020332020362020312020302020202020302020300A2020332020372020322020302020202020302020300A2020352020382020312020302020202020302020300A2020382020392020312020302020202020302020300A2020382031302020322020302020202020302020300A4D2020454E44
Contributor: Ara T, Morishita Y, Shibata D, Kazusa DNA Research Institute
InstType: EI
InstName: Pegasus III TOF-MS system, Leco; GC 6890, Agilent Technologies
IoniMethod: EI
IonPolarity: pos
Date: 2010-10-09 19:48:36+02:00
Num Peaks: 170
82 9 83 76 84 50 85 18 86 22 87 10 88 4 89 9 90 9 91 3 
92 3 93 3 94 3 95 2 96 3 97 4 98 18 99 10 100 103 101 28 
102 17 103 19 104 3 105 4 106 1 107 2 108 1 109 1 110 5 111 4 
112 32 113 20 114 74 115 55 116 56 117 23 118 7 119 7 120 1 121 2 
123 1 124 2 125 2 126 39 127 9 128 117 129 35 130 40 131 93 132 35 
133 63 134 11 135 6 136 1 137 1 138 1 139 85 140 31 141 9 142 30 
143 5 144 10 145 48 146 14 147 243 148 48 149 46 150 7 151 3 152 1 
153 5 154 12 155 442 156 999 157 163 158 52 159 7 160 4 161 2 162 3 
163 2 166 1 167 5 168 2 169 1 170 2 171 3 172 10 173 8 174 5 
175 1 176 1 177 1 181 1 182 2 183 4 184 1 185 2 186 2 187 1 
188 18 189 5 190 3 191 1 192 1 197 1 198 1 199 1 200 3 201 1 
202 4 203 70 204 18 205 7 206 2 211 6 212 2 213 5 214 5 215 2 
216 10 217 7 218 22 219 7 220 2 221 6 222 1 223 1 226 1 227 16 
228 8 229 39 230 21 231 7 232 12 233 2 234 1 239 1 240 1 241 1 
242 1 243 2 244 7 245 102 246 23 247 9 248 2 256 1 257 8 258 4 
259 1 272 5 273 9 274 2 275 1 291 1 300 1 301 11 302 4 303 2 
304 1 344 2 345 1 346 3 347 15 348 4 349 2 361 1 362 4 363 1 
