Name: L-Proline
CAS: 147-85-3
MW: 115
Formula: C5H9NO2
Synonym: KEGG: C00148
Synonym: MassBank: KZ000237
Synonym: L-Proline
Structure: 310A32320A200A200A200A2020382020382020302020302020312020302020302020302020302020303939392056323030300A20202032352E3439313620202D31382E3537333220202020302E303030302043202020302020302020322020302020302020302020302020302020302020302020302020300A20202032342E3238323720202D31372E3837383220202020302E303030302043202020302020302020302020302020302020302020302020302020302020302020302020300A20202032372E3631313420202D31382E3537333220202020302E303030302043202020302020302020302020302020302020302020302020302020302020302020302020300A20202032352E3439313620202D31392E3739333620202020302E30303030204E202020302020302020302020302020302020302020302020302020302020302020302020300A20202032332E3037333920202D31382E3537333220202020302E30303030204F202020302020302020302020302020302020302020302020302020302020302020302020300A20202032342E3238323720202D31362E3437363620202020302E30303030204F202020302020302020302020302020302020302020302020302020302020302020302020300A20202032372E3631313420202D31392E3739333620202020302E303030302043202020302020302020302020302020302020302020302020302020302020302020302020300A20202032362E3535343420202D32302E3430363820202020302E303030302043202020302020302020302020302020302020302020302020302020302020302020302020300A2020312020322020312020302020202020302020300A2020312020332020312020302020202020302020300A2020312020342020312020362020202020302020300A2020322020352020312020302020202020302020300A2020322020362020322020302020202020302020300A2020332020372020312020302020202020302020300A2020342020382020312020302020202020302020300A2020372020382020312020302020202020302020300A4D2020454E44
Contributor: Ara T, Morishita Y, Shibata D, Kazusa DNA Research Institute
InstType: EI
InstName: Pegasus III TOF-MS system, Leco; GC 6890, Agilent Technologies
IoniMethod: EI
IonPolarity: pos
Date: 2010-10-09 19:48:36+02:00
Num Peaks: 144
82 3 83 4 84 22 85 14 86 22 87 9 88 7 89 5 90 1 93 1 
94 1 95 1 96 11 97 9 98 8 99 63 100 40 101 17 102 7 103 13 
104 1 105 6 106 2 107 3 109 1 110 4 111 1 112 4 113 14 114 7 
115 15 116 10 117 42 118 5 119 8 120 2 121 2 122 1 123 1 124 6 
125 1 126 18 127 3 128 7 129 9 130 3 131 26 132 7 133 49 134 7 
135 4 136 2 137 4 138 1 140 12 141 8 142 999 143 153 144 50 145 6 
146 2 147 272 148 45 149 25 150 3 151 1 152 2 153 2 154 3 155 9 
156 3 157 1 158 3 159 3 160 1 161 2 163 1 164 1 165 1 167 1 
168 2 169 2 170 28 171 7 172 6 173 2 174 3 175 2 180 1 183 1 
184 2 185 4 186 558 187 84 188 26 189 4 190 2 191 1 193 1 198 2 
202 1 203 1 213 3 214 2 215 1 216 162 217 39 218 16 219 3 230 1 
242 1 244 11 245 3 246 2 247 1 258 1 260 2 261 1 287 4 288 47 
289 12 290 5 291 1 292 1 296 1 302 1 303 5 304 1 305 1 309 1 
317 1 321 1 323 1 373 1 381 1 385 1 401 1 406 1 413 1 428 1 
443 1 455 1 479 1 480 1 
