Name: L-Phenylalanine
CAS: 63-91-2
MW: 165
Formula: C9H11NO2
Synonym: KEGG: C00079
Synonym: MassBank: KZ000052
Synonym: L-Phenylalanine
Structure: 31322031322020302020302020312020302020302020302020302020303939392056323030300A20202032352E3737313320202D31392E3231303220202020302E303030302043202020302020302020302020302020302020302020302020302020302020302020302020300A20202032352E3737313320202D32302E3631353120202020302E303030302043202020302020302020302020302020302020302020302020302020302020302020302020300A20202032362E3938383020202D32312E3331373620202020302E303030302043202020302020302020302020302020302020302020302020302020302020302020302020300A20202032382E3230343720202D32302E3631353120202020302E303030302043202020302020302020302020302020302020302020302020302020302020302020302020300A20202032382E3230343720202D31392E3231303220202020302E303030302043202020302020302020302020302020302020302020302020302020302020302020302020300A20202032362E3938383020202D31382E3530373820202020302E303030302043202020302020302020302020302020302020302020302020302020302020302020302020300A20202032342E3535343720202D31382E3530373820202020302E303030302043202020302020302020302020302020302020302020302020302020302020302020302020300A20202032332E3335353020202D31392E3230303620202020302E303030302043202020302020302020302020302020302020302020302020302020302020302020302020300A20202032322E3136333420202D31382E3531323720202020302E303030302043202020302020302020302020302020302020302020302020302020302020302020302020300A20202032302E3936383020202D31392E3230333120202020302E30303030204F202020302020302020302020302020302020302020302020302020302020302020302020300A20202032322E3136333220202D31372E3130333120202020302E30303030204F202020302020302020302020302020302020302020302020302020302020302020302020300A20202032332E3335343920202D32302E3631343820202020302E30303030204E202020302020302020302020302020302020302020302020302020302020302020302020300A2020312020322020322020302020202020302020300A2020322020332020312020302020202020302020300A2020332020342020322020302020202020302020300A2020342020352020312020302020202020302020300A2020352020362020322020302020202020302020300A2020312020362020312020302020202020302020300A2020312020372020312020302020202020302020300A2020372020382020312020302020202020302020300A2020382020392020312020302020202020302020300A2020392031302020312020302020202020302020300A2020392031312020322020302020202020302020300A2020382031322020312020362020202020302020300A4D2020454E44
Contributor: Ara T, Morishita Y, Shibata D, Kazusa DNA Research Institute
InstType: EI
InstName: Pegasus III TOF-MS system, Leco; GC 6890, Agilent Technologies
IoniMethod: EI
IonPolarity: pos
Date: 2010-10-09 19:48:36+02:00
Num Peaks: 127
82 3 83 6 84 33 85 12 86 58 87 18 88 7 89 31 90 18 91 261 
92 45 93 11 94 1 95 3 96 1 97 1 98 7 99 6 100 819 101 121 
102 60 103 97 104 25 105 27 106 4 107 8 108 1 109 1 110 1 112 1 
113 3 114 3 115 31 116 15 117 55 118 28 119 29 120 29 121 29 122 5 
123 2 124 1 126 1 127 1 128 7 129 7 130 105 131 89 132 97 133 99 
134 23 135 28 136 5 137 2 138 1 139 1 140 1 141 1 142 2 143 4 
144 13 145 18 146 44 147 643 148 107 149 57 150 8 151 2 152 1 153 1 
154 1 155 1 156 1 157 1 158 9 159 13 160 51 161 19 162 21 163 27 
164 5 165 2 172 4 173 2 174 15 175 6 176 29 177 35 178 12 179 3 
180 1 188 3 189 1 190 12 191 12 192 999 193 195 194 57 195 8 196 1 
202 3 203 13 204 24 205 7 206 2 217 3 218 934 219 226 220 118 221 19 
222 4 235 1 251 1 266 110 267 52 268 26 269 6 270 1 276 2 277 1 
278 3 279 1 280 1 292 1 294 38 295 10 296 4 
