Name: Nicotinic acid
CAS: 59-67-6
MW: 123
Formula: C6H5NO2
Synonym: KEGG: C00253
Synonym: MassBank: KZ000167
Synonym: Nicotinic acid
Structure: 310A32340A200A200A200A2020392020392020302020302020302020302020302020302020302020303939392056323030300A20202032352E3133353220202D31362E3939383620202020302E303030302043202020302020302020302020302020302020302020302020302020302020302020302020300A20202032332E3930313320202D31362E3330303420202020302E303030302043202020302020302020302020302020302020302020302020302020302020302020302020300A20202032352E3134363920202D31382E3333373220202020302E303030302043202020302020302020302020302020302020302020302020302020302020302020302020300A20202032362E3333343120202D31362E3239343420202020302E303030302043202020302020302020302020302020302020302020302020302020302020302020302020300A20202032322E3638343920202D31372E3031303220202020302E303030302043202020302020302020302020302020302020302020302020302020302020302020302020300A20202032332E3930313320202D31392E3131313420202020302E30303030204E202020302020302020302020302020302020302020302020302020302020302020302020300A20202032372E3533383920202D31362E3938313220202020302E30303030204F202020302020302020302020302020302020302020302020302020302020302020302020300A20202032362E3331303820202D31342E3930333520202020302E30303030204F202020302020302020302020302020302020302020302020302020302020302020302020300A20202032322E3639303820202D31382E3431333020202020302E303030302043202020302020302020302020302020302020302020302020302020302020302020302020300A2020312020322020312020302020202020302020300A2020312020332020322020302020202020302020300A2020312020342020312020302020202020302020300A2020322020352020322020302020202020302020300A2020332020362020312020302020202020302020300A2020342020372020312020302020202020302020300A2020342020382020322020302020202020302020300A2020352020392020312020302020202020302020300A2020362020392020322020302020202020302020300A4D2020454E44
Contributor: Ara T, Morishita Y, Shibata D, Kazusa DNA Research Institute
InstType: EI
InstName: Pegasus III TOF-MS system, Leco; GC 6890, Agilent Technologies
IoniMethod: EI
IonPolarity: pos
Date: 2010-10-09 19:48:36+02:00
Num Peaks: 47
82 2 83 9 84 4 85 2 86 3 90 34 91 2 92 4 93 10 94 8 
95 3 96 1 97 1 99 1 100 1 104 2 105 19 106 730 107 38 108 6 
109 10 110 4 119 1 120 10 121 2 122 8 132 2 134 7 135 7 136 999 
137 95 138 14 150 3 151 1 152 1 154 1 162 2 164 3 165 1 174 1 
179 4 180 987 181 98 182 16 194 7 195 28 196 3 
