Name: D-(-)-Ribose
CAS: 50-69-1
MW: 150
Formula: C5H10O5
Synonym: KEGG: C00121
Synonym: MassBank: KZ000120
Synonym: D-(-)-Ribose
Structure: 31302031302020302020202020312020302020202020202020202020203939392056323030300A2020202D302E3438363220202020302E3339333120202020302E303030302043202020302020302020322020302020302020302020202020202020202020302020302020300A2020202D302E323133382020202D302E3339333120202020302E303030302043202020302020302020322020302020302020302020202020202020202020302020302020300A20202020302E3138323820202020302E3837393320202020302E30303030204F202020302020302020302020302020302020302020202020202020202020302020302020300A2020202D312E3236323120202020302E3634313420202020302E303030302043202020302020302020302020302020302020302020202020202020202020302020302020300A20202020302E363230372020202D302E3339333120202020302E303030302043202020302020302020322020302020302020302020202020202020202020302020302020300A2020202D302E373033342020202D312E3036353520202020302E30303030204F202020302020302020302020302020302020302020202020202020202020302020302020300A20202020302E3836353520202020302E3337393320202020302E303030302043202020302020302020332020302020302020302020202020202020202020302020302020300A2020202D312E373632312020202D302E3032303720202020302E30303030204F202020302020302020302020302020302020302020202020202020202020302020302020300A20202020312E313033352020202D312E3036323120202020302E30303030204F202020302020302020302020302020302020302020202020202020202020302020302020300A20202020312E3635313720202020302E3633373920202020302E30303030204F202020302020302020302020302020302020302020202020202020202020302020302020300A2020312020322020312020302020202020302020300A2020312020332020312020302020202020302020300A2020312020342020312020312020202020302020300A2020322020352020312020302020202020302020300A2020322020362020312020362020202020302020300A2020332020372020312020302020202020302020300A2020342020382020312020302020202020302020300A2020352020392020312020362020202020302020300A2020372031302020312020342020202020302020300A2020352020372020312020302020202020302020300A4D2020454E44
Contributor: Ara T, Morishita Y, Shibata D, Kazusa DNA Research Institute
InstType: EI
InstName: Pegasus III TOF-MS system, Leco; GC 6890, Agilent Technologies
IoniMethod: EI
IonPolarity: pos
Date: 2010-10-09 19:48:36+02:00
Num Peaks: 129
82 4 84 3 85 5 86 7 87 6 88 3 89 92 90 8 91 4 94 1 
98 2 99 3 100 38 101 15 102 19 103 999 104 109 105 75 106 5 107 1 
111 1 112 3 113 4 114 15 115 10 116 5 117 42 118 5 119 11 120 1 
126 5 127 4 128 5 129 9 131 22 132 5 133 67 134 10 135 6 140 2 
141 1 142 6 143 13 144 3 145 12 147 176 148 34 149 20 150 1 156 1 
158 9 159 3 160 96 161 26 162 6 163 16 164 2 165 1 168 5 169 1 
170 1 172 4 173 7 174 12 175 7 176 1 177 1 184 1 186 1 187 1 
188 3 189 99 190 22 191 24 192 4 193 2 198 3 200 3 201 4 202 1 
204 4 205 2 214 4 215 2 216 10 217 324 218 65 219 36 220 5 221 4 
228 2 230 1 231 9 232 6 233 39 234 14 235 6 240 4 241 1 242 3 
246 2 248 3 249 1 256 4 257 3 258 1 262 12 263 3 264 1 272 2 
274 5 275 1 276 1 277 30 278 11 279 6 280 1 288 1 305 1 306 3 
307 171 308 56 309 31 310 7 311 1 316 1 330 1 331 1 362 2 
