Name: D-(+)-Malic acid
CAS: 636-61-3
MW: 134
Formula: C4H6O5
Synonym: KEGG: C00497
Synonym: MassBank: KZ000023
Synonym: D-(+)-Malic acid
Structure: 310A32330A200A200A200A2020392020382020302020302020312020302020302020302020302020303939392056323030300A20202032352E3039313320202D31382E3631383320202020302E303030302043202020302020302020312020302020302020302020302020302020302020302020302020300A20202032362E3239323220202D31392E3331313020202020302E303030302043202020302020302020302020302020302020302020302020302020302020302020302020300A20202032332E3839373020202D31392E3331313020202020302E303030302043202020302020302020302020302020302020302020302020302020302020302020302020300A20202032372E3438363520202D31382E3631383320202020302E303030302043202020302020302020302020302020302020302020302020302020302020302020302020300A20202032322E3730323620202D31382E3631323120202020302E30303030204F202020302020302020302020302020302020302020302020302020302020302020302020300A20202032332E3930333220202D32302E3832373920202020302E30303030204F202020302020302020302020302020302020302020302020302020302020302020302020300A20202032382E3638303920202D31392E3331313020202020302E30303030204F202020302020302020302020302020302020302020302020302020302020302020302020300A20202032372E3438303220202D31372E3233333520202020302E30303030204F202020302020302020302020302020302020302020302020302020302020302020302020300A20202032352E3038393520202D31372E3232303320202020302E30303030204F202020302020302020302020302020302020302020302020302020302020302020302020300A2020312020322020312020302020202020302020300A2020312020332020312020302020202020302020300A2020322020342020312020302020202020302020300A2020332020352020312020302020202020302020300A2020332020362020322020302020202020302020300A2020342020372020312020302020202020302020300A2020342020382020322020302020202020302020300A2020312020392020312020362020202020302020300A4D2020454E44
Contributor: Ara T, Morishita Y, Shibata D, Kazusa DNA Research Institute
InstType: EI
InstName: Pegasus III TOF-MS system, Leco; GC 6890, Agilent Technologies
IoniMethod: EI
IonPolarity: pos
Date: 2010-10-09 19:48:36+02:00
Num Peaks: 123
82 1 83 5 84 4 85 11 86 2 87 7 88 1 89 5 99 11 100 1 
101 114 102 11 103 10 104 1 105 4 113 2 115 10 116 11 117 41 118 5 
119 6 120 1 128 1 129 15 130 2 131 42 132 7 133 117 134 13 135 8 
136 1 142 1 143 27 144 5 145 7 146 2 147 999 148 146 149 80 150 9 
151 10 152 1 155 1 157 3 159 3 160 1 161 2 162 1 163 2 171 55 
172 7 173 9 175 87 176 16 177 25 178 4 179 2 185 3 186 1 187 1 
189 183 190 154 191 104 192 23 193 7 194 1 201 1 203 10 204 5 205 5 
206 1 207 4 208 1 209 1 215 1 216 1 217 38 218 9 219 5 220 1 
221 15 222 4 223 2 229 1 231 2 232 1 233 383 234 78 235 33 236 4 
237 1 245 199 246 39 247 24 248 3 249 1 259 2 260 5 261 1 263 40 
264 9 265 52 266 13 267 7 268 1 291 1 292 1 293 1 305 10 306 17 
307 41 308 24 309 10 310 3 319 14 320 5 321 2 322 1 335 60 336 16 
337 7 338 1 350 1 
