Name: 4-Aminobutyric acid
CAS: 56-12-2
MW: 103
Formula: C4H9NO2
Synonym: KEGG: C00334
Synonym: MassBank: KZ000099
Synonym: 4-Aminobutyric acid
Structure: 310A31390A200A200A200A2020372020362020302020302020302020302020302020302020302020303939392056323030300A20202032312E3833373620202D31382E3337383720202020302E303030302043202020302020302020302020302020302020302020302020302020302020302020302020300A20202032332E3034373820202D31372E3637373020202020302E303030302043202020302020302020302020302020302020302020302020302020302020302020302020300A20202032302E3632373420202D31372E3637373020202020302E303030302043202020302020302020302020302020302020302020302020302020302020302020302020300A20202032342E3235383020202D31382E3338353020202020302E30303030204F202020302020302020302020302020302020302020302020302020302020302020302020300A20202032332E3034373820202D31362E3238303320202020302E30303030204F202020302020302020302020302020302020302020302020302020302020302020302020300A20202031392E3431303820202D31382E3337383720202020302E303030302043202020302020302020302020302020302020302020302020302020302020302020302020300A20202031382E3230303620202D31372E3637373020202020302E30303030204E202020302020302020302020302020302020302020302020302020302020302020302020300A2020312020322020312020302020202020302020300A2020312020332020312020302020202020302020300A2020322020342020312020302020202020302020300A2020322020352020322020302020202020302020300A2020332020362020312020302020202020302020300A2020362020372020312020302020202020302020300A4D2020454E44
Contributor: Ara T, Morishita Y, Shibata D, Kazusa DNA Research Institute
InstType: EI
InstName: Pegasus III TOF-MS system, Leco; GC 6890, Agilent Technologies
IoniMethod: EI
IonPolarity: pos
Date: 2010-10-09 19:48:36+02:00
Num Peaks: 81
82 2 83 2 84 21 85 9 86 54 91 1 92 2 93 7 94 1 95 4 
96 2 97 5 98 11 99 18 100 102 103 6 105 2 110 3 111 3 112 15 
113 9 114 19 115 17 116 14 117 25 119 5 124 4 125 1 126 4 127 2 
128 9 129 15 130 50 131 41 132 5 133 77 139 4 140 29 141 2 142 188 
143 34 146 7 147 239 154 2 155 3 156 30 157 16 158 16 159 2 160 6 
161 1 168 2 169 1 170 15 171 4 172 75 173 1 174 999 184 1 185 1 
186 7 187 2 188 3 198 2 203 1 204 4 205 1 212 1 213 2 214 20 
216 83 219 3 227 2 228 1 230 6 231 2 246 23 288 6 302 1 303 15 
304 17 
