Name: D-Ribose 5-phosphate
CAS: 4151-19-3
MW: 230
Formula: C5H11O8P
Synonym: KEGG: C00117
Synonym: MassBank: KZ000205
Synonym: D-Ribose 5-phosphate
Structure: 31342031342020302020302020312020302020302020302020302020303939392056323030300A20202031392E3232333920202D31362E3034393220202020302E303030302050202020302020302020332020302020302020302020302020302020302020302020302020300A20202032302E3632363120202D31362E3034393220202020302E30303030204F202020302020302020302020302020302020302020302020302020302020302020302020300A20202031372E3832383020202D31362E3034393220202020302E30303030204F202020302020302020302020302020302020302020302020302020302020302020302020300A20202031392E3232333920202D31372E3531353120202020302E30303030204F202020302020302020302020302020302020302020302020302020302020302020302020300A20202031392E3231373520202D31342E3537373020202020302E30303030204F202020302020302020302020302020302020302020302020302020302020302020302020300A20202032312E3436383920202D31342E3934323820202020302E303030302043202020302020302020302020302020302020302020302020302020302020302020302020300A20202032322E3739333920202D31352E3335343520202020302E303030302043202020302020302020322020302020302020302020302020302020302020302020302020300A20202032332E3233373720202D31362E3639323620202020302E303030302043202020302020302020322020302020302020302020302020302020302020302020302020300A20202032332E3932363020202D31342E3533373720202020302E30303030204F202020302020302020302020302020302020302020302020302020302020302020302020300A20202032342E3635393320202D31362E3639323620202020302E303030302043202020302020302020322020302020302020302020302020302020302020302020302020300A20202032322E3433333720202D31372E3833313020202020302E30303030204F202020302020302020302020302020302020302020302020302020302020302020302020300A20202032352E3038333820202D31352E3337333920202020302E303030302043202020302020302020332020302020302020302020302020302020302020302020302020300A20202032352E3438393020202D31372E3831313820202020302E30303030204F202020302020302020302020302020302020302020302020302020302020302020302020300A20202032362E3438353420202D31342E3837393420202020302E30303030204F202020302020302020302020302020302020302020302020302020302020302020302020300A2020312020322020312020302020202020302020300A2020312020332020312020302020202020302020300A2020312020342020312020302020202020302020300A2020312020352020322020302020202020302020300A2020322020362020312020302020202020302020300A2020372020362020312020312020202020302020300A2020372020382020312020302020202020302020300A2020372020392020312020302020202020302020300A2020382031302020312020302020202020302020300A2020382031312020312020362020202020302020300A2020392031322020312020302020202020302020300A2031302031332020312020362020202020302020300A2031322031342020312020342020202020302020300A2031302031322020312020302020202020302020300A4D2020454E44
Contributor: Ara T, Morishita Y, Shibata D, Kazusa DNA Research Institute
InstType: EI
InstName: Pegasus III TOF-MS system, Leco; GC 6890, Agilent Technologies
IoniMethod: EI
IonPolarity: pos
Date: 2010-10-09 19:48:36+02:00
Num Peaks: 286
82 23 83 17 84 39 85 61 86 50 87 55 88 26 89 435 90 41 91 36 
92 9 93 17 94 20 95 16 96 15 97 11 98 41 99 58 100 60 101 366 
102 82 103 165 104 28 105 141 106 24 107 30 108 4 109 13 110 7 111 24 
112 28 113 64 114 60 115 133 116 114 117 134 118 23 119 69 120 11 121 38 
122 6 123 18 124 4 125 9 126 79 127 52 128 35 129 706 130 170 131 173 
132 35 133 547 134 72 135 137 136 16 137 59 138 9 139 9 140 16 141 15 
142 42 143 68 144 16 145 31 146 7 147 999 148 157 149 140 150 22 151 58 
152 17 153 15 154 8 155 8 156 22 157 50 158 216 159 52 160 213 161 57 
162 15 163 65 164 12 165 25 166 11 167 25 168 70 169 23 170 14 171 5 
172 10 173 40 174 34 175 15 176 5 177 14 178 5 179 18 180 6 181 73 
182 17 183 29 184 25 185 8 186 6 187 5 188 4 189 55 190 12 191 81 
192 18 193 74 194 15 195 59 196 10 197 20 198 46 199 9 200 35 201 11 
202 7 203 16 204 36 205 61 206 14 207 108 208 24 209 23 210 8 211 407 
212 64 213 38 214 12 215 26 216 45 217 919 218 212 219 87 220 15 221 18 
222 4 223 5 224 2 225 108 226 22 227 93 228 24 229 17 230 12 231 16 
232 8 233 4 234 1 237 1 238 1 239 2 240 8 241 18 242 16 243 16 
244 11 245 3 246 7 247 3 248 2 249 2 250 1 251 1 253 27 254 6 
255 12 256 38 257 15 258 12 259 4 260 1 261 1 262 4 263 1 265 1 
267 3 268 1 269 15 270 5 271 3 272 49 273 13 274 14 275 3 276 1 
281 1 283 24 284 11 285 24 286 7 287 5 288 7 289 3 290 2 291 2 
297 2 298 3 299 580 300 180 301 84 302 17 303 4 304 2 305 4 306 4 
307 4 308 3 309 4 310 3 311 4 312 2 313 11 314 23 315 906 316 239 
317 131 318 25 319 7 320 2 321 1 322 1 327 1 328 16 329 4 330 7 
331 9 332 3 333 2 340 1 341 32 342 13 343 6 344 2 345 1 346 1 
347 1 355 1 357 112 358 33 359 17 360 4 361 1 362 18 363 6 364 3 
365 1 369 9 370 4 371 7 372 3 373 27 374 7 375 5 376 1 385 3 
386 4 387 32 388 14 389 12 390 4 391 2 402 5 403 82 404 34 405 17 
406 5 407 2 410 1 415 3 416 1 429 1 430 1 431 6 432 2 433 1 
458 5 459 56 460 27 461 14 462 5 463 1 
