Name: MassBank: NU000033
MW: 406
Formula: C25H42O4
Synonym: MassBank: NU000033
Synonym: 3beta,12alpha-Dihydroxy-5beta-cholan-24-oic Acid Methyl ester
Synonym: Isodeoxycholic Acid Methyl ester
Structure: 310A37360A20204143442F4C6162733038323030383130303632440A2033342033372020302020302020312020302020302020302020302020302020312056323030300A20202031352E323738392020202D382E3534383720202020302E303030302043202020302020302020302020302020302020302020302020302020302020302020302020300A20202031342E313532332020202D392E3230303120202020302E303030302043202020302020302020302020302020302020302020302020302020302020302020302020300A20202031342E3135323320202D31302E3530303820202020302E303030302043202020302020302020302020302020302020302020302020302020302020302020302020300A20202031352E3237383920202D31312E3135343020202020302E303030302043202020302020302020302020302020302020302020302020302020302020302020302020300A20202031362E3430353620202D31302E3530303820202020302E303030302043202020302020302020302020302020302020302020302020302020302020302020302020300A20202031362E343035362020202D392E3230303120202020302E303030302043202020302020302020302020302020302020302020302020302020302020302020302020300A20202031372E3533323420202D31312E3135343020202020302E303030302043202020302020302020302020302020302020302020302020302020302020302020302020300A20202031382E3635353320202D31302E3530303820202020302E303030302043202020302020302020302020302020302020302020302020302020302020302020302020300A20202031382E363532342020202D392E3139333920202020302E303030302043202020302020302020302020302020302020302020302020302020302020302020302020300A20202031372E353232362020202D382E3533383720202020302E303030302043202020302020302020302020302020302020302020302020302020302020302020302020300A20202031392E373732332020202D382E3534383620202020302E303030302043202020302020302020302020302020302020302020302020302020302020302020302020300A20202031392E373734342020202D372E3236313220202020302E303030302043202020302020302020302020302020302020302020302020302020302020302020302020300A20202031382E363535302020202D362E3631363620202020302E303030302043202020302020302020302020302020302020302020302020302020302020302020302020300A20202031372E353332342020202D372E3236313220202020302E303030302043202020302020302020302020302020302020302020302020302020302020302020302020300A20202032322E303033352020202D382E3534383720202020302E303030302043202020302020302020302020302020302020302020302020302020302020302020302020300A20202032322E303033352020202D372E3236313220202020302E303030302043202020302020302020302020302020302020302020302020302020302020302020302020300A20202032302E383938382020202D362E3631333220202020302E303030302043202020302020302020302020302020302020302020302020302020302020302020302020300A20202032342E323133332020202D342E3638393820202020302E303030302043202020302020302020302020302020302020302020302020302020302020302020302020300A20202032332E313037382020202D352E3332383020202020302E303030302043202020302020302020302020302020302020302020302020302020302020302020302020300A20202032322E303033352020202D342E3730343620202020302E303030302043202020302020302020302020302020302020302020302020302020302020302020302020300A20202032302E383839372020202D352E3334303920202020302E303030302043202020302020302020302020302020302020302020302020302020302020302020302020300A20202031362E3430353620202D31312E3836353220202020302E303030302048202020302020302020302020302020302020302020302020302020302020302020302020300A20202031392E383733352020202D342E3735333320202020302E303030302043202020302020302020302020302020302020302020302020302020302020302020302020300A20202031392E373734342020202D352E3833313320202020302E303030302043202020302020302020302020302020302020302020302020302020302020302020302020300A20202031362E343035362020202D372E3739323720202020302E303030302043202020302020302020302020302020302020302020302020302020302020302020302020300A20202032342E323133332020202D332E3431333320202020302E30303030204F202020302020302020302020302020302020302020302020302020302020302020302020300A20202032352E333234372020202D352E3331353520202020302E30303030204F202020302020302020302020302020302020302020302020302020302020302020302020300A20202032362E343736352020202D342E3635303520202020302E303030302043202020302020302020302020302020302020302020302020302020302020302020302020300A20202031372E353231322020202D392E3836383720202020302E303030302048202020302020302020302020302020302020302020302020302020302020302020302020300A20202031382E363530312020202D372E3836333920202020302E303030302048202020302020302020302020302020302020302020302020302020302020302020302020300A20202032302E383938342020202D372E3934333220202020302E303030302048202020302020302020302020302020302020302020302020302020302020302020302020300A20202031392E373731322020202D392E3837383620202020302E303030302048202020302020302020302020302020302020302020302020302020302020302020302020300A20202031382E333131372020202D352E3333313720202020302E30303030204F202020302020302020302020302020302020302020302020302020302020302020302020300A20202031322E3939393920202D31312E3136343720202020302E30303030204F202020302020302020302020302020302020302020302020302020302020302020302020300A2020312020322020312020302020302020302020300A2020322020332020312020302020302020302020300A2020332020342020312020302020302020302020300A2020342020352020312020302020302020302020300A2020352020362020312020302020302020302020300A2020312020362020312020302020302020302020300A2020352020372020312020302020302020302020300A2020372020382020312020302020302020302020300A2020382020392020312020302020302020302020300A2020392031302020312020302020302020302020300A2020362031302020312020302020302020302020300A2020392031312020312020302020302020302020300A2031312031322020312020302020302020302020300A2031322031332020312020302020302020302020300A2031332031342020312020302020302020302020300A2031302031342020312020302020302020302020300A2031352031362020312020302020302020302020300A2031362031372020312020302020302020302020300A2031322031372020312020302020302020302020300A2031382031392020312020302020302020302020300A2031392032302020312020302020302020302020300A2032302032312020312020302020302020302020300A2031372032312020312020312020302020302020300A2031312031352020312020302020302020302020300A2020352032322020312020312020302020302020300A2032312032332020312020362020302020302020300A2031322032342020312020312020302020302020300A2020362032352020312020312020302020302020300A2032362031382020322020302020302020302020300A2032372031382020312020302020302020302020300A2032372032382020312020302020302020302020300A2031302032392020312020362020302020302020300A2020392033302020312020312020302020302020300A2031372033312020312020362020302020302020300A2031312033322020312020362020302020302020300A2031332033332020312020362020302020302020300A2020332033342020312020312020302020302020300A4D2020454E44
Contributor: Takashi Iida, Department of Chemistry, College of Humanities and Sciences, Nihon University. Koichi Metori, Chemical Analytical Center, College of Pharmacy, Nihon Univercity.
InstType: EI
InstName: JEOL GCmate
IoniMethod: _POTENTIAL 70 eV
IonPolarity: pos
Date: 2010-10-09 19:48:36+02:00
Num Peaks: 301
51.0 4 53.0 35 54.1 11 55.1 297 56.1 25 57.1 52 58.1 17 59.0 44 60.0 4 65.1 16 
66.1 9 67.1 183 67.2 8 68.1 33 69.1 119 70.1 15 71.1 34 72.1 6 73.1 62 74.1 41 
75.1 4 77.1 54 78.1 14 79.1 185 80.1 42 81.1 397 82.1 54 83.1 126 84.0 6 84.1 56 
85.1 35 86.1 5 87.1 29 88.1 7 91.0 155 92.0 37 93.1 253 94.1 99 95.1 258 96.1 42 
97.1 63 98.1 24 99.1 30 100.1 8 101.0 12 103.0 8 104.1 9 105.1 220 106.1 83 107.1 324 
108.1 141 109.1 218 110.1 48 111.1 56 112.1 18 113.1 15 114.1 8 115.1 82 116.1 14 117.1 43 
118.1 29 119.1 170 120.1 94 120.6 4 121.1 294 121.6 3 122.1 116 123.1 105 124.1 75 125.1 35 
126.1 9 127.1 19 127.6 6 128.1 14 129.1 25 130.1 13 131.1 103 132.1 35 133.1 165 134.1 78 
134.6 3 135.1 162 136.1 35 137.1 55 138.1 15 139.1 15 140.1 8 141.1 35 142.1 12 143.1 40 
144.1 20 145.1 158 146.1 52 147.1 355 148.1 84 148.6 4 149.1 108 150.1 22 150.6 3 151.1 25 
152.1 9 153.1 12 154.1 468 155.1 75 156.1 14 157.1 44 158.1 23 159.1 141 160.1 47 161.1 166 
162.1 44 163.1 69 164.1 21 165.1 34 166.1 8 167.1 10 168.1 9 169.1 14 170.1 5 171.1 44 
172.1 17 173.1 105 174.1 34 175.1 70 176.1 24 177.1 43 178.1 14 179.1 18 180.1 8 181.1 11 
182.1 4 183.1 12 184.1 5 185.1 44 186.1 15 187.1 64 188.1 20 189.1 44 190.2 19 191.1 23 
192.1 13 193.1 16 194.1 11 195.1 79 196.1 16 197.1 16 198.1 5 199.0 6 199.1 60 200.1 21 
201.1 105 202.2 29 203.2 55 204.1 13 205.1 20 206.1 8 207.1 16 208.1 91 209.1 61 210.1 10 
211.1 18 212.1 8 213.2 113 214.1 38 215.2 83 216.2 41 217.2 39 218.1 14 219.1 35 220.2 15 
221.1 30 222.1 10 223.2 7 225.2 8 226.2 5 227.2 30 228.2 26 229.2 69 230.2 21 231.2 73 
232.0 5 232.2 35 233.2 50 234.2 23 235.2 14 236.2 7 237.1 7 239.2 7 240.1 3 241.2 19 
242.2 10 243.2 13 244.2 8 245.2 17 246.2 37 247.2 31 248.2 11 249.2 56 250.2 22 251.2 9 
252.2 3 253.2 30 254.2 16 255.2 768 256.2 182 257.1 7 257.2 31 258.2 7 259.2 15 260.2 17 
261.2 21 262.2 34 263.2 26 264.2 10 265.2 7 267.2 5 269.2 7 270.2 9 271.2 83 272.2 158 
273.1 999 274.2 401 275.2 57 276.2 12 277.1 28 278.1 14 279.1 5 281.2 7 283.2 25 284.2 10 
285.2 6 286.2 4 287.2 9 288.2 8 289.2 7 290.2 3 291.2 19 292.2 6 295.2 6 296.2 4 
297.2 22 298.2 7 299.2 8 300.2 6 301.2 21 302.2 16 303.2 8 304.2 3 305.2 6 313.2 11 
314.2 11 315.2 22 316.2 27 317.2 12 318.2 10 319.2 5 321.2 4 323.2 10 327.2 5 328.2 7 
329.2 15 330.2 8 331.2 9 332.2 5 333.3 5 334.2 3 337.2 4 338.2 4 339.2 15 340.3 4 
341.2 13 342.2 5 343.2 5 344.2 5 345.2 8 346.2 6 353.2 3 354.2 6 354.9 6 355.2 58 
356.2 29 357.2 83 358.2 25 359.2 18 360.2 6 368.3 4 369.2 5 370.3 86 371.3 30 372.3 8 
373.2 55 374.2 16 375.3 7 386.3 14 387.3 7 388.3 223 389.3 64 390.3 12 391.3 4 404.2 8 
406.3 4 
