Name: 3beta-Hydroxy-5beta-cholan-24-oic Acid Methyl ester
MW: 390
Formula: C25H42O3
Synonym: MassBank: NU000029
Synonym: 3beta-Hydroxy-5beta-cholan-24-oic Acid Methyl ester
Synonym: Isolithocholic Acid Methyl ester
Structure: 310A37340A20204143442F4C6162733038313830383133353532440A2033332033362020302020302020312020302020302020302020302020302020312056323030300A20202031352E323738392020202D382E3534383720202020302E303030302043202020302020302020302020302020302020302020302020302020302020302020302020300A20202031342E313532332020202D392E3230303120202020302E303030302043202020302020302020302020302020302020302020302020302020302020302020302020300A20202031342E3135323320202D31302E3530303820202020302E303030302043202020302020302020302020302020302020302020302020302020302020302020302020300A20202031352E3237383920202D31312E3135343020202020302E303030302043202020302020302020302020302020302020302020302020302020302020302020302020300A20202031362E3430353620202D31302E3530303820202020302E303030302043202020302020302020302020302020302020302020302020302020302020302020302020300A20202031362E343035362020202D392E3230303120202020302E303030302043202020302020302020302020302020302020302020302020302020302020302020302020300A20202031372E3533323420202D31312E3135343020202020302E303030302043202020302020302020302020302020302020302020302020302020302020302020302020300A20202031382E3635353320202D31302E3530303820202020302E303030302043202020302020302020302020302020302020302020302020302020302020302020302020300A20202031382E363532342020202D392E3139333920202020302E303030302043202020302020302020302020302020302020302020302020302020302020302020302020300A20202031372E353232362020202D382E3533383720202020302E303030302043202020302020302020302020302020302020302020302020302020302020302020302020300A20202031392E373732332020202D382E3534383620202020302E303030302043202020302020302020302020302020302020302020302020302020302020302020302020300A20202031392E373734342020202D372E3236313220202020302E303030302043202020302020302020302020302020302020302020302020302020302020302020302020300A20202031382E363535332020202D362E3631373420202020302E303030302043202020302020302020302020302020302020302020302020302020302020302020302020300A20202031372E353332342020202D372E3236313220202020302E303030302043202020302020302020302020302020302020302020302020302020302020302020302020300A20202032322E303033352020202D382E3534383720202020302E303030302043202020302020302020302020302020302020302020302020302020302020302020302020300A20202032322E303033352020202D372E3236313220202020302E303030302043202020302020302020302020302020302020302020302020302020302020302020302020300A20202032302E383938382020202D362E3631333220202020302E303030302043202020302020302020302020302020302020302020302020302020302020302020302020300A20202032342E323133332020202D342E3638393820202020302E303030302043202020302020302020302020302020302020302020302020302020302020302020302020300A20202032332E313037382020202D352E3332383020202020302E303030302043202020302020302020302020302020302020302020302020302020302020302020302020300A20202032322E303033352020202D342E3730343620202020302E303030302043202020302020302020302020302020302020302020302020302020302020302020302020300A20202032302E383839372020202D352E3334303920202020302E303030302043202020302020302020302020302020302020302020302020302020302020302020302020300A20202031362E3430353620202D31312E3836353220202020302E303030302048202020302020302020302020302020302020302020302020302020302020302020302020300A20202031392E383733352020202D342E3735333320202020302E303030302043202020302020302020302020302020302020302020302020302020302020302020302020300A20202031392E373734342020202D352E3833313320202020302E303030302043202020302020302020302020302020302020302020302020302020302020302020302020300A20202031362E343035362020202D372E3739323720202020302E303030302043202020302020302020302020302020302020302020302020302020302020302020302020300A20202032342E323133332020202D332E3431333320202020302E30303030204F202020302020302020302020302020302020302020302020302020302020302020302020300A20202032352E333234372020202D352E3331353520202020302E30303030204F202020302020302020302020302020302020302020302020302020302020302020302020300A20202032362E343736352020202D342E3635303520202020302E303030302043202020302020302020302020302020302020302020302020302020302020302020302020300A20202031372E353231322020202D392E3836383720202020302E303030302048202020302020302020302020302020302020302020302020302020302020302020302020300A20202031382E363530312020202D372E3836333920202020302E303030302048202020302020302020302020302020302020302020302020302020302020302020302020300A20202032302E383938342020202D372E3934333220202020302E303030302048202020302020302020302020302020302020302020302020302020302020302020302020300A20202031392E373731322020202D392E3837383620202020302E303030302048202020302020302020302020302020302020302020302020302020302020302020302020300A20202031322E3939393920202D31312E3136343720202020302E30303030204F202020302020302020302020302020302020302020302020302020302020302020302020300A2020312020322020312020302020302020302020300A2020322020332020312020302020302020302020300A2020332020342020312020302020302020302020300A2020342020352020312020302020302020302020300A2020352020362020312020302020302020302020300A2020312020362020312020302020302020302020300A2020352020372020312020302020302020302020300A2020372020382020312020302020302020302020300A2020382020392020312020302020302020302020300A2020392031302020312020302020302020302020300A2020362031302020312020302020302020302020300A2020392031312020312020302020302020302020300A2031312031322020312020302020302020302020300A2031322031332020312020302020302020302020300A2031332031342020312020302020302020302020300A2031302031342020312020302020302020302020300A2031352031362020312020302020302020302020300A2031362031372020312020302020302020302020300A2031322031372020312020302020302020302020300A2031382031392020312020302020302020302020300A2031392032302020312020302020302020302020300A2032302032312020312020302020302020302020300A2031372032312020312020312020302020302020300A2031312031352020312020302020302020302020300A2020352032322020312020312020302020302020300A2032312032332020312020362020302020302020300A2031322032342020312020312020302020302020300A2020362032352020312020312020302020302020300A2032362031382020322020302020302020302020300A2032372031382020312020302020302020302020300A2032372032382020312020302020302020302020300A2031302032392020312020362020302020302020300A2020392033302020312020312020302020302020300A2031372033312020312020362020302020302020300A2031312033322020312020362020302020302020300A2020332033332020312020312020302020302020300A4D2020454E44
Contributor: Takashi Iida, Department of Chemistry, College of Humanities and Sciences, Nihon University. Koichi Metori, Chemical Analytical Center, College of Pharmacy, Nihon Univercity.
InstType: EI
InstName: JEOL GCmate
IoniMethod: _POTENTIAL 70 eV
IonPolarity: pos
Date: 2010-10-09 19:48:36+02:00
Num Peaks: 173
53.0 67 54.1 23 55.1 517 56.1 34 57.1 70 58.1 22 59.0 79 65.1 29 67.1 414 68.1 139 
69.1 227 70.1 30 71.1 27 73.1 110 74.1 63 77.1 101 78.1 27 79.1 385 80.1 93 81.1 652 
82.1 138 83.1 188 84.1 22 85.1 92 87.1 88 91.1 282 92.1 79 93.1 543 94.1 212 95.1 602 
96.1 104 97.1 113 99.1 44 101.1 45 104.1 22 105.1 347 106.1 215 107.1 676 108.1 581 109.1 457 
110.1 144 111.1 103 115.1 99 117.1 56 118.1 42 119.1 269 120.1 211 121.1 453 122.1 355 123.1 236 
124.1 358 125.1 93 128.1 40 129.1 34 131.1 102 132.1 39 133.1 291 134.1 194 135.1 380 136.1 151 
137.1 116 138.1 55 141.1 47 142.1 22 143.1 37 145.1 267 146.1 74 147.1 396 148.1 310 149.1 719 
150.1 110 151.1 46 154.1 111 155.1 32 156.1 22 157.1 33 158.1 40 159.1 157 160.1 118 161.1 281 
162.1 163 163.1 151 164.1 56 165.1 221 166.1 244 167.1 184 168.1 23 171.1 23 173.1 131 174.1 66 
175.1 213 176.1 89 177.1 92 178.1 112 179.1 66 185.1 21 187.1 84 188.1 44 189.2 85 190.2 92 
191.1 97 192.2 27 199.1 32 201.2 151 202.2 46 203.2 79 204.2 29 205.1 28 206.2 23 208.1 23 
210.1 21 213.1 40 214.1 24 215.1 999 216.2 510 217.2 405 218.2 120 219.2 101 220.2 25 229.2 63 
230.2 165 231.2 89 232.2 47 233.2 856 234.2 383 235.2 70 248.2 392 249.2 104 257.2 126 258.2 29 
262.2 39 263.2 31 264.2 151 265.2 81 266.2 21 273.2 40 278.2 54 285.2 29 289.2 27 290.2 127 
291.2 45 299.3 27 303.2 21 304.3 27 315.3 25 316.3 22 317.3 44 318.2 112 319.2 65 320.2 84 
321.2 22 323.2 35 325.2 73 330.3 27 331.3 25 332.3 58 333.2 99 334.3 23 341.3 135 342.3 38 
343.3 33 357.2 475 358.3 150 359.2 73 372.3 887 373.3 282 374.3 50 375.3 291 376.3 79 388.3 26 
390.3 771 391.3 230 392.3 39 
