Name: MassBank: NU000039
MW: 406
Formula: C25H42O4
Synonym: MassBank: NU000039
Synonym: 3beta,7beta-Dihydroxy-5beta-cholan-24-oic Acid Methyl ester
Synonym: Isoursodeoxycholic Acid Methyl ester
Structure: 310A37360A20204143442F4C6162733039303830383133353632440A2033342033372020302020302020312020302020302020302020302020302020312056323030300A20202031352E323738392020202D382E3534383720202020302E303030302043202020302020302020302020302020302020302020302020302020302020302020302020300A20202031342E313532332020202D392E3230303120202020302E303030302043202020302020302020302020302020302020302020302020302020302020302020302020300A20202031342E3135323320202D31302E3530303820202020302E303030302043202020302020302020302020302020302020302020302020302020302020302020302020300A20202031352E3237383920202D31312E3135343020202020302E303030302043202020302020302020302020302020302020302020302020302020302020302020302020300A20202031362E3430353620202D31302E3530303820202020302E303030302043202020302020302020302020302020302020302020302020302020302020302020302020300A20202031362E343035362020202D392E3230303120202020302E303030302043202020302020302020302020302020302020302020302020302020302020302020302020300A20202031372E3533323420202D31312E3135343020202020302E303030302043202020302020302020302020302020302020302020302020302020302020302020302020300A20202031382E3635353320202D31302E3530303820202020302E303030302043202020302020302020302020302020302020302020302020302020302020302020302020300A20202031382E363532342020202D392E3139333920202020302E303030302043202020302020302020302020302020302020302020302020302020302020302020302020300A20202031372E353232362020202D382E3533383720202020302E303030302043202020302020302020302020302020302020302020302020302020302020302020302020300A20202031392E373732332020202D382E3534383620202020302E303030302043202020302020302020302020302020302020302020302020302020302020302020302020300A20202031392E373734342020202D372E3236313220202020302E303030302043202020302020302020302020302020302020302020302020302020302020302020302020300A20202031382E363535332020202D362E3631373420202020302E303030302043202020302020302020302020302020302020302020302020302020302020302020302020300A20202031372E353332342020202D372E3236313220202020302E303030302043202020302020302020302020302020302020302020302020302020302020302020302020300A20202032322E303033352020202D382E3534383720202020302E303030302043202020302020302020302020302020302020302020302020302020302020302020302020300A20202032322E303033352020202D372E3236313220202020302E303030302043202020302020302020302020302020302020302020302020302020302020302020302020300A20202032302E383938382020202D362E3631333220202020302E303030302043202020302020302020302020302020302020302020302020302020302020302020302020300A20202032342E323133332020202D342E3638393820202020302E303030302043202020302020302020302020302020302020302020302020302020302020302020302020300A20202032332E313037382020202D352E3332383020202020302E303030302043202020302020302020302020302020302020302020302020302020302020302020302020300A20202032322E303033352020202D342E3730343620202020302E303030302043202020302020302020302020302020302020302020302020302020302020302020302020300A20202032302E383839372020202D352E3334303920202020302E303030302043202020302020302020302020302020302020302020302020302020302020302020302020300A20202031362E3430353620202D31312E3836353220202020302E303030302048202020302020302020302020302020302020302020302020302020302020302020302020300A20202031392E383733352020202D342E3735333320202020302E303030302043202020302020302020302020302020302020302020302020302020302020302020302020300A20202031392E373734342020202D352E3833313320202020302E303030302043202020302020302020302020302020302020302020302020302020302020302020302020300A20202031362E343035362020202D372E3739323720202020302E303030302043202020302020302020302020302020302020302020302020302020302020302020302020300A20202032342E323133332020202D332E3431333320202020302E30303030204F202020302020302020302020302020302020302020302020302020302020302020302020300A20202032352E333234372020202D352E3331353520202020302E30303030204F202020302020302020302020302020302020302020302020302020302020302020302020300A20202032362E343736352020202D342E3635303520202020302E303030302043202020302020302020302020302020302020302020302020302020302020302020302020300A20202031372E353231322020202D392E3836383720202020302E303030302048202020302020302020302020302020302020302020302020302020302020302020302020300A20202031382E363530312020202D372E3836333920202020302E303030302048202020302020302020302020302020302020302020302020302020302020302020302020300A20202032302E383938342020202D372E3934333220202020302E303030302048202020302020302020302020302020302020302020302020302020302020302020302020300A20202031392E373731322020202D392E3837383620202020302E303030302048202020302020302020302020302020302020302020302020302020302020302020302020300A20202031322E3939393920202D31312E3136343720202020302E30303030204F202020302020302020302020302020302020302020302020302020302020302020302020300A20202031392E3830383920202D31312E3136323620202020302E30303030204F202020302020302020302020302020302020302020302020302020302020302020302020300A2020312020322020312020302020302020302020300A2020322020332020312020302020302020302020300A2020332020342020312020302020302020302020300A2020342020352020312020302020302020302020300A2020352020362020312020302020302020302020300A2020312020362020312020302020302020302020300A2020352020372020312020302020302020302020300A2020372020382020312020302020302020302020300A2020382020392020312020302020302020302020300A2020392031302020312020302020302020302020300A2020362031302020312020302020302020302020300A2020392031312020312020302020302020302020300A2031312031322020312020302020302020302020300A2031322031332020312020302020302020302020300A2031332031342020312020302020302020302020300A2031302031342020312020302020302020302020300A2031352031362020312020302020302020302020300A2031362031372020312020302020302020302020300A2031322031372020312020302020302020302020300A2031382031392020312020302020302020302020300A2031392032302020312020302020302020302020300A2032302032312020312020302020302020302020300A2031372032312020312020312020302020302020300A2031312031352020312020302020302020302020300A2020352032322020312020312020302020302020300A2032312032332020312020362020302020302020300A2031322032342020312020312020302020302020300A2020362032352020312020312020302020302020300A2032362031382020322020302020302020302020300A2032372031382020312020302020302020302020300A2032372032382020312020302020302020302020300A2031302032392020312020362020302020302020300A2020392033302020312020312020302020302020300A2031372033312020312020362020302020302020300A2031312033322020312020362020302020302020300A2020332033332020312020312020302020302020300A2020382033342020312020312020302020302020300A4D2020454E44
Contributor: Takashi Iida, Department of Chemistry, College of Humanities and Sciences, Nihon University. Koichi Metori, Chemical Analytical Center, College of Pharmacy, Nihon Univercity.
InstType: EI
InstName: JEOL GCmate
IoniMethod: _POTENTIAL 70 eV
IonPolarity: pos
Date: 2010-10-09 19:48:36+02:00
Num Peaks: 240
53.0 77 54.1 20 55.1 629 56.1 40 57.1 115 58.1 26 59.0 99 65.1 32 66.1 21 67.1 443 
68.1 123 69.1 263 70.1 83 71.1 53 73.1 138 74.1 100 77.1 112 78.1 31 79.1 398 80.1 115 
81.0 29 81.1 678 82.1 141 83.1 243 84.1 60 85.1 116 87.1 84 91.1 308 92.1 89 93.1 658 
94.1 451 95.1 697 96.1 141 97.1 130 98.1 37 99.1 65 101.1 34 103.1 24 104.1 28 105.1 393 
106.1 201 107.1 534 108.1 494 109.1 642 110.1 203 111.1 168 112.1 42 113.1 21 114.1 34 115.1 150 
116.1 37 117.1 93 118.1 98 119.1 384 120.1 276 121.1 448 122.1 278 123.1 255 124.1 152 125.1 106 
126.1 56 127.1 43 128.1 30 129.1 63 130.1 28 131.1 206 132.1 107 133.1 373 134.1 218 135.1 349 
136.1 116 137.1 188 138.1 451 139.1 332 140.1 137 141.1 158 142.1 46 143.1 106 144.1 48 145.1 312 
146.1 143 147.1 398 148.1 290 149.1 197 150.1 84 151.1 91 152.1 221 153.1 110 154.1 222 155.1 132 
156.1 68 157.1 133 158.1 86 159.1 265 160.1 144 161.1 320 162.1 148 163.1 198 164.1 73 165.1 62 
166.1 21 168.1 24 169.1 34 171.1 91 172.1 48 173.1 166 174.1 73 175.1 138 176.1 87 177.1 98 
178.1 110 179.1 51 181.1 58 182.1 27 183.1 24 185.1 87 186.1 41 187.1 123 188.1 49 189.1 107 
190.1 42 191.1 54 192.2 47 193.1 30 194.1 180 195.1 119 196.1 37 197.1 87 198.1 29 199.1 143 
200.1 49 201.2 142 202.2 63 203.2 83 204.2 29 205.1 53 206.2 22 207.1 99 208.1 262 209.1 75 
210.1 40 211.1 42 212.1 22 213.2 349 214.2 134 215.2 276 216.2 124 217.2 167 218.2 74 219.2 92 
220.2 56 221.2 66 222.2 49 223.2 22 227.2 72 228.2 123 229.2 133 230.2 47 231.2 196 232.2 207 
233.2 225 234.2 80 235.2 41 236.2 48 237.2 22 241.1 23 241.2 46 242.2 41 243.2 37 244.2 22 
245.2 57 246.2 247 247.2 92 248.2 104 249.2 215 250.2 471 251.2 102 252.2 21 253.2 27 255.2 292 
256.2 68 257.2 28 259.2 58 260.2 50 261.2 38 262.2 136 263.2 72 264.2 242 265.2 62 271.2 92 
272.2 46 273.2 486 274.2 139 275.2 61 276.2 82 277.2 35 283.2 35 287.2 25 288.2 40 289.2 28 
290.2 29 292.2 132 293.2 34 294.2 29 297.2 29 301.2 33 302.2 26 303.2 23 304.2 34 313.2 34 
314.3 26 315.2 57 316.2 83 317.3 29 318.2 49 321.2 23 323.2 32 328.2 20 329.3 50 330.2 42 
331.2 33 339.2 104 340.3 29 341.3 33 355.2 191 356.2 111 357.3 118 358.3 31 370.3 367 371.3 117 
372.3 30 373.3 335 374.3 120 375.3 38 386.3 30 388.3 999 389.3 334 390.3 58 406.3 126 407.3 36 
