Name: 12alpha-Hydroxy-5beta-cholan-24-oic Acid Methyl ester
MW: 390
Formula: C25H42O3
Synonym: MassBank: NU000030
Synonym: 12alpha-Hydroxy-5beta-cholan-24-oic Acid Methyl ester
Structure: 310A37340A20204143442F4C6162733038313830383133353932440A2033332033362020302020302020312020302020302020302020302020302020312056323030300A20202031352E323738392020202D382E3534383720202020302E303030302043202020302020302020302020302020302020302020302020302020302020302020302020300A20202031342E313532332020202D392E3230303120202020302E303030302043202020302020302020302020302020302020302020302020302020302020302020302020300A20202031342E3135323320202D31302E3530303820202020302E303030302043202020302020302020302020302020302020302020302020302020302020302020302020300A20202031352E3237383920202D31312E3135343020202020302E303030302043202020302020302020302020302020302020302020302020302020302020302020302020300A20202031362E3430353620202D31302E3530303820202020302E303030302043202020302020302020302020302020302020302020302020302020302020302020302020300A20202031362E343035362020202D392E3230303120202020302E303030302043202020302020302020302020302020302020302020302020302020302020302020302020300A20202031372E3533323420202D31312E3135343020202020302E303030302043202020302020302020302020302020302020302020302020302020302020302020302020300A20202031382E3635353320202D31302E3530303820202020302E303030302043202020302020302020302020302020302020302020302020302020302020302020302020300A20202031382E363532342020202D392E3139333920202020302E303030302043202020302020302020302020302020302020302020302020302020302020302020302020300A20202031372E353232362020202D382E3533383720202020302E303030302043202020302020302020302020302020302020302020302020302020302020302020302020300A20202031392E373732332020202D382E3534383620202020302E303030302043202020302020302020302020302020302020302020302020302020302020302020302020300A20202031392E373734342020202D372E3236313220202020302E303030302043202020302020302020302020302020302020302020302020302020302020302020302020300A20202031382E363535302020202D362E3631363620202020302E303030302043202020302020302020302020302020302020302020302020302020302020302020302020300A20202031372E353332342020202D372E3236313220202020302E303030302043202020302020302020302020302020302020302020302020302020302020302020302020300A20202032322E303033352020202D382E3534383720202020302E303030302043202020302020302020302020302020302020302020302020302020302020302020302020300A20202032322E303033352020202D372E3236313220202020302E303030302043202020302020302020302020302020302020302020302020302020302020302020302020300A20202032302E383938382020202D362E3631333220202020302E303030302043202020302020302020302020302020302020302020302020302020302020302020302020300A20202032342E323133332020202D342E3638393820202020302E303030302043202020302020302020302020302020302020302020302020302020302020302020302020300A20202032332E313037382020202D352E3332383020202020302E303030302043202020302020302020302020302020302020302020302020302020302020302020302020300A20202032322E303033352020202D342E3730343620202020302E303030302043202020302020302020302020302020302020302020302020302020302020302020302020300A20202032302E383839372020202D352E3334303920202020302E303030302043202020302020302020302020302020302020302020302020302020302020302020302020300A20202031362E3430353620202D31312E3836353220202020302E303030302048202020302020302020302020302020302020302020302020302020302020302020302020300A20202031392E383733352020202D342E3735333320202020302E303030302043202020302020302020302020302020302020302020302020302020302020302020302020300A20202031392E373734342020202D352E3833313320202020302E303030302043202020302020302020302020302020302020302020302020302020302020302020302020300A20202031362E343035362020202D372E3739323720202020302E303030302043202020302020302020302020302020302020302020302020302020302020302020302020300A20202032342E323133332020202D332E3431333320202020302E30303030204F202020302020302020302020302020302020302020302020302020302020302020302020300A20202032352E333234372020202D352E3331353520202020302E30303030204F202020302020302020302020302020302020302020302020302020302020302020302020300A20202032362E343736352020202D342E3635303520202020302E303030302043202020302020302020302020302020302020302020302020302020302020302020302020300A20202031372E353231322020202D392E3836383720202020302E303030302048202020302020302020302020302020302020302020302020302020302020302020302020300A20202031382E363530312020202D372E3836333920202020302E303030302048202020302020302020302020302020302020302020302020302020302020302020302020300A20202032302E383938342020202D372E3934333220202020302E303030302048202020302020302020302020302020302020302020302020302020302020302020302020300A20202031392E373731322020202D392E3837383620202020302E303030302048202020302020302020302020302020302020302020302020302020302020302020302020300A20202031382E333131372020202D352E3333313720202020302E30303030204F202020302020302020302020302020302020302020302020302020302020302020302020300A2020312020322020312020302020302020302020300A2020322020332020312020302020302020302020300A2020332020342020312020302020302020302020300A2020342020352020312020302020302020302020300A2020352020362020312020302020302020302020300A2020312020362020312020302020302020302020300A2020352020372020312020302020302020302020300A2020372020382020312020302020302020302020300A2020382020392020312020302020302020302020300A2020392031302020312020302020302020302020300A2020362031302020312020302020302020302020300A2020392031312020312020302020302020302020300A2031312031322020312020302020302020302020300A2031322031332020312020302020302020302020300A2031332031342020312020302020302020302020300A2031302031342020312020302020302020302020300A2031352031362020312020302020302020302020300A2031362031372020312020302020302020302020300A2031322031372020312020302020302020302020300A2031382031392020312020302020302020302020300A2031392032302020312020302020302020302020300A2032302032312020312020302020302020302020300A2031372032312020312020312020302020302020300A2031312031352020312020302020302020302020300A2020352032322020312020312020302020302020300A2032312032332020312020362020302020302020300A2031322032342020312020312020302020302020300A2020362032352020312020312020302020302020300A2032362031382020322020302020302020302020300A2032372031382020312020302020302020302020300A2032372032382020312020302020302020302020300A2031302032392020312020362020302020302020300A2020392033302020312020312020302020302020300A2031372033312020312020362020302020302020300A2031312033322020312020362020302020302020300A2031332033332020312020362020302020302020300A4D2020454E44
Contributor: Takashi Iida, Department of Chemistry, College of Humanities and Sciences, Nihon University. Koichi Metori, Chemical Analytical Center, College of Pharmacy, Nihon Univercity.
InstType: EI
InstName: JEOL GCmate
IoniMethod: _POTENTIAL 70 eV
IonPolarity: pos
Date: 2010-10-09 19:48:36+02:00
Num Peaks: 196
53.0 16 54.1 7 55.1 144 56.1 15 57.1 26 58.1 31 59.1 21 65.1 7 66.1 4 67.1 107 
68.1 19 69.1 70 70.1 9 71.1 19 73.1 25 74.1 18 77.1 21 78.1 6 79.1 70 80.1 18 
81.1 197 82.1 28 83.1 76 84.1 35 85.1 17 87.1 16 91.1 55 92.1 13 93.1 94 94.1 39 
95.1 146 96.1 25 97.1 39 98.1 14 99.1 13 101.1 9 104.1 4 105.1 78 106.1 31 107.1 107 
108.1 68 109.1 155 110.1 26 111.1 26 112.1 8 113.1 7 115.1 33 116.1 7 117.1 14 118.1 8 
119.1 60 120.1 37 121.1 118 122.1 49 123.1 62 124.1 19 125.1 16 126.1 5 127.1 5 128.1 7 
129.1 9 130.1 5 131.1 25 132.1 10 133.1 55 134.1 31 135.1 94 136.1 19 137.1 30 138.1 8 
139.1 7 141.1 12 142.1 4 143.1 10 144.1 5 145.1 31 146.1 13 147.1 141 148.1 44 149.1 108 
150.1 20 151.1 16 152.1 5 153.1 5 154.1 184 155.1 31 156.1 6 157.1 8 158.1 6 159.1 29 
160.1 12 161.1 126 162.1 32 163.1 47 164.1 12 165.1 11 167.1 5 168.1 4 169.1 4 171.1 9 
173.1 22 174.1 8 175.1 51 176.2 21 177.1 25 178.1 6 179.1 6 181.1 5 185.1 7 187.2 21 
188.2 8 189.2 41 190.2 10 191.2 11 192.2 5 193.2 21 194.2 9 195.1 36 196.2 8 197.1 5 
199.2 9 200.1 5 201.1 29 202.2 13 203.2 74 204.2 21 205.2 17 206.2 4 207.1 6 208.1 48 
209.1 18 211.1 5 213.2 10 214.2 6 215.2 68 216.2 36 217.2 54 218.2 25 219.2 13 220.2 5 
221.1 12 222.1 5 227.2 4 228.2 5 229.2 20 230.2 31 231.2 30 232.2 8 233.2 52 234.2 18 
235.2 7 237.2 5 243.2 14 244.2 10 245.2 5 247.2 6 248.2 5 249.2 9 254.2 4 255.2 62 
256.2 89 257.2 999 258.2 272 259.2 32 260.2 5 261.2 7 262.2 20 263.2 16 264.2 5 265.2 4 
275.2 12 276.2 6 283.2 5 285.2 14 286.3 8 287.2 4 299.3 8 315.3 8 316.3 6 325.3 5 
329.2 6 341.3 5 343.3 5 355.3 6 357.2 48 358.3 16 359.3 28 360.3 8 370.3 19 371.3 8 
372.3 133 373.3 39 374.3 7 375.3 4 388.3 7 390.4 5 
