Name: MassBank: NU000052
MW: 422
Formula: C25H42O5
Synonym: MassBank: NU000052
Synonym: 3beta,7beta,12alpha-Trihydroxy-5beta-cholan-24-oic Acid Methyl ester
Structure: 310A37380A20204143442F4C6162733039303830383134313332440A2033352033382020302020302020312020302020302020302020302020302020312056323030300A20202031352E323738392020202D382E3534383720202020302E303030302043202020302020302020302020302020302020302020302020302020302020302020302020300A20202031342E313532332020202D392E3230303120202020302E303030302043202020302020302020302020302020302020302020302020302020302020302020302020300A20202031342E3135323320202D31302E3530303820202020302E303030302043202020302020302020302020302020302020302020302020302020302020302020302020300A20202031352E3237383920202D31312E3135343020202020302E303030302043202020302020302020302020302020302020302020302020302020302020302020302020300A20202031362E3430353620202D31302E3530303820202020302E303030302043202020302020302020302020302020302020302020302020302020302020302020302020300A20202031362E343035362020202D392E3230303120202020302E303030302043202020302020302020302020302020302020302020302020302020302020302020302020300A20202031372E3533323420202D31312E3135343020202020302E303030302043202020302020302020302020302020302020302020302020302020302020302020302020300A20202031382E3635353320202D31302E3530303820202020302E303030302043202020302020302020302020302020302020302020302020302020302020302020302020300A20202031382E363532342020202D392E3139333920202020302E303030302043202020302020302020302020302020302020302020302020302020302020302020302020300A20202031372E353232362020202D382E3533383720202020302E303030302043202020302020302020302020302020302020302020302020302020302020302020302020300A20202031392E373732332020202D382E3534383620202020302E303030302043202020302020302020302020302020302020302020302020302020302020302020302020300A20202031392E373734342020202D372E3236313220202020302E303030302043202020302020302020302020302020302020302020302020302020302020302020302020300A20202031382E363535302020202D362E3631363620202020302E303030302043202020302020302020302020302020302020302020302020302020302020302020302020300A20202031372E353332342020202D372E3236313220202020302E303030302043202020302020302020302020302020302020302020302020302020302020302020302020300A20202032322E303033352020202D382E3534383720202020302E303030302043202020302020302020302020302020302020302020302020302020302020302020302020300A20202032322E303033352020202D372E3236313220202020302E303030302043202020302020302020302020302020302020302020302020302020302020302020302020300A20202032302E383938382020202D362E3631333220202020302E303030302043202020302020302020302020302020302020302020302020302020302020302020302020300A20202032342E323133332020202D342E3638393820202020302E303030302043202020302020302020302020302020302020302020302020302020302020302020302020300A20202032332E313037382020202D352E3332383020202020302E303030302043202020302020302020302020302020302020302020302020302020302020302020302020300A20202032322E303033352020202D342E3730343620202020302E303030302043202020302020302020302020302020302020302020302020302020302020302020302020300A20202032302E383839372020202D352E3334303920202020302E303030302043202020302020302020302020302020302020302020302020302020302020302020302020300A20202031362E3430353620202D31312E3836353220202020302E303030302048202020302020302020302020302020302020302020302020302020302020302020302020300A20202031392E383733352020202D342E3735333320202020302E303030302043202020302020302020302020302020302020302020302020302020302020302020302020300A20202031392E373734342020202D352E3833313320202020302E303030302043202020302020302020302020302020302020302020302020302020302020302020302020300A20202031362E343035362020202D372E3739323720202020302E303030302043202020302020302020302020302020302020302020302020302020302020302020302020300A20202032342E323133332020202D332E3431333320202020302E30303030204F202020302020302020302020302020302020302020302020302020302020302020302020300A20202032352E333234372020202D352E3331353520202020302E30303030204F202020302020302020302020302020302020302020302020302020302020302020302020300A20202032362E343736352020202D342E3635303520202020302E303030302043202020302020302020302020302020302020302020302020302020302020302020302020300A20202031372E353231322020202D392E3836383720202020302E303030302048202020302020302020302020302020302020302020302020302020302020302020302020300A20202031382E363530312020202D372E3836333920202020302E303030302048202020302020302020302020302020302020302020302020302020302020302020302020300A20202032302E383938342020202D372E3934333220202020302E303030302048202020302020302020302020302020302020302020302020302020302020302020302020300A20202031392E373731322020202D392E3837383620202020302E303030302048202020302020302020302020302020302020302020302020302020302020302020302020300A20202031382E333131382020202D352E3333313720202020302E30303030204F202020302020302020302020302020302020302020302020302020302020302020302020300A20202031392E3830383920202D31312E3136323620202020302E30303030204F202020302020302020302020302020302020302020302020302020302020302020302020300A20202031322E3939393920202D31312E3136343720202020302E30303030204F202020302020302020302020302020302020302020302020302020302020302020302020300A2020312020322020312020302020302020302020300A2020322020332020312020302020302020302020300A2020332020342020312020302020302020302020300A2020342020352020312020302020302020302020300A2020352020362020312020302020302020302020300A2020312020362020312020302020302020302020300A2020352020372020312020302020302020302020300A2020372020382020312020302020302020302020300A2020382020392020312020302020302020302020300A2020392031302020312020302020302020302020300A2020362031302020312020302020302020302020300A2020392031312020312020302020302020302020300A2031312031322020312020302020302020302020300A2031322031332020312020302020302020302020300A2031332031342020312020302020302020302020300A2031302031342020312020302020302020302020300A2031352031362020312020302020302020302020300A2031362031372020312020302020302020302020300A2031322031372020312020302020302020302020300A2031382031392020312020302020302020302020300A2031392032302020312020302020302020302020300A2032302032312020312020302020302020302020300A2031372032312020312020312020302020302020300A2031312031352020312020302020302020302020300A2020352032322020312020312020302020302020300A2032312032332020312020362020302020302020300A2031322032342020312020312020302020302020300A2020362032352020312020312020302020302020300A2032362031382020322020302020302020302020300A2032372031382020312020302020302020302020300A2032372032382020312020302020302020302020300A2031302032392020312020362020302020302020300A2020392033302020312020312020302020302020300A2031372033312020312020362020302020302020300A2031312033322020312020362020302020302020300A2031332033332020312020362020302020302020300A2020382033342020312020312020302020302020300A2020332033352020312020312020302020302020300A4D2020454E44
Contributor: Takashi Iida, Department of Chemistry, College of Humanities and Sciences, Nihon University. Koichi Metori, Chemical Analytical Center, College of Pharmacy, Nihon Univercity.
InstType: EI
InstName: JEOL GCmate
IoniMethod: _POTENTIAL 70 eV
IonPolarity: pos
Date: 2010-10-09 19:48:36+02:00
Num Peaks: 317
51.0 4 53.0 28 54.0 10 55.1 226 56.1 22 57.1 53 58.1 35 59.0 37 60.1 8 61.1 6 
65.1 13 66.1 8 67.1 142 68.1 36 69.1 101 70.1 19 71.1 36 72.1 6 73.1 57 74.1 40 
75.1 4 77.1 42 78.1 12 79.1 139 80.1 36 81.1 254 82.1 44 83.1 109 84.1 39 85.1 36 
86.1 5 87.1 19 88.1 6 89.1 3 91.1 120 92.1 30 93.1 225 94.1 95 95.1 216 96.1 38 
97.1 61 98.1 17 99.1 32 100.1 7 101.0 9 102.1 3 103.0 10 104.0 9 105.1 173 106.1 69 
107.1 222 108.1 85 109.1 223 110.1 51 111.1 56 112.1 16 113.1 13 114.1 7 115.1 89 116.1 29 
117.1 45 118.1 35 119.1 144 120.1 59 121.1 186 122.1 72 123.1 87 124.1 33 125.1 31 126.1 12 
126.6 4 127.1 12 128.1 14 129.1 31 130.1 17 131.1 96 132.1 40 133.1 148 133.6 3 134.1 56 
135.1 110 136.1 37 137.1 52 138.1 20 139.1 20 140.1 8 141.1 38 142.1 16 143.1 88 144.1 37 
145.1 203 146.1 57 147.1 177 148.1 42 149.1 75 150.1 25 151.1 34 152.1 11 153.1 13 154.1 240 
155.1 60 156.1 20 157.1 91 158.1 31 159.1 145 160.1 38 161.1 88 162.1 26 163.1 85 164.1 31 
165.1 25 166.1 8 167.1 14 168.1 17 169.1 27 170.1 12 171.1 73 172.1 23 173.1 72 174.1 23 
175.1 78 176.1 24 177.1 40 178.1 14 179.1 18 180.1 12 181.1 33 182.1 9 183.1 29 184.1 11 
185.1 52 186.1 18 187.1 59 188.1 20 189.1 38 190.1 11 191.1 19 192.1 10 193.1 17 194.1 26 
195.1 59 196.1 22 197.1 46 198.1 15 199.1 54 200.1 17 201.1 63 202.1 16 203.1 25 204.1 11 
205.1 44 206.1 18 207.1 46 208.1 132 209.1 43 210.1 11 211.1 55 212.1 17 213.1 53 214.1 24 
215.1 43 216.1 15 217.1 30 218.1 14 219.2 25 220.1 13 221.1 22 222.1 8 223.1 12 224.2 6 
225.2 24 226.2 17 227.1 42 228.2 17 229.1 54 230.2 19 231.2 32 232.2 93 233.2 34 234.2 11 
235.2 11 236.2 6 237.2 10 238.2 7 239.2 15 240.2 9 241.2 19 242.1 10 243.2 26 244.2 25 
245.2 32 246.2 15 247.2 36 248.2 18 249.2 41 250.2 15 251.2 22 252.2 14 253.2 298 254.2 68 
255.2 24 256.2 9 257.2 29 258.2 27 259.2 19 260.2 18 261.2 47 262.2 21 263.2 17 264.2 8 
265.2 32 266.2 14 267.2 10 268.2 5 269.2 82 270.2 40 271.2 999 272.2 227 273.2 39 274.2 19 
275.2 12 276.2 8 277.2 9 278.2 5 279.2 8 280.2 4 281.2 18 282.2 7 283.2 10 284.2 5 
285.2 13 286.2 13 287.2 79 288.2 69 289.2 669 290.2 148 291.2 22 292.2 9 293.2 8 294.2 4 
295.2 13 296.2 5 297.2 9 298.2 5 299.2 35 300.2 17 301.2 9 302.2 5 303.2 8 304.2 3 
305.2 4 307.2 6 308.2 3 309.2 4 311.2 9 312.2 8 313.2 22 314.2 17 315.2 11 316.2 15 
317.2 13 318.2 5 319.2 4 321.1 9 322.2 3 323.2 4 325.2 8 326.2 6 327.2 12 328.2 9 
329.2 9 330.2 6 331.2 12 332.2 7 333.2 3 335.2 5 336.2 3 337.2 13 338.2 4 339.2 11 
340.2 4 341.2 7 342.2 5 343.2 12 344.3 6 345.2 6 351.2 3 353.2 30 354.2 15 355.2 54 
356.2 16 357.3 29 358.2 11 359.2 5 360.2 4 367.2 4 368.2 34 369.2 14 370.3 8 371.2 37 
372.2 18 373.2 29 374.3 9 375.2 8 384.3 16 385.3 8 386.3 245 387.3 73 388.3 15 389.2 10 
390.3 4 400.2 5 402.2 10 403.2 4 404.2 38 405.2 12 420.3 6 
