Name: MassBank: NU000036
MW: 406
Formula: C25H42O4
Synonym: CID: 102366
Synonym: MassBank: NU000036
Synonym: 3alpha,7alpha-Dihydroxy-5beta-cholan-24-oic Acid Methyl ester
Synonym: Chenodeoxycholic Acid Methyl ester
Structure: 310A37360A20204143442F4C6162733039303830383133353432440A2033342033372020302020302020312020302020302020302020302020302020312056323030300A20202031342E333635352020202D382E3534383720202020302E303030302043202020302020302020302020302020302020302020302020302020302020302020302020300A20202031332E323338392020202D392E3230303120202020302E303030302043202020302020302020302020302020302020302020302020302020302020302020302020300A20202031332E3233383920202D31302E3530303820202020302E303030302043202020302020302020302020302020302020302020302020302020302020302020302020300A20202031342E3336353520202D31312E3135343020202020302E303030302043202020302020302020302020302020302020302020302020302020302020302020302020300A20202031352E3439323220202D31302E3530303820202020302E303030302043202020302020302020302020302020302020302020302020302020302020302020302020300A20202031352E343932322020202D392E3230303120202020302E303030302043202020302020302020302020302020302020302020302020302020302020302020302020300A20202031362E3631393020202D31312E3135343020202020302E303030302043202020302020302020302020302020302020302020302020302020302020302020302020300A20202031372E3734313920202D31302E3530303820202020302E303030302043202020302020302020302020302020302020302020302020302020302020302020302020300A20202031372E373339302020202D392E3139333920202020302E303030302043202020302020302020302020302020302020302020302020302020302020302020302020300A20202031362E363039322020202D382E3533383720202020302E303030302043202020302020302020302020302020302020302020302020302020302020302020302020300A20202031382E383538392020202D382E3534383620202020302E303030302043202020302020302020302020302020302020302020302020302020302020302020302020300A20202031382E383631302020202D372E3236313220202020302E303030302043202020302020302020302020302020302020302020302020302020302020302020302020300A20202031372E373431392020202D362E3631373420202020302E303030302043202020302020302020302020302020302020302020302020302020302020302020302020300A20202031362E363139302020202D372E3236313220202020302E303030302043202020302020302020302020302020302020302020302020302020302020302020302020300A20202032312E303930312020202D382E3534383720202020302E303030302043202020302020302020302020302020302020302020302020302020302020302020302020300A20202032312E303930312020202D372E3236313220202020302E303030302043202020302020302020302020302020302020302020302020302020302020302020302020300A20202031392E393835342020202D362E3631333220202020302E303030302043202020302020302020302020302020302020302020302020302020302020302020302020300A20202032332E323939392020202D342E3638393820202020302E303030302043202020302020302020302020302020302020302020302020302020302020302020302020300A20202032322E313934342020202D352E3332383020202020302E303030302043202020302020302020302020302020302020302020302020302020302020302020302020300A20202032312E303930312020202D342E3730343620202020302E303030302043202020302020302020302020302020302020302020302020302020302020302020302020300A20202031392E393736332020202D352E3334303920202020302E303030302043202020302020302020302020302020302020302020302020302020302020302020302020300A20202031352E3439323220202D31312E3836353220202020302E303030302048202020302020302020302020302020302020302020302020302020302020302020302020300A20202031382E393630312020202D342E3735333320202020302E303030302043202020302020302020302020302020302020302020302020302020302020302020302020300A20202031382E383631302020202D352E3833313320202020302E303030302043202020302020302020302020302020302020302020302020302020302020302020302020300A20202031352E343932322020202D372E3739323720202020302E303030302043202020302020302020302020302020302020302020302020302020302020302020302020300A20202032332E323939392020202D332E3431333320202020302E30303030204F202020302020302020302020302020302020302020302020302020302020302020302020300A20202032342E343131332020202D352E3331353520202020302E30303030204F202020302020302020302020302020302020302020302020302020302020302020302020300A20202032352E353633312020202D342E3635303520202020302E303030302043202020302020302020302020302020302020302020302020302020302020302020302020300A20202031362E363037382020202D392E3836383720202020302E303030302048202020302020302020302020302020302020302020302020302020302020302020302020300A20202031372E373336372020202D372E3836333920202020302E303030302048202020302020302020302020302020302020302020302020302020302020302020302020300A20202031392E393835302020202D372E3934333220202020302E303030302048202020302020302020302020302020302020302020302020302020302020302020302020300A20202031382E383537382020202D392E3837383620202020302E303030302048202020302020302020302020302020302020302020302020302020302020302020302020300A20202031322E3038363520202D31312E3136343720202020302E30303030204F202020302020302020302020302020302020302020302020302020302020302020302020300A20202031382E3839353520202D31312E3136323620202020302E30303030204F202020302020302020302020302020302020302020302020302020302020302020302020300A2020312020322020312020302020302020302020300A2020322020332020312020302020302020302020300A2020332020342020312020302020302020302020300A2020342020352020312020302020302020302020300A2020352020362020312020302020302020302020300A2020312020362020312020302020302020302020300A2020352020372020312020302020302020302020300A2020372020382020312020302020302020302020300A2020382020392020312020302020302020302020300A2020392031302020312020302020302020302020300A2020362031302020312020302020302020302020300A2020392031312020312020302020302020302020300A2031312031322020312020302020302020302020300A2031322031332020312020302020302020302020300A2031332031342020312020302020302020302020300A2031302031342020312020302020302020302020300A2031352031362020312020302020302020302020300A2031362031372020312020302020302020302020300A2031322031372020312020302020302020302020300A2031382031392020312020302020302020302020300A2031392032302020312020302020302020302020300A2032302032312020312020302020302020302020300A2031372032312020312020312020302020302020300A2031312031352020312020302020302020302020300A2020352032322020312020312020302020302020300A2032312032332020312020362020302020302020300A2031322032342020312020312020302020302020300A2020362032352020312020312020302020302020300A2032362031382020322020302020302020302020300A2032372031382020312020302020302020302020300A2032372032382020312020302020302020302020300A2031302032392020312020362020302020302020300A2020392033302020312020312020302020302020300A2031372033312020312020362020302020302020300A2031312033322020312020362020302020302020300A2020332033332020312020362020302020302020300A2020382033342020312020362020302020302020300A4D2020454E44
Contributor: Takashi Iida, Department of Chemistry, College of Humanities and Sciences, Nihon University. Koichi Metori, Chemical Analytical Center, College of Pharmacy, Nihon Univercity.
InstType: EI
InstName: JEOL GCmate
IoniMethod: _POTENTIAL 70 eV
IonPolarity: pos
Date: 2010-10-09 19:48:36+02:00
Num Peaks: 199
53.0 55 55.1 462 56.1 30 57.1 80 58.1 24 59.0 74 65.1 24 67.1 320 68.1 78 69.1 189 
70.1 47 71.1 36 73.1 108 74.1 57 77.1 85 78.1 22 79.1 292 80.1 65 81.1 479 82.1 80 
83.1 187 84.1 35 85.1 125 87.1 54 91.1 245 92.1 62 93.1 454 94.1 218 95.1 478 96.1 102 
97.1 97 98.1 22 99.1 49 101.1 24 103.1 29 104.1 21 105.1 333 106.1 147 107.1 382 108.1 218 
109.1 341 110.1 77 111.1 78 112.1 21 115.1 108 116.1 22 117.1 83 118.1 94 119.1 309 120.1 233 
121.1 295 122.1 212 123.1 150 124.1 46 125.1 65 127.1 27 128.1 20 129.1 49 130.1 26 131.1 222 
132.1 140 133.1 297 134.1 146 135.1 219 136.1 73 137.1 92 138.1 89 139.1 68 140.1 144 141.1 161 
142.1 37 143.1 104 144.1 46 145.1 276 146.1 157 147.1 324 148.1 234 149.1 124 150.1 43 151.1 41 
152.1 53 153.1 33 154.1 76 155.1 73 156.1 26 157.1 178 158.1 112 159.1 288 160.1 138 161.1 204 
162.1 177 163.1 96 164.1 31 165.1 31 169.1 45 171.1 138 172.1 74 173.1 201 174.1 154 175.1 110 
176.1 39 177.1 53 178.1 33 179.1 24 181.1 26 183.1 25 185.1 119 186.1 59 187.1 115 188.1 37 
189.2 57 191.1 24 192.2 26 194.1 31 195.1 30 197.1 40 198.1 20 199.1 142 200.2 100 201.2 217 
202.2 89 203.2 51 205.1 20 207.1 31 208.1 66 209.1 37 211.1 46 212.2 24 213.1 574 214.2 155 
215.2 172 216.2 94 217.2 99 218.2 30 219.2 28 221.1 21 227.2 74 228.2 443 229.2 272 230.2 60 
231.2 128 232.2 47 233.2 32 239.2 23 241.2 48 242.2 35 243.2 28 245.2 21 246.2 299 247.2 84 
248.2 65 249.2 98 250.2 71 251.2 22 253.2 33 254.2 49 255.2 735 256.2 164 257.2 44 261.2 24 
262.2 83 263.2 39 264.2 222 265.2 61 271.2 76 272.2 36 273.2 617 274.2 174 275.2 62 276.2 51 
281.2 22 283.2 36 288.2 20 294.2 41 297.2 33 304.2 24 313.2 34 314.2 36 315.3 61 316.2 138 
317.3 34 321.2 29 323.2 50 329.2 28 339.3 160 340.3 45 341.2 21 355.2 526 356.2 153 357.2 43 
370.2 999 371.3 337 372.3 65 373.3 109 374.3 32 386.3 32 388.3 336 389.3 96 406.3 40 
