Name: MassBank: NU000067
MW: 422
Formula: C25H42O5
Synonym: MassBank: NU000067
Synonym: 3beta,6beta,7beta-Trihydroxy-5beta-cholan-24-oic Acid Methyl ester
Structure: 310A37380A20204143442F4C6162733039313030383132333732440A2033352033382020302020302020312020302020302020302020302020302020312056323030300A20202031352E323738392020202D382E3534383720202020302E303030302043202020302020302020302020302020302020302020302020302020302020302020302020300A20202031342E313532332020202D392E3230303120202020302E303030302043202020302020302020302020302020302020302020302020302020302020302020302020300A20202031342E3135323320202D31302E3530303820202020302E303030302043202020302020302020302020302020302020302020302020302020302020302020302020300A20202031352E3237383920202D31312E3135343020202020302E303030302043202020302020302020302020302020302020302020302020302020302020302020302020300A20202031362E3430353620202D31302E3530303820202020302E303030302043202020302020302020302020302020302020302020302020302020302020302020302020300A20202031362E343035362020202D392E3230303120202020302E303030302043202020302020302020302020302020302020302020302020302020302020302020302020300A20202031372E3533323420202D31312E3135343020202020302E303030302043202020302020302020302020302020302020302020302020302020302020302020302020300A20202031382E3635353320202D31302E3530303820202020302E303030302043202020302020302020302020302020302020302020302020302020302020302020302020300A20202031382E363532342020202D392E3139333920202020302E303030302043202020302020302020302020302020302020302020302020302020302020302020302020300A20202031372E353232362020202D382E3533383720202020302E303030302043202020302020302020302020302020302020302020302020302020302020302020302020300A20202031392E373732332020202D382E3534383620202020302E303030302043202020302020302020302020302020302020302020302020302020302020302020302020300A20202031392E373734342020202D372E3236313220202020302E303030302043202020302020302020302020302020302020302020302020302020302020302020302020300A20202031382E363535332020202D362E3631373420202020302E303030302043202020302020302020302020302020302020302020302020302020302020302020302020300A20202031372E353332342020202D372E3236313220202020302E303030302043202020302020302020302020302020302020302020302020302020302020302020302020300A20202032322E303033352020202D382E3534383720202020302E303030302043202020302020302020302020302020302020302020302020302020302020302020302020300A20202032322E303033352020202D372E3236313220202020302E303030302043202020302020302020302020302020302020302020302020302020302020302020302020300A20202032302E383938382020202D362E3631333220202020302E303030302043202020302020302020302020302020302020302020302020302020302020302020302020300A20202032342E323133332020202D342E3638393820202020302E303030302043202020302020302020302020302020302020302020302020302020302020302020302020300A20202032332E313037382020202D352E3332383020202020302E303030302043202020302020302020302020302020302020302020302020302020302020302020302020300A20202032322E303033352020202D342E3730343620202020302E303030302043202020302020302020302020302020302020302020302020302020302020302020302020300A20202032302E383839372020202D352E3334303920202020302E303030302043202020302020302020302020302020302020302020302020302020302020302020302020300A20202031362E3430353620202D31312E3836353220202020302E303030302048202020302020302020302020302020302020302020302020302020302020302020302020300A20202031392E383733352020202D342E3735333320202020302E303030302043202020302020302020302020302020302020302020302020302020302020302020302020300A20202031392E373734342020202D352E3833313320202020302E303030302043202020302020302020302020302020302020302020302020302020302020302020302020300A20202031362E343035362020202D372E3739323720202020302E303030302043202020302020302020302020302020302020302020302020302020302020302020302020300A20202032342E323133332020202D332E3431333320202020302E30303030204F202020302020302020302020302020302020302020302020302020302020302020302020300A20202032352E333234372020202D352E3331353520202020302E30303030204F202020302020302020302020302020302020302020302020302020302020302020302020300A20202032362E343736352020202D342E3635303520202020302E303030302043202020302020302020302020302020302020302020302020302020302020302020302020300A20202031372E353231322020202D392E3836383720202020302E303030302048202020302020302020302020302020302020302020302020302020302020302020302020300A20202031382E363530312020202D372E3836333920202020302E303030302048202020302020302020302020302020302020302020302020302020302020302020302020300A20202032302E383938342020202D372E3934333220202020302E303030302048202020302020302020302020302020302020302020302020302020302020302020302020300A20202031392E373731322020202D392E3837383620202020302E303030302048202020302020302020302020302020302020302020302020302020302020302020302020300A20202031322E3939393920202D31312E3136343720202020302E30303030204F202020302020302020302020302020302020302020302020302020302020302020302020300A20202031372E3533333420202D31322E3438343020202020302E30303030204F202020302020302020302020302020302020302020302020302020302020302020302020300A20202031392E3830383920202D31312E3136323620202020302E30303030204F202020302020302020302020302020302020302020302020302020302020302020302020300A2020312020322020312020302020302020302020300A2020322020332020312020302020302020302020300A2020332020342020312020302020302020302020300A2020342020352020312020302020302020302020300A2020352020362020312020302020302020302020300A2020312020362020312020302020302020302020300A2020352020372020312020302020302020302020300A2020372020382020312020302020302020302020300A2020382020392020312020302020302020302020300A2020392031302020312020302020302020302020300A2020362031302020312020302020302020302020300A2020392031312020312020302020302020302020300A2031312031322020312020302020302020302020300A2031322031332020312020302020302020302020300A2031332031342020312020302020302020302020300A2031302031342020312020302020302020302020300A2031352031362020312020302020302020302020300A2031362031372020312020302020302020302020300A2031322031372020312020302020302020302020300A2031382031392020312020302020302020302020300A2031392032302020312020302020302020302020300A2032302032312020312020302020302020302020300A2031372032312020312020312020302020302020300A2031312031352020312020302020302020302020300A2020352032322020312020312020302020302020300A2032312032332020312020362020302020302020300A2031322032342020312020312020302020302020300A2020362032352020312020312020302020302020300A2032362031382020322020302020302020302020300A2032372031382020312020302020302020302020300A2032372032382020312020302020302020302020300A2031302032392020312020362020302020302020300A2020392033302020312020312020302020302020300A2031372033312020312020362020302020302020300A2031312033322020312020362020302020302020300A2020332033332020312020312020302020302020300A2020372033342020312020312020302020302020300A2020382033352020312020312020302020302020300A4D2020454E44
Contributor: Takashi Iida, Department of Chemistry, College of Humanities and Sciences, Nihon University. Koichi Metori, Chemical Analytical Center, College of Pharmacy, Nihon Univercity.
InstType: EI
InstName: JEOL JMS-01SG-2
IoniMethod: _POTENTIAL 60 eV
IonPolarity: pos
Date: 2010-10-09 19:48:36+02:00
Num Peaks: 323
51.0 170 52.0 34 53.0 170 54.0 49 55.0 999 56.0 137 57.0 304 58.0 198 59.0 558 60.0 51 
63.0 22 64.0 25 66.0 162 67.0 477 68.0 168 69.0 401 70.0 122 71.0 125 73.0 192 74.0 148 
75.0 44 76.0 29 77.0 407 78.0 81 79.0 425 80.0 109 81.0 726 82.0 161 83.0 331 84.0 158 
85.0 131 86.0 32 87.0 107 88.0 11 89.0 19 91.0 438 92.0 96 93.0 533 94.0 253 95.0 761 
96.0 136 97.0 170 98.0 87 99.0 82 100.0 26 101.0 180 102.0 27 103.0 34 104.0 32 105.0 320 
106.0 107 107.0 448 108.0 180 109.0 338 110.0 107 111.0 125 112.0 41 113.0 36 114.0 3 115.0 146 
116.0 34 117.0 89 118.0 52 119.0 238 120.0 96 121.0 290 122.0 136 123.0 217 124.0 103 125.0 96 
126.0 32 127.0 33 128.0 56 129.0 70 130.0 34 131.0 144 132.0 65 133.0 236 134.0 95 135.0 260 
136.0 155 137.0 162 138.0 73 139.0 87 140.0 26 141.0 110 142.0 49 143.0 84 144.0 43 145.0 169 
146.0 70 147.0 191 148.0 80 149.0 172 150.0 121 151.0 80 152.0 110 153.0 74 154.0 131 155.0 69 
156.0 44 157.0 87 158.0 47 159.0 164 160.0 56 161.0 161 162.0 71 163.0 118 164.0 49 165.0 43 
166.0 18 167.0 40 168.0 238 169.0 69 170.0 30 171.0 84 172.0 32 173.0 106 174.0 48 175.0 120 
176.0 52 177.0 92 178.0 43 179.0 44 180.0 33 181.0 34 183.0 147 184.0 30 185.0 133 186.0 36 
187.0 78 188.0 27 189.0 71 190.0 29 191.0 69 192.0 38 193.0 48 194.0 66 195.0 47 196.0 18 
197.0 49 198.0 22 199.0 169 200.0 40 201.0 221 202.0 49 203.0 49 204.0 27 205.0 40 206.0 21 
207.0 63 208.0 52 209.0 38 210.0 43 211.0 80 212.0 26 213.0 63 214.0 29 215.0 89 216.0 41 
217.0 73 218.0 33 219.0 65 220.0 26 221.0 36 222.0 27 223.0 26 224.0 8 225.0 25 226.0 22 
227.0 43 228.0 22 229.0 151 230.0 58 231.0 80 232.0 45 233.0 192 234.0 58 235.0 34 236.0 15 
237.0 15 238.0 4 239.0 30 240.0 16 241.0 26 242.0 19 243.0 51 244.0 70 245.0 71 246.0 27 
247.0 453 248.0 580 249.0 190 250.0 52 251.0 23 252.0 18 253.0 55 254.0 19 255.0 22 256.0 24 
257.0 66 258.0 49 259.0 36 260.0 36 261.0 107 262.0 402 263.0 103 264.0 33 265.0 49 266.0 27 
267.0 16 269.0 35 270.0 26 271.0 209 272.0 56 273.0 34 274.0 51 275.0 41 276.0 80 277.0 926 
278.0 544 279.0 113 280.0 76 281.0 32 282.0 8 283.0 19 284.0 7 285.0 18 287.0 50 288.0 33 
289.0 223 290.0 60 291.0 27 292.0 106 293.0 37 294.0 17 295.0 22 297.0 18 298.0 13 299.0 35 
300.0 21 301.0 29 302.0 32 303.0 30 304.0 20 305.0 29 306.0 12 309.0 3 310.0 30 311.0 24 
312.0 28 313.0 58 314.0 35 315.0 36 316.0 31 317.0 27 318.0 21 319.0 17 321.0 7 326.0 16 
327.0 30 328.0 35 329.0 34 330.0 27 331.0 186 332.0 55 333.0 66 334.0 21 335.0 7 336.0 3 
337.0 30 338.0 7 339.0 28 340.0 8 341.0 11 342.0 15 343.0 23 344.0 25 345.0 16 346.0 25 
347.0 18 348.0 7 349.0 45 350.0 16 353.0 47 354.0 53 355.0 95 356.0 34 357.0 38 358.0 26 
359.0 17 360.0 6 362.0 7 364.0 6 368.0 72 369.0 47 370.0 24 371.0 97 372.0 78 373.0 97 
374.0 35 375.0 17 376.0 11 384.0 13 385.0 10 386.0 401 387.0 128 388.0 34 389.0 80 390.0 29 
391.0 16 402.0 33 403.0 17 404.0 862 405.0 249 406.0 40 407.0 6 420.0 36 421.0 12 422.0 59 
423.0 16 447.0 55 448.0 18 
