Name: MassBank: NU000074
MW: 422
Formula: C25H42O5
Synonym: MassBank: NU000074
Synonym: 3beta,4beta,7alpha-Trihydroxy-5beta-cholan-24-oic Acid Methyl ester
Structure: 310A37380A20204143442F4C6162733039313030383132343732440A2033352033382020302020302020312020302020302020302020302020302020312056323030300A20202031342E333635352020202D382E3534383720202020302E303030302043202020302020302020302020302020302020302020302020302020302020302020302020300A20202031332E323338392020202D392E3230303120202020302E303030302043202020302020302020302020302020302020302020302020302020302020302020302020300A20202031332E3233383920202D31302E3530303820202020302E303030302043202020302020302020302020302020302020302020302020302020302020302020302020300A20202031342E3336353520202D31312E3135343020202020302E303030302043202020302020302020302020302020302020302020302020302020302020302020302020300A20202031352E3439323220202D31302E3530303820202020302E303030302043202020302020302020302020302020302020302020302020302020302020302020302020300A20202031352E343932322020202D392E3230303120202020302E303030302043202020302020302020302020302020302020302020302020302020302020302020302020300A20202031362E3631393020202D31312E3135343020202020302E303030302043202020302020302020302020302020302020302020302020302020302020302020302020300A20202031372E3734313920202D31302E3530303820202020302E303030302043202020302020302020302020302020302020302020302020302020302020302020302020300A20202031372E373339302020202D392E3139333920202020302E303030302043202020302020302020302020302020302020302020302020302020302020302020302020300A20202031362E363039322020202D382E3533383720202020302E303030302043202020302020302020302020302020302020302020302020302020302020302020302020300A20202031382E383538392020202D382E3534383620202020302E303030302043202020302020302020302020302020302020302020302020302020302020302020302020300A20202031382E383631302020202D372E3236313220202020302E303030302043202020302020302020302020302020302020302020302020302020302020302020302020300A20202031372E373431392020202D362E3631373420202020302E303030302043202020302020302020302020302020302020302020302020302020302020302020302020300A20202031362E363139302020202D372E3236313220202020302E303030302043202020302020302020302020302020302020302020302020302020302020302020302020300A20202032312E303930312020202D382E3534383720202020302E303030302043202020302020302020302020302020302020302020302020302020302020302020302020300A20202032312E303930312020202D372E3236313220202020302E303030302043202020302020302020302020302020302020302020302020302020302020302020302020300A20202031392E393835342020202D362E3631333220202020302E303030302043202020302020302020302020302020302020302020302020302020302020302020302020300A20202032332E323939392020202D342E3638393820202020302E303030302043202020302020302020302020302020302020302020302020302020302020302020302020300A20202032322E313934342020202D352E3332383020202020302E303030302043202020302020302020302020302020302020302020302020302020302020302020302020300A20202032312E303930312020202D342E3730343620202020302E303030302043202020302020302020302020302020302020302020302020302020302020302020302020300A20202031392E393736332020202D352E3334303920202020302E303030302043202020302020302020302020302020302020302020302020302020302020302020302020300A20202031352E3439323220202D31312E3836353220202020302E303030302048202020302020302020302020302020302020302020302020302020302020302020302020300A20202031382E393630312020202D342E3735333320202020302E303030302043202020302020302020302020302020302020302020302020302020302020302020302020300A20202031382E383631302020202D352E3833313320202020302E303030302043202020302020302020302020302020302020302020302020302020302020302020302020300A20202031352E343932322020202D372E3739323720202020302E303030302043202020302020302020302020302020302020302020302020302020302020302020302020300A20202032332E323939392020202D332E3431333320202020302E30303030204F202020302020302020302020302020302020302020302020302020302020302020302020300A20202032342E343131332020202D352E3331353520202020302E30303030204F202020302020302020302020302020302020302020302020302020302020302020302020300A20202032352E353633312020202D342E3635303520202020302E303030302043202020302020302020302020302020302020302020302020302020302020302020302020300A20202031362E363037382020202D392E3836383720202020302E303030302048202020302020302020302020302020302020302020302020302020302020302020302020300A20202031372E373336372020202D372E3836333920202020302E303030302048202020302020302020302020302020302020302020302020302020302020302020302020300A20202031392E393835302020202D372E3934333220202020302E303030302048202020302020302020302020302020302020302020302020302020302020302020302020300A20202031382E383537382020202D392E3837383620202020302E303030302048202020302020302020302020302020302020302020302020302020302020302020302020300A20202031322E3038363520202D31312E3136343720202020302E30303030204F202020302020302020302020302020302020302020302020302020302020302020302020300A20202031342E3336353520202D31322E3438343020202020302E30303030204F202020302020302020302020302020302020302020302020302020302020302020302020300A20202031382E3839353520202D31312E3136323620202020302E30303030204F202020302020302020302020302020302020302020302020302020302020302020302020300A2020312020322020312020302020302020302020300A2020322020332020312020302020302020302020300A2020332020342020312020302020302020302020300A2020342020352020312020302020302020302020300A2020352020362020312020302020302020302020300A2020312020362020312020302020302020302020300A2020352020372020312020302020302020302020300A2020372020382020312020302020302020302020300A2020382020392020312020302020302020302020300A2020392031302020312020302020302020302020300A2020362031302020312020302020302020302020300A2020392031312020312020302020302020302020300A2031312031322020312020302020302020302020300A2031322031332020312020302020302020302020300A2031332031342020312020302020302020302020300A2031302031342020312020302020302020302020300A2031352031362020312020302020302020302020300A2031362031372020312020302020302020302020300A2031322031372020312020302020302020302020300A2031382031392020312020302020302020302020300A2031392032302020312020302020302020302020300A2032302032312020312020302020302020302020300A2031372032312020312020312020302020302020300A2031312031352020312020302020302020302020300A2020352032322020312020312020302020302020300A2032312032332020312020362020302020302020300A2031322032342020312020312020302020302020300A2020362032352020312020312020302020302020300A2032362031382020322020302020302020302020300A2032372031382020312020302020302020302020300A2032372032382020312020302020302020302020300A2031302032392020312020362020302020302020300A2020392033302020312020312020302020302020300A2031372033312020312020362020302020302020300A2031312033322020312020362020302020302020300A2020332033332020312020312020302020302020300A2020342033342020312020312020302020302020300A2020382033352020312020362020302020302020300A4D2020454E44
Contributor: Takashi Iida, Department of Chemistry, College of Humanities and Sciences, Nihon University. Koichi Metori, Chemical Analytical Center, College of Pharmacy, Nihon Univercity.
InstType: EI
InstName: JEOL JMS-01SG-2
IoniMethod: _POTENTIAL 60 eV
IonPolarity: pos
Date: 2010-10-09 19:48:36+02:00
Num Peaks: 244
51.0 31 53.0 55 54.0 15 55.0 432 56.0 34 57.0 108 59.0 86 65.0 78 66.0 15 67.0 224 
68.0 66 69.0 158 70.0 33 71.0 44 73.0 100 74.0 75 77.0 107 78.0 33 79.0 218 80.0 49 
81.0 357 82.0 58 83.0 125 84.0 33 85.0 73 87.0 47 89.0 18 90.0 12 91.0 559 92.0 93 
93.0 272 94.0 107 95.0 299 96.0 47 97.0 71 98.0 16 99.0 40 103.0 21 104.0 26 105.0 235 
106.0 128 107.0 268 108.0 102 109.0 281 110.0 74 111.0 97 112.0 30 113.0 21 115.0 81 116.0 21 
117.0 88 118.0 63 119.0 189 120.0 91 121.0 167 122.0 78 123.0 92 124.0 38 125.0 47 126.0 51 
127.0 747 128.0 83 129.0 46 130.0 92 131.0 137 132.0 155 133.0 200 134.0 86 135.0 181 136.0 110 
137.0 60 138.0 30 139.0 21 140.0 10 141.0 59 142.0 22 143.0 64 144.0 62 145.0 126 146.0 89 
147.0 141 148.0 67 149.0 80 150.0 29 151.0 30 152.0 26 153.0 56 154.0 51 155.0 38 156.0 21 
157.0 64 158.0 45 159.0 143 160.0 52 161.0 103 162.0 44 163.0 56 164.0 19 165.0 18 167.0 10 
169.0 43 170.0 15 171.0 47 172.0 21 173.0 73 174.0 96 175.0 75 176.0 27 177.0 49 178.0 16 
179.0 14 183.0 25 184.0 12 185.0 43 186.0 19 187.0 48 188.0 21 189.0 34 190.0 16 191.0 15 
192.0 21 193.0 14 194.0 11 195.0 26 196.0 10 197.0 38 198.0 15 199.0 44 200.0 22 201.0 51 
202.0 22 203.0 34 204.0 12 205.0 15 207.0 15 208.0 33 209.0 41 210.0 15 211.0 118 212.0 27 
213.0 47 214.0 16 215.0 45 216.0 33 217.0 47 218.0 14 219.0 14 221.0 10 222.0 12 223.0 14 
225.0 26 226.0 26 227.0 33 228.0 11 229.0 133 230.0 38 231.0 33 232.0 14 233.0 19 234.0 14 
235.0 21 236.0 21 237.0 14 239.0 10 243.0 25 244.0 80 245.0 41 246.0 12 247.0 71 248.0 27 
249.0 54 250.0 23 251.0 16 253.0 43 254.0 11 255.0 21 256.0 8 257.0 11 261.0 18 262.0 85 
263.0 38 264.0 21 265.0 34 266.0 19 267.0 10 269.0 14 270.0 10 271.0 110 272.0 25 273.0 12 
274.0 12 276.0 21 277.0 15 281.0 19 287.0 19 288.0 28 289.0 187 290.0 45 291.0 10 312.0 8 
313.0 16 314.0 18 315.0 36 316.0 23 317.0 22 318.0 7 321.0 18 326.0 19 327.0 18 328.0 18 
329.0 16 330.0 12 331.0 11 337.0 15 339.0 27 340.0 10 345.0 22 346.0 11 353.0 139 355.0 59 
356.0 29 357.0 14 368.0 63 369.0 70 370.0 23 371.0 118 372.0 47 373.0 86 374.0 28 386.0 93 
387.0 392 388.0 114 389.0 33 390.0 161 391.0 23 392.0 10 402.0 8 405.0 999 406.0 32 407.0 21 
420.0 5 422.0 1 423.0 1 442.0 1 
