Name: MassBank: NU000055
MW: 406
Formula: C25H42O4
Synonym: MassBank: NU000055
Synonym: 3alpha,6beta-Dihydroxy-5alpha-cholan-24-oic Acid Methyl ester
Structure: 310A37360A20204143442F4C6162733039313030383132323732440A2033342033372020302020302020312020302020302020302020302020302020312056323030300A20202031352E323738392020202D382E3534383720202020302E303030302043202020302020302020302020302020302020302020302020302020302020302020302020300A20202031342E313532332020202D392E3230303120202020302E303030302043202020302020302020302020302020302020302020302020302020302020302020302020300A20202031342E3135323320202D31302E3530303820202020302E303030302043202020302020302020302020302020302020302020302020302020302020302020302020300A20202031352E3237383920202D31312E3135343020202020302E303030302043202020302020302020302020302020302020302020302020302020302020302020302020300A20202031362E3430353620202D31302E3530303820202020302E303030302043202020302020302020302020302020302020302020302020302020302020302020302020300A20202031362E343035362020202D392E3230303120202020302E303030302043202020302020302020302020302020302020302020302020302020302020302020302020300A20202031372E3533323420202D31312E3135343020202020302E303030302043202020302020302020302020302020302020302020302020302020302020302020302020300A20202031382E3635353320202D31302E3530303820202020302E303030302043202020302020302020302020302020302020302020302020302020302020302020302020300A20202031382E363532342020202D392E3139333920202020302E303030302043202020302020302020302020302020302020302020302020302020302020302020302020300A20202031372E353232362020202D382E3533383720202020302E303030302043202020302020302020302020302020302020302020302020302020302020302020302020300A20202031392E373732332020202D382E3534383620202020302E303030302043202020302020302020302020302020302020302020302020302020302020302020302020300A20202031392E373734342020202D372E3236313220202020302E303030302043202020302020302020302020302020302020302020302020302020302020302020302020300A20202031382E363535332020202D362E3631373420202020302E303030302043202020302020302020302020302020302020302020302020302020302020302020302020300A20202031372E353332342020202D372E3236313220202020302E303030302043202020302020302020302020302020302020302020302020302020302020302020302020300A20202032322E303033352020202D382E3534383720202020302E303030302043202020302020302020302020302020302020302020302020302020302020302020302020300A20202032322E303033352020202D372E3236313220202020302E303030302043202020302020302020302020302020302020302020302020302020302020302020302020300A20202032302E383938382020202D362E3631333220202020302E303030302043202020302020302020302020302020302020302020302020302020302020302020302020300A20202032342E323133332020202D342E3638393820202020302E303030302043202020302020302020302020302020302020302020302020302020302020302020302020300A20202032332E313037382020202D352E3332383020202020302E303030302043202020302020302020302020302020302020302020302020302020302020302020302020300A20202032322E303033352020202D342E3730343620202020302E303030302043202020302020302020302020302020302020302020302020302020302020302020302020300A20202032302E383839372020202D352E3334303920202020302E303030302043202020302020302020302020302020302020302020302020302020302020302020302020300A20202031362E3430353620202D31312E3836353220202020302E303030302048202020302020302020302020302020302020302020302020302020302020302020302020300A20202031392E383733352020202D342E3735333320202020302E303030302043202020302020302020302020302020302020302020302020302020302020302020302020300A20202031392E373734342020202D352E3833313320202020302E303030302043202020302020302020302020302020302020302020302020302020302020302020302020300A20202031362E343035362020202D372E3739323720202020302E303030302043202020302020302020302020302020302020302020302020302020302020302020302020300A20202032342E323133332020202D332E3431333320202020302E30303030204F202020302020302020302020302020302020302020302020302020302020302020302020300A20202032352E333234372020202D352E3331353520202020302E30303030204F202020302020302020302020302020302020302020302020302020302020302020302020300A20202032362E343736352020202D342E3635303520202020302E303030302043202020302020302020302020302020302020302020302020302020302020302020302020300A20202031322E3939393920202D31312E3136343720202020302E30303030204F202020302020302020302020302020302020302020302020302020302020302020302020300A20202031372E353231322020202D392E3836383720202020302E303030302048202020302020302020302020302020302020302020302020302020302020302020302020300A20202031382E363530312020202D372E3836333920202020302E303030302048202020302020302020302020302020302020302020302020302020302020302020302020300A20202032302E383938342020202D372E3934333220202020302E303030302048202020302020302020302020302020302020302020302020302020302020302020302020300A20202031392E373731322020202D392E3837383620202020302E303030302048202020302020302020302020302020302020302020302020302020302020302020302020300A20202031372E3533333420202D31322E3438343020202020302E30303030204F202020302020302020302020302020302020302020302020302020302020302020302020300A2020312020322020312020302020302020302020300A2020322020332020312020302020302020302020300A2020332020342020312020302020302020302020300A2020342020352020312020302020302020302020300A2020352020362020312020302020302020302020300A2020312020362020312020302020302020302020300A2020352020372020312020302020302020302020300A2020372020382020312020302020302020302020300A2020382020392020312020302020302020302020300A2020392031302020312020302020302020302020300A2020362031302020312020302020302020302020300A2020392031312020312020302020302020302020300A2031312031322020312020302020302020302020300A2031322031332020312020302020302020302020300A2031332031342020312020302020302020302020300A2031302031342020312020302020302020302020300A2031352031362020312020302020302020302020300A2031362031372020312020302020302020302020300A2031322031372020312020302020302020302020300A2031382031392020312020302020302020302020300A2031392032302020312020302020302020302020300A2032302032312020312020302020302020302020300A2031372032312020312020312020302020302020300A2031312031352020312020302020302020302020300A2020352032322020312020362020302020302020300A2032312032332020312020362020302020302020300A2031322032342020312020312020302020302020300A2020362032352020312020312020302020302020300A2032362031382020322020302020302020302020300A2032372031382020312020302020302020302020300A2032372032382020312020302020302020302020300A2020332032392020312020362020302020302020300A2031302033302020312020362020302020302020300A2020392033312020312020312020302020302020300A2031372033322020312020362020302020302020300A2031312033332020312020362020302020302020300A2020372033342020312020312020302020302020300A4D2020454E44
Contributor: Takashi Iida, Department of Chemistry, College of Humanities and Sciences, Nihon University. Koichi Metori, Chemical Analytical Center, College of Pharmacy, Nihon Univercity.
InstType: EI
InstName: JEOL DX-303 mass spectrometer
IoniMethod: _POTENTIAL 70 eV
IonPolarity: pos
Date: 2010-10-09 19:48:36+02:00
Num Peaks: 196
18.0000 79 28.0000 40 29.0000 56 41.0000 165 43.0000 134 53.0000 42 55.0000 374 56.0000 28 57.0000 68 59.0000 61 
67.0000 232 68.0000 92 69.0000 161 71.0000 24 73.0000 89 74.0000 54 77.0000 54 79.0000 204 80.0000 46 81.0000 366 
82.0000 74 83.0000 137 84.0000 20 85.0000 59 87.0000 48 91.0000 147 92.0000 39 93.0000 272 94.0000 140 95.0000 544 
96.0000 77 97.0000 92 99.0000 34 104.0000 21 105.0000 185 106.0000 106 107.0000 276 108.0000 199 109.0000 303 110.0000 62 
111.0000 53 115.0000 66 117.0000 49 118.0000 50 119.0000 202 120.0000 120 121.0000 195 122.0000 152 123.0000 242 124.0000 128 
125.0000 56 129.0000 28 131.0000 116 132.0000 52 133.0000 163 134.0000 109 135.0000 154 136.0000 57 137.0000 67 138.0000 21 
140.0000 26 141.0000 102 142.0000 28 143.0000 90 144.0000 31 145.0000 154 146.0000 134 147.0000 430 148.0000 201 149.0000 114 
150.0000 44 151.0000 33 154.0000 277 155.0000 58 157.0000 67 158.0000 56 159.0000 137 160.0000 63 161.0000 183 162.0000 47 
163.0000 81 164.0000 39 165.0000 38 171.0000 71 172.0000 30 173.0000 92 174.0000 34 175.0000 71 176.0000 36 177.0000 46 
178.0000 21 180.0000 23 185.0000 61 186.0000 37 187.0000 83 188.0000 29 189.0000 66 190.0000 20 191.0000 21 193.0000 10 
195.0000 19 197.0000 15 199.0000 88 200.0000 32 201.0000 58 202.0000 41 203.0000 37 204.0000 19 205.0000 12 207.0000 14 
208.0000 57 209.0000 22 211.0000 17 212.0000 17 213.0000 554 214.0000 187 215.0000 152 216.0000 89 217.0000 57 218.0000 21 
219.0000 37 220.0000 11 221.0000 19 222.0000 18 227.0000 46 228.0000 740 229.0000 221 230.0000 43 231.0000 284 232.0000 304 
233.0000 157 234.0000 67 235.0000 19 241.0000 19 242.0000 13 243.0000 13 244.0000 15 245.0000 31 246.0000 463 247.0000 123 
248.0000 36 249.0000 80 250.0000 37 251.0000 11 255.0000 91 256.0000 21 257.0000 13 259.0000 10 260.0000 11 261.0000 18 
262.0000 95 263.0000 57 264.0000 101 265.0000 53 266.0000 14 271.0000 14 273.0000 120 274.0000 45 275.0000 20 283.0000 13 
288.0000 11 289.0000 31 290.0000 16 297.0000 14 301.0000 17 302.0000 10 303.0000 17 313.0000 13 315.0000 38 316.0000 22 
323.0000 20 328.0000 12 329.0000 32 330.0000 18 331.0000 19 339.0000 54 340.0000 16 341.0000 25 342.0000 13 355.0000 176 
356.0000 58 357.0000 148 358.0000 43 359.0000 14 370.0000 592 371.0000 191 372.0000 39 373.0000 130 374.0000 38 386.0000 30 
388.0000 999 389.0000 303 390.0000 50 391.0000 11 404.0000 17 406.0000 14 
