Name: MassBank: NU000045
MW: 406
Formula: C25H42O4
Synonym: MassBank: NU000045
Synonym: 7beta,12beta-Dihydroxy-5beta-cholan-24-oic Acid Methyl ester
Structure: 310A37360A20204143442F4C6162733039303830383134303332440A2033342033372020302020302020312020302020302020302020302020302020312056323030300A20202031342E333635352020202D382E3534383720202020302E303030302043202020302020302020302020302020302020302020302020302020302020302020302020300A20202031332E323338392020202D392E3230303120202020302E303030302043202020302020302020302020302020302020302020302020302020302020302020302020300A20202031332E3233383920202D31302E3530303820202020302E303030302043202020302020302020302020302020302020302020302020302020302020302020302020300A20202031342E3336353520202D31312E3135343020202020302E303030302043202020302020302020302020302020302020302020302020302020302020302020302020300A20202031352E3439323220202D31302E3530303820202020302E303030302043202020302020302020302020302020302020302020302020302020302020302020302020300A20202031352E343932322020202D392E3230303120202020302E303030302043202020302020302020302020302020302020302020302020302020302020302020302020300A20202031362E3631393020202D31312E3135343020202020302E303030302043202020302020302020302020302020302020302020302020302020302020302020302020300A20202031372E3734313920202D31302E3530303820202020302E303030302043202020302020302020302020302020302020302020302020302020302020302020302020300A20202031372E373339302020202D392E3139333920202020302E303030302043202020302020302020302020302020302020302020302020302020302020302020302020300A20202031362E363039322020202D382E3533383720202020302E303030302043202020302020302020302020302020302020302020302020302020302020302020302020300A20202031382E383538392020202D382E3534383620202020302E303030302043202020302020302020302020302020302020302020302020302020302020302020302020300A20202031382E383631302020202D372E3236313220202020302E303030302043202020302020302020302020302020302020302020302020302020302020302020302020300A20202031372E373431362020202D362E3631363620202020302E303030302043202020302020302020302020302020302020302020302020302020302020302020302020300A20202031362E363139302020202D372E3236313220202020302E303030302043202020302020302020302020302020302020302020302020302020302020302020302020300A20202032312E303930312020202D382E3534383720202020302E303030302043202020302020302020302020302020302020302020302020302020302020302020302020300A20202032312E303930312020202D372E3236313220202020302E303030302043202020302020302020302020302020302020302020302020302020302020302020302020300A20202031392E393835342020202D362E3631333220202020302E303030302043202020302020302020302020302020302020302020302020302020302020302020302020300A20202032332E323939392020202D342E3638393820202020302E303030302043202020302020302020302020302020302020302020302020302020302020302020302020300A20202032322E313934342020202D352E3332383020202020302E303030302043202020302020302020302020302020302020302020302020302020302020302020302020300A20202032312E303930312020202D342E3730343620202020302E303030302043202020302020302020302020302020302020302020302020302020302020302020302020300A20202031392E393736332020202D352E3334303920202020302E303030302043202020302020302020302020302020302020302020302020302020302020302020302020300A20202031352E3439323220202D31312E3836353220202020302E303030302048202020302020302020302020302020302020302020302020302020302020302020302020300A20202031382E393630312020202D342E3735333320202020302E303030302043202020302020302020302020302020302020302020302020302020302020302020302020300A20202031382E383631302020202D352E3833313320202020302E303030302043202020302020302020302020302020302020302020302020302020302020302020302020300A20202031352E343932322020202D372E3739323720202020302E303030302043202020302020302020302020302020302020302020302020302020302020302020302020300A20202032332E323939392020202D332E3431333320202020302E30303030204F202020302020302020302020302020302020302020302020302020302020302020302020300A20202032342E343131332020202D352E3331353520202020302E30303030204F202020302020302020302020302020302020302020302020302020302020302020302020300A20202032352E353633312020202D342E3635303520202020302E303030302043202020302020302020302020302020302020302020302020302020302020302020302020300A20202031362E363037382020202D392E3836383720202020302E303030302048202020302020302020302020302020302020302020302020302020302020302020302020300A20202031372E373336372020202D372E3836333920202020302E303030302048202020302020302020302020302020302020302020302020302020302020302020302020300A20202031392E393835302020202D372E3934333220202020302E303030302048202020302020302020302020302020302020302020302020302020302020302020302020300A20202031382E383537382020202D392E3837383620202020302E303030302048202020302020302020302020302020302020302020302020302020302020302020302020300A20202031382E3839353520202D31312E3136323620202020302E30303030204F202020302020302020302020302020302020302020302020302020302020302020302020300A20202031372E333938342020202D352E3333313720202020302E30303030204F202020302020302020302020302020302020302020302020302020302020302020302020300A2020312020322020312020302020302020302020300A2020322020332020312020302020302020302020300A2020332020342020312020302020302020302020300A2020342020352020312020302020302020302020300A2020352020362020312020302020302020302020300A2020312020362020312020302020302020302020300A2020352020372020312020302020302020302020300A2020372020382020312020302020302020302020300A2020382020392020312020302020302020302020300A2020392031302020312020302020302020302020300A2020362031302020312020302020302020302020300A2020392031312020312020302020302020302020300A2031312031322020312020302020302020302020300A2031322031332020312020302020302020302020300A2031332031342020312020302020302020302020300A2031302031342020312020302020302020302020300A2031352031362020312020302020302020302020300A2031362031372020312020302020302020302020300A2031322031372020312020302020302020302020300A2031382031392020312020302020302020302020300A2031392032302020312020302020302020302020300A2032302032312020312020302020302020302020300A2031372032312020312020312020302020302020300A2031312031352020312020302020302020302020300A2020352032322020312020312020302020302020300A2032312032332020312020362020302020302020300A2031322032342020312020312020302020302020300A2020362032352020312020312020302020302020300A2032362031382020322020302020302020302020300A2032372031382020312020302020302020302020300A2032372032382020312020302020302020302020300A2031302032392020312020362020302020302020300A2020392033302020312020312020302020302020300A2031372033312020312020362020302020302020300A2031312033322020312020362020302020302020300A2020382033332020312020312020302020302020300A2031332033342020312020312020302020302020300A4D2020454E44
Contributor: Takashi Iida, Department of Chemistry, College of Humanities and Sciences, Nihon University. Koichi Metori, Chemical Analytical Center, College of Pharmacy, Nihon Univercity.
InstType: EI
InstName: JEOL GCmate
IoniMethod: _POTENTIAL 70 eV
IonPolarity: pos
Date: 2010-10-09 19:48:36+02:00
Num Peaks: 358
50.0 1 51.0 3 52.0 2 53.0 34 54.1 12 55.1 312 56.1 24 57.1 53 58.1 19 59.0 43 
60.0 4 61.1 2 63.1 1 64.1 1 65.1 14 66.1 10 67.1 210 68.1 44 69.1 148 70.1 21 
71.1 39 72.1 5 73.1 66 74.1 74 75.1 6 76.1 1 77.1 44 78.1 12 79.1 145 80.1 42 
81.1 366 82.1 51 83.1 156 83.6 1 84.1 46 85.1 34 86.1 5 87.1 21 88.1 6 89.0 2 
90.0 2 91.1 121 92.1 35 92.6 1 93.1 225 93.6 1 94.1 89 94.6 1 95.1 360 96.1 91 
97.1 79 98.1 17 99.1 29 99.6 1 100.1 6 100.6 1 101.1 10 102.1 3 103.0 8 104.1 11 
104.6 1 105.1 252 106.1 97 106.6 2 107.1 225 107.6 2 108.1 95 108.6 1 109.1 297 110.1 72 
111.1 58 112.1 13 113.1 17 113.6 2 114.1 7 114.6 1 115.1 149 115.6 1 116.1 91 117.1 45 
118.1 27 119.1 177 119.6 2 120.1 81 120.6 2 121.1 268 121.6 1 122.1 89 122.6 1 123.1 123 
123.6 1 124.1 32 125.1 31 126.1 6 127.1 12 127.6 2 128.1 12 129.1 25 129.6 1 130.1 12 
130.6 1 131.1 76 132.1 41 133.1 158 134.1 57 134.6 2 135.1 179 136.1 56 136.6 2 137.1 85 
137.6 1 138.1 27 139.1 34 140.1 7 141.1 30 142.1 12 143.1 33 143.6 1 144.1 21 144.6 1 
145.1 148 146.1 45 147.1 214 148.1 61 148.6 2 149.1 190 150.1 48 150.6 1 151.1 37 152.1 12 
153.1 20 154.1 159 155.1 38 156.1 10 157.1 34 157.6 1 158.1 15 159.1 225 160.1 47 161.1 98 
162.1 35 163.1 92 164.1 50 164.6 1 165.1 73 166.1 14 167.1 12 168.1 68 169.1 19 170.1 6 
171.1 32 172.1 10 173.1 91 174.1 26 175.1 110 176.1 28 177.1 39 178.1 15 179.1 36 180.1 10 
181.1 11 182.1 4 183.1 10 184.1 4 185.1 36 186.1 12 187.1 68 188.1 61 189.1 66 190.1 16 
191.1 34 192.1 11 193.1 24 194.1 45 195.1 92 196.1 31 197.1 14 198.1 5 199.1 55 200.1 23 
201.1 84 202.1 41 203.2 103 204.1 23 205.1 23 206.1 21 207.1 30 208.1 63 209.1 22 210.1 7 
211.1 12 212.1 4 213.1 57 214.2 21 215.2 68 216.2 185 217.2 82 218.2 22 219.1 20 220.1 24 
221.1 19 222.1 8 223.1 8 224.2 4 225.2 9 226.1 4 227.2 35 228.2 47 229.2 85 230.2 28 
231.2 62 232.1 24 233.2 49 234.2 24 235.2 14 236.2 8 237.1 6 238.1 2 239.1 8 240.2 4 
241.2 32 242.2 31 243.2 29 244.2 8 245.2 21 246.2 25 247.2 24 248.2 11 249.2 55 250.2 33 
251.2 12 252.2 3 253.2 13 254.2 62 255.1 999 256.2 306 257.2 48 258.2 9 259.2 15 260.2 29 
261.2 32 262.2 9 263.2 22 264.2 9 265.2 6 266.2 2 267.2 4 268.2 2 269.2 6 270.2 4 
271.2 26 272.2 67 273.2 902 274.2 233 275.2 37 276.2 6 277.1 8 278.2 5 279.2 4 280.2 2 
281.2 8 282.2 3 283.2 88 284.2 26 285.2 9 286.2 3 287.2 5 288.2 3 289.2 5 290.2 3 
291.2 11 292.2 12 293.2 4 294.2 2 295.2 6 296.2 6 297.2 18 298.2 5 299.2 6 300.2 5 
301.2 17 302.2 6 303.2 5 304.2 2 305.2 4 306.2 2 307.2 1 309.2 6 310.2 4 311.2 3 
312.2 2 313.2 8 314.2 7 315.2 21 316.2 7 317.2 19 318.2 6 319.2 4 320.2 2 321.2 4 
322.2 1 323.2 18 324.2 5 325.2 4 326.2 2 327.2 12 328.2 11 329.2 7 330.2 3 331.2 4 
332.2 2 333.2 2 337.2 4 338.3 6 339.2 14 340.2 4 341.2 16 342.2 6 343.2 9 344.2 27 
345.2 19 346.2 9 347.2 2 348.1 3 351.1 1 353.2 2 354.2 3 355.2 89 356.2 36 357.2 127 
358.3 38 359.2 64 360.2 19 361.3 4 362.2 1 366.2 1 367.2 1 368.2 3 369.2 7 370.2 422 
371.3 125 372.2 23 373.3 21 374.2 6 375.3 8 376.3 2 384.2 4 385.2 2 386.2 26 387.2 8 
388.3 81 389.3 24 390.3 5 391.3 1 402.2 1 404.2 5 405.2 2 406.2 2 
