Name: 7beta-Hydroxy-5alpha-cholan-24-oic Acid Methyl ester
MW: 390
Formula: C25H42O3
Synonym: MassBank: NU000005
Synonym: 7beta-Hydroxy-5alpha-cholan-24-oic Acid Methyl ester
Structure: 310A37340A20204143442F4C6162733036333030383130343332440A2033332033362020302020302020312020302020302020302020302020302020312056323030300A20202031342E333635352020202D382E3534383720202020302E303030302043202020302020302020302020302020302020302020302020302020302020302020302020300A20202031332E323338392020202D392E3230303120202020302E303030302043202020302020302020302020302020302020302020302020302020302020302020302020300A20202031332E3233383920202D31302E3530303820202020302E303030302043202020302020302020302020302020302020302020302020302020302020302020302020300A20202031342E3336353520202D31312E3135343020202020302E303030302043202020302020302020302020302020302020302020302020302020302020302020302020300A20202031352E3439323220202D31302E3530303820202020302E303030302043202020302020302020302020302020302020302020302020302020302020302020302020300A20202031352E343932322020202D392E3230303120202020302E303030302043202020302020302020302020302020302020302020302020302020302020302020302020300A20202031362E3631393020202D31312E3135343020202020302E303030302043202020302020302020302020302020302020302020302020302020302020302020302020300A20202031372E3734313920202D31302E3530303820202020302E303030302043202020302020302020302020302020302020302020302020302020302020302020302020300A20202031372E373339302020202D392E3139333920202020302E303030302043202020302020302020302020302020302020302020302020302020302020302020302020300A20202031362E363039322020202D382E3533383720202020302E303030302043202020302020302020302020302020302020302020302020302020302020302020302020300A20202031382E383539312020202D382E3534383620202020302E303030302043202020302020302020302020302020302020302020302020302020302020302020302020300A20202031382E383631302020202D372E3236313220202020302E303030302043202020302020302020302020302020302020302020302020302020302020302020302020300A20202031372E373431392020202D362E3631373420202020302E303030302043202020302020302020302020302020302020302020302020302020302020302020302020300A20202031362E363139302020202D372E3236313220202020302E303030302043202020302020302020302020302020302020302020302020302020302020302020302020300A20202032312E303930312020202D382E3534383720202020302E303030302043202020302020302020302020302020302020302020302020302020302020302020302020300A20202032312E303930312020202D372E3236313220202020302E303030302043202020302020302020302020302020302020302020302020302020302020302020302020300A20202031392E393835342020202D362E3631333320202020302E303030302043202020302020302020302020302020302020302020302020302020302020302020302020300A20202032332E323939392020202D342E3638393820202020302E303030302043202020302020302020302020302020302020302020302020302020302020302020302020300A20202032322E313934342020202D352E3332383020202020302E303030302043202020302020302020302020302020302020302020302020302020302020302020302020300A20202032312E303930312020202D342E3730343620202020302E303030302043202020302020302020302020302020302020302020302020302020302020302020302020300A20202031392E393736332020202D352E3334303920202020302E303030302043202020302020302020302020302020302020302020302020302020302020302020302020300A20202031352E3439323220202D31312E3836353220202020302E303030302048202020302020302020302020302020302020302020302020302020302020302020302020300A20202031382E393630312020202D342E3735333320202020302E303030302043202020302020302020302020302020302020302020302020302020302020302020302020300A20202031382E383631302020202D352E3833313320202020302E303030302043202020302020302020302020302020302020302020302020302020302020302020302020300A20202031352E343932322020202D372E3739323720202020302E303030302043202020302020302020302020302020302020302020302020302020302020302020302020300A20202032332E323939392020202D332E3431333320202020302E30303030204F202020302020302020302020302020302020302020302020302020302020302020302020300A20202032342E343131332020202D352E3331353520202020302E30303030204F202020302020302020302020302020302020302020302020302020302020302020302020300A20202032352E353633312020202D342E3635303520202020302E303030302043202020302020302020302020302020302020302020302020302020302020302020302020300A20202031382E3839343820202D31312E3136333920202020302E30303030204F202020302020302020302020302020302020302020302020302020302020302020302020300A20202031362E363131302020202D392E3836383720202020302E303030302048202020302020302020302020302020302020302020302020302020302020302020302020300A20202031372E373336362020202D372E3836333920202020302E303030302048202020302020302020302020302020302020302020302020302020302020302020302020300A20202031382E383835352020202D392E3837383320202020302E303030302048202020302020302020302020302020302020302020302020302020302020302020302020300A20202031392E393835312020202D372E3934333320202020302E303030302048202020302020302020302020302020302020302020302020302020302020302020302020300A2020312020322020312020302020302020302020300A2020322020332020312020302020302020302020300A2020332020342020312020302020302020302020300A2020342020352020312020302020302020302020300A2020352020362020312020302020302020302020300A2020312020362020312020302020302020302020300A2020352020372020312020302020302020302020300A2020372020382020312020302020302020302020300A2020382020392020312020302020302020302020300A2020392031302020312020302020302020302020300A2020362031302020312020302020302020302020300A2020392031312020312020302020302020302020300A2031312031322020312020302020302020302020300A2031322031332020312020302020302020302020300A2031332031342020312020302020302020302020300A2031302031342020312020302020302020302020300A2031352031362020312020302020302020302020300A2031362031372020312020302020302020302020300A2031322031372020312020302020302020302020300A2031382031392020312020302020302020302020300A2031392032302020312020302020302020302020300A2032302032312020312020302020302020302020300A2031372032312020312020312020302020302020300A2031312031352020312020302020302020302020300A2020352032322020312020362020302020302020300A2032312032332020312020362020302020302020300A2031322032342020312020312020302020302020300A2020362032352020312020312020302020302020300A2032362031382020322020302020302020302020300A2032372031382020312020302020302020302020300A2032372032382020312020302020302020302020300A2020382032392020312020312020302020302020300A2031302033302020312020362020302020302020300A2020392033312020312020312020302020302020300A2031312033322020312020362020302020302020300A2031372033332020312020362020302020302020300A4D2020454E44
Contributor: Takashi Iida, Department of Chemistry, College of Humanities and Sciences, Nihon University
InstType: EI
InstName: Hitachi type M-80 B double focusing mass spectrometer
IoniMethod: _POTENTIAL 20 eV
IonPolarity: pos
Date: 2010-10-09 19:48:36+02:00
Num Peaks: 49
201 76 202 64 203 102 204 80 205 67 206 31 208 159 209 47 210 56 215 258 
216 209 217 422 218 123 219 30 220 22 229 76 230 292 231 96 232 24 233 212 
234 376 235 76 243 157 244 62 248 272 249 112 250 106 251 24 256 20 257 569 
258 118 262 114 263 71 264 21 276 21 285 27 299 28 323 21 341 84 342 29 
343 23 357 319 358 135 359 30 372 999 373 271 374 46 390 86 391 20 
