Name: MassBank: NU000063
MW: 422
Formula: C25H42O5
Synonym: MassBank: NU000063
Synonym: 3alpha,6beta,7beta-Trihydroxy-5beta-cholan-24-oic Acid Methyl ester
Synonym: beta-Muricholic Acid Methyl ester
Structure: 310A37380A20204143442F4C6162733039313030383132333632440A2033352033382020302020302020312020302020302020302020302020302020312056323030300A20202031352E323738392020202D382E3534383720202020302E303030302043202020302020302020302020302020302020302020302020302020302020302020302020300A20202031342E313532332020202D392E3230303120202020302E303030302043202020302020302020302020302020302020302020302020302020302020302020302020300A20202031342E3135323320202D31302E3530303820202020302E303030302043202020302020302020302020302020302020302020302020302020302020302020302020300A20202031352E3237383920202D31312E3135343020202020302E303030302043202020302020302020302020302020302020302020302020302020302020302020302020300A20202031362E3430353620202D31302E3530303820202020302E303030302043202020302020302020302020302020302020302020302020302020302020302020302020300A20202031362E343035362020202D392E3230303120202020302E303030302043202020302020302020302020302020302020302020302020302020302020302020302020300A20202031372E3533323420202D31312E3135343020202020302E303030302043202020302020302020302020302020302020302020302020302020302020302020302020300A20202031382E3635353320202D31302E3530303820202020302E303030302043202020302020302020302020302020302020302020302020302020302020302020302020300A20202031382E363532342020202D392E3139333920202020302E303030302043202020302020302020302020302020302020302020302020302020302020302020302020300A20202031372E353232362020202D382E3533383720202020302E303030302043202020302020302020302020302020302020302020302020302020302020302020302020300A20202031392E373732332020202D382E3534383620202020302E303030302043202020302020302020302020302020302020302020302020302020302020302020302020300A20202031392E373734342020202D372E3236313220202020302E303030302043202020302020302020302020302020302020302020302020302020302020302020302020300A20202031382E363535332020202D362E3631373420202020302E303030302043202020302020302020302020302020302020302020302020302020302020302020302020300A20202031372E353332342020202D372E3236313220202020302E303030302043202020302020302020302020302020302020302020302020302020302020302020302020300A20202032322E303033352020202D382E3534383720202020302E303030302043202020302020302020302020302020302020302020302020302020302020302020302020300A20202032322E303033352020202D372E3236313220202020302E303030302043202020302020302020302020302020302020302020302020302020302020302020302020300A20202032302E383938382020202D362E3631333220202020302E303030302043202020302020302020302020302020302020302020302020302020302020302020302020300A20202032342E323133332020202D342E3638393820202020302E303030302043202020302020302020302020302020302020302020302020302020302020302020302020300A20202032332E313037382020202D352E3332383020202020302E303030302043202020302020302020302020302020302020302020302020302020302020302020302020300A20202032322E303033352020202D342E3730343620202020302E303030302043202020302020302020302020302020302020302020302020302020302020302020302020300A20202032302E383839372020202D352E3334303920202020302E303030302043202020302020302020302020302020302020302020302020302020302020302020302020300A20202031362E3430353620202D31312E3836353220202020302E303030302048202020302020302020302020302020302020302020302020302020302020302020302020300A20202031392E383733352020202D342E3735333320202020302E303030302043202020302020302020302020302020302020302020302020302020302020302020302020300A20202031392E373734342020202D352E3833313320202020302E303030302043202020302020302020302020302020302020302020302020302020302020302020302020300A20202031362E343035362020202D372E3739323720202020302E303030302043202020302020302020302020302020302020302020302020302020302020302020302020300A20202032342E323133332020202D332E3431333320202020302E30303030204F202020302020302020302020302020302020302020302020302020302020302020302020300A20202032352E333234372020202D352E3331353520202020302E30303030204F202020302020302020302020302020302020302020302020302020302020302020302020300A20202032362E343736352020202D342E3635303520202020302E303030302043202020302020302020302020302020302020302020302020302020302020302020302020300A20202031372E353231322020202D392E3836383720202020302E303030302048202020302020302020302020302020302020302020302020302020302020302020302020300A20202031382E363530312020202D372E3836333920202020302E303030302048202020302020302020302020302020302020302020302020302020302020302020302020300A20202032302E383938342020202D372E3934333220202020302E303030302048202020302020302020302020302020302020302020302020302020302020302020302020300A20202031392E373731322020202D392E3837383620202020302E303030302048202020302020302020302020302020302020302020302020302020302020302020302020300A20202031322E3939393920202D31312E3136343720202020302E30303030204F202020302020302020302020302020302020302020302020302020302020302020302020300A20202031372E3533333420202D31322E3438343020202020302E30303030204F202020302020302020302020302020302020302020302020302020302020302020302020300A20202031392E3830383920202D31312E3136323620202020302E30303030204F202020302020302020302020302020302020302020302020302020302020302020302020300A2020312020322020312020302020302020302020300A2020322020332020312020302020302020302020300A2020332020342020312020302020302020302020300A2020342020352020312020302020302020302020300A2020352020362020312020302020302020302020300A2020312020362020312020302020302020302020300A2020352020372020312020302020302020302020300A2020372020382020312020302020302020302020300A2020382020392020312020302020302020302020300A2020392031302020312020302020302020302020300A2020362031302020312020302020302020302020300A2020392031312020312020302020302020302020300A2031312031322020312020302020302020302020300A2031322031332020312020302020302020302020300A2031332031342020312020302020302020302020300A2031302031342020312020302020302020302020300A2031352031362020312020302020302020302020300A2031362031372020312020302020302020302020300A2031322031372020312020302020302020302020300A2031382031392020312020302020302020302020300A2031392032302020312020302020302020302020300A2032302032312020312020302020302020302020300A2031372032312020312020312020302020302020300A2031312031352020312020302020302020302020300A2020352032322020312020312020302020302020300A2032312032332020312020362020302020302020300A2031322032342020312020312020302020302020300A2020362032352020312020312020302020302020300A2032362031382020322020302020302020302020300A2032372031382020312020302020302020302020300A2032372032382020312020302020302020302020300A2031302032392020312020362020302020302020300A2020392033302020312020312020302020302020300A2031372033312020312020362020302020302020300A2031312033322020312020362020302020302020300A2020332033332020312020362020302020302020300A2020372033342020312020312020302020302020300A2020382033352020312020312020302020302020300A4D2020454E44
Contributor: Takashi Iida, Department of Chemistry, College of Humanities and Sciences, Nihon University. Koichi Metori, Chemical Analytical Center, College of Pharmacy, Nihon Univercity.
InstType: EI
InstName: JEOL JMS-01SG-2
IoniMethod: _POTENTIAL 60 eV
IonPolarity: pos
Date: 2010-10-09 19:48:36+02:00
Num Peaks: 304
51.0 19 53.0 102 54.0 32 55.0 634 56.0 65 57.0 178 58.0 19 59.0 109 60.0 43 65.0 45 
66.0 23 67.0 331 68.0 101 69.0 252 70.0 74 71.0 72 73.0 154 74.0 96 75.0 25 77.0 119 
78.0 32 79.0 276 80.0 65 81.0 466 82.0 101 83.0 186 84.0 36 85.0 77 86.0 10 87.0 63 
88.0 4 91.0 255 92.0 55 93.0 349 94.0 154 95.0 598 96.0 88 97.0 95 98.0 33 99.0 43 
100.0 10 101.0 21 103.0 10 104.0 18 105.0 211 106.0 65 107.0 263 108.0 107 109.0 198 110.0 55 
111.0 58 112.0 26 113.0 21 115.0 92 116.0 17 117.0 56 118.0 32 119.0 152 120.0 62 121.0 197 
122.0 79 123.0 135 124.0 51 125.0 55 126.0 19 127.0 14 128.0 26 129.0 50 130.0 21 131.0 95 
132.0 40 133.0 147 134.0 59 135.0 150 136.0 87 137.0 88 138.0 36 139.0 29 140.0 14 141.0 56 
142.0 29 143.0 58 144.0 28 145.0 114 146.0 45 147.0 134 148.0 61 149.0 120 150.0 69 151.0 39 
152.0 12 153.0 15 154.0 39 155.0 32 156.0 19 157.0 65 158.0 32 159.0 112 160.0 41 161.0 121 
162.0 41 163.0 68 164.0 25 165.0 28 166.0 6 167.0 26 168.0 87 169.0 41 170.0 11 171.0 55 
172.0 28 173.0 72 174.0 37 175.0 95 176.0 40 177.0 59 178.0 25 179.0 26 180.0 21 181.0 12 
183.0 26 184.0 10 185.0 47 186.0 18 187.0 61 188.0 28 189.0 55 190.0 26 191.0 29 192.0 17 
193.0 28 194.0 17 195.0 26 196.0 4 197.0 34 198.0 15 199.0 54 200.0 23 201.0 76 202.0 30 
203.0 43 204.0 14 205.0 22 206.0 7 207.0 43 208.0 30 209.0 28 210.0 15 211.0 77 212.0 28 
213.0 58 214.0 25 215.0 110 216.0 37 217.0 50 218.0 19 219.0 18 220.0 7 221.0 18 222.0 7 
223.0 12 225.0 19 226.0 32 227.0 36 228.0 17 229.0 139 230.0 88 231.0 73 232.0 26 233.0 30 
234.0 12 235.0 7 239.0 28 240.0 15 241.0 23 242.0 8 243.0 45 244.0 109 245.0 48 246.0 18 
247.0 72 248.0 80 249.0 65 250.0 19 251.0 14 252.0 4 253.0 61 254.0 14 255.0 19 256.0 14 
257.0 23 258.0 23 259.0 17 260.0 10 261.0 15 262.0 94 263.0 29 264.0 11 265.0 12 269.0 23 
270.0 12 271.0 124 272.0 34 273.0 15 274.0 11 276.0 6 277.0 7 278.0 18 279.0 21 280.0 33 
281.0 32 282.0 11 285.0 6 287.0 23 288.0 18 289.0 45 290.0 22 291.0 14 292.0 25 293.0 7 
295.0 12 297.0 6 299.0 23 300.0 14 301.0 8 302.0 8 303.0 15 304.0 7 305.0 6 309.0 3 
310.0 19 311.0 17 312.0 10 313.0 48 314.0 37 315.0 18 316.0 12 317.0 7 318.0 4 320.0 3 
321.0 10 326.0 6 327.0 23 328.0 23 329.0 19 330.0 15 331.0 62 332.0 23 333.0 7 337.0 17 
338.0 6 339.0 18 340.0 7 341.0 7 342.0 3 343.0 12 344.0 14 345.0 6 346.0 19 347.0 7 
349.0 62 350.0 17 351.0 4 352.0 7 353.0 44 354.0 32 355.0 65 356.0 25 357.0 23 358.0 19 
359.0 8 366.0 3 368.0 70 369.0 54 370.0 33 371.0 146 372.0 48 373.0 58 374.0 22 375.0 7 
376.0 5 384.0 10 385.0 7 386.0 622 387.0 184 388.0 36 389.0 23 390.0 7 391.0 8 402.0 11 
403.0 12 404.0 999 405.0 283 406.0 50 407.0 6 408.0 3 420.0 23 421.0 6 422.0 10 423.0 1 
447.0 26 448.0 9 461.0 10 462.0 3 
