Name: MassBank: NU000051
MW: 422
Formula: C25H42O5
Synonym: MassBank: NU000051
Synonym: 3beta,7alpha,12beta-Trihydroxy-5beta-cholan-24-oic Acid Methyl ester
Structure: 310A37380A20204143442F4C6162733039303830383134313332440A2033352033382020302020302020312020302020302020302020302020302020312056323030300A20202031352E323738392020202D382E3534383720202020302E303030302043202020302020302020302020302020302020302020302020302020302020302020302020300A20202031342E313532332020202D392E3230303120202020302E303030302043202020302020302020302020302020302020302020302020302020302020302020302020300A20202031342E3135323320202D31302E3530303820202020302E303030302043202020302020302020302020302020302020302020302020302020302020302020302020300A20202031352E3237383920202D31312E3135343020202020302E303030302043202020302020302020302020302020302020302020302020302020302020302020302020300A20202031362E3430353620202D31302E3530303820202020302E303030302043202020302020302020302020302020302020302020302020302020302020302020302020300A20202031362E343035362020202D392E3230303120202020302E303030302043202020302020302020302020302020302020302020302020302020302020302020302020300A20202031372E3533323420202D31312E3135343020202020302E303030302043202020302020302020302020302020302020302020302020302020302020302020302020300A20202031382E3635353320202D31302E3530303820202020302E303030302043202020302020302020302020302020302020302020302020302020302020302020302020300A20202031382E363532342020202D392E3139333920202020302E303030302043202020302020302020302020302020302020302020302020302020302020302020302020300A20202031372E353232362020202D382E3533383720202020302E303030302043202020302020302020302020302020302020302020302020302020302020302020302020300A20202031392E373732332020202D382E3534383620202020302E303030302043202020302020302020302020302020302020302020302020302020302020302020302020300A20202031392E373734342020202D372E3236313220202020302E303030302043202020302020302020302020302020302020302020302020302020302020302020302020300A20202031382E363535302020202D362E3631363620202020302E303030302043202020302020302020302020302020302020302020302020302020302020302020302020300A20202031372E353332342020202D372E3236313220202020302E303030302043202020302020302020302020302020302020302020302020302020302020302020302020300A20202032322E303033352020202D382E3534383720202020302E303030302043202020302020302020302020302020302020302020302020302020302020302020302020300A20202032322E303033352020202D372E3236313220202020302E303030302043202020302020302020302020302020302020302020302020302020302020302020302020300A20202032302E383938382020202D362E3631333220202020302E303030302043202020302020302020302020302020302020302020302020302020302020302020302020300A20202032342E323133332020202D342E3638393820202020302E303030302043202020302020302020302020302020302020302020302020302020302020302020302020300A20202032332E313037382020202D352E3332383020202020302E303030302043202020302020302020302020302020302020302020302020302020302020302020302020300A20202032322E303033352020202D342E3730343620202020302E303030302043202020302020302020302020302020302020302020302020302020302020302020302020300A20202032302E383839372020202D352E3334303920202020302E303030302043202020302020302020302020302020302020302020302020302020302020302020302020300A20202031362E3430353620202D31312E3836353220202020302E303030302048202020302020302020302020302020302020302020302020302020302020302020302020300A20202031392E383733352020202D342E3735333320202020302E303030302043202020302020302020302020302020302020302020302020302020302020302020302020300A20202031392E373734342020202D352E3833313320202020302E303030302043202020302020302020302020302020302020302020302020302020302020302020302020300A20202031362E343035362020202D372E3739323720202020302E303030302043202020302020302020302020302020302020302020302020302020302020302020302020300A20202032342E323133332020202D332E3431333320202020302E30303030204F202020302020302020302020302020302020302020302020302020302020302020302020300A20202032352E333234372020202D352E3331353520202020302E30303030204F202020302020302020302020302020302020302020302020302020302020302020302020300A20202032362E343736352020202D342E3635303520202020302E303030302043202020302020302020302020302020302020302020302020302020302020302020302020300A20202031372E353231322020202D392E3836383720202020302E303030302048202020302020302020302020302020302020302020302020302020302020302020302020300A20202031382E363530312020202D372E3836333920202020302E303030302048202020302020302020302020302020302020302020302020302020302020302020302020300A20202032302E383938342020202D372E3934333220202020302E303030302048202020302020302020302020302020302020302020302020302020302020302020302020300A20202031392E373731322020202D392E3837383620202020302E303030302048202020302020302020302020302020302020302020302020302020302020302020302020300A20202031382E333131382020202D352E3333313720202020302E30303030204F202020302020302020302020302020302020302020302020302020302020302020302020300A20202031392E3830383920202D31312E3136323620202020302E30303030204F202020302020302020302020302020302020302020302020302020302020302020302020300A20202031322E3939393920202D31312E3136343720202020302E30303030204F202020302020302020302020302020302020302020302020302020302020302020302020300A2020312020322020312020302020302020302020300A2020322020332020312020302020302020302020300A2020332020342020312020302020302020302020300A2020342020352020312020302020302020302020300A2020352020362020312020302020302020302020300A2020312020362020312020302020302020302020300A2020352020372020312020302020302020302020300A2020372020382020312020302020302020302020300A2020382020392020312020302020302020302020300A2020392031302020312020302020302020302020300A2020362031302020312020302020302020302020300A2020392031312020312020302020302020302020300A2031312031322020312020302020302020302020300A2031322031332020312020302020302020302020300A2031332031342020312020302020302020302020300A2031302031342020312020302020302020302020300A2031352031362020312020302020302020302020300A2031362031372020312020302020302020302020300A2031322031372020312020302020302020302020300A2031382031392020312020302020302020302020300A2031392032302020312020302020302020302020300A2032302032312020312020302020302020302020300A2031372032312020312020312020302020302020300A2031312031352020312020302020302020302020300A2020352032322020312020312020302020302020300A2032312032332020312020362020302020302020300A2031322032342020312020312020302020302020300A2020362032352020312020312020302020302020300A2032362031382020322020302020302020302020300A2032372031382020312020302020302020302020300A2032372032382020312020302020302020302020300A2031302032392020312020362020302020302020300A2020392033302020312020312020302020302020300A2031372033312020312020362020302020302020300A2031312033322020312020362020302020302020300A2031332033332020312020312020302020302020300A2020382033342020312020362020302020302020300A2020332033352020312020312020302020302020300A4D2020454E44
Contributor: Takashi Iida, Department of Chemistry, College of Humanities and Sciences, Nihon University. Koichi Metori, Chemical Analytical Center, College of Pharmacy, Nihon Univercity.
InstType: EI
InstName: JEOL GCmate
IoniMethod: _POTENTIAL 70 eV
IonPolarity: pos
Date: 2010-10-09 19:48:36+02:00
Num Peaks: 325
51.0 4 53.0 33 54.0 10 55.1 255 56.1 21 57.1 55 58.1 28 59.0 43 60.1 6 61.1 3 
65.1 15 66.1 9 67.1 158 68.1 34 69.1 101 70.1 18 71.1 34 72.1 5 73.1 61 74.1 35 
75.1 4 77.1 49 78.1 12 79.1 154 80.1 38 81.1 256 82.1 41 83.1 110 84.1 33 85.1 35 
86.1 5 87.1 18 88.1 5 91.1 131 92.1 29 93.1 219 94.1 99 95.1 210 96.1 37 97.1 57 
98.1 16 99.1 31 100.1 6 101.1 10 103.0 10 104.0 10 105.1 166 106.1 52 107.1 232 108.1 90 
109.1 196 110.1 46 111.1 53 112.1 17 113.1 13 114.1 6 115.1 76 116.1 22 117.1 46 118.1 28 
119.1 133 120.1 55 121.1 221 122.1 71 123.1 94 124.1 40 125.1 34 126.1 13 126.6 4 127.1 11 
128.1 15 129.1 31 130.1 17 131.1 85 132.1 34 133.1 121 134.1 45 135.1 114 136.1 47 137.1 65 
138.1 23 139.1 26 140.1 7 141.1 42 142.1 16 143.1 65 144.1 31 145.1 163 146.1 46 147.1 159 
148.1 43 149.1 60 150.1 24 151.1 23 152.1 10 153.1 16 154.1 125 155.1 47 156.1 17 157.1 70 
158.1 27 159.1 126 160.1 39 161.1 82 162.1 27 163.1 67 164.1 25 165.1 21 166.1 6 167.1 10 
168.1 49 169.1 32 170.1 13 171.1 61 172.1 22 173.1 72 174.1 22 175.1 49 176.1 15 177.1 28 
178.1 11 179.1 11 180.1 6 181.1 15 182.1 7 183.1 26 184.1 11 185.1 50 186.1 17 187.1 52 
188.1 15 189.1 31 190.1 12 191.1 26 192.1 8 193.1 15 194.1 20 195.1 54 196.1 15 197.1 36 
198.1 13 199.1 53 200.1 19 201.1 71 202.1 18 203.1 24 204.1 9 205.1 14 206.1 6 207.1 21 
208.1 19 209.1 23 210.1 7 211.1 49 212.1 15 213.1 46 214.1 19 215.2 47 216.1 20 217.1 34 
218.1 16 219.2 33 220.2 10 221.1 16 222.1 12 223.1 16 224.1 7 225.1 26 226.2 20 227.2 55 
228.2 20 229.2 100 230.2 27 231.1 33 232.2 35 233.2 33 234.2 13 235.2 12 236.1 5 237.2 10 
238.1 5 239.1 13 240.2 6 241.2 15 242.1 9 243.1 34 244.2 34 245.2 57 246.2 24 247.1 110 
248.2 31 249.2 30 250.2 12 251.1 24 252.2 11 253.2 171 254.2 41 255.2 23 256.2 10 257.2 19 
258.2 17 259.2 22 260.2 20 261.2 41 262.2 25 263.1 57 264.2 22 265.1 206 266.2 43 267.2 14 
268.2 6 269.2 105 270.2 46 271.2 999 272.2 261 273.2 53 274.2 18 275.2 18 276.2 11 277.2 21 
278.2 11 279.2 11 280.1 4 281.2 14 282.2 5 283.2 8 284.2 4 285.2 11 286.2 6 287.2 31 
288.2 20 289.2 239 290.2 61 291.2 14 292.2 10 293.2 8 294.2 3 295.2 11 296.2 4 297.2 11 
298.2 6 299.2 42 300.2 15 301.2 9 302.2 6 303.2 9 304.2 4 305.2 30 306.2 8 307.2 10 
308.2 4 309.2 5 310.2 4 311.2 12 312.2 7 313.2 19 314.2 13 315.2 11 316.2 11 317.2 8 
318.2 3 319.2 5 321.2 7 323.2 3 325.2 13 326.2 7 327.2 11 328.2 6 329.2 12 330.2 10 
331.2 23 332.2 14 333.2 5 335.2 4 337.2 10 338.2 3 339.2 12 340.2 5 341.2 9 342.2 7 
343.2 23 344.2 12 345.2 7 346.2 4 347.2 19 348.2 5 349.2 3 351.2 4 352.2 3 353.2 28 
354.2 14 355.2 44 356.2 13 357.2 73 358.2 22 359.2 9 360.2 6 366.2 3 367.2 3 368.2 30 
369.2 16 370.2 8 371.2 51 372.3 20 373.3 38 374.3 11 375.3 45 376.3 13 384.3 29 385.3 11 
386.3 212 387.3 64 388.3 13 389.2 17 390.3 5 400.2 5 402.2 90 403.2 27 404.2 52 405.2 17 
406.2 3 418.3 3 420.3 58 421.3 18 422.3 4 
