Name: 12beta-Hydroxy-5alpha-cholan-24-oic Acid Methyl ester
MW: 390
Formula: C25H42O3
Synonym: MassBank: NU000007
Synonym: 12beta-Hydroxy-5alpha-cholan-24-oic Acid Methyl ester
Structure: 310A37340A20204143442F4C6162733037303230383130323532440A2033332033362020302020302020312020302020302020302020302020302020312056323030300A20202031342E333635362020202D382E3534383720202020302E303030302043202020302020302020302020302020302020302020302020302020302020302020302020300A20202031332E323339302020202D392E3230303120202020302E303030302043202020302020302020302020302020302020302020302020302020302020302020302020300A20202031332E3233393020202D31302E3530303820202020302E303030302043202020302020302020302020302020302020302020302020302020302020302020302020300A20202031342E3336353620202D31312E3135343020202020302E303030302043202020302020302020302020302020302020302020302020302020302020302020302020300A20202031352E3439323320202D31302E3530303820202020302E303030302043202020302020302020302020302020302020302020302020302020302020302020302020300A20202031352E343932332020202D392E3230303120202020302E303030302043202020302020302020302020302020302020302020302020302020302020302020302020300A20202031362E3631393120202D31312E3135343020202020302E303030302043202020302020302020302020302020302020302020302020302020302020302020302020300A20202031372E3734323020202D31302E3530303820202020302E303030302043202020302020302020302020302020302020302020302020302020302020302020302020300A20202031372E373339302020202D392E3139333820202020302E303030302043202020302020302020302020302020302020302020302020302020302020302020302020300A20202031362E363039312020202D382E3533383820202020302E303030302043202020302020302020302020302020302020302020302020302020302020302020302020300A20202031382E383539302020202D382E3534383620202020302E303030302043202020302020302020302020302020302020302020302020302020302020302020302020300A20202031382E383631312020202D372E3236313220202020302E303030302043202020302020302020302020302020302020302020302020302020302020302020302020300A20202031372E373431322020202D362E3631353920202020302E303030302043202020302020302020302020302020302020302020302020302020302020302020302020300A20202031362E363139312020202D372E3236313220202020302E303030302043202020302020302020302020302020302020302020302020302020302020302020302020300A20202032312E303930322020202D382E3534383720202020302E303030302043202020302020302020302020302020302020302020302020302020302020302020302020300A20202032312E303930322020202D372E3236313220202020302E303030302043202020302020302020302020302020302020302020302020302020302020302020302020300A20202031392E393835332020202D362E3631333320202020302E303030302043202020302020302020302020302020302020302020302020302020302020302020302020300A20202032332E333030302020202D342E3638393820202020302E303030302043202020302020302020302020302020302020302020302020302020302020302020302020300A20202032322E313934352020202D352E3332383020202020302E303030302043202020302020302020302020302020302020302020302020302020302020302020302020300A20202032312E303930322020202D342E3730343620202020302E303030302043202020302020302020302020302020302020302020302020302020302020302020302020300A20202031392E393735332020202D352E3333393220202020302E303030302043202020302020302020302020302020302020302020302020302020302020302020302020300A20202031352E3439323320202D31312E3836353220202020302E303030302048202020302020302020302020302020302020302020302020302020302020302020302020300A20202031392E313435382020202D342E3530383720202020302E303030302043202020302020302020302020302020302020302020302020302020302020302020302020300A20202031382E383631312020202D352E3833313320202020302E303030302043202020302020302020302020302020302020302020302020302020302020302020302020300A20202031352E343932332020202D372E3739323720202020302E303030302043202020302020302020302020302020302020302020302020302020302020302020302020300A20202032332E333030302020202D332E3431333320202020302E30303030204F202020302020302020302020302020302020302020302020302020302020302020302020300A20202032342E343131342020202D352E3331353520202020302E30303030204F202020302020302020302020302020302020302020302020302020302020302020302020300A20202032352E353633322020202D342E3635303520202020302E303030302043202020302020302020302020302020302020302020302020302020302020302020302020300A20202031372E333937382020202D352E3333313020202020302E30303030204F202020302020302020302020302020302020302020302020302020302020302020302020300A20202031362E363039382020202D392E3836383820202020302E303030302048202020302020302020302020302020302020302020302020302020302020302020302020300A20202031372E373336362020202D372E3836333820202020302E303030302048202020302020302020302020302020302020302020302020302020302020302020302020300A20202031382E383537382020202D392E3837383620202020302E303030302048202020302020302020302020302020302020302020302020302020302020302020302020300A20202031392E393835362020202D372E3934333320202020302E303030302048202020302020302020302020302020302020302020302020302020302020302020302020300A2020312020322020312020302020302020302020300A2020322020332020312020302020302020302020300A2020332020342020312020302020302020302020300A2020342020352020312020302020302020302020300A2020352020362020312020302020302020302020300A2020312020362020312020302020302020302020300A2020352020372020312020302020302020302020300A2020372020382020312020302020302020302020300A2020382020392020312020302020302020302020300A2020392031302020312020302020302020302020300A2020362031302020312020302020302020302020300A2020392031312020312020302020302020302020300A2031312031322020312020302020302020302020300A2031322031332020312020302020302020302020300A2031332031342020312020302020302020302020300A2031302031342020312020302020302020302020300A2031352031362020312020302020302020302020300A2031362031372020312020302020302020302020300A2031322031372020312020302020302020302020300A2031382031392020312020302020302020302020300A2031392032302020312020302020302020302020300A2032302032312020312020302020302020302020300A2031372032312020312020312020302020302020300A2031312031352020312020302020302020302020300A2020352032322020312020362020302020302020300A2032312032332020312020362020302020302020300A2031322032342020312020312020302020302020300A2020362032352020312020312020302020302020300A2032362031382020322020302020302020302020300A2032372031382020312020302020302020302020300A2032372032382020312020302020302020302020300A2031332032392020312020312020302020302020300A2031302033302020312020362020302020302020300A2020392033312020312020312020302020302020300A2031312033322020312020362020302020302020300A2031372033332020312020362020302020302020300A4D2020454E44
Contributor: Takashi Iida, Department of Chemistry, College of Humanities and Sciences, Nihon University
InstType: EI
InstName: Hitachi type M-80 B double focusing mass spectrometer
IoniMethod: _POTENTIAL 20 eV
IonPolarity: pos
Date: 2010-10-09 19:48:36+02:00
Num Peaks: 47
201 15 202 17 203 81 204 26 205 14 206 6 207 5 208 86 209 16 215 42 
216 25 217 57 218 33 219 12 220 6 221 7 229 13 230 24 231 12 233 78 
234 39 235 7 243 13 244 13 245 6 247 6 249 6 255 6 256 52 257 999 
258 227 259 30 262 6 263 11 275 30 276 6 285 18 286 7 299 6 305 5 
340 5 343 8 357 39 358 11 359 25 372 64 373 36 
