Name: MassBank: NU000038
MW: 406
Formula: C25H42O4
Synonym: CID: 9801465
Synonym: MassBank: NU000038
Synonym: 3alpha,7beta-Dihydroxy-5beta-cholan-24-oic Acid Methyl ester
Synonym: Ursodeoxycholic Acid Methyl ester
Structure: 310A37360A20204143442F4C6162733039303830383133353532440A2033342033372020302020302020312020302020302020302020302020302020312056323030300A20202031352E323738392020202D382E3534383720202020302E303030302043202020302020302020302020302020302020302020302020302020302020302020302020300A20202031342E313532332020202D392E3230303120202020302E303030302043202020302020302020302020302020302020302020302020302020302020302020302020300A20202031342E3135323320202D31302E3530303820202020302E303030302043202020302020302020302020302020302020302020302020302020302020302020302020300A20202031352E3237383920202D31312E3135343020202020302E303030302043202020302020302020302020302020302020302020302020302020302020302020302020300A20202031362E3430353620202D31302E3530303820202020302E303030302043202020302020302020302020302020302020302020302020302020302020302020302020300A20202031362E343035362020202D392E3230303120202020302E303030302043202020302020302020302020302020302020302020302020302020302020302020302020300A20202031372E3533323420202D31312E3135343020202020302E303030302043202020302020302020302020302020302020302020302020302020302020302020302020300A20202031382E3635353320202D31302E3530303820202020302E303030302043202020302020302020302020302020302020302020302020302020302020302020302020300A20202031382E363532342020202D392E3139333920202020302E303030302043202020302020302020302020302020302020302020302020302020302020302020302020300A20202031372E353232362020202D382E3533383720202020302E303030302043202020302020302020302020302020302020302020302020302020302020302020302020300A20202031392E373732332020202D382E3534383620202020302E303030302043202020302020302020302020302020302020302020302020302020302020302020302020300A20202031392E373734342020202D372E3236313220202020302E303030302043202020302020302020302020302020302020302020302020302020302020302020302020300A20202031382E363535332020202D362E3631373420202020302E303030302043202020302020302020302020302020302020302020302020302020302020302020302020300A20202031372E353332342020202D372E3236313220202020302E303030302043202020302020302020302020302020302020302020302020302020302020302020302020300A20202032322E303033352020202D382E3534383720202020302E303030302043202020302020302020302020302020302020302020302020302020302020302020302020300A20202032322E303033352020202D372E3236313220202020302E303030302043202020302020302020302020302020302020302020302020302020302020302020302020300A20202032302E383938382020202D362E3631333220202020302E303030302043202020302020302020302020302020302020302020302020302020302020302020302020300A20202032342E323133332020202D342E3638393820202020302E303030302043202020302020302020302020302020302020302020302020302020302020302020302020300A20202032332E313037382020202D352E3332383020202020302E303030302043202020302020302020302020302020302020302020302020302020302020302020302020300A20202032322E303033352020202D342E3730343620202020302E303030302043202020302020302020302020302020302020302020302020302020302020302020302020300A20202032302E383839372020202D352E3334303920202020302E303030302043202020302020302020302020302020302020302020302020302020302020302020302020300A20202031362E3430353620202D31312E3836353220202020302E303030302048202020302020302020302020302020302020302020302020302020302020302020302020300A20202031392E383733352020202D342E3735333320202020302E303030302043202020302020302020302020302020302020302020302020302020302020302020302020300A20202031392E373734342020202D352E3833313320202020302E303030302043202020302020302020302020302020302020302020302020302020302020302020302020300A20202031362E343035362020202D372E3739323720202020302E303030302043202020302020302020302020302020302020302020302020302020302020302020302020300A20202032342E323133332020202D332E3431333320202020302E30303030204F202020302020302020302020302020302020302020302020302020302020302020302020300A20202032352E333234372020202D352E3331353520202020302E30303030204F202020302020302020302020302020302020302020302020302020302020302020302020300A20202032362E343736352020202D342E3635303520202020302E303030302043202020302020302020302020302020302020302020302020302020302020302020302020300A20202031372E353231322020202D392E3836383720202020302E303030302048202020302020302020302020302020302020302020302020302020302020302020302020300A20202031382E363530312020202D372E3836333920202020302E303030302048202020302020302020302020302020302020302020302020302020302020302020302020300A20202032302E383938342020202D372E3934333220202020302E303030302048202020302020302020302020302020302020302020302020302020302020302020302020300A20202031392E373731322020202D392E3837383620202020302E303030302048202020302020302020302020302020302020302020302020302020302020302020302020300A20202031322E3939393920202D31312E3136343720202020302E30303030204F202020302020302020302020302020302020302020302020302020302020302020302020300A20202031392E3830383920202D31312E3136323620202020302E30303030204F202020302020302020302020302020302020302020302020302020302020302020302020300A2020312020322020312020302020302020302020300A2020322020332020312020302020302020302020300A2020332020342020312020302020302020302020300A2020342020352020312020302020302020302020300A2020352020362020312020302020302020302020300A2020312020362020312020302020302020302020300A2020352020372020312020302020302020302020300A2020372020382020312020302020302020302020300A2020382020392020312020302020302020302020300A2020392031302020312020302020302020302020300A2020362031302020312020302020302020302020300A2020392031312020312020302020302020302020300A2031312031322020312020302020302020302020300A2031322031332020312020302020302020302020300A2031332031342020312020302020302020302020300A2031302031342020312020302020302020302020300A2031352031362020312020302020302020302020300A2031362031372020312020302020302020302020300A2031322031372020312020302020302020302020300A2031382031392020312020302020302020302020300A2031392032302020312020302020302020302020300A2032302032312020312020302020302020302020300A2031372032312020312020312020302020302020300A2031312031352020312020302020302020302020300A2020352032322020312020312020302020302020300A2032312032332020312020362020302020302020300A2031322032342020312020312020302020302020300A2020362032352020312020312020302020302020300A2032362031382020322020302020302020302020300A2032372031382020312020302020302020302020300A2032372032382020312020302020302020302020300A2031302032392020312020362020302020302020300A2020392033302020312020312020302020302020300A2031372033312020312020362020302020302020300A2031312033322020312020362020302020302020300A2020332033332020312020362020302020302020300A2020382033342020312020312020302020302020300A4D2020454E44
Contributor: Takashi Iida, Department of Chemistry, College of Humanities and Sciences, Nihon University. Koichi Metori, Chemical Analytical Center, College of Pharmacy, Nihon Univercity.
InstType: EI
InstName: JEOL GCmate
IoniMethod: _POTENTIAL 70 eV
IonPolarity: pos
Date: 2010-10-09 19:48:36+02:00
Num Peaks: 241
53.0 76 54.1 20 55.1 647 56.1 41 57.1 115 58.1 28 59.0 98 65.1 33 66.1 21 67.1 463 
68.1 133 69.1 283 70.1 81 71.1 56 73.1 149 74.1 101 77.1 116 78.1 31 79.1 416 80.1 115 
81.1 731 82.1 151 83.1 268 84.1 59 85.1 141 87.1 87 91.1 317 92.1 93 93.1 682 94.1 449 
95.1 766 96.1 163 97.1 140 98.1 34 99.1 67 101.1 33 103.1 33 104.1 30 105.1 449 106.1 197 
107.1 526 108.1 311 109.1 550 110.1 155 111.1 132 112.1 34 113.1 22 114.1 21 115.1 152 116.1 37 
117.1 102 118.1 125 119.1 392 120.1 254 121.1 428 122.1 290 123.1 240 124.1 87 125.1 100 126.1 27 
127.1 36 128.1 29 129.1 63 130.1 31 131.1 252 132.1 149 133.1 371 134.1 197 135.1 346 136.1 126 
137.1 172 138.1 310 139.1 286 140.1 245 141.1 196 142.1 53 143.1 117 144.1 56 145.1 381 146.1 183 
147.1 405 148.1 297 149.1 213 150.1 78 151.1 66 152.1 180 153.1 105 154.1 188 155.1 96 156.1 38 
157.1 192 158.1 170 159.1 365 160.1 199 161.1 306 162.1 229 163.1 194 164.1 66 165.1 76 166.1 21 
168.1 24 169.1 46 171.1 132 172.1 77 173.1 231 174.1 147 175.1 180 176.1 105 177.1 116 178.1 118 
179.1 50 181.1 54 182.1 23 183.1 26 185.1 123 186.1 59 187.1 159 188.2 63 189.2 112 190.1 50 
191.2 61 192.2 54 193.2 28 194.1 119 195.1 113 196.1 32 197.1 60 198.2 27 199.1 205 200.2 91 
201.2 238 202.2 128 203.2 113 204.2 48 205.2 40 207.1 47 208.2 217 209.2 66 210.2 35 211.2 51 
212.1 27 213.2 505 214.2 206 215.2 417 216.2 215 217.2 258 218.2 80 219.2 67 220.2 32 221.2 50 
222.2 29 225.2 22 227.2 112 228.2 315 229.2 231 230.2 91 231.2 198 232.2 303 233.2 159 234.2 59 
235.2 28 239.2 20 241.2 120 242.2 107 243.2 56 244.2 22 245.2 36 246.2 351 247.2 103 248.2 138 
249.2 143 250.2 200 251.2 49 252.2 22 253.2 34 254.2 37 255.2 869 256.2 197 257.2 80 258.2 20 
260.2 34 261.2 40 262.2 113 263.2 52 264.2 264 265.2 73 271.2 87 272.2 36 273.2 406 274.2 157 
275.2 89 276.2 61 277.2 28 279.2 21 281.2 23 283.2 65 284.2 25 287.2 22 288.2 35 289.2 28 
290.2 34 292.2 54 294.2 32 297.3 60 301.2 30 302.2 24 303.2 21 304.2 44 305.3 20 313.3 52 
314.3 42 315.3 85 316.3 152 317.3 42 318.2 20 321.2 42 323.2 52 328.3 23 329.3 49 330.3 28 
339.3 177 340.3 50 341.3 40 342.3 25 355.3 424 356.3 136 357.3 114 358.3 31 369.3 22 370.3 999 
371.3 335 372.3 185 373.3 167 374.3 44 375.3 20 386.3 26 388.3 799 389.3 230 390.3 54 406.3 110 
407.3 32 
