Name: MassBank: NU000061
MW: 422
Formula: C25H42O5
Synonym: MassBank: NU000061
Synonym: 3alpha,6alpha,7beta-Trihydroxy-5beta-cholan-24-oic Acid Methyl ester
Synonym: omega-Muricholic Acid Methyl ester
Synonym: beta-Hyocholic Acid Methyl ester
Structure: 310A37380A20204143442F4C6162733039313030383132333632440A2033352033382020302020302020312020302020302020302020302020302020312056323030300A20202031352E323738392020202D382E3534383720202020302E303030302043202020302020302020302020302020302020302020302020302020302020302020302020300A20202031342E313532332020202D392E3230303120202020302E303030302043202020302020302020302020302020302020302020302020302020302020302020302020300A20202031342E3135323320202D31302E3530303820202020302E303030302043202020302020302020302020302020302020302020302020302020302020302020302020300A20202031352E3237383920202D31312E3135343020202020302E303030302043202020302020302020302020302020302020302020302020302020302020302020302020300A20202031362E3430353620202D31302E3530303820202020302E303030302043202020302020302020302020302020302020302020302020302020302020302020302020300A20202031362E343035362020202D392E3230303120202020302E303030302043202020302020302020302020302020302020302020302020302020302020302020302020300A20202031372E3533323420202D31312E3135343020202020302E303030302043202020302020302020302020302020302020302020302020302020302020302020302020300A20202031382E3635353320202D31302E3530303820202020302E303030302043202020302020302020302020302020302020302020302020302020302020302020302020300A20202031382E363532342020202D392E3139333920202020302E303030302043202020302020302020302020302020302020302020302020302020302020302020302020300A20202031372E353232362020202D382E3533383720202020302E303030302043202020302020302020302020302020302020302020302020302020302020302020302020300A20202031392E373732332020202D382E3534383620202020302E303030302043202020302020302020302020302020302020302020302020302020302020302020302020300A20202031392E373734342020202D372E3236313220202020302E303030302043202020302020302020302020302020302020302020302020302020302020302020302020300A20202031382E363535332020202D362E3631373420202020302E303030302043202020302020302020302020302020302020302020302020302020302020302020302020300A20202031372E353332342020202D372E3236313220202020302E303030302043202020302020302020302020302020302020302020302020302020302020302020302020300A20202032322E303033352020202D382E3534383720202020302E303030302043202020302020302020302020302020302020302020302020302020302020302020302020300A20202032322E303033352020202D372E3236313220202020302E303030302043202020302020302020302020302020302020302020302020302020302020302020302020300A20202032302E383938382020202D362E3631333220202020302E303030302043202020302020302020302020302020302020302020302020302020302020302020302020300A20202032342E323133332020202D342E3638393820202020302E303030302043202020302020302020302020302020302020302020302020302020302020302020302020300A20202032332E313037382020202D352E3332383020202020302E303030302043202020302020302020302020302020302020302020302020302020302020302020302020300A20202032322E303033352020202D342E3730343620202020302E303030302043202020302020302020302020302020302020302020302020302020302020302020302020300A20202032302E383839372020202D352E3334303920202020302E303030302043202020302020302020302020302020302020302020302020302020302020302020302020300A20202031362E3430353620202D31312E3836353220202020302E303030302048202020302020302020302020302020302020302020302020302020302020302020302020300A20202031392E383733352020202D342E3735333320202020302E303030302043202020302020302020302020302020302020302020302020302020302020302020302020300A20202031392E373734342020202D352E3833313320202020302E303030302043202020302020302020302020302020302020302020302020302020302020302020302020300A20202031362E343035362020202D372E3739323720202020302E303030302043202020302020302020302020302020302020302020302020302020302020302020302020300A20202032342E323133332020202D332E3431333320202020302E30303030204F202020302020302020302020302020302020302020302020302020302020302020302020300A20202032352E333234372020202D352E3331353520202020302E30303030204F202020302020302020302020302020302020302020302020302020302020302020302020300A20202032362E343736352020202D342E3635303520202020302E303030302043202020302020302020302020302020302020302020302020302020302020302020302020300A20202031372E353231322020202D392E3836383720202020302E303030302048202020302020302020302020302020302020302020302020302020302020302020302020300A20202031382E363530312020202D372E3836333920202020302E303030302048202020302020302020302020302020302020302020302020302020302020302020302020300A20202032302E383938342020202D372E3934333220202020302E303030302048202020302020302020302020302020302020302020302020302020302020302020302020300A20202031392E373731322020202D392E3837383620202020302E303030302048202020302020302020302020302020302020302020302020302020302020302020302020300A20202031322E3939393920202D31312E3136343720202020302E30303030204F202020302020302020302020302020302020302020302020302020302020302020302020300A20202031372E3533333420202D31322E3438343020202020302E30303030204F202020302020302020302020302020302020302020302020302020302020302020302020300A20202031392E3830383920202D31312E3136323620202020302E30303030204F202020302020302020302020302020302020302020302020302020302020302020302020300A2020312020322020312020302020302020302020300A2020322020332020312020302020302020302020300A2020332020342020312020302020302020302020300A2020342020352020312020302020302020302020300A2020352020362020312020302020302020302020300A2020312020362020312020302020302020302020300A2020352020372020312020302020302020302020300A2020372020382020312020302020302020302020300A2020382020392020312020302020302020302020300A2020392031302020312020302020302020302020300A2020362031302020312020302020302020302020300A2020392031312020312020302020302020302020300A2031312031322020312020302020302020302020300A2031322031332020312020302020302020302020300A2031332031342020312020302020302020302020300A2031302031342020312020302020302020302020300A2031352031362020312020302020302020302020300A2031362031372020312020302020302020302020300A2031322031372020312020302020302020302020300A2031382031392020312020302020302020302020300A2031392032302020312020302020302020302020300A2032302032312020312020302020302020302020300A2031372032312020312020312020302020302020300A2031312031352020312020302020302020302020300A2020352032322020312020312020302020302020300A2032312032332020312020362020302020302020300A2031322032342020312020312020302020302020300A2020362032352020312020312020302020302020300A2032362031382020322020302020302020302020300A2032372031382020312020302020302020302020300A2032372032382020312020302020302020302020300A2031302032392020312020362020302020302020300A2020392033302020312020312020302020302020300A2031372033312020312020362020302020302020300A2031312033322020312020362020302020302020300A2020332033332020312020362020302020302020300A2020372033342020312020362020302020302020300A2020382033352020312020312020302020302020300A4D2020454E44
Contributor: Takashi Iida, Department of Chemistry, College of Humanities and Sciences, Nihon University. Koichi Metori, Chemical Analytical Center, College of Pharmacy, Nihon Univercity.
InstType: EI
InstName: JEOL JMS-01SG-2
IoniMethod: _POTENTIAL 60 eV
IonPolarity: pos
Date: 2010-10-09 19:48:36+02:00
Num Peaks: 322
51.0 26 53.0 170 54.0 44 55.0 999 56.0 77 57.0 240 58.0 26 59.0 186 60.0 33 65.0 65 
66.0 39 67.0 538 68.0 163 69.0 374 70.0 103 71.0 81 72.0 6 73.0 215 74.0 167 75.0 23 
77.0 193 78.0 47 79.0 454 80.0 108 81.0 780 82.0 163 83.0 301 84.0 50 85.0 117 86.0 18 
87.0 94 88.0 12 91.0 410 92.0 94 93.0 596 94.0 253 95.0 920 96.0 149 97.0 148 98.0 41 
99.0 72 100.0 12 101.0 30 103.0 26 104.0 22 105.0 337 106.0 106 107.0 458 108.0 188 109.0 337 
110.0 88 111.0 91 112.0 34 113.0 26 114.0 8 115.0 152 116.0 28 117.0 91 118.0 48 119.0 259 
120.0 108 121.0 305 122.0 115 123.0 225 124.0 83 125.0 123 126.0 36 127.0 26 128.0 39 129.0 62 
130.0 28 131.0 160 132.0 68 133.0 261 134.0 105 135.0 257 136.0 99 137.0 148 138.0 86 139.0 54 
140.0 34 141.0 110 142.0 54 143.0 95 144.0 47 145.0 208 146.0 81 147.0 243 148.0 102 149.0 156 
150.0 88 151.0 68 152.0 29 153.0 29 154.0 80 155.0 73 156.0 54 157.0 113 158.0 61 159.0 186 
160.0 79 161.0 193 162.0 86 163.0 124 164.0 57 165.0 41 166.0 19 167.0 26 168.0 58 169.0 66 
170.0 25 171.0 95 172.0 46 173.0 119 174.0 72 175.0 156 176.0 80 177.0 117 178.0 44 179.0 43 
180.0 29 181.0 26 183.0 47 184.0 23 185.0 80 186.0 41 187.0 102 188.0 47 189.0 97 190.0 50 
191.0 50 192.0 34 193.0 34 194.0 43 195.0 55 196.0 18 197.0 72 198.0 50 199.0 101 200.0 43 
201.0 146 202.0 73 203.0 79 204.0 30 205.0 39 206.0 22 207.0 51 208.0 110 209.0 65 210.0 47 
211.0 149 212.0 62 213.0 105 214.0 54 215.0 156 216.0 63 217.0 99 218.0 55 219.0 43 220.0 23 
221.0 33 222.0 17 223.0 25 224.0 4 225.0 44 226.0 55 227.0 58 228.0 30 229.0 214 230.0 146 
231.0 119 232.0 57 233.0 52 234.0 23 235.0 21 236.0 3 237.0 15 238.0 12 239.0 68 240.0 34 
241.0 46 242.0 22 243.0 87 244.0 197 245.0 95 246.0 32 247.0 92 248.0 186 249.0 101 250.0 38 
251.0 32 252.0 15 253.0 158 254.0 39 255.0 29 256.0 23 257.0 58 258.0 80 259.0 37 260.0 23 
261.0 34 262.0 179 263.0 56 264.0 25 265.0 30 266.0 59 267.0 23 268.0 6 269.0 30 270.0 34 
271.0 675 272.0 160 273.0 40 274.0 26 275.0 29 276.0 28 277.0 22 278.0 36 279.0 37 280.0 72 
281.0 56 282.0 15 283.0 15 284.0 6 285.0 17 286.0 11 287.0 34 288.0 33 289.0 146 290.0 61 
291.0 37 292.0 45 293.0 22 294.0 15 295.0 28 296.0 7 297.0 11 298.0 14 299.0 34 300.0 22 
301.0 17 302.0 34 303.0 44 304.0 23 305.0 26 306.0 7 308.0 26 309.0 17 310.0 11 311.0 19 
312.0 23 313.0 92 314.0 66 316.0 15 317.0 14 318.0 8 319.0 11 321.0 20 324.0 3 325.0 13 
326.0 22 327.0 51 328.0 44 329.0 28 330.0 23 331.0 76 332.0 33 333.0 10 335.0 3 337.0 34 
338.0 14 339.0 29 340.0 15 341.0 17 342.0 15 343.0 26 344.0 23 345.0 15 346.0 30 347.0 18 
348.0 4 349.0 12 350.0 6 353.0 92 354.0 65 355.0 114 356.0 45 357.0 34 358.0 51 359.0 15 
360.0 15 362.0 6 368.0 231 369.0 80 370.0 23 371.0 161 372.0 61 373.0 59 374.0 23 375.0 7 
384.0 8 385.0 12 386.0 832 387.0 238 388.0 45 389.0 39 390.0 15 391.0 18 392.0 8 402.0 21 
403.0 11 404.0 744 405.0 209 406.0 36 407.0 4 412.0 3 416.0 3 420.0 21 421.0 4 422.0 58 
423.0 19 432.0 3 
