Name: MassBank: NU000073
MW: 422
Formula: C25H42O5
Synonym: MassBank: NU000073
Synonym: 3beta,4beta,12alpha-Trihydroxy-5beta-cholan-24-oic Acid Methyl ester
Structure: 310A37380A20204143442F4C6162733039313030383132343732440A2033352033382020302020302020312020302020302020302020302020302020312056323030300A20202031342E333635352020202D382E3534383720202020302E303030302043202020302020302020302020302020302020302020302020302020302020302020302020300A20202031332E323338392020202D392E3230303120202020302E303030302043202020302020302020302020302020302020302020302020302020302020302020302020300A20202031332E3233383920202D31302E3530303820202020302E303030302043202020302020302020302020302020302020302020302020302020302020302020302020300A20202031342E3336353520202D31312E3135343020202020302E303030302043202020302020302020302020302020302020302020302020302020302020302020302020300A20202031352E3439323220202D31302E3530303820202020302E303030302043202020302020302020302020302020302020302020302020302020302020302020302020300A20202031352E343932322020202D392E3230303120202020302E303030302043202020302020302020302020302020302020302020302020302020302020302020302020300A20202031362E3631393020202D31312E3135343020202020302E303030302043202020302020302020302020302020302020302020302020302020302020302020302020300A20202031372E3734313920202D31302E3530303820202020302E303030302043202020302020302020302020302020302020302020302020302020302020302020302020300A20202031372E373339302020202D392E3139333920202020302E303030302043202020302020302020302020302020302020302020302020302020302020302020302020300A20202031362E363039322020202D382E3533383720202020302E303030302043202020302020302020302020302020302020302020302020302020302020302020302020300A20202031382E383538392020202D382E3534383620202020302E303030302043202020302020302020302020302020302020302020302020302020302020302020302020300A20202031382E383631302020202D372E3236313220202020302E303030302043202020302020302020302020302020302020302020302020302020302020302020302020300A20202031372E373431362020202D362E3631363620202020302E303030302043202020302020302020302020302020302020302020302020302020302020302020302020300A20202031362E363139302020202D372E3236313220202020302E303030302043202020302020302020302020302020302020302020302020302020302020302020302020300A20202032312E303930312020202D382E3534383720202020302E303030302043202020302020302020302020302020302020302020302020302020302020302020302020300A20202032312E303930312020202D372E3236313220202020302E303030302043202020302020302020302020302020302020302020302020302020302020302020302020300A20202031392E393835342020202D362E3631333220202020302E303030302043202020302020302020302020302020302020302020302020302020302020302020302020300A20202032332E323939392020202D342E3638393820202020302E303030302043202020302020302020302020302020302020302020302020302020302020302020302020300A20202032322E313934342020202D352E3332383020202020302E303030302043202020302020302020302020302020302020302020302020302020302020302020302020300A20202032312E303930312020202D342E3730343620202020302E303030302043202020302020302020302020302020302020302020302020302020302020302020302020300A20202031392E393736332020202D352E3334303920202020302E303030302043202020302020302020302020302020302020302020302020302020302020302020302020300A20202031352E3439323220202D31312E3836353220202020302E303030302048202020302020302020302020302020302020302020302020302020302020302020302020300A20202031382E393630312020202D342E3735333320202020302E303030302043202020302020302020302020302020302020302020302020302020302020302020302020300A20202031382E383631302020202D352E3833313320202020302E303030302043202020302020302020302020302020302020302020302020302020302020302020302020300A20202031352E343932322020202D372E3739323720202020302E303030302043202020302020302020302020302020302020302020302020302020302020302020302020300A20202032332E323939392020202D332E3431333320202020302E30303030204F202020302020302020302020302020302020302020302020302020302020302020302020300A20202032342E343131332020202D352E3331353520202020302E30303030204F202020302020302020302020302020302020302020302020302020302020302020302020300A20202032352E353633312020202D342E3635303520202020302E303030302043202020302020302020302020302020302020302020302020302020302020302020302020300A20202031362E363037382020202D392E3836383720202020302E303030302048202020302020302020302020302020302020302020302020302020302020302020302020300A20202031372E373336372020202D372E3836333920202020302E303030302048202020302020302020302020302020302020302020302020302020302020302020302020300A20202031392E393835302020202D372E3934333220202020302E303030302048202020302020302020302020302020302020302020302020302020302020302020302020300A20202031382E383537382020202D392E3837383620202020302E303030302048202020302020302020302020302020302020302020302020302020302020302020302020300A20202031322E3038363520202D31312E3136343720202020302E30303030204F202020302020302020302020302020302020302020302020302020302020302020302020300A20202031342E3336353520202D31322E3438343020202020302E30303030204F202020302020302020302020302020302020302020302020302020302020302020302020300A20202031372E333938342020202D352E3333313720202020302E30303030204F202020302020302020302020302020302020302020302020302020302020302020302020300A2020312020322020312020302020302020302020300A2020322020332020312020302020302020302020300A2020332020342020312020302020302020302020300A2020342020352020312020302020302020302020300A2020352020362020312020302020302020302020300A2020312020362020312020302020302020302020300A2020352020372020312020302020302020302020300A2020372020382020312020302020302020302020300A2020382020392020312020302020302020302020300A2020392031302020312020302020302020302020300A2020362031302020312020302020302020302020300A2020392031312020312020302020302020302020300A2031312031322020312020302020302020302020300A2031322031332020312020302020302020302020300A2031332031342020312020302020302020302020300A2031302031342020312020302020302020302020300A2031352031362020312020302020302020302020300A2031362031372020312020302020302020302020300A2031322031372020312020302020302020302020300A2031382031392020312020302020302020302020300A2031392032302020312020302020302020302020300A2032302032312020312020302020302020302020300A2031372032312020312020312020302020302020300A2031312031352020312020302020302020302020300A2020352032322020312020312020302020302020300A2032312032332020312020362020302020302020300A2031322032342020312020312020302020302020300A2020362032352020312020312020302020302020300A2032362031382020322020302020302020302020300A2032372031382020312020302020302020302020300A2032372032382020312020302020302020302020300A2031302032392020312020362020302020302020300A2020392033302020312020312020302020302020300A2031372033312020312020362020302020302020300A2031312033322020312020362020302020302020300A2020332033332020312020312020302020302020300A2020342033342020312020312020302020302020300A2031332033352020312020362020302020302020300A4D2020454E44
Contributor: Takashi Iida, Department of Chemistry, College of Humanities and Sciences, Nihon University. Koichi Metori, Chemical Analytical Center, College of Pharmacy, Nihon Univercity.
InstType: EI
InstName: JEOL JMS-01SG-2
IoniMethod: _POTENTIAL 60 eV
IonPolarity: pos
Date: 2010-10-09 19:48:36+02:00
Num Peaks: 212
51.0 41 52.0 7 53.0 32 55.0 229 56.0 19 57.0 66 59.0 40 63.0 26 64.0 3 65.0 96 
66.0 7 67.0 110 68.0 23 69.0 89 71.0 30 73.0 49 74.0 45 77.0 84 78.0 34 79.0 121 
80.0 30 81.0 240 82.0 34 83.0 81 84.0 44 85.0 27 87.0 25 89.0 27 90.0 22 91.0 631 
92.0 87 93.0 142 94.0 51 95.0 161 96.0 29 97.0 44 98.0 18 99.0 21 103.0 16 104.0 33 
105.0 140 106.0 109 107.0 168 108.0 51 109.0 100 110.0 33 111.0 51 112.0 14 115.0 58 116.0 18 
117.0 73 118.0 63 119.0 103 120.0 49 121.0 117 122.0 51 123.0 63 124.0 26 125.0 21 127.0 11 
128.0 11 129.0 22 130.0 70 131.0 98 132.0 183 133.0 157 134.0 51 135.0 73 136.0 19 137.0 29 
141.0 25 142.0 12 143.0 38 144.0 49 145.0 84 146.0 60 147.0 98 148.0 26 149.0 49 150.0 14 
151.0 21 154.0 242 155.0 41 156.0 16 157.0 36 158.0 29 159.0 96 160.0 32 161.0 63 162.0 37 
163.0 51 164.0 16 165.0 15 171.0 26 172.0 10 173.0 43 174.0 74 175.0 51 176.0 18 177.0 33 
178.0 14 183.0 8 185.0 19 187.0 15 189.0 16 190.0 12 191.0 12 192.0 23 193.0 7 194.0 10 
195.0 51 196.0 15 197.0 21 199.0 23 201.0 34 202.0 8 203.0 21 207.0 8 208.0 51 209.0 23 
211.0 32 212.0 15 213.0 27 214.0 14 215.0 21 216.0 3 217.0 23 219.0 11 221.0 16 222.0 11 
225.0 12 227.0 14 229.0 33 230.0 18 231.0 27 232.0 14 233.0 12 236.0 19 237.0 11 243.0 11 
244.0 16 245.0 15 247.0 22 248.0 14 249.0 22 250.0 10 253.0 126 254.0 32 255.0 18 262.0 23 
263.0 14 264.0 7 265.0 41 266.0 25 271.0 231 272.0 51 273.0 12 274.0 7 288.0 80 289.0 999 
290.0 220 291.0 33 313.0 10 314.0 5 315.0 11 316.0 8 317.0 12 318.0 10 319.0 3 328.0 4 
329.0 8 330.0 9 331.0 8 337.0 8 338.0 6 339.0 8 343.0 6 344.0 2 345.0 3 346.0 5 
347.0 5 353.0 9 354.0 9 355.0 15 356.0 30 357.0 10 358.0 7 359.0 3 368.0 9 369.0 18 
370.0 6 371.0 15 372.0 10 373.0 17 374.0 7 375.0 4 386.0 12 387.0 39 388.0 12 389.0 12 
390.0 16 391.0 5 392.0 4 402.0 2 403.0 4 404.0 40 405.0 125 406.0 23 407.0 8 420.0 4 
422.0 2 423.0 2 
