Name: MassBank: NU000057
MW: 406
Formula: C25H42O4
Synonym: MassBank: NU000057
Synonym: 3beta,6beta-Dihydroxy-5alpha-cholan-24-oic Acid Methyl ester
Structure: 310A37360A20204143442F4C6162733039313030383132323732440A2033342033372020302020302020312020302020302020302020302020302020312056323030300A20202031352E323738392020202D382E3534383720202020302E303030302043202020302020302020302020302020302020302020302020302020302020302020302020300A20202031342E313532332020202D392E3230303120202020302E303030302043202020302020302020302020302020302020302020302020302020302020302020302020300A20202031342E3135323320202D31302E3530303820202020302E303030302043202020302020302020302020302020302020302020302020302020302020302020302020300A20202031352E3237383920202D31312E3135343020202020302E303030302043202020302020302020302020302020302020302020302020302020302020302020302020300A20202031362E3430353620202D31302E3530303820202020302E303030302043202020302020302020302020302020302020302020302020302020302020302020302020300A20202031362E343035362020202D392E3230303120202020302E303030302043202020302020302020302020302020302020302020302020302020302020302020302020300A20202031372E3533323420202D31312E3135343020202020302E303030302043202020302020302020302020302020302020302020302020302020302020302020302020300A20202031382E3635353320202D31302E3530303820202020302E303030302043202020302020302020302020302020302020302020302020302020302020302020302020300A20202031382E363532342020202D392E3139333920202020302E303030302043202020302020302020302020302020302020302020302020302020302020302020302020300A20202031372E353232362020202D382E3533383720202020302E303030302043202020302020302020302020302020302020302020302020302020302020302020302020300A20202031392E373732332020202D382E3534383620202020302E303030302043202020302020302020302020302020302020302020302020302020302020302020302020300A20202031392E373734342020202D372E3236313220202020302E303030302043202020302020302020302020302020302020302020302020302020302020302020302020300A20202031382E363535332020202D362E3631373420202020302E303030302043202020302020302020302020302020302020302020302020302020302020302020302020300A20202031372E353332342020202D372E3236313220202020302E303030302043202020302020302020302020302020302020302020302020302020302020302020302020300A20202032322E303033352020202D382E3534383720202020302E303030302043202020302020302020302020302020302020302020302020302020302020302020302020300A20202032322E303033352020202D372E3236313220202020302E303030302043202020302020302020302020302020302020302020302020302020302020302020302020300A20202032302E383938382020202D362E3631333220202020302E303030302043202020302020302020302020302020302020302020302020302020302020302020302020300A20202032342E323133332020202D342E3638393820202020302E303030302043202020302020302020302020302020302020302020302020302020302020302020302020300A20202032332E313037382020202D352E3332383020202020302E303030302043202020302020302020302020302020302020302020302020302020302020302020302020300A20202032322E303033352020202D342E3730343620202020302E303030302043202020302020302020302020302020302020302020302020302020302020302020302020300A20202032302E383839372020202D352E3334303920202020302E303030302043202020302020302020302020302020302020302020302020302020302020302020302020300A20202031362E3430353620202D31312E3836353220202020302E303030302048202020302020302020302020302020302020302020302020302020302020302020302020300A20202031392E383733352020202D342E3735333320202020302E303030302043202020302020302020302020302020302020302020302020302020302020302020302020300A20202031392E373734342020202D352E3833313320202020302E303030302043202020302020302020302020302020302020302020302020302020302020302020302020300A20202031362E343035362020202D372E3739323720202020302E303030302043202020302020302020302020302020302020302020302020302020302020302020302020300A20202032342E323133332020202D332E3431333320202020302E30303030204F202020302020302020302020302020302020302020302020302020302020302020302020300A20202032352E333234372020202D352E3331353520202020302E30303030204F202020302020302020302020302020302020302020302020302020302020302020302020300A20202032362E343736352020202D342E3635303520202020302E303030302043202020302020302020302020302020302020302020302020302020302020302020302020300A20202031322E3939393920202D31312E3136343720202020302E30303030204F202020302020302020302020302020302020302020302020302020302020302020302020300A20202031372E353231322020202D392E3836383720202020302E303030302048202020302020302020302020302020302020302020302020302020302020302020302020300A20202031382E363530312020202D372E3836333920202020302E303030302048202020302020302020302020302020302020302020302020302020302020302020302020300A20202032302E383938342020202D372E3934333220202020302E303030302048202020302020302020302020302020302020302020302020302020302020302020302020300A20202031392E373731322020202D392E3837383620202020302E303030302048202020302020302020302020302020302020302020302020302020302020302020302020300A20202031372E3533333420202D31322E3438343020202020302E30303030204F202020302020302020302020302020302020302020302020302020302020302020302020300A2020312020322020312020302020302020302020300A2020322020332020312020302020302020302020300A2020332020342020312020302020302020302020300A2020342020352020312020302020302020302020300A2020352020362020312020302020302020302020300A2020312020362020312020302020302020302020300A2020352020372020312020302020302020302020300A2020372020382020312020302020302020302020300A2020382020392020312020302020302020302020300A2020392031302020312020302020302020302020300A2020362031302020312020302020302020302020300A2020392031312020312020302020302020302020300A2031312031322020312020302020302020302020300A2031322031332020312020302020302020302020300A2031332031342020312020302020302020302020300A2031302031342020312020302020302020302020300A2031352031362020312020302020302020302020300A2031362031372020312020302020302020302020300A2031322031372020312020302020302020302020300A2031382031392020312020302020302020302020300A2031392032302020312020302020302020302020300A2032302032312020312020302020302020302020300A2031372032312020312020312020302020302020300A2031312031352020312020302020302020302020300A2020352032322020312020362020302020302020300A2032312032332020312020362020302020302020300A2031322032342020312020312020302020302020300A2020362032352020312020312020302020302020300A2032362031382020322020302020302020302020300A2032372031382020312020302020302020302020300A2032372032382020312020302020302020302020300A2020332032392020312020312020302020302020300A2031302033302020312020362020302020302020300A2020392033312020312020312020302020302020300A2031372033322020312020362020302020302020300A2031312033332020312020362020302020302020300A2020372033342020312020312020302020302020300A4D2020454E44
Contributor: Takashi Iida, Department of Chemistry, College of Humanities and Sciences, Nihon University. Koichi Metori, Chemical Analytical Center, College of Pharmacy, Nihon Univercity.
InstType: EI
InstName: JEOL DX-303 mass spectrometer
IoniMethod: _POTENTIAL 70 eV
IonPolarity: pos
Date: 2010-10-09 19:48:36+02:00
Num Peaks: 197
17.0000 13 18.0000 65 27.0000 10 28.0000 31 29.0000 40 31.0000 10 39.0000 12 41.0000 117 43.0000 93 44.0000 16 
45.0000 11 53.0000 31 55.0000 273 56.0000 19 57.0000 47 59.0000 46 65.0000 11 67.0000 171 68.0000 66 69.0000 110 
70.0000 13 71.0000 15 73.0000 63 74.0000 41 77.0000 37 78.0000 12 79.0000 151 81.0000 280 82.0080 53 83.0000 99 
84.0000 13 85.0000 48 87.0000 38 88.0000 35 91.0000 109 92.0000 29 93.0000 201 94.0000 98 95.0000 466 96.0000 63 
97.0000 68 98.0000 13 99.0000 26 101.0000 11 104.0000 13 105.0000 136 106.0000 70 107.0000 215 108.0000 137 109.0000 223 
110.0000 50 111.0000 40 113.0000 11 115.0000 50 117.0000 36 118.0000 33 119.0000 144 120.0000 86 121.0000 146 122.0000 102 
123.0000 162 124.0000 79 125.0000 38 127.0000 12 128.0000 11 129.0000 19 130.0000 11 131.0000 80 132.0000 39 133.0000 127 
134.0000 92 135.0000 122 136.0000 44 137.0000 50 138.0000 17 139.0000 14 140.0000 15 141.0000 98 142.0000 24 143.0000 69 
144.0000 23 145.0000 106 146.0000 91 147.0000 325 148.0000 150 149.0000 85 150.0000 29 151.0000 29 152.0000 11 154.0000 217 
155.0000 42 156.0000 11 157.0000 47 158.0000 39 159.0000 94 160.0000 42 161.0000 119 162.0000 35 163.0000 47 164.0000 24 
165.0000 28 171.0000 43 172.0000 23 173.0000 77 174.0000 31 175.0000 54 176.0000 32 177.0000 36 178.0000 17 185.0000 36 
186.0000 25 187.0000 58 188.0000 24 189.0000 51 190.0000 16 191.0000 18 195.0000 14 197.0000 12 199.0000 57 200.0000 22 
201.0000 41 202.0000 26 203.0000 27 204.0000 13 205.0000 10 208.0000 41 209.0000 15 211.0000 12 213.0000 349 214.0000 101 
215.0000 100 216.0000 62 217.0000 49 218.0000 19 219.0000 54 220.0000 13 221.0000 11 222.0000 10 227.0000 30 228.0000 225 
229.0000 103 230.0000 28 231.0000 251 232.0000 301 233.0000 132 234.0000 89 235.0000 21 241.0000 14 244.0000 11 245.0000 23 
246.0000 419 247.0000 113 248.0000 28 249.0000 44 250.0000 26 255.0000 61 256.0000 15 259.0000 13 260.0000 13 261.0000 14 
262.0000 59 263.0000 40 264.0000 101 265.0000 33 271.0000 11 273.0000 124 274.0000 37 275.0000 14 289.0000 24 290.0000 15 
297.0000 10 303.0000 15 315.0000 25 316.0000 11 323.0000 12 328.0000 10 329.0000 21 330.0000 11 331.0000 17 339.0000 28 
341.0000 13 355.0000 87 356.0000 33 357.0000 86 358.0000 24 370.0000 173 371.0000 59 372.0000 16 373.0000 109 374.0000 31 
375.0000 19 386.0000 24 388.0000 999 389.0000 308 390.0000 53 404.0000 11 406.0000 14 
