Name: MassBank: NU000075
MW: 438
Formula: C25H42O6
Synonym: MassBank: NU000075
Synonym: 3beta,4beta,7alpha,12alpha-Tetrahydroxy-5beta-cholan-24-oic Acid Methyl ester
Structure: 310A38300A20204143442F4C6162733039313030383132343832440A2033362033392020302020302020312020302020302020302020302020302020312056323030300A20202031342E333635352020202D382E3534383720202020302E303030302043202020302020302020302020302020302020302020302020302020302020302020302020300A20202031332E323338392020202D392E3230303120202020302E303030302043202020302020302020302020302020302020302020302020302020302020302020302020300A20202031332E3233383920202D31302E3530303820202020302E303030302043202020302020302020302020302020302020302020302020302020302020302020302020300A20202031342E3336353520202D31312E3135343020202020302E303030302043202020302020302020302020302020302020302020302020302020302020302020302020300A20202031352E3439323220202D31302E3530303820202020302E303030302043202020302020302020302020302020302020302020302020302020302020302020302020300A20202031352E343932322020202D392E3230303120202020302E303030302043202020302020302020302020302020302020302020302020302020302020302020302020300A20202031362E3631393020202D31312E3135343020202020302E303030302043202020302020302020302020302020302020302020302020302020302020302020302020300A20202031372E3734313920202D31302E3530303820202020302E303030302043202020302020302020302020302020302020302020302020302020302020302020302020300A20202031372E373339302020202D392E3139333920202020302E303030302043202020302020302020302020302020302020302020302020302020302020302020302020300A20202031362E363039322020202D382E3533383720202020302E303030302043202020302020302020302020302020302020302020302020302020302020302020302020300A20202031382E383538392020202D382E3534383620202020302E303030302043202020302020302020302020302020302020302020302020302020302020302020302020300A20202031382E383631302020202D372E3236313220202020302E303030302043202020302020302020302020302020302020302020302020302020302020302020302020300A20202031372E373431362020202D362E3631363620202020302E303030302043202020302020302020302020302020302020302020302020302020302020302020302020300A20202031362E363139302020202D372E3236313220202020302E303030302043202020302020302020302020302020302020302020302020302020302020302020302020300A20202032312E303930312020202D382E3534383720202020302E303030302043202020302020302020302020302020302020302020302020302020302020302020302020300A20202032312E303930312020202D372E3236313220202020302E303030302043202020302020302020302020302020302020302020302020302020302020302020302020300A20202031392E393835342020202D362E3631333220202020302E303030302043202020302020302020302020302020302020302020302020302020302020302020302020300A20202032332E323939392020202D342E3638393820202020302E303030302043202020302020302020302020302020302020302020302020302020302020302020302020300A20202032322E313934342020202D352E3332383020202020302E303030302043202020302020302020302020302020302020302020302020302020302020302020302020300A20202032312E303930312020202D342E3730343620202020302E303030302043202020302020302020302020302020302020302020302020302020302020302020302020300A20202031392E393736332020202D352E3334303920202020302E303030302043202020302020302020302020302020302020302020302020302020302020302020302020300A20202031352E3439323220202D31312E3836353220202020302E303030302048202020302020302020302020302020302020302020302020302020302020302020302020300A20202031382E393630312020202D342E3735333320202020302E303030302043202020302020302020302020302020302020302020302020302020302020302020302020300A20202031382E383631302020202D352E3833313320202020302E303030302043202020302020302020302020302020302020302020302020302020302020302020302020300A20202031352E343932322020202D372E3739323720202020302E303030302043202020302020302020302020302020302020302020302020302020302020302020302020300A20202032332E323939392020202D332E3431333320202020302E30303030204F202020302020302020302020302020302020302020302020302020302020302020302020300A20202032342E343131332020202D352E3331353520202020302E30303030204F202020302020302020302020302020302020302020302020302020302020302020302020300A20202032352E353633312020202D342E3635303520202020302E303030302043202020302020302020302020302020302020302020302020302020302020302020302020300A20202031362E363037382020202D392E3836383720202020302E303030302048202020302020302020302020302020302020302020302020302020302020302020302020300A20202031372E373336372020202D372E3836333920202020302E303030302048202020302020302020302020302020302020302020302020302020302020302020302020300A20202031392E393835302020202D372E3934333220202020302E303030302048202020302020302020302020302020302020302020302020302020302020302020302020300A20202031382E383537382020202D392E3837383620202020302E303030302048202020302020302020302020302020302020302020302020302020302020302020302020300A20202031322E3038363520202D31312E3136343720202020302E30303030204F202020302020302020302020302020302020302020302020302020302020302020302020300A20202031342E3336353520202D31322E3438343020202020302E30303030204F202020302020302020302020302020302020302020302020302020302020302020302020300A20202031382E3839353520202D31312E3136323620202020302E30303030204F202020302020302020302020302020302020302020302020302020302020302020302020300A20202031372E333938342020202D352E3333313720202020302E30303030204F202020302020302020302020302020302020302020302020302020302020302020302020300A2020312020322020312020302020302020302020300A2020322020332020312020302020302020302020300A2020332020342020312020302020302020302020300A2020342020352020312020302020302020302020300A2020352020362020312020302020302020302020300A2020312020362020312020302020302020302020300A2020352020372020312020302020302020302020300A2020372020382020312020302020302020302020300A2020382020392020312020302020302020302020300A2020392031302020312020302020302020302020300A2020362031302020312020302020302020302020300A2020392031312020312020302020302020302020300A2031312031322020312020302020302020302020300A2031322031332020312020302020302020302020300A2031332031342020312020302020302020302020300A2031302031342020312020302020302020302020300A2031352031362020312020302020302020302020300A2031362031372020312020302020302020302020300A2031322031372020312020302020302020302020300A2031382031392020312020302020302020302020300A2031392032302020312020302020302020302020300A2032302032312020312020302020302020302020300A2031372032312020312020312020302020302020300A2031312031352020312020302020302020302020300A2020352032322020312020312020302020302020300A2032312032332020312020362020302020302020300A2031322032342020312020312020302020302020300A2020362032352020312020312020302020302020300A2032362031382020322020302020302020302020300A2032372031382020312020302020302020302020300A2032372032382020312020302020302020302020300A2031302032392020312020362020302020302020300A2020392033302020312020312020302020302020300A2031372033312020312020362020302020302020300A2031312033322020312020362020302020302020300A2020332033332020312020312020302020302020300A2020342033342020312020312020302020302020300A2020382033352020312020362020302020302020300A2031332033362020312020362020302020302020300A4D2020454E44
Contributor: Takashi Iida, Department of Chemistry, College of Humanities and Sciences, Nihon University. Koichi Metori, Chemical Analytical Center, College of Pharmacy, Nihon Univercity.
InstType: EI
InstName: JEOL JMS-01SG-2
IoniMethod: _POTENTIAL 60 eV
IonPolarity: pos
Date: 2010-10-09 19:48:36+02:00
Num Peaks: 273
51.0 26 53.0 73 54.0 11 55.0 549 56.0 47 57.0 145 59.0 111 65.0 64 66.0 19 67.0 242 
68.0 49 69.0 191 70.0 29 71.0 74 73.0 121 74.0 99 77.0 117 78.0 33 79.0 233 80.0 59 
81.0 454 82.0 70 83.0 176 84.0 75 85.0 75 87.0 38 89.0 3 91.0 462 92.0 80 93.0 296 
94.0 85 95.0 294 96.0 48 97.0 99 98.0 21 99.0 49 103.0 22 104.0 25 105.0 272 106.0 113 
107.0 268 108.0 70 109.0 318 110.0 69 111.0 99 112.0 21 113.0 22 115.0 107 116.0 26 117.0 96 
118.0 78 119.0 220 120.0 78 121.0 188 122.0 58 123.0 100 124.0 32 125.0 48 126.0 64 127.0 618 
128.0 77 129.0 63 130.0 66 131.0 152 132.0 114 133.0 188 134.0 67 135.0 115 136.0 33 137.0 58 
138.0 16 139.0 22 141.0 56 142.0 29 143.0 118 144.0 71 145.0 198 146.0 77 147.0 144 148.0 40 
149.0 64 150.0 21 151.0 27 152.0 14 153.0 29 154.0 48 155.0 51 156.0 30 157.0 110 158.0 49 
159.0 172 160.0 58 161.0 140 162.0 36 163.0 55 164.0 21 165.0 23 167.0 18 168.0 16 169.0 59 
170.0 25 171.0 88 172.0 41 173.0 93 174.0 64 175.0 69 176.0 19 177.0 41 178.0 15 179.0 18 
181.0 23 182.0 14 183.0 47 184.0 21 185.0 69 186.0 25 187.0 66 188.0 18 189.0 33 190.0 14 
191.0 18 192.0 8 193.0 22 194.0 18 195.0 56 196.0 21 197.0 55 198.0 21 199.0 88 200.0 26 
201.0 44 202.0 16 203.0 23 204.0 3 205.0 15 207.0 33 208.0 32 209.0 75 210.0 23 211.0 54 
212.0 21 213.0 59 214.0 19 215.0 48 216.0 18 217.0 29 218.0 8 219.0 16 221.0 19 222.0 11 
223.0 26 224.0 25 225.0 47 226.0 16 227.0 80 228.0 26 229.0 48 230.0 22 231.0 33 232.0 15 
233.0 33 234.0 19 235.0 26 236.0 19 237.0 21 239.0 26 240.0 12 241.0 43 242.0 133 243.0 55 
244.0 16 245.0 62 246.0 19 247.0 32 248.0 36 249.0 37 250.0 12 251.0 85 252.0 25 253.0 23 
254.0 12 255.0 19 257.0 32 258.0 32 259.0 32 260.0 542 261.0 240 262.0 47 263.0 45 264.0 14 
265.0 19 266.0 12 267.0 32 268.0 12 269.0 436 270.0 95 271.0 36 272.0 12 273.0 23 274.0 34 
275.0 24 276.0 36 277.0 29 278.0 11 279.0 18 281.0 23 283.0 21 285.0 204 286.0 60 287.0 999 
288.0 222 289.0 43 290.0 12 297.0 19 301.0 14 302.0 7 303.0 53 304.0 18 305.0 29 311.0 19 
312.0 8 313.0 30 314.0 25 315.0 54 316.0 23 317.0 10 319.0 11 327.0 16 328.0 15 329.0 19 
337.0 18 341.0 16 343.0 58 344.0 22 345.0 27 346.0 11 351.0 25 352.0 15 353.0 38 354.0 18 
355.0 21 356.0 14 357.0 7 366.0 12 367.0 10 368.0 10 369.0 67 370.0 32 371.0 49 372.0 32 
373.0 27 374.0 16 384.0 233 385.0 81 386.0 26 387.0 376 388.0 108 389.0 51 390.0 18 391.0 11 
400.0 69 401.0 27 402.0 649 403.0 183 404.0 38 405.0 11 418.0 21 419.0 7 420.0 298 421.0 84 
422.0 14 434.0 4 436.0 6 
