Name: MassBank: NU000053
MW: 422
Formula: C25H42O5
Synonym: MassBank: NU000053
Synonym: 3beta,7beta,12beta-Trihydroxy-5beta-cholan-24-oic Acid Methyl ester
Structure: 310A37380A20204143442F4C6162733039303830383134313332440A2033352033382020302020302020312020302020302020302020302020302020312056323030300A20202031352E323738392020202D382E3534383720202020302E303030302043202020302020302020302020302020302020302020302020302020302020302020302020300A20202031342E313532332020202D392E3230303120202020302E303030302043202020302020302020302020302020302020302020302020302020302020302020302020300A20202031342E3135323320202D31302E3530303820202020302E303030302043202020302020302020302020302020302020302020302020302020302020302020302020300A20202031352E3237383920202D31312E3135343020202020302E303030302043202020302020302020302020302020302020302020302020302020302020302020302020300A20202031362E3430353620202D31302E3530303820202020302E303030302043202020302020302020302020302020302020302020302020302020302020302020302020300A20202031362E343035362020202D392E3230303120202020302E303030302043202020302020302020302020302020302020302020302020302020302020302020302020300A20202031372E3533323420202D31312E3135343020202020302E303030302043202020302020302020302020302020302020302020302020302020302020302020302020300A20202031382E3635353320202D31302E3530303820202020302E303030302043202020302020302020302020302020302020302020302020302020302020302020302020300A20202031382E363532342020202D392E3139333920202020302E303030302043202020302020302020302020302020302020302020302020302020302020302020302020300A20202031372E353232362020202D382E3533383720202020302E303030302043202020302020302020302020302020302020302020302020302020302020302020302020300A20202031392E373732332020202D382E3534383620202020302E303030302043202020302020302020302020302020302020302020302020302020302020302020302020300A20202031392E373734342020202D372E3236313220202020302E303030302043202020302020302020302020302020302020302020302020302020302020302020302020300A20202031382E363535302020202D362E3631363620202020302E303030302043202020302020302020302020302020302020302020302020302020302020302020302020300A20202031372E353332342020202D372E3236313220202020302E303030302043202020302020302020302020302020302020302020302020302020302020302020302020300A20202032322E303033352020202D382E3534383720202020302E303030302043202020302020302020302020302020302020302020302020302020302020302020302020300A20202032322E303033352020202D372E3236313220202020302E303030302043202020302020302020302020302020302020302020302020302020302020302020302020300A20202032302E383938382020202D362E3631333220202020302E303030302043202020302020302020302020302020302020302020302020302020302020302020302020300A20202032342E323133332020202D342E3638393820202020302E303030302043202020302020302020302020302020302020302020302020302020302020302020302020300A20202032332E313037382020202D352E3332383020202020302E303030302043202020302020302020302020302020302020302020302020302020302020302020302020300A20202032322E303033352020202D342E3730343620202020302E303030302043202020302020302020302020302020302020302020302020302020302020302020302020300A20202032302E383839372020202D352E3334303920202020302E303030302043202020302020302020302020302020302020302020302020302020302020302020302020300A20202031362E3430353620202D31312E3836353220202020302E303030302048202020302020302020302020302020302020302020302020302020302020302020302020300A20202031392E383733352020202D342E3735333320202020302E303030302043202020302020302020302020302020302020302020302020302020302020302020302020300A20202031392E373734342020202D352E3833313320202020302E303030302043202020302020302020302020302020302020302020302020302020302020302020302020300A20202031362E343035362020202D372E3739323720202020302E303030302043202020302020302020302020302020302020302020302020302020302020302020302020300A20202032342E323133332020202D332E3431333320202020302E30303030204F202020302020302020302020302020302020302020302020302020302020302020302020300A20202032352E333234372020202D352E3331353520202020302E30303030204F202020302020302020302020302020302020302020302020302020302020302020302020300A20202032362E343736352020202D342E3635303520202020302E303030302043202020302020302020302020302020302020302020302020302020302020302020302020300A20202031372E353231322020202D392E3836383720202020302E303030302048202020302020302020302020302020302020302020302020302020302020302020302020300A20202031382E363530312020202D372E3836333920202020302E303030302048202020302020302020302020302020302020302020302020302020302020302020302020300A20202032302E383938342020202D372E3934333220202020302E303030302048202020302020302020302020302020302020302020302020302020302020302020302020300A20202031392E373731322020202D392E3837383620202020302E303030302048202020302020302020302020302020302020302020302020302020302020302020302020300A20202031382E333131382020202D352E3333313720202020302E30303030204F202020302020302020302020302020302020302020302020302020302020302020302020300A20202031392E3830383920202D31312E3136323620202020302E30303030204F202020302020302020302020302020302020302020302020302020302020302020302020300A20202031322E3939393920202D31312E3136343720202020302E30303030204F202020302020302020302020302020302020302020302020302020302020302020302020300A2020312020322020312020302020302020302020300A2020322020332020312020302020302020302020300A2020332020342020312020302020302020302020300A2020342020352020312020302020302020302020300A2020352020362020312020302020302020302020300A2020312020362020312020302020302020302020300A2020352020372020312020302020302020302020300A2020372020382020312020302020302020302020300A2020382020392020312020302020302020302020300A2020392031302020312020302020302020302020300A2020362031302020312020302020302020302020300A2020392031312020312020302020302020302020300A2031312031322020312020302020302020302020300A2031322031332020312020302020302020302020300A2031332031342020312020302020302020302020300A2031302031342020312020302020302020302020300A2031352031362020312020302020302020302020300A2031362031372020312020302020302020302020300A2031322031372020312020302020302020302020300A2031382031392020312020302020302020302020300A2031392032302020312020302020302020302020300A2032302032312020312020302020302020302020300A2031372032312020312020312020302020302020300A2031312031352020312020302020302020302020300A2020352032322020312020312020302020302020300A2032312032332020312020362020302020302020300A2031322032342020312020312020302020302020300A2020362032352020312020312020302020302020300A2032362031382020322020302020302020302020300A2032372031382020312020302020302020302020300A2032372032382020312020302020302020302020300A2031302032392020312020362020302020302020300A2020392033302020312020312020302020302020300A2031372033312020312020362020302020302020300A2031312033322020312020362020302020302020300A2031332033332020312020312020302020302020300A2020382033342020312020312020302020302020300A2020332033352020312020312020302020302020300A4D2020454E44
Contributor: Takashi Iida, Department of Chemistry, College of Humanities and Sciences, Nihon University. Koichi Metori, Chemical Analytical Center, College of Pharmacy, Nihon Univercity.
InstType: EI
InstName: JEOL GCmate
IoniMethod: _POTENTIAL 70 eV
IonPolarity: pos
Date: 2010-10-09 19:48:36+02:00
Num Peaks: 327
51.0 3 53.0 36 54.0 11 55.1 298 56.1 25 57.1 63 58.1 17 59.0 48 60.1 6 65.1 16 
66.1 10 67.1 188 68.1 47 69.1 128 70.1 23 71.1 45 72.1 7 73.1 76 74.1 77 75.1 6 
77.1 55 78.1 15 79.1 182 80.1 50 81.1 348 82.1 56 83.1 147 84.1 49 85.1 44 86.1 6 
87.1 23 88.1 8 89.1 3 91.1 159 92.1 43 93.1 309 94.1 150 95.1 297 96.1 50 97.1 78 
98.1 21 99.1 38 100.1 7 101.0 13 102.1 3 103.1 12 104.1 13 105.1 252 106.1 102 107.1 302 
108.1 132 109.1 286 110.1 69 111.1 75 112.1 24 113.1 16 114.1 8 115.1 174 116.1 100 117.1 62 
118.1 37 119.1 191 120.1 88 121.1 264 122.1 99 123.1 122 124.1 44 125.1 42 126.1 16 126.6 4 
127.1 13 128.1 18 129.1 41 130.1 20 131.1 118 132.1 51 133.1 201 133.6 3 134.1 66 135.1 157 
136.1 54 137.1 72 138.1 25 139.1 31 140.1 10 141.1 40 142.1 19 143.1 88 144.1 40 145.1 225 
146.1 66 147.1 228 147.6 3 148.1 56 149.1 103 150.1 33 151.1 42 152.1 14 153.1 24 154.1 216 
155.1 63 156.1 21 157.1 119 158.1 38 159.1 199 160.1 52 161.1 116 162.1 42 163.1 128 164.1 51 
165.1 39 166.1 12 167.1 15 168.1 84 169.1 40 170.1 15 171.1 86 172.1 27 173.1 94 174.1 32 
175.1 110 176.1 28 177.1 48 178.1 19 179.1 18 180.1 15 181.1 30 182.1 11 183.1 35 184.1 13 
185.1 68 186.1 25 187.1 74 188.1 34 189.1 57 190.1 15 191.1 26 192.1 10 193.1 22 194.1 53 
195.1 138 196.1 43 197.1 58 198.1 21 199.1 74 200.1 25 201.1 98 202.1 24 203.1 37 204.1 28 
205.1 25 206.1 25 207.1 52 208.1 74 209.1 38 210.1 14 211.1 58 212.2 18 213.1 67 214.2 33 
215.1 60 216.1 23 217.2 55 218.1 27 219.2 43 220.1 26 221.1 29 222.2 9 223.1 14 224.2 7 
225.1 30 226.2 18 227.2 51 228.2 18 229.2 73 230.2 26 231.2 43 232.2 161 233.2 54 234.2 17 
235.2 15 236.1 6 237.2 12 238.2 7 239.2 20 240.2 9 241.2 41 242.2 15 243.2 37 244.2 39 
245.2 48 246.2 20 247.2 53 248.2 22 249.2 49 250.2 18 251.2 29 252.2 21 253.2 372 254.2 84 
255.2 27 256.2 9 257.2 28 258.2 29 259.2 24 260.2 21 261.2 38 262.2 26 263.2 24 264.2 11 
265.2 42 266.2 26 267.2 13 268.2 6 269.2 83 270.2 72 271.1 999 272.2 281 273.2 49 274.2 20 
275.2 15 276.2 17 277.2 12 278.1 6 279.2 11 280.2 4 281.2 27 282.2 9 283.2 13 284.2 6 
285.2 14 286.2 17 287.2 79 288.2 82 289.2 900 290.2 215 291.2 32 292.2 12 293.2 9 294.2 4 
295.2 13 296.2 4 297.2 14 298.2 6 299.2 77 300.2 26 301.2 13 302.2 7 303.2 10 304.2 5 
305.2 7 306.2 3 307.2 18 308.2 6 309.2 5 310.2 5 311.2 9 312.2 9 313.2 22 314.2 14 
315.2 17 316.2 15 317.2 17 318.2 7 319.2 5 321.2 11 322.2 4 323.2 6 325.2 13 326.2 8 
327.2 16 328.2 11 329.2 10 330.2 6 331.3 20 332.3 8 333.2 4 335.2 5 336.3 5 337.2 13 
338.2 4 339.2 18 340.2 6 341.3 9 342.2 6 343.2 21 344.3 12 345.2 8 346.3 3 351.2 4 
352.2 3 353.2 34 354.2 18 355.2 70 356.2 21 357.2 60 358.2 20 359.2 9 360.2 10 361.2 4 
362.2 5 366.3 3 367.2 4 368.3 35 369.2 16 370.3 8 371.2 63 372.3 29 373.3 62 374.3 19 
375.3 17 376.3 5 384.3 20 385.3 11 386.3 418 387.3 124 388.3 23 389.3 16 390.3 5 391.3 6 
400.2 5 402.3 15 403.3 6 404.3 72 405.3 24 406.3 5 420.3 3 
