Name: 7beta-Hydroxy-5beta-cholan-24-oic Acid Methyl ester
MW: 390
Formula: C25H42O3
Synonym: MassBank: NU000041
Synonym: 7beta-Hydroxy-5beta-cholan-24-oic Acid Methyl ester
Structure: 310A37340A20204143442F4C6162733039303830383134303132440A2033332033362020302020302020312020302020302020302020302020302020312056323030300A20202031342E333635352020202D382E3534383720202020302E303030302043202020302020302020302020302020302020302020302020302020302020302020302020300A20202031332E323338392020202D392E3230303120202020302E303030302043202020302020302020302020302020302020302020302020302020302020302020302020300A20202031332E3233383920202D31302E3530303820202020302E303030302043202020302020302020302020302020302020302020302020302020302020302020302020300A20202031342E3336353520202D31312E3135343020202020302E303030302043202020302020302020302020302020302020302020302020302020302020302020302020300A20202031352E3439323220202D31302E3530303820202020302E303030302043202020302020302020302020302020302020302020302020302020302020302020302020300A20202031352E343932322020202D392E3230303120202020302E303030302043202020302020302020302020302020302020302020302020302020302020302020302020300A20202031362E3631393020202D31312E3135343020202020302E303030302043202020302020302020302020302020302020302020302020302020302020302020302020300A20202031372E3734313920202D31302E3530303820202020302E303030302043202020302020302020302020302020302020302020302020302020302020302020302020300A20202031372E373339302020202D392E3139333920202020302E303030302043202020302020302020302020302020302020302020302020302020302020302020302020300A20202031362E363039322020202D382E3533383720202020302E303030302043202020302020302020302020302020302020302020302020302020302020302020302020300A20202031382E383538392020202D382E3534383620202020302E303030302043202020302020302020302020302020302020302020302020302020302020302020302020300A20202031382E383631302020202D372E3236313220202020302E303030302043202020302020302020302020302020302020302020302020302020302020302020302020300A20202031372E373431392020202D362E3631373420202020302E303030302043202020302020302020302020302020302020302020302020302020302020302020302020300A20202031362E363139302020202D372E3236313220202020302E303030302043202020302020302020302020302020302020302020302020302020302020302020302020300A20202032312E303930312020202D382E3534383720202020302E303030302043202020302020302020302020302020302020302020302020302020302020302020302020300A20202032312E303930312020202D372E3236313220202020302E303030302043202020302020302020302020302020302020302020302020302020302020302020302020300A20202031392E393835342020202D362E3631333220202020302E303030302043202020302020302020302020302020302020302020302020302020302020302020302020300A20202032332E323939392020202D342E3638393820202020302E303030302043202020302020302020302020302020302020302020302020302020302020302020302020300A20202032322E313934342020202D352E3332383020202020302E303030302043202020302020302020302020302020302020302020302020302020302020302020302020300A20202032312E303930312020202D342E3730343620202020302E303030302043202020302020302020302020302020302020302020302020302020302020302020302020300A20202031392E393736332020202D352E3334303920202020302E303030302043202020302020302020302020302020302020302020302020302020302020302020302020300A20202031352E3439323220202D31312E3836353220202020302E303030302048202020302020302020302020302020302020302020302020302020302020302020302020300A20202031382E393630312020202D342E3735333320202020302E303030302043202020302020302020302020302020302020302020302020302020302020302020302020300A20202031382E383631302020202D352E3833313320202020302E303030302043202020302020302020302020302020302020302020302020302020302020302020302020300A20202031352E343932322020202D372E3739323720202020302E303030302043202020302020302020302020302020302020302020302020302020302020302020302020300A20202032332E323939392020202D332E3431333320202020302E30303030204F202020302020302020302020302020302020302020302020302020302020302020302020300A20202032342E343131332020202D352E3331353520202020302E30303030204F202020302020302020302020302020302020302020302020302020302020302020302020300A20202032352E353633312020202D342E3635303520202020302E303030302043202020302020302020302020302020302020302020302020302020302020302020302020300A20202031362E363037382020202D392E3836383720202020302E303030302048202020302020302020302020302020302020302020302020302020302020302020302020300A20202031372E373336372020202D372E3836333920202020302E303030302048202020302020302020302020302020302020302020302020302020302020302020302020300A20202031392E393835302020202D372E3934333220202020302E303030302048202020302020302020302020302020302020302020302020302020302020302020302020300A20202031382E383537382020202D392E3837383620202020302E303030302048202020302020302020302020302020302020302020302020302020302020302020302020300A20202031382E3839353520202D31312E3136323620202020302E30303030204F202020302020302020302020302020302020302020302020302020302020302020302020300A2020312020322020312020302020302020302020300A2020322020332020312020302020302020302020300A2020332020342020312020302020302020302020300A2020342020352020312020302020302020302020300A2020352020362020312020302020302020302020300A2020312020362020312020302020302020302020300A2020352020372020312020302020302020302020300A2020372020382020312020302020302020302020300A2020382020392020312020302020302020302020300A2020392031302020312020302020302020302020300A2020362031302020312020302020302020302020300A2020392031312020312020302020302020302020300A2031312031322020312020302020302020302020300A2031322031332020312020302020302020302020300A2031332031342020312020302020302020302020300A2031302031342020312020302020302020302020300A2031352031362020312020302020302020302020300A2031362031372020312020302020302020302020300A2031322031372020312020302020302020302020300A2031382031392020312020302020302020302020300A2031392032302020312020302020302020302020300A2032302032312020312020302020302020302020300A2031372032312020312020312020302020302020300A2031312031352020312020302020302020302020300A2020352032322020312020312020302020302020300A2032312032332020312020362020302020302020300A2031322032342020312020312020302020302020300A2020362032352020312020312020302020302020300A2032362031382020322020302020302020302020300A2032372031382020312020302020302020302020300A2032372032382020312020302020302020302020300A2031302032392020312020362020302020302020300A2020392033302020312020312020302020302020300A2031372033312020312020362020302020302020300A2031312033322020312020362020302020302020300A2020382033332020312020312020302020302020300A4D2020454E44
Contributor: Takashi Iida, Department of Chemistry, College of Humanities and Sciences, Nihon University. Koichi Metori, Chemical Analytical Center, College of Pharmacy, Nihon Univercity.
InstType: EI
InstName: JEOL GCmate
IoniMethod: _POTENTIAL 70 eV
IonPolarity: pos
Date: 2010-10-09 19:48:36+02:00
Num Peaks: 161
53.0 48 55.1 447 56.1 31 57.1 73 58.1 23 59.0 61 65.1 23 67.1 322 68.1 78 69.1 214 
70.1 64 71.1 38 73.1 86 74.1 65 77.1 64 79.1 226 80.1 75 81.1 503 82.1 86 83.1 189 
84.1 36 85.1 57 87.1 66 91.0 181 92.0 53 93.1 318 94.1 193 95.1 563 96.1 138 97.1 104 
98.1 26 99.1 33 101.1 25 105.1 256 106.1 158 107.1 292 108.1 218 109.1 367 110.1 161 111.1 99 
112.1 25 113.1 27 115.1 88 116.1 24 117.1 41 118.1 27 119.1 235 120.1 195 121.1 314 122.1 147 
123.1 172 124.1 73 125.1 119 129.1 26 131.1 70 132.1 43 133.1 224 134.1 165 135.1 286 136.1 88 
137.1 91 138.1 370 139.1 187 140.1 24 141.1 65 142.1 20 143.1 33 145.1 108 146.1 44 147.1 252 
148.1 223 149.1 194 150.1 49 151.1 39 152.1 170 153.1 67 154.1 112 155.1 29 157.1 23 159.1 93 
160.1 61 161.1 245 162.1 176 163.1 136 164.1 31 165.1 109 166.1 31 173.1 63 174.1 27 175.1 116 
176.1 57 177.1 49 178.1 170 179.1 40 187.1 62 188.1 28 189.2 96 190.2 28 191.1 99 192.1 22 
195.1 44 197.1 47 198.1 22 199.1 40 201.1 93 202.2 60 203.2 112 204.2 61 205.1 43 206.1 28 
208.1 207 209.1 53 210.1 22 213.1 29 215.2 306 216.2 229 217.2 440 218.2 124 219.2 39 220.2 28 
221.1 27 222.1 25 229.2 71 230.2 237 231.2 104 232.2 25 233.2 112 234.2 217 235.2 50 243.2 93 
244.2 49 247.1 29 248.2 324 249.2 205 250.2 173 251.2 35 255.2 22 256.2 28 257.2 506 258.2 110 
261.2 25 262.2 128 263.2 52 264.2 27 275.2 53 276.2 129 277.2 37 299.2 25 315.2 23 323.2 40 
325.2 23 341.3 103 342.2 28 357.2 319 358.2 93 359.2 28 372.3 999 373.3 304 374.3 52 390.3 161 
391.3 46 
