Name: MassBank: NU000066
MW: 422
Formula: C25H42O5
Synonym: MassBank: NU000066
Synonym: 3beta,6beta,7alpha-Trihydroxy-5beta-cholan-24-oic Acid Methyl ester
Structure: 310A37380A20204143442F4C6162733039313030383132333732440A2033352033382020302020302020312020302020302020302020302020302020312056323030300A20202031352E323738392020202D382E3534383720202020302E303030302043202020302020302020302020302020302020302020302020302020302020302020302020300A20202031342E313532332020202D392E3230303120202020302E303030302043202020302020302020302020302020302020302020302020302020302020302020302020300A20202031342E3135323320202D31302E3530303820202020302E303030302043202020302020302020302020302020302020302020302020302020302020302020302020300A20202031352E3237383920202D31312E3135343020202020302E303030302043202020302020302020302020302020302020302020302020302020302020302020302020300A20202031362E3430353620202D31302E3530303820202020302E303030302043202020302020302020302020302020302020302020302020302020302020302020302020300A20202031362E343035362020202D392E3230303120202020302E303030302043202020302020302020302020302020302020302020302020302020302020302020302020300A20202031372E3533323420202D31312E3135343020202020302E303030302043202020302020302020302020302020302020302020302020302020302020302020302020300A20202031382E3635353320202D31302E3530303820202020302E303030302043202020302020302020302020302020302020302020302020302020302020302020302020300A20202031382E363532342020202D392E3139333920202020302E303030302043202020302020302020302020302020302020302020302020302020302020302020302020300A20202031372E353232362020202D382E3533383720202020302E303030302043202020302020302020302020302020302020302020302020302020302020302020302020300A20202031392E373732332020202D382E3534383620202020302E303030302043202020302020302020302020302020302020302020302020302020302020302020302020300A20202031392E373734342020202D372E3236313220202020302E303030302043202020302020302020302020302020302020302020302020302020302020302020302020300A20202031382E363535332020202D362E3631373420202020302E303030302043202020302020302020302020302020302020302020302020302020302020302020302020300A20202031372E353332342020202D372E3236313220202020302E303030302043202020302020302020302020302020302020302020302020302020302020302020302020300A20202032322E303033352020202D382E3534383720202020302E303030302043202020302020302020302020302020302020302020302020302020302020302020302020300A20202032322E303033352020202D372E3236313220202020302E303030302043202020302020302020302020302020302020302020302020302020302020302020302020300A20202032302E383938382020202D362E3631333220202020302E303030302043202020302020302020302020302020302020302020302020302020302020302020302020300A20202032342E323133332020202D342E3638393820202020302E303030302043202020302020302020302020302020302020302020302020302020302020302020302020300A20202032332E313037382020202D352E3332383020202020302E303030302043202020302020302020302020302020302020302020302020302020302020302020302020300A20202032322E303033352020202D342E3730343620202020302E303030302043202020302020302020302020302020302020302020302020302020302020302020302020300A20202032302E383839372020202D352E3334303920202020302E303030302043202020302020302020302020302020302020302020302020302020302020302020302020300A20202031362E3430353620202D31312E3836353220202020302E303030302048202020302020302020302020302020302020302020302020302020302020302020302020300A20202031392E383733352020202D342E3735333320202020302E303030302043202020302020302020302020302020302020302020302020302020302020302020302020300A20202031392E373734342020202D352E3833313320202020302E303030302043202020302020302020302020302020302020302020302020302020302020302020302020300A20202031362E343035362020202D372E3739323720202020302E303030302043202020302020302020302020302020302020302020302020302020302020302020302020300A20202032342E323133332020202D332E3431333320202020302E30303030204F202020302020302020302020302020302020302020302020302020302020302020302020300A20202032352E333234372020202D352E3331353520202020302E30303030204F202020302020302020302020302020302020302020302020302020302020302020302020300A20202032362E343736352020202D342E3635303520202020302E303030302043202020302020302020302020302020302020302020302020302020302020302020302020300A20202031372E353231322020202D392E3836383720202020302E303030302048202020302020302020302020302020302020302020302020302020302020302020302020300A20202031382E363530312020202D372E3836333920202020302E303030302048202020302020302020302020302020302020302020302020302020302020302020302020300A20202032302E383938342020202D372E3934333220202020302E303030302048202020302020302020302020302020302020302020302020302020302020302020302020300A20202031392E373731322020202D392E3837383620202020302E303030302048202020302020302020302020302020302020302020302020302020302020302020302020300A20202031322E3939393920202D31312E3136343720202020302E30303030204F202020302020302020302020302020302020302020302020302020302020302020302020300A20202031372E3533333420202D31322E3438343020202020302E30303030204F202020302020302020302020302020302020302020302020302020302020302020302020300A20202031392E3830383920202D31312E3136323620202020302E30303030204F202020302020302020302020302020302020302020302020302020302020302020302020300A2020312020322020312020302020302020302020300A2020322020332020312020302020302020302020300A2020332020342020312020302020302020302020300A2020342020352020312020302020302020302020300A2020352020362020312020302020302020302020300A2020312020362020312020302020302020302020300A2020352020372020312020302020302020302020300A2020372020382020312020302020302020302020300A2020382020392020312020302020302020302020300A2020392031302020312020302020302020302020300A2020362031302020312020302020302020302020300A2020392031312020312020302020302020302020300A2031312031322020312020302020302020302020300A2031322031332020312020302020302020302020300A2031332031342020312020302020302020302020300A2031302031342020312020302020302020302020300A2031352031362020312020302020302020302020300A2031362031372020312020302020302020302020300A2031322031372020312020302020302020302020300A2031382031392020312020302020302020302020300A2031392032302020312020302020302020302020300A2032302032312020312020302020302020302020300A2031372032312020312020312020302020302020300A2031312031352020312020302020302020302020300A2020352032322020312020312020302020302020300A2032312032332020312020362020302020302020300A2031322032342020312020312020302020302020300A2020362032352020312020312020302020302020300A2032362031382020322020302020302020302020300A2032372031382020312020302020302020302020300A2032372032382020312020302020302020302020300A2031302032392020312020362020302020302020300A2020392033302020312020312020302020302020300A2031372033312020312020362020302020302020300A2031312033322020312020362020302020302020300A2020332033332020312020312020302020302020300A2020372033342020312020312020302020302020300A2020382033352020312020362020302020302020300A4D2020454E44
Contributor: Takashi Iida, Department of Chemistry, College of Humanities and Sciences, Nihon University. Koichi Metori, Chemical Analytical Center, College of Pharmacy, Nihon Univercity.
InstType: EI
InstName: JEOL JMS-01SG-2
IoniMethod: _POTENTIAL 60 eV
IonPolarity: pos
Date: 2010-10-09 19:48:36+02:00
Num Peaks: 299
51.0 76 52.0 14 53.0 118 54.0 66 55.0 999 56.0 298 57.0 998 58.0 53 59.0 111 60.0 29 
64.0 8 66.0 95 67.0 360 68.0 142 69.0 471 70.0 261 71.0 265 72.0 19 73.0 129 74.0 93 
75.0 29 76.0 111 77.0 238 78.0 44 79.0 287 80.0 62 81.0 533 82.0 120 83.0 290 84.0 80 
85.0 146 86.0 16 87.0 62 88.0 11 89.0 12 91.0 256 92.0 56 93.0 386 94.0 166 95.0 632 
96.0 118 97.0 177 98.0 139 99.0 249 100.0 23 101.0 23 103.0 15 104.0 148 105.0 265 106.0 85 
107.0 311 108.0 143 109.0 246 110.0 80 111.0 117 112.0 70 113.0 71 114.0 14 115.0 96 116.0 22 
117.0 62 118.0 38 119.0 170 120.0 82 121.0 251 122.0 161 123.0 203 124.0 78 125.0 81 126.0 34 
127.0 38 128.0 30 129.0 48 130.0 22 131.0 102 132.0 74 133.0 176 134.0 67 135.0 184 136.0 118 
137.0 122 138.0 49 139.0 56 140.0 30 141.0 100 142.0 33 143.0 63 144.0 27 145.0 121 146.0 51 
147.0 140 148.0 58 149.0 998 150.0 463 151.0 87 152.0 58 153.0 34 154.0 95 155.0 44 156.0 23 
157.0 63 158.0 29 159.0 111 160.0 44 161.0 107 162.0 54 163.0 78 164.0 29 165.0 26 166.0 12 
167.0 371 168.0 104 169.0 43 170.0 21 171.0 63 172.0 27 173.0 81 174.0 41 175.0 91 176.0 41 
177.0 58 178.0 21 179.0 17 180.0 12 181.0 14 183.0 62 184.0 19 185.0 70 186.0 29 187.0 58 
188.0 22 189.0 47 190.0 32 191.0 43 192.0 21 193.0 30 194.0 29 195.0 27 196.0 5 197.0 34 
198.0 14 199.0 73 200.0 22 201.0 93 202.0 27 203.0 48 204.0 32 205.0 26 206.0 11 207.0 21 
208.0 22 209.0 23 210.0 16 211.0 95 212.0 25 213.0 51 214.0 22 215.0 74 216.0 29 217.0 51 
218.0 22 219.0 37 220.0 14 221.0 19 222.0 12 223.0 15 224.0 3 225.0 12 226.0 27 227.0 43 
228.0 15 229.0 126 230.0 40 231.0 82 232.0 45 233.0 113 234.0 33 235.0 16 236.0 8 237.0 11 
239.0 14 240.0 10 241.0 15 242.0 5 243.0 30 244.0 93 245.0 65 246.0 22 247.0 574 248.0 183 
249.0 63 250.0 24 251.0 23 252.0 11 253.0 35 254.0 11 255.0 19 256.0 6 257.0 34 258.0 21 
259.0 17 260.0 15 261.0 97 262.0 589 263.0 138 264.0 30 265.0 411 266.0 70 267.0 14 269.0 22 
270.0 14 271.0 164 272.0 41 273.0 23 274.0 23 275.0 25 276.0 23 277.0 328 278.0 196 279.0 203 
281.0 41 282.0 8 283.0 6 285.0 4 287.0 27 288.0 25 289.0 175 290.0 43 291.0 18 293.0 116 
294.0 26 295.0 11 297.0 4 299.0 15 300.0 11 301.0 10 302.0 25 303.0 19 304.0 6 305.0 22 
306.0 6 307.0 88 308.0 27 310.0 42 311.0 19 312.0 14 313.0 48 315.0 23 316.0 26 317.0 16 
318.0 3 328.0 18 329.0 20 333.0 27 340.0 3 341.0 6 344.0 16 345.0 4 347.0 6 349.0 4 
350.0 3 353.0 36 354.0 26 355.0 33 356.0 15 357.0 24 358.0 13 359.0 6 361.0 6 362.0 17 
363.0 6 364.0 6 368.0 42 369.0 18 370.0 9 371.0 72 372.0 38 373.0 97 374.0 32 375.0 11 
376.0 10 384.0 7 386.0 244 387.0 72 388.0 19 389.0 70 390.0 29 391.0 11 402.0 21 403.0 11 
404.0 847 405.0 241 406.0 39 407.0 7 418.0 6 420.0 14 421.0 5 422.0 35 423.0 10 
