Name: MassBank: NU000042
MW: 406
Formula: C25H42O4
Synonym: MassBank: NU000042
Synonym: 7alpha,12alpha-Dihydroxy-5beta-cholan-24-oic Acid Methyl ester
Structure: 310A37360A20204143442F4C6162733039303830383134303232440A2033342033372020302020302020312020302020302020302020302020302020312056323030300A20202031342E333635352020202D382E3534383720202020302E303030302043202020302020302020302020302020302020302020302020302020302020302020302020300A20202031332E323338392020202D392E3230303120202020302E303030302043202020302020302020302020302020302020302020302020302020302020302020302020300A20202031332E3233383920202D31302E3530303820202020302E303030302043202020302020302020302020302020302020302020302020302020302020302020302020300A20202031342E3336353520202D31312E3135343020202020302E303030302043202020302020302020302020302020302020302020302020302020302020302020302020300A20202031352E3439323220202D31302E3530303820202020302E303030302043202020302020302020302020302020302020302020302020302020302020302020302020300A20202031352E343932322020202D392E3230303120202020302E303030302043202020302020302020302020302020302020302020302020302020302020302020302020300A20202031362E3631393020202D31312E3135343020202020302E303030302043202020302020302020302020302020302020302020302020302020302020302020302020300A20202031372E3734313920202D31302E3530303820202020302E303030302043202020302020302020302020302020302020302020302020302020302020302020302020300A20202031372E373339302020202D392E3139333920202020302E303030302043202020302020302020302020302020302020302020302020302020302020302020302020300A20202031362E363039322020202D382E3533383720202020302E303030302043202020302020302020302020302020302020302020302020302020302020302020302020300A20202031382E383538392020202D382E3534383620202020302E303030302043202020302020302020302020302020302020302020302020302020302020302020302020300A20202031382E383631302020202D372E3236313220202020302E303030302043202020302020302020302020302020302020302020302020302020302020302020302020300A20202031372E373431362020202D362E3631363620202020302E303030302043202020302020302020302020302020302020302020302020302020302020302020302020300A20202031362E363139302020202D372E3236313220202020302E303030302043202020302020302020302020302020302020302020302020302020302020302020302020300A20202032312E303930312020202D382E3534383720202020302E303030302043202020302020302020302020302020302020302020302020302020302020302020302020300A20202032312E303930312020202D372E3236313220202020302E303030302043202020302020302020302020302020302020302020302020302020302020302020302020300A20202031392E393835342020202D362E3631333220202020302E303030302043202020302020302020302020302020302020302020302020302020302020302020302020300A20202032332E323939392020202D342E3638393820202020302E303030302043202020302020302020302020302020302020302020302020302020302020302020302020300A20202032322E313934342020202D352E3332383020202020302E303030302043202020302020302020302020302020302020302020302020302020302020302020302020300A20202032312E303930312020202D342E3730343620202020302E303030302043202020302020302020302020302020302020302020302020302020302020302020302020300A20202031392E393736332020202D352E3334303920202020302E303030302043202020302020302020302020302020302020302020302020302020302020302020302020300A20202031352E3439323220202D31312E3836353220202020302E303030302048202020302020302020302020302020302020302020302020302020302020302020302020300A20202031382E393630312020202D342E3735333320202020302E303030302043202020302020302020302020302020302020302020302020302020302020302020302020300A20202031382E383631302020202D352E3833313320202020302E303030302043202020302020302020302020302020302020302020302020302020302020302020302020300A20202031352E343932322020202D372E3739323720202020302E303030302043202020302020302020302020302020302020302020302020302020302020302020302020300A20202032332E323939392020202D332E3431333320202020302E30303030204F202020302020302020302020302020302020302020302020302020302020302020302020300A20202032342E343131332020202D352E3331353520202020302E30303030204F202020302020302020302020302020302020302020302020302020302020302020302020300A20202032352E353633312020202D342E3635303520202020302E303030302043202020302020302020302020302020302020302020302020302020302020302020302020300A20202031362E363037382020202D392E3836383720202020302E303030302048202020302020302020302020302020302020302020302020302020302020302020302020300A20202031372E373336372020202D372E3836333920202020302E303030302048202020302020302020302020302020302020302020302020302020302020302020302020300A20202031392E393835302020202D372E3934333220202020302E303030302048202020302020302020302020302020302020302020302020302020302020302020302020300A20202031382E383537382020202D392E3837383620202020302E303030302048202020302020302020302020302020302020302020302020302020302020302020302020300A20202031382E3839353520202D31312E3136323620202020302E30303030204F202020302020302020302020302020302020302020302020302020302020302020302020300A20202031372E333938342020202D352E3333313720202020302E30303030204F202020302020302020302020302020302020302020302020302020302020302020302020300A2020312020322020312020302020302020302020300A2020322020332020312020302020302020302020300A2020332020342020312020302020302020302020300A2020342020352020312020302020302020302020300A2020352020362020312020302020302020302020300A2020312020362020312020302020302020302020300A2020352020372020312020302020302020302020300A2020372020382020312020302020302020302020300A2020382020392020312020302020302020302020300A2020392031302020312020302020302020302020300A2020362031302020312020302020302020302020300A2020392031312020312020302020302020302020300A2031312031322020312020302020302020302020300A2031322031332020312020302020302020302020300A2031332031342020312020302020302020302020300A2031302031342020312020302020302020302020300A2031352031362020312020302020302020302020300A2031362031372020312020302020302020302020300A2031322031372020312020302020302020302020300A2031382031392020312020302020302020302020300A2031392032302020312020302020302020302020300A2032302032312020312020302020302020302020300A2031372032312020312020312020302020302020300A2031312031352020312020302020302020302020300A2020352032322020312020312020302020302020300A2032312032332020312020362020302020302020300A2031322032342020312020312020302020302020300A2020362032352020312020312020302020302020300A2032362031382020322020302020302020302020300A2032372031382020312020302020302020302020300A2032372032382020312020302020302020302020300A2031302032392020312020362020302020302020300A2020392033302020312020312020302020302020300A2031372033312020312020362020302020302020300A2031312033322020312020362020302020302020300A2020382033332020312020362020302020302020300A2031332033342020312020362020302020302020300A4D2020454E44
Contributor: Takashi Iida, Department of Chemistry, College of Humanities and Sciences, Nihon University. Koichi Metori, Chemical Analytical Center, College of Pharmacy, Nihon Univercity.
InstType: EI
InstName: JEOL GCmate
IoniMethod: _POTENTIAL 70 eV
IonPolarity: pos
Date: 2010-10-09 19:48:36+02:00
Num Peaks: 270
53.0 27 54.1 10 55.1 251 56.1 19 57.1 38 58.1 19 59.0 35 60.1 4 65.1 12 66.1 7 
67.1 167 68.1 30 69.1 115 70.1 16 71.1 28 72.1 4 73.1 50 74.1 27 77.1 36 78.1 10 
79.1 115 80.1 30 81.1 266 82.1 35 83.1 115 84.1 33 85.1 27 86.1 4 87.1 16 88.1 4 
91.1 101 92.1 24 93.1 159 94.1 54 95.1 259 96.1 56 97.1 59 98.1 13 99.1 26 100.1 6 
101.1 8 103.1 7 104.1 8 105.1 146 106.1 52 107.1 163 108.1 65 109.1 235 110.1 46 111.1 42 
112.1 9 113.1 15 114.1 6 115.1 62 116.1 13 117.1 39 118.1 51 119.1 139 120.1 59 121.1 180 
122.1 56 123.1 79 124.1 24 125.1 23 126.1 5 127.1 11 128.1 11 129.1 24 130.1 14 131.1 75 
132.1 51 133.1 116 134.1 39 135.1 106 136.1 35 137.1 39 138.1 16 139.1 24 140.1 5 141.1 49 
142.1 13 143.1 36 144.1 22 145.1 244 146.1 55 147.1 142 148.1 37 149.1 78 150.1 22 151.1 19 
152.1 7 153.1 10 154.1 77 155.1 30 156.1 11 157.1 38 158.1 15 159.1 133 160.1 30 161.1 71 
162.1 22 163.1 55 164.1 16 165.1 26 166.1 6 167.1 9 168.1 9 169.1 16 170.1 7 171.1 40 
172.1 15 173.1 89 174.1 27 175.1 47 176.1 13 177.1 29 178.1 17 179.1 13 180.1 7 181.1 8 
182.1 3 183.1 12 184.1 5 185.1 40 186.1 13 187.1 69 188.1 18 189.1 30 190.1 9 191.1 17 
192.1 6 193.1 15 194.1 9 195.1 25 196.1 7 197.2 15 198.1 7 199.1 46 200.1 16 201.1 57 
202.2 25 203.2 75 204.2 16 205.1 18 206.1 7 207.1 36 208.1 21 209.1 15 210.1 5 211.1 35 
212.1 10 213.1 82 214.2 26 215.2 63 216.2 55 217.2 57 218.2 15 219.2 14 220.2 8 221.1 11 
222.2 4 223.1 6 224.1 3 225.2 10 226.2 6 227.2 30 228.2 160 229.2 115 230.2 35 231.2 82 
232.2 22 233.2 24 234.2 14 235.2 11 236.2 6 237.2 6 239.2 12 240.2 7 241.2 18 242.2 17 
243.2 12 244.2 5 245.2 16 246.2 16 247.2 27 248.2 13 249.2 49 250.2 15 251.2 9 252.2 3 
253.2 18 254.2 21 255.2 999 256.2 291 257.2 47 258.2 8 259.2 12 260.2 98 261.2 321 262.2 66 
263.2 31 264.2 10 265.2 5 267.2 4 269.2 5 271.2 34 272.2 14 273.2 147 274.2 73 275.2 19 
276.2 5 277.2 10 278.2 5 279.2 5 281.2 8 282.2 4 283.2 64 284.2 24 285.2 8 287.2 5 
289.2 3 291.2 4 292.2 12 293.2 4 295.2 6 296.2 11 297.3 32 298.2 8 299.2 6 300.2 5 
301.2 6 305.2 5 309.3 3 310.2 4 313.3 11 314.2 10 315.3 36 316.2 10 317.2 6 323.2 19 
324.3 5 327.2 10 328.3 8 329.2 5 337.2 3 338.3 5 339.3 6 341.3 12 342.2 4 343.3 6 
344.2 5 345.3 7 355.2 167 356.2 54 357.2 91 358.3 26 359.3 103 360.3 29 361.3 5 368.3 6 
370.2 722 371.3 222 372.3 40 373.2 21 374.3 6 386.3 10 387.3 4 388.3 40 389.3 12 406.3 5 
