Name: MassBank: NU000060
MW: 422
Formula: C25H42O5
Synonym: MassBank: NU000060
Synonym: 3alpha,6alpha,7alpha-Trihydroxy-5beta-cholan-24-oic Acid Methyl ester
Synonym: Hyocholic Acid Methyl ester
Synonym: gamma-Muricholic Acid Methyl ester
Structure: 310A37380A20204143442F4C6162733039313030383132333232440A2033352033382020302020302020312020302020302020302020302020302020312056323030300A20202031342E333635352020202D382E3534383720202020302E303030302043202020302020302020302020302020302020302020302020302020302020302020302020300A20202031332E323338392020202D392E3230303120202020302E303030302043202020302020302020302020302020302020302020302020302020302020302020302020300A20202031332E3233383920202D31302E3530303820202020302E303030302043202020302020302020302020302020302020302020302020302020302020302020302020300A20202031342E3336353520202D31312E3135343020202020302E303030302043202020302020302020302020302020302020302020302020302020302020302020302020300A20202031352E3439323220202D31302E3530303820202020302E303030302043202020302020302020302020302020302020302020302020302020302020302020302020300A20202031352E343932322020202D392E3230303120202020302E303030302043202020302020302020302020302020302020302020302020302020302020302020302020300A20202031362E3631393020202D31312E3135343020202020302E303030302043202020302020302020302020302020302020302020302020302020302020302020302020300A20202031372E3734313920202D31302E3530303820202020302E303030302043202020302020302020302020302020302020302020302020302020302020302020302020300A20202031372E373339302020202D392E3139333920202020302E303030302043202020302020302020302020302020302020302020302020302020302020302020302020300A20202031362E363039322020202D382E3533383720202020302E303030302043202020302020302020302020302020302020302020302020302020302020302020302020300A20202031382E383538392020202D382E3534383620202020302E303030302043202020302020302020302020302020302020302020302020302020302020302020302020300A20202031382E383631302020202D372E3236313220202020302E303030302043202020302020302020302020302020302020302020302020302020302020302020302020300A20202031372E373431392020202D362E3631373420202020302E303030302043202020302020302020302020302020302020302020302020302020302020302020302020300A20202031362E363139302020202D372E3236313220202020302E303030302043202020302020302020302020302020302020302020302020302020302020302020302020300A20202032312E303930312020202D382E3534383720202020302E303030302043202020302020302020302020302020302020302020302020302020302020302020302020300A20202032312E303930312020202D372E3236313220202020302E303030302043202020302020302020302020302020302020302020302020302020302020302020302020300A20202031392E393835342020202D362E3631333220202020302E303030302043202020302020302020302020302020302020302020302020302020302020302020302020300A20202032332E323939392020202D342E3638393820202020302E303030302043202020302020302020302020302020302020302020302020302020302020302020302020300A20202032322E313934342020202D352E3332383020202020302E303030302043202020302020302020302020302020302020302020302020302020302020302020302020300A20202032312E303930312020202D342E3730343620202020302E303030302043202020302020302020302020302020302020302020302020302020302020302020302020300A20202031392E393736332020202D352E3334303920202020302E303030302043202020302020302020302020302020302020302020302020302020302020302020302020300A20202031352E3439323220202D31312E3836353220202020302E303030302048202020302020302020302020302020302020302020302020302020302020302020302020300A20202031382E393630312020202D342E3735333320202020302E303030302043202020302020302020302020302020302020302020302020302020302020302020302020300A20202031382E383631302020202D352E3833313320202020302E303030302043202020302020302020302020302020302020302020302020302020302020302020302020300A20202031352E343932322020202D372E3739323720202020302E303030302043202020302020302020302020302020302020302020302020302020302020302020302020300A20202032332E323939392020202D332E3431333320202020302E30303030204F202020302020302020302020302020302020302020302020302020302020302020302020300A20202032342E343131332020202D352E3331353520202020302E30303030204F202020302020302020302020302020302020302020302020302020302020302020302020300A20202032352E353633312020202D342E3635303520202020302E303030302043202020302020302020302020302020302020302020302020302020302020302020302020300A20202031362E363037382020202D392E3836383720202020302E303030302048202020302020302020302020302020302020302020302020302020302020302020302020300A20202031372E373336372020202D372E3836333920202020302E303030302048202020302020302020302020302020302020302020302020302020302020302020302020300A20202031392E393835302020202D372E3934333220202020302E303030302048202020302020302020302020302020302020302020302020302020302020302020302020300A20202031382E383537382020202D392E3837383620202020302E303030302048202020302020302020302020302020302020302020302020302020302020302020302020300A20202031322E3038363520202D31312E3136343720202020302E30303030204F202020302020302020302020302020302020302020302020302020302020302020302020300A20202031362E3632303020202D31322E3438343020202020302E30303030204F202020302020302020302020302020302020302020302020302020302020302020302020300A20202031382E3839353520202D31312E3136323620202020302E30303030204F202020302020302020302020302020302020302020302020302020302020302020302020300A2020312020322020312020302020302020302020300A2020322020332020312020302020302020302020300A2020332020342020312020302020302020302020300A2020342020352020312020302020302020302020300A2020352020362020312020302020302020302020300A2020312020362020312020302020302020302020300A2020352020372020312020302020302020302020300A2020372020382020312020302020302020302020300A2020382020392020312020302020302020302020300A2020392031302020312020302020302020302020300A2020362031302020312020302020302020302020300A2020392031312020312020302020302020302020300A2031312031322020312020302020302020302020300A2031322031332020312020302020302020302020300A2031332031342020312020302020302020302020300A2031302031342020312020302020302020302020300A2031352031362020312020302020302020302020300A2031362031372020312020302020302020302020300A2031322031372020312020302020302020302020300A2031382031392020312020302020302020302020300A2031392032302020312020302020302020302020300A2032302032312020312020302020302020302020300A2031372032312020312020312020302020302020300A2031312031352020312020302020302020302020300A2020352032322020312020312020302020302020300A2032312032332020312020362020302020302020300A2031322032342020312020312020302020302020300A2020362032352020312020312020302020302020300A2032362031382020322020302020302020302020300A2032372031382020312020302020302020302020300A2032372032382020312020302020302020302020300A2031302032392020312020362020302020302020300A2020392033302020312020312020302020302020300A2031372033312020312020362020302020302020300A2031312033322020312020362020302020302020300A2020332033332020312020362020302020302020300A2020372033342020312020362020302020302020300A2020382033352020312020362020302020302020300A4D2020454E44
Contributor: Takashi Iida, Department of Chemistry, College of Humanities and Sciences, Nihon University. Koichi Metori, Chemical Analytical Center, College of Pharmacy, Nihon Univercity.
InstType: EI
InstName: JEOL JMS-01SG-2
IoniMethod: _POTENTIAL 60 eV
IonPolarity: pos
Date: 2010-10-09 19:48:36+02:00
Num Peaks: 282
51.0 19 53.0 168 54.0 40 55.0 999 56.0 74 57.0 242 58.0 23 59.0 193 60.0 33 66.0 63 
67.0 527 68.0 142 69.0 348 70.0 99 71.0 80 73.0 187 74.0 155 75.0 14 77.0 200 78.0 44 
79.0 449 80.0 100 81.0 720 82.0 140 83.0 279 84.0 49 85.0 105 86.0 21 87.0 77 88.0 17 
91.0 389 92.0 87 93.0 561 94.0 243 95.0 879 96.0 148 97.0 136 98.0 34 99.0 63 101.0 48 
103.0 28 104.0 25 105.0 344 106.0 125 107.0 435 108.0 215 109.0 305 110.0 70 111.0 80 112.0 26 
113.0 29 115.0 121 116.0 28 117.0 88 118.0 50 119.0 252 120.0 114 121.0 274 122.0 106 123.0 184 
124.0 61 125.0 157 126.0 28 127.0 22 128.0 33 129.0 56 130.0 29 131.0 154 132.0 74 133.0 237 
134.0 88 135.0 223 136.0 91 137.0 124 138.0 117 139.0 41 140.0 22 141.0 92 142.0 41 143.0 96 
144.0 41 145.0 183 146.0 85 147.0 200 148.0 110 149.0 146 150.0 94 151.0 58 152.0 17 153.0 21 
154.0 34 155.0 55 156.0 73 157.0 117 158.0 62 159.0 168 160.0 78 161.0 149 162.0 80 163.0 85 
164.0 29 165.0 29 166.0 11 167.0 23 168.0 50 169.0 70 170.0 28 171.0 100 172.0 62 173.0 110 
174.0 63 175.0 128 176.0 48 177.0 69 178.0 23 179.0 19 180.0 33 181.0 17 183.0 45 184.0 26 
185.0 96 186.0 33 187.0 83 188.0 34 189.0 73 190.0 37 191.0 33 192.0 15 193.0 21 194.0 17 
195.0 32 196.0 12 197.0 72 198.0 77 199.0 106 200.0 37 201.0 102 202.0 44 203.0 58 204.0 18 
205.0 22 207.0 18 208.0 32 209.0 37 210.0 19 211.0 213 212.0 61 213.0 105 214.0 41 215.0 110 
216.0 50 217.0 95 217.8 32 219.0 23 221.0 17 222.0 7 225.0 33 226.0 78 227.0 61 228.0 21 
229.0 193 230.0 70 231.0 80 232.0 36 233.0 28 234.0 10 235.0 17 236.8 18 239.0 48 240.0 21 
241.0 29 242.0 15 243.0 56 244.0 129 245.0 70 246.0 21 247.0 87 248.0 51 249.0 56 250.0 35 
251.0 23 252.0 23 253.0 214 254.0 52 255.0 32 256.0 21 257.0 29 258.0 22 259.0 18 260.0 14 
261.0 23 262.0 85 263.0 32 264.0 17 265.0 25 266.0 26 267.0 18 269.0 23 270.0 36 271.0 521 
272.0 117 273.0 30 274.0 21 275.0 22 276.0 15 277.0 18 278.0 26 279.0 32 280.0 236 281.0 76 
282.0 19 283.0 14 287.0 16 288.0 28 289.0 152 290.0 59 291.0 25 292.0 52 293.0 23 295.0 21 
299.0 29 300.0 25 301.0 15 302.0 32 303.0 29 304.0 15 305.0 18 310.0 14 311.0 15 312.0 21 
313.0 116 314.0 79 315.0 39 316.0 21 317.0 11 318.0 7 321.0 15 322.0 3 326.0 4 327.0 43 
328.0 29 329.0 14 330.0 15 331.0 90 332.0 30 337.0 48 338.0 23 339.0 26 340.0 12 341.0 11 
342.0 8 343.0 17 345.0 14 347.0 4 348.0 3 349.0 25 353.0 106 354.0 50 355.0 62 356.0 19 
357.0 22 358.0 23 359.0 22 369.0 212 370.0 52 371.0 44 372.0 102 373.0 33 374.0 40 384.0 10 
386.0 226 387.0 730 388.0 189 389.0 28 392.0 14 402.0 17 404.0 240 405.0 69 406.0 11 420.0 14 
422.0 160 423.0 44 
