Name: 12beta-Hydroxy-5beta-cholan-24-oic Acid Methyl ester
MW: 390
Formula: C25H42O3
Synonym: MassBank: NU000031
Synonym: 12beta-Hydroxy-5beta-cholan-24-oic Acid Methyl ester
Structure: 310A37340A20204143442F4C6162733038323030383130303532440A2033332033362020302020302020312020302020302020302020302020302020312056323030300A20202031342E333635352020202D382E3534383720202020302E303030302043202020302020302020302020302020302020302020302020302020302020302020302020300A20202031332E323338392020202D392E3230303120202020302E303030302043202020302020302020302020302020302020302020302020302020302020302020302020300A20202031332E3233383920202D31302E3530303820202020302E303030302043202020302020302020302020302020302020302020302020302020302020302020302020300A20202031342E3336353520202D31312E3135343020202020302E303030302043202020302020302020302020302020302020302020302020302020302020302020302020300A20202031352E3439323220202D31302E3530303820202020302E303030302043202020302020302020302020302020302020302020302020302020302020302020302020300A20202031352E343932322020202D392E3230303120202020302E303030302043202020302020302020302020302020302020302020302020302020302020302020302020300A20202031362E3631393020202D31312E3135343020202020302E303030302043202020302020302020302020302020302020302020302020302020302020302020302020300A20202031372E3734313920202D31302E3530303820202020302E303030302043202020302020302020302020302020302020302020302020302020302020302020302020300A20202031372E373339302020202D392E3139333920202020302E303030302043202020302020302020302020302020302020302020302020302020302020302020302020300A20202031362E363039322020202D382E3533383720202020302E303030302043202020302020302020302020302020302020302020302020302020302020302020302020300A20202031382E383538392020202D382E3534383620202020302E303030302043202020302020302020302020302020302020302020302020302020302020302020302020300A20202031382E383631302020202D372E3236313220202020302E303030302043202020302020302020302020302020302020302020302020302020302020302020302020300A20202031372E373431362020202D362E3631363620202020302E303030302043202020302020302020302020302020302020302020302020302020302020302020302020300A20202031362E363139302020202D372E3236313220202020302E303030302043202020302020302020302020302020302020302020302020302020302020302020302020300A20202032312E303930312020202D382E3534383720202020302E303030302043202020302020302020302020302020302020302020302020302020302020302020302020300A20202032312E303930312020202D372E3236313220202020302E303030302043202020302020302020302020302020302020302020302020302020302020302020302020300A20202031392E393835342020202D362E3631333220202020302E303030302043202020302020302020302020302020302020302020302020302020302020302020302020300A20202032332E323939392020202D342E3638393820202020302E303030302043202020302020302020302020302020302020302020302020302020302020302020302020300A20202032322E313934342020202D352E3332383020202020302E303030302043202020302020302020302020302020302020302020302020302020302020302020302020300A20202032312E303930312020202D342E3730343620202020302E303030302043202020302020302020302020302020302020302020302020302020302020302020302020300A20202031392E393736332020202D352E3334303920202020302E303030302043202020302020302020302020302020302020302020302020302020302020302020302020300A20202031352E3439323220202D31312E3836353220202020302E303030302048202020302020302020302020302020302020302020302020302020302020302020302020300A20202031382E393630312020202D342E3735333320202020302E303030302043202020302020302020302020302020302020302020302020302020302020302020302020300A20202031382E383631302020202D352E3833313320202020302E303030302043202020302020302020302020302020302020302020302020302020302020302020302020300A20202031352E343932322020202D372E3739323720202020302E303030302043202020302020302020302020302020302020302020302020302020302020302020302020300A20202032332E323939392020202D332E3431333320202020302E30303030204F202020302020302020302020302020302020302020302020302020302020302020302020300A20202032342E343131332020202D352E3331353520202020302E30303030204F202020302020302020302020302020302020302020302020302020302020302020302020300A20202032352E353633312020202D342E3635303520202020302E303030302043202020302020302020302020302020302020302020302020302020302020302020302020300A20202031362E363037382020202D392E3836383720202020302E303030302048202020302020302020302020302020302020302020302020302020302020302020302020300A20202031372E373336372020202D372E3836333920202020302E303030302048202020302020302020302020302020302020302020302020302020302020302020302020300A20202031392E393835302020202D372E3934333220202020302E303030302048202020302020302020302020302020302020302020302020302020302020302020302020300A20202031382E383537382020202D392E3837383620202020302E303030302048202020302020302020302020302020302020302020302020302020302020302020302020300A20202031372E333938332020202D352E3333313720202020302E30303030204F202020302020302020302020302020302020302020302020302020302020302020302020300A2020312020322020312020302020302020302020300A2020322020332020312020302020302020302020300A2020332020342020312020302020302020302020300A2020342020352020312020302020302020302020300A2020352020362020312020302020302020302020300A2020312020362020312020302020302020302020300A2020352020372020312020302020302020302020300A2020372020382020312020302020302020302020300A2020382020392020312020302020302020302020300A2020392031302020312020302020302020302020300A2020362031302020312020302020302020302020300A2020392031312020312020302020302020302020300A2031312031322020312020302020302020302020300A2031322031332020312020302020302020302020300A2031332031342020312020302020302020302020300A2031302031342020312020302020302020302020300A2031352031362020312020302020302020302020300A2031362031372020312020302020302020302020300A2031322031372020312020302020302020302020300A2031382031392020312020302020302020302020300A2031392032302020312020302020302020302020300A2032302032312020312020302020302020302020300A2031372032312020312020312020302020302020300A2031312031352020312020302020302020302020300A2020352032322020312020312020302020302020300A2032312032332020312020362020302020302020300A2031322032342020312020312020302020302020300A2020362032352020312020312020302020302020300A2032362031382020322020302020302020302020300A2032372031382020312020302020302020302020300A2032372032382020312020302020302020302020300A2031302032392020312020362020302020302020300A2020392033302020312020312020302020302020300A2031372033312020312020362020302020302020300A2031312033322020312020362020302020302020300A2031332033332020312020312020302020302020300A4D2020454E44
Contributor: Takashi Iida, Department of Chemistry, College of Humanities and Sciences, Nihon University. Koichi Metori, Chemical Analytical Center, College of Pharmacy, Nihon Univercity.
InstType: EI
InstName: JEOL GCmate
IoniMethod: _POTENTIAL 70 eV
IonPolarity: pos
Date: 2010-10-09 19:48:36+02:00
Num Peaks: 200
53.0 16 54.1 7 55.1 141 56.1 14 57.1 24 58.1 34 59.0 20 60.1 4 65.1 8 66.1 5 
67.1 106 68.1 18 69.1 68 70.1 9 71.1 17 73.1 25 74.1 16 77.1 21 78.1 6 79.1 68 
80.1 18 81.1 194 82.1 27 83.1 71 84.1 28 85.1 14 87.1 14 91.1 53 92.1 13 93.1 94 
94.1 39 95.1 144 96.1 24 97.1 36 98.1 13 99.1 11 100.1 3 101.0 7 103.0 4 104.1 4 
105.1 73 106.1 26 107.1 107 108.1 68 109.1 150 110.1 25 111.1 23 112.1 10 113.1 6 114.1 3 
115.1 35 116.1 8 117.1 14 118.1 6 119.1 55 120.1 33 121.1 114 122.1 45 123.1 54 124.1 19 
125.1 17 126.1 5 127.1 4 128.1 6 129.1 13 130.1 5 131.1 20 132.1 8 133.1 49 134.1 24 
135.1 87 136.1 17 137.1 25 138.1 8 139.1 8 141.1 8 142.1 4 143.1 8 144.1 4 145.1 25 
146.1 11 147.1 95 148.1 43 149.1 144 150.1 24 151.1 17 152.1 4 153.1 6 154.1 79 155.1 15 
156.1 4 157.1 7 158.1 4 159.1 21 160.1 9 161.1 90 162.1 28 163.1 62 164.1 13 165.1 10 
167.1 5 168.1 11 169.1 4 171.1 7 173.1 16 174.1 6 175.1 48 176.1 21 177.1 21 178.1 5 
179.1 5 181.1 4 185.1 5 187.1 20 188.1 7 189.2 58 190.2 13 191.1 10 192.1 4 193.1 26 
194.1 11 195.1 45 196.1 10 197.1 4 199.1 6 201.1 28 202.1 20 203.2 73 204.2 19 205.2 15 
206.2 4 207.1 4 208.1 64 209.1 16 211.1 3 213.1 5 215.2 55 216.2 29 217.2 45 218.2 22 
219.2 13 220.2 4 221.1 10 222.1 3 227.2 3 229.2 18 230.2 23 231.2 19 232.2 6 233.2 70 
234.2 23 235.2 6 237.2 4 241.2 4 243.2 15 244.2 12 245.2 6 246.2 3 247.2 6 248.2 3 
249.2 6 255.2 10 256.2 61 257.2 999 258.2 227 259.2 29 260.2 4 261.2 5 262.2 11 263.2 13 
264.2 4 265.2 3 273.2 4 275.2 19 276.2 7 277.2 4 283.2 4 285.2 15 286.2 5 287.2 3 
299.3 4 301.2 3 305.2 3 315.2 6 316.2 3 323.2 3 325.2 4 341.3 7 343.3 7 357.2 47 
358.2 15 359.2 27 360.2 8 372.3 103 373.3 30 374.3 7 375.3 5 388.3 11 389.3 4 390.3 3 
