Name: Octacosanoic acid
CAS: 506-48-9
MW: 424
Formula: C28H56O2
Synonym: CID: 10470
Synonym: MassBank: OUF00400
Synonym: Octacosanoic acid
Structure: 35303634382D35332D382E6D6F6C0A20204368656D447261773038303331303139343832440A2033302032392020302020302020302020302020302020302020302020303939392056323030300A2020202D322E383634352020202D302E3533323720202020302E303030302043202020302020302020302020302020302020302020302020302020302020302020302020300A2020202D322E313335362020202D302E3130383220202020302E303030302043202020302020302020302020302020302020302020302020302020302020302020302020300A2020202D332E353737372020202D302E3133323120202020302E303030302043202020302020302020302020302020302020302020302020302020302020302020302020300A2020202D312E343330332020202D302E3533323720202020302E303030302043202020302020302020302020302020302020302020302020302020302020302020302020300A2020202D342E323833302020202D302E3534383820202020302E303030302043202020302020302020302020302020302020302020302020302020302020302020302020300A2020202D302E373137312020202D302E3130383220202020302E303030302043202020302020302020302020302020302020302020302020302020302020302020302020300A2020202D352E303132322020202D302E3134383120202020302E303030302043202020302020302020302020302020302020302020302020302020302020302020302020300A2020202D302E303132312020202D302E3530383820202020302E303030302043202020302020302020302020302020302020302020302020302020302020302020302020300A2020202D352E373431342020202D302E3537323920202020302E303030302043202020302020302020302020302020302020302020302020302020302020302020302020300A20202020302E373031312020202D302E3039323120202020302E303030302043202020302020302020302020302020302020302020302020302020302020302020302020300A2020202D362E343534352020202D302E3136343220202020302E303030302043202020302020302020302020302020302020302020302020302020302020302020302020300A20202020312E343232342020202D302E3439323820202020302E303030302043202020302020302020302020302020302020302020302020302020302020302020302020300A2020202D372E313637372020202D302E3537323920202020302E303030302043202020302020302020302020302020302020302020302020302020302020302020302020300A20202020322E313335362020202D302E3039323120202020302E303030302043202020302020302020302020302020302020302020302020302020302020302020302020300A2020202D372E383732372020202D302E3136343220202020302E303030302043202020302020302020302020302020302020302020302020302020302020302020302020300A20202020322E383438372020202D302E3439323820202020302E303030302043202020302020302020302020302020302020302020302020302020302020302020302020300A2020202D382E363031392020202D302E3537323920202020302E303030302043202020302020302020302020302020302020302020302020302020302020302020302020300A20202020332E353737392020202D302E3039323120202020302E303030302043202020302020302020302020302020302020302020302020302020302020302020302020300A2020202D392E333331312020202D302E3138383320202020302E303030302043202020302020302020302020302020302020302020302020302020302020302020302020300A20202020342E323833302020202D302E3437363720202020302E303030302043202020302020302020302020302020302020302020302020302020302020302020302020300A20202D31302E303434332020202D302E3630353020202020302E30303030204F202020302020302020302020302020302020302020302020302020302020302020302020300A2020202D392E3333313120202020302E3630353020202020302E30303030204F202020302020302020302020302020302020302020302020302020302020302020302020300A20202020342E393838322020202D302E3037363120202020302E303030302043202020302020302020302020302020302020302020302020302020302020302020302020300A20202020352E373235332020202D302E3435323820202020302E303030302043202020302020302020302020302020302020302020302020302020302020302020302020300A20202020362E343338352020202D302E3035313920202020302E303030302043202020302020302020302020302020302020302020302020302020302020302020302020300A20202020372E313539362020202D302E3435323820202020302E303030302043202020302020302020302020302020302020302020302020302020302020302020302020300A20202020372E383732372020202D302E3033353920202020302E303030302043202020302020302020302020302020302020302020302020302020302020302020302020300A20202020382E363031392020202D302E3435323820202020302E303030302043202020302020302020302020302020302020302020302020302020302020302020302020300A20202020392E333135312020202D302E3033353920202020302E303030302043202020302020302020302020302020302020302020302020302020302020302020302020300A20202031302E303434332020202D302E3433363820202020302E303030302043202020302020302020302020302020302020302020302020302020302020302020302020300A2020312020322020312020302020202020200A2020312020332020312020302020202020200A2020322020342020312020302020202020200A2020332020352020312020302020202020200A2020342020362020312020302020202020200A2020352020372020312020302020202020200A2020362020382020312020302020202020200A2020372020392020312020302020202020200A2020382031302020312020302020202020200A2020392031312020312020302020202020200A2031302031322020312020302020202020200A2031312031332020312020302020202020200A2031322031342020312020302020202020200A2031332031352020312020302020202020200A2031342031362020312020302020202020200A2031352031372020312020302020202020200A2031362031382020312020302020202020200A2031372031392020312020302020202020200A2031382032302020312020302020202020200A2031392032312020312020302020202020200A2031392032322020322020302020202020200A2032302032332020312020302020202020200A2032332032342020312020302020202020200A2032342032352020312020302020202020200A2032352032362020312020302020202020200A2032362032372020312020302020202020200A2032372032382020312020302020202020200A2032382032392020312020302020202020200A2032392033302020312020302020202020200A4D2020454E44
Contributor: Tsuzimoto Y, Tsugawa H, Bamba T, Fukusaki E, engineering department, Osaka Univ.
InstType: EI
InstName: Pegasus II TOF-MS system, Leco; GC 6890, Agilent Technologies
IoniMethod: EI
IonPolarity: pos
Date: 2010-10-09 19:48:36+02:00
Num Peaks: 165
85 93 86 15 87 12 88 6 89 38 90 6 91 15 92 3 93 26 94 6 
95 90 96 21 97 127 98 79 99 37 100 5 101 14 102 4 103 7 104 1 
105 26 106 2 107 17 108 2 109 39 110 8 111 63 112 24 113 12 114 2 
115 12 116 61 117 999 118 106 119 46 120 2 121 22 122 3 123 17 124 5 
125 20 126 6 127 11 128 6 129 518 130 72 131 128 132 586 133 209 134 43 
135 25 136 3 137 8 138 2 139 7 140 4 141 6 142 4 143 57 144 7 
145 441 146 61 147 23 148 2 149 8 150 1 151 2 152 1 153 4 154 8 
155 5 156 1 157 11 158 2 159 35 160 5 161 1 163 3 165 1 167 3 
168 2 169 2 171 27 172 4 173 8 174 9 175 1 177 1 181 1 185 48 
186 11 187 34 188 16 189 3 191 1 196 1 197 1 199 8 200 1 201 91 
202 18 203 5 213 5 215 7 216 1 227 10 228 1 229 4 230 1 241 7 
242 2 243 11 244 4 255 5 256 1 257 13 258 2 269 4 270 1 271 2 
283 5 284 1 285 2 297 4 298 1 299 2 300 1 311 2 312 1 313 2 
325 2 326 1 327 1 339 1 340 1 341 1 355 1 363 1 367 1 369 1 
382 1 397 2 398 1 411 1 425 1 437 5 438 6 439 3 440 1 453 5 
454 4 455 4 456 1 479 2 480 19 481 71 482 56 483 21 484 4 485 1 
495 5 496 36 497 33 498 13 499 2 
