Name: Nonanoic acid(C9)
CAS: 112-05-0
MW: 158
Formula: C9H18O2
Synonym: KEGG: C01601
Synonym: CID: 8158
Synonym: MassBank: OUF00392
Synonym: Nonanoic acid(C9)
Structure: 310A32360A3C4341535F49443E203131322D30352D30093C4B4547475F49443E20433031363031093C4E414D453E204E6F6E616E6F69632061636964093C464F524D554C413E2043394831384F32093C45584143544D4153533E203135382E3133303637393831393939393938093C415645524147454D4153533E203135382E3233383032093C534D494C45533E20434343434343434343284F293D4F093C434F505952494748543E2041524D2050524F4A45435420687474703A2F2F7777772E6D657461626F6C6F6D652E6A702F0A2031312031302020302020302020302020302020302020302020302020303939392056323030300A20202020322E383636302020202D322E3530303020202020302E303030302043202020302020302020302020302020302020302020302020302020302020302020302020300A20202020332E373332312020202D322E3030303020202020302E303030302043202020302020302020302020322020302020302020302020302020302020302020302020300A20202020332E373332312020202D312E3030303020202020302E303030302043202020302020302020302020322020302020302020302020302020302020302020302020300A20202020342E353938312020202D302E3530303020202020302E303030302043202020302020302020302020322020302020302020302020302020302020302020302020300A20202020342E3539383120202020302E3530303020202020302E303030302043202020302020302020302020322020302020302020302020302020302020302020302020300A20202020352E3436343120202020312E3030303020202020302E303030302043202020302020302020302020322020302020302020302020302020302020302020302020300A20202020352E3436343120202020322E3030303020202020302E303030302043202020302020302020302020322020302020302020302020302020302020302020302020300A20202020362E3333303120202020322E3530303020202020302E303030302043202020302020302020302020322020302020302020302020302020302020302020302020300A20202020362E3333303120202020332E3530303020202020302E303030302043202020302020302020302020332020302020302020302020302020302020302020302020300A20202020322E303030302020202D322E3030303020202020302E30303030204F202020302020302020302020312020302020302020302020302020302020302020302020300A20202020322E383636302020202D332E3530303020202020302E30303030204F202020302020302020302020302020302020302020302020302020302020302020302020300A2020392020382020312020302020302020302020300A2020382020372020312020302020302020302020300A2020372020362020312020302020302020302020300A2020362020352020312020302020302020302020300A2020352020342020312020302020302020302020300A2020342020332020312020302020302020302020300A2020332020322020312020302020302020302020300A2020312031302020312020302020302020302020300A2020312031312020322020302020302020302020300A2020322020312020312020302020302020302020300A4D2020454E44
Contributor: Tsuzimoto Y, Tsugawa H, Bamba T, Fukusaki E, engineering department, Osaka Univ.
InstType: EI
InstName: Pegasus II TOF-MS system, Leco; GC 6890, Agilent Technologies
IoniMethod: EI
IonPolarity: pos
Date: 2010-10-09 19:48:36+02:00
Num Peaks: 72
85 29 86 23 87 14 88 16 89 30 90 4 91 10 93 12 94 3 95 12 
96 10 97 27 98 29 99 34 100 4 101 36 102 5 103 5 105 56 106 2 
107 3 111 15 112 13 113 3 114 1 115 14 116 68 117 999 118 96 119 44 
121 5 123 2 124 2 125 1 128 2 129 401 130 54 131 274 132 330 133 52 
134 14 139 5 140 3 141 5 143 35 144 3 145 121 146 17 147 5 157 12 
159 22 160 1 171 33 172 2 173 3 185 10 187 25 188 4 201 18 215 449 
216 80 217 27 218 1 230 10 231 1 254 2 256 1 273 1 311 2 458 1 
476 1 498 1 
