Name: D-Tagatose
CAS: 87-81-0
MW: 180
Formula: C6H12O6
Synonym: CID: 92092
Synonym: MassBank: OUF00218
Synonym: D-Tagatose
Structure: 310A32380A20204143442F4C6162733039333031303039323432440A2031322031312020302020302020312020302020302020302020302020302020312056323030300A20202020372E3533363720202D31302E3732323120202020302E303030302043202020302020302020302020302020302020302020302020302020302020302020302020300A20202020382E3638383520202D31312E3338373120202020302E303030302043202020302020302020302020302020302020302020302020302020302020302020302020300A20202020392E3834303320202D31302E3732323120202020302E303030302043202020302020302020302020302020302020302020302020302020302020302020302020300A20202031302E3939323120202D31312E3338373120202020302E303030302043202020302020302020302020302020302020302020302020302020302020302020302020300A20202031322E3134333920202D31302E3732323120202020302E303030302043202020302020302020302020302020302020302020302020302020302020302020302020300A20202031332E3239353720202D31312E3338373120202020302E303030302043202020302020302020302020302020302020302020302020302020302020302020302020300A20202020362E3338343920202D31312E3338373120202020302E30303030204F202020302020302020302020302020302020302020302020302020302020302020302020300A20202031342E3434373620202D31302E3732323120202020302E30303030204F202020302020302020302020302020302020302020302020302020302020302020302020300A20202031302E3939323120202D31322E3731373120202020302E30303030204F202020302020302020302020302020302020302020302020302020302020302020302020300A20202020382E3638383520202D31322E3731373120202020302E30303030204F202020302020302020302020302020302020302020302020302020302020302020302020300A20202020392E383430332020202D392E3339323120202020302E30303030204F202020302020302020302020302020302020302020302020302020302020302020302020300A20202031322E313433392020202D392E3339323120202020302E30303030204F202020302020302020302020302020302020302020302020302020302020302020302020300A2020322020312020312020302020302020302020300A2020332020322020312020302020302020302020300A2020342020332020312020302020302020302020300A2020352020342020312020302020302020302020300A2020362020352020312020302020302020302020300A2020312020372020312020302020302020302020300A2020362020382020312020302020302020302020300A2020342020392020312020312020302020302020300A2020322031302020312020362020302020302020300A2020332031312020312020362020302020302020300A2020352031322020322020302020302020302020300A4D2020454E44
Contributor: Tsuzimoto Y, Tsugawa H, Bamba T, Fukusaki E, engineering department, Osaka Univ.
InstType: EI
InstName: Pegasus II TOF-MS system, Leco; GC 6890, Agilent Technologies
IoniMethod: EI
IonPolarity: pos
Date: 2010-10-09 19:48:36+02:00
Num Peaks: 169
85 13 86 6 87 18 88 16 89 140 90 14 91 7 92 1 94 1 96 1 
97 1 98 5 99 11 100 27 101 40 102 14 103 999 104 100 105 50 106 3 
110 1 111 3 112 2 113 12 114 38 115 20 116 14 117 153 118 19 119 22 
120 2 121 1 126 8 127 6 128 9 129 97 130 18 131 52 132 10 133 171 
134 23 135 13 136 1 140 2 141 2 142 12 143 19 144 5 145 12 146 3 
147 394 148 65 149 43 150 5 151 3 152 1 153 1 154 2 155 1 156 5 
157 17 158 8 159 7 160 2 161 3 162 1 163 17 164 2 165 1 168 2 
169 1 170 2 171 1 172 27 173 38 174 9 175 16 176 3 177 9 178 1 
179 1 180 2 186 4 187 3 188 7 189 88 190 21 191 43 192 8 193 4 
198 2 200 4 201 19 202 13 203 10 204 31 205 44 206 10 207 11 208 2 
214 9 215 3 216 16 217 540 218 116 219 55 220 8 221 14 222 3 223 1 
228 1 229 2 230 5 231 14 232 5 233 2 235 2 240 2 242 2 243 2 
244 10 245 4 246 2 247 5 248 1 254 1 256 7 257 2 258 1 260 5 
261 2 262 5 263 13 264 3 265 2 268 1 270 1 272 1 274 2 275 4 
276 5 277 36 278 16 279 8 280 1 288 2 291 5 292 1 293 1 302 1 
303 1 305 2 306 3 307 151 308 53 309 25 310 6 311 1 318 1 319 2 
332 1 333 2 334 4 335 10 336 4 337 1 364 19 365 9 366 3 
