Name: trans-Chalcone
CAS: 614-47-1
MW: 281
Formula: C11H15N5O4
Synonym: MassBank: OUF00475
Synonym: trans-Chalcone
Structure: 32302032312020302020302020302020302020302020302020302020302020312056323030300A20202D31392E3030303020202020352E3030303020202020302E303030302043202020302020302020302020302020302020302020302020302020302020300A20202D31392E3030303020202032352E3030303020202020302E303030302043202020302020302020302020302020302020302020302020302020302020300A20202D33372E303030302020202D352E3030303020202020302E30303030204E202020302020302020302020302020302020302020302020302020302020300A20202020302E303030302020202D312E3030303020202020302E30303030204E202020302020302020302020302020302020302020302020302020302020300A20202D33372E3030303020202033352E3030303020202020302E303030302043202020302020302020302020302020302020302020302020302020302020300A20202020302E3030303020202033312E3030303020202020302E30303030204E202020302020302020302020302020302020302020302020302020302020300A20202D35342E3030303020202020352E3030303020202020302E303030302043202020302020302020302020302020302020302020302020302020302020300A20202D33372E3030303020202D32352E3030303020202020302E303030302043202020302020302020302020302020302020302020302020302020302020300A20202031312E3030303020202031352E3030303020202020302E303030302043202020302020302020302020302020302020302020302020302020302020300A20202D33372E3030303020202035352E3030303020202020302E30303030204F202020302020302020302020302020302020302020302020302020302020300A20202D35342E3030303020202032352E3030303020202020302E30303030204E202020302020302020302020302020302020302020302020302020302020300A20202020362E3030303020202035302E3030303020202020302E303030302043202020302020302020302020302020302020302020302020302020302020300A20202D37312E3030303020202033352E3030303020202020302E303030302043202020302020302020302020302020302020302020302020302020302020300A20202D37312E303030302020202D352E3030303020202020302E30303030204F202020302020302020302020302020302020302020302020302020302020300A20202033312E3030303020202031352E3030303020202020302E303030302043202020302020302020302020302020302020302020302020302020302020300A20202034312E3030303020202033332E3030303020202020302E303030302043202020302020302020302020302020302020302020302020302020302020300A20202036312E3030303020202033332E3030303020202020302E303030302043202020302020302020302020302020302020302020302020302020302020300A20202033312E3030303020202035302E3030303020202020302E30303030204E202020302020302020302020302020302020302020302020302020302020300A20202037312E3030303020202035302E3030303020202020302E30303030204F202020302020302020302020302020302020302020302020302020302020300A20202037312E3030303020202031352E3030303020202020302E30303030204F202020302020302020302020302020302020302020302020302020302020300A2020312020322020322020302020302020302020300A2020312020332020312020302020302020302020300A2020312020342020312020302020302020302020300A2020322020352020312020302020302020302020300A2020322020362020312020302020302020302020300A2020332020372020312020302020302020302020300A2020332020382020312020302020302020302020300A2020342020392020322020302020302020302020300A2020352031302020322020302020302020302020300A2020352031312020312020302020302020302020300A2020362031322020312020302020302020302020300A2020362020392020312020302020302020302020300A2020372031342020322020302020302020302020300A2020372031312020312020302020302020302020300A2020392031352020312020302020302020302020300A2031312031332020312020302020302020302020300A2031352031362020312020302020302020302020300A2031362031372020312020302020302020302020300A2031362031382020312020302020302020302020300A2031372031392020322020302020302020302020300A2031372032302020312020302020302020302020300A4D2020454E44
Contributor: Tsuzimoto Y, Tsugawa H, Bamba T, Fukusaki E, engineering department, Osaka Univ.
InstType: EI
InstName: Pegasus II TOF-MS system, Leco; GC 6890, Agilent Technologies
IoniMethod: EI
IonPolarity: pos
Date: 2010-10-09 19:48:36+02:00
Num Peaks: 74
85 2 86 15 87 27 88 38 89 204 90 61 91 9 94 1 95 1 98 16 
99 5 101 32 102 266 103 715 104 89 105 612 106 55 107 1 111 1 113 6 
115 20 116 2 125 2 126 7 127 3 128 7 129 6 130 213 131 574 132 59 
133 2 137 1 139 12 150 13 151 23 152 52 153 13 154 2 156 1 162 2 
163 8 164 8 165 145 166 21 167 2 175 2 176 38 177 31 178 170 179 266 
180 81 181 12 182 1 189 14 190 5 191 15 192 6 193 10 194 3 205 9 
206 13 207 999 208 732 209 119 210 13 260 1 263 1 301 1 334 1 360 1 
388 1 426 1 443 1 478 1 
