Name: Inosine
CAS: 58-63-9
MW: 268
Formula: C10H12N4O5
Synonym: CID: 804
Synonym: MassBank: OUF00281
Synonym: Inosine
Structure: 4330303031393639322E6364780A20204368656D447261773132323930383230303632440A2031392032312020302020302020302020302020302020302020302020303939392056323030300A20202020302E3132353720202020302E3532333320202020302E303030302043202020302020302020302020302020302020302020302020302020302020302020302020300A2020202D302E313139392020202D302E3236343320202020302E30303030204E202020302020302020302020302020302020302020302020302020302020302020302020300A20202020302E353533332020202D302E3734313220202020302E303030302043202020302020302020302020302020302020302020302020302020302020302020302020300A20202020312E323134392020202D302E3234383420202020302E30303030204E202020302020302020302020302020302020302020302020302020302020302020302020300A20202020302E3935303720202020302E3533333220202020302E303030302043202020302020302020302020302020302020302020302020302020302020302020302020300A20202020312E3335343620202020312E3235323520202020302E303030302043202020302020302020302020302020302020302020302020302020302020302020302020300A20202020302E3933333620202020312E3936323020202020302E30303030204E202020302020302020302020302020302020302020302020302020302020302020302020300A20202020302E3130383720202020312E3936323020202020302E303030302043202020302020302020302020302020302020302020302020302020302020302020302020300A2020202D302E3239353320202020312E3235323520202020302E30303030204E202020302020302020302020302020302020302020302020302020302020302020302020300A20202020322E3137383220202020312E3236323320202020302E30303030204F202020302020302020302020302020302020302020302020302020302020302020302020300A2020202D302E343433362020202D312E3437323320202020302E303030302043202020302020302020302020302020302020302020302020302020302020302020302020300A2020202D312E343337312020202D312E3437323320202020302E303030302043202020302020302020302020302020302020302020302020302020302020302020302020300A2020202D312E373434302020202D312E3137303220202020302E303030302043202020302020302020302020302020302020302020302020302020302020302020302020300A2020202D302E393339312020202D302E3938343020202020302E30303030204F202020302020302020302020302020302020302020302020302020302020302020302020300A2020202D302E313335342020202D312E3137303220202020302E303030302043202020302020302020302020302020302020302020302020302020302020302020302020300A2020202D312E373434302020202D302E3534353420202020302E303030302043202020302020302020302020302020302020302020302020302020302020302020302020300A2020202D322E313738322020202D302E3239343720202020302E30303030204F202020302020302020302020302020302020302020302020302020302020302020302020300A2020202D312E343337312020202D312E3936323020202020302E30303030204F202020302020302020302020302020302020302020302020302020302020302020302020300A2020202D302E343433362020202D312E3931363420202020302E30303030204F202020302020302020302020302020302020302020302020302020302020302020302020300A2020312020322020312020302020202020200A2020322020332020312020302020202020200A2020332020342020322020302020202020200A2020342020352020312020302020202020200A2020352020312020322020302020202020200A2020352020362020312020302020202020200A2020362020372020322020302020202020200A2020372020382020312020302020202020200A2020382020392020322020302020202020200A2020392020312020312020302020202020200A2020362031302020312020302020202020200A2031312031322020312020312020202020200A2031332031322020312020312020202020200A2031332031342020312020302020202020200A2031342031352020312020302020202020200A2031352031312020312020312020202020200A2031352020322020312020302020202020200A2031332031362020312020302020202020200A2031362031372020312020302020202020200A2031322031382020312020302020202020200A2031312031392020312020302020202020200A4D2020454E44
Contributor: Tsuzimoto Y, Tsugawa H, Bamba T, Fukusaki E, engineering department, Osaka Univ.
InstType: EI
InstName: Pegasus II TOF-MS system, Leco; GC 6890, Agilent Technologies
IoniMethod: EI
IonPolarity: pos
Date: 2010-10-09 19:48:36+02:00
Num Peaks: 267
85 76 86 32 87 38 88 20 89 84 90 10 91 7 92 8 93 15 94 7 
95 22 96 9 97 61 98 24 99 75 100 44 101 147 102 32 103 856 104 87 
105 50 106 7 107 7 108 2 109 8 110 60 111 88 112 19 113 76 114 20 
115 134 116 86 117 189 118 27 119 51 120 11 121 7 122 6 123 16 124 18 
125 27 126 21 127 40 128 12 129 276 130 44 131 142 132 32 133 254 134 54 
135 36 136 9 137 10 138 55 139 21 140 21 141 36 142 40 143 147 144 31 
145 65 146 21 147 707 148 115 149 107 150 27 151 15 152 13 153 32 154 7 
155 20 156 21 157 53 158 24 159 13 160 6 161 8 162 15 163 31 164 16 
165 21 166 73 167 24 168 15 169 168 170 32 171 35 172 12 173 15 174 4 
175 12 176 6 177 33 178 13 179 15 180 18 181 15 182 9 183 6 184 4 
185 6 186 4 187 8 188 4 189 65 190 16 191 47 192 29 193 501 194 84 
195 29 196 5 197 4 198 1 199 3 201 8 202 2 203 13 204 28 205 27 
206 29 207 136 208 62 209 212 210 43 211 14 212 4 213 1 214 1 215 44 
216 14 217 999 218 213 219 117 220 22 221 29 222 12 223 7 224 3 225 1 
229 27 230 808 231 207 232 89 233 26 234 6 235 18 236 9 237 309 238 59 
239 21 240 6 241 4 243 225 244 59 245 529 246 123 247 61 248 16 249 9 
250 4 251 5 252 5 254 1 257 26 258 60 259 306 260 75 261 35 262 5 
263 5 264 5 265 69 266 27 267 22 268 5 269 1 271 1 275 2 276 2 
277 3 278 3 279 28 280 124 281 381 282 106 283 45 284 7 285 1 287 2 
291 7 292 2 293 5 294 6 295 5 296 3 297 1 303 1 304 1 305 2 
306 6 307 79 308 27 309 32 310 11 311 6 313 1 319 5 320 12 321 9 
322 11 323 59 324 22 325 6 326 1 331 1 333 5 334 3 335 29 336 10 
337 4 338 12 339 15 340 3 341 1 347 11 348 53 349 22 350 10 351 3 
352 1 353 1 354 1 355 1 361 3 363 14 364 4 365 1 375 2 376 7 
377 6 378 3 379 2 380 1 393 1 394 3 395 24 396 12 397 6 399 1 
407 1 408 1 424 2 425 1 437 2 441 1 444 1 451 3 452 4 453 15 
454 6 455 2 465 1 466 6 467 3 468 1 469 1 
