Name: Ribitol
CAS: 488-81-3
MW: 152
Formula: C5H12O5
Synonym: MassBank: OUF00446
Synonym: Ribitol
Structure: 4330303030313137312E6364780A20204368656D447261773132323630383139313332440A2031332031322020302020302020302020302020302020302020302020303939392056323030300A2020202D302E3938323020202020302E3137373820202020302E303030302043202020302020302020302020302020302020302020302020302020302020302020302020300A2020202D302E323630312020202D302E3131313020202020302E303030302043202020302020302020302020302020302020302020302020302020302020302020302020300A20202020302E3438323420202020302E3137373820202020302E303030302043202020302020302020302020302020302020302020302020302020302020302020302020300A20202020302E303836342020202D302E3731313220202020302E30303030204F202020302020302020302020302020302020302020302020302020302020302020302020300A2020202D302E3639313420202020302E3638313120202020302E30303030204F202020302020302020302020302020302020302020302020302020302020302020302020300A2020202D312E3337343020202020302E3835363720202020302E303030302048202020302020302020302020302020302020302020302020302020302020302020302020300A20202020302E3332303820202020302E3738303720202020302E303030302048202020302020302020302020302020302020302020302020302020302020302020302020300A20202020302E3838303320202020302E3836373020202020302E30303030204F202020302020302020302020302020302020302020302020302020302020302020302020300A2020202D302E343632372020202D302E3836373020202020302E303030302048202020302020302020302020302020302020302020302020302020302020302020302020300A20202020302E393537382020202D302E3032383520202020302E303030302043202020302020302020302020302020302020302020302020302020302020302020302020300A20202020312E363732322020202D302E3434313020202020302E30303030204F202020302020302020302020302020302020302020302020302020302020302020302020300A2020202D312E3637323220202020302E3336353720202020302E303030302043202020302020302020302020302020302020302020302020302020302020302020302020300A2020202D302E393537382020202D302E3034363820202020302E30303030204F202020302020302020302020302020302020302020302020302020302020302020302020300A2020312020322020312020302020202020200A2020322020332020312020302020202020200A2020322020342020312020312020202020200A2020312020352020312020362020202020200A2020312020362020312020312020202020200A2020332020372020312020312020202020200A2020332020382020312020362020202020200A2020322020392020312020362020202020200A2020332031302020312020302020202020200A2031302031312020312020302020202020200A2020312031322020312020302020202020200A2031322031332020312020302020202020200A4D202053545920203120202031205355500A4D2020534C4220203120202031202020310A4D202053414C2020203120203220203130202031310A4D202053424C20202031202031202020390A4D2020534D5420202031204348324F480A4D2020534256202020312020392020202D352E3238373520202020322E333232380A4D202053545920203120202032205355500A4D2020534C4220203120202032202020320A4D202053414C2020203220203220203132202031330A4D202053424C20202032202031202031310A4D2020534D5420202032204348324F480A4D2020534256202020322031312020202D362E3435333120202020322E373137300A4D2020454E44
Contributor: Tsuzimoto Y, Tsugawa H, Bamba T, Fukusaki E, engineering department, Osaka Univ.
InstType: EI
InstName: Pegasus II TOF-MS system, Leco; GC 6890, Agilent Technologies
IoniMethod: EI
IonPolarity: pos
Date: 2010-10-09 19:48:36+02:00
Num Peaks: 163
85 15 86 4 87 26 88 25 89 101 90 10 91 5 92 1 93 1 94 2 
95 2 96 1 97 7 98 2 99 17 100 3 101 100 102 17 103 882 104 86 
105 43 106 3 107 1 109 1 111 11 112 2 113 23 114 5 115 23 116 41 
117 366 118 39 119 36 120 4 121 2 125 2 126 2 127 9 128 3 129 446 
130 58 131 110 132 17 133 229 134 34 135 21 136 2 137 1 139 1 140 1 
141 5 142 9 143 36 144 6 145 15 146 4 147 999 148 159 149 105 150 12 
151 6 152 2 153 4 154 1 155 20 156 4 157 83 158 11 159 11 160 2 
161 11 162 2 163 15 164 3 165 1 168 1 169 5 170 10 171 9 172 2 
173 4 174 2 175 23 176 5 177 12 178 2 179 2 185 1 186 1 187 2 
188 1 189 169 190 41 191 77 192 14 193 8 194 1 201 4 202 3 203 46 
204 148 205 329 206 71 207 42 208 7 209 3 215 5 216 3 217 805 218 217 
219 86 220 16 221 33 222 8 223 5 224 1 229 23 230 7 231 7 232 2 
233 1 237 1 242 3 243 48 244 12 245 8 246 1 247 2 249 1 263 1 
265 2 277 30 278 13 279 7 280 2 281 1 291 13 292 4 293 2 305 6 
306 10 307 89 308 29 309 13 310 3 317 15 318 9 319 152 320 49 321 24 
322 5 323 1 331 2 332 31 333 12 334 6 335 1 395 3 396 1 407 1 
422 7 423 4 424 1 
