Name: D-Glucosamine
CAS: 3416-24-8
MW: 179
Formula: C6H13NO5
Synonym: MassBank: OUF00171
Synonym: D-Glucosamine
Structure: 310A32390A3C4341535F49443E20333431362D32342D38093C4B4547475F49443E20433030333239093C4E414D453E20442D476C75636F73616D696E65093C464F524D554C413E2043364831334E4F35093C45584143544D4153533E203137392E303739333732353331093C415645524147454D4153533E203137392E3137313136093C534D494C45533E204F435B434040485D284F31295B434040485D284F295B4340485D284F295B434040485D284E2943284F2931093C434F505952494748543E2041524D2050524F4A45435420687474703A2F2F7777772E6D657461626F6C6F6D652E6A702F0A2031322031322020302020302020312020302020302020302020302020303939392056323030300A20202020332E3733323120202020312E3030303020202020302E303030302043202020302020302020332020312020302020302020302020302020302020302020302020300A20202020322E3836363020202020302E3530303020202020302E303030302043202020302020302020312020312020302020302020302020302020302020302020302020300A20202020322E383636302020202D302E3530303020202020302E303030302043202020302020302020322020312020302020302020302020302020302020302020302020300A20202020332E373332312020202D312E3030303020202020302E303030302043202020302020302020312020312020302020302020302020302020302020302020302020300A20202020342E353938312020202D302E3530303020202020302E303030302043202020302020302020312020312020302020302020302020302020302020302020302020300A20202020352E343634312020202D312E3030303020202020302E303030302043202020302020302020302020322020302020302020302020302020302020302020302020300A20202020322E3030303020202020312E3030303020202020302E30303030204E202020302020302020302020322020302020302020302020302020302020302020302020300A20202020332E3733323120202020322E3030303020202020302E30303030204F202020302020302020302020312020302020302020302020302020302020302020302020300A20202020322E303030302020202D312E3030303020202020302E30303030204F202020302020302020302020312020302020302020302020302020302020302020302020300A20202020332E373332312020202D322E3030303020202020302E30303030204F202020302020302020302020312020302020302020302020302020302020302020302020300A20202020342E3539383120202020302E3530303020202020302E30303030204F202020302020302020302020302020302020302020302020302020302020302020302020300A20202020362E333330312020202D302E3530303020202020302E30303030204F202020302020302020302020312020302020302020302020302020302020302020302020300A2031322020362020312020302020302020302020300A2020352031312020312020362020302020302020300A2031312020312020312020302020302020302020300A2020312020322020312020302020302020302020300A2020322020332020312020302020302020302020300A2020332020342020312020302020302020302020300A2020342020352020312020302020302020302020300A2020352020362020312020302020302020302020300A2020312020382020312020342020302020302020300A2020322020372020312020312020302020302020300A2020332020392020312020362020302020302020300A2020342031302020312020312020302020302020300A4D2020454E44
Contributor: Tsuzimoto Y, Tsugawa H, Bamba T, Fukusaki E, engineering department, Osaka Univ.
InstType: EI
InstName: Pegasus II TOF-MS system, Leco; GC 6890, Agilent Technologies
IoniMethod: EI
IonPolarity: pos
Date: 2010-10-09 19:48:36+02:00
Num Peaks: 162
85 10 86 11 87 11 88 5 89 34 90 5 91 2 94 3 95 1 96 3 
97 3 98 6 99 10 100 104 101 39 102 32 103 112 104 13 105 9 106 1 
108 6 109 1 110 3 111 5 112 6 113 12 114 9 115 35 116 26 117 110 
118 15 119 15 120 2 124 1 125 2 126 6 127 8 128 40 129 62 130 34 
131 153 132 32 133 74 134 12 135 7 136 1 139 1 140 6 141 4 142 23 
143 17 144 19 145 11 146 16 147 267 148 46 149 31 150 4 151 2 152 14 
153 2 154 5 155 4 156 15 157 9 158 7 159 5 160 3 161 2 162 9 
163 6 164 2 165 1 166 1 168 7 169 4 170 5 171 2 172 16 173 8 
174 7 175 5 176 2 177 8 178 1 179 1 180 3 182 2 184 1 186 1 
187 7 188 27 189 27 190 11 191 27 192 6 193 4 194 1 198 3 199 1 
200 22 201 7 202 14 203 999 204 230 205 96 206 16 207 7 208 1 214 10 
215 6 216 125 217 125 218 53 219 17 220 6 221 7 222 1 226 2 228 4 
229 4 230 5 231 13 232 5 233 3 240 4 241 1 242 3 243 2 244 2 
245 1 246 2 254 1 256 1 262 1 265 1 270 1 272 1 277 1 288 1 
290 6 291 6 292 2 302 2 303 2 304 51 305 18 306 9 307 2 316 2 
317 1 318 1 319 1 330 1 331 5 332 2 333 1 344 2 346 1 434 5 
435 2 436 1 
