Name: Methyl jasmonate
CAS: 39924-52-2
MW: 224
Formula: C13H20O3
Synonym: CID: 62388
Synonym: MassBank: OUF00357
Synonym: Methyl jasmonate
Structure: 31362031362020302020202020302020302020202020202020202020202020312056323030300A20202020312E3631363620202020302E3731323520202020302E303030302043202020302020302020302020302020302020302020202020202020202020302020302020300A20202020322E3434313620202020302E3731323520202020302E303030302043202020302020302020302020302020302020302020202020202020202020302020302020300A20202020322E3639383420202020312E3439363620202020302E303030302043202020302020302020302020302020302020302020202020202020202020302020302020300A20202020322E3032393120202020312E3938333320202020302E303030302043202020302020302020302020302020302020302020202020202020202020302020302020300A20202020312E3336343120202020312E3439363620202020302E303030302043202020302020302020302020302020302020302020202020202020202020302020302020300A20202020322E3834353820202020302E3030303020202020302E30303030204F202020302020302020302020302020302020302020202020202020202020302020302020300A20202020332E3532303820202020312E3530303020202020302E303030302043202020302020302020302020302020302020302020202020202020202020302020302020300A20202020332E3932393220202020322E3231363720202020302E303030302043202020302020302020302020302020302020302020202020202020202020302020302020300A20202020342E3735343220202020322E3231363720202020302E303030302043202020302020302020302020302020302020302020202020202020202020302020302020300A20202020352E3136323520202020322E3933333320202020302E303030302043202020302020302020302020302020302020302020202020202020202020302020302020300A20202020352E3938373520202020322E3933333320202020302E303030302043202020302020302020302020302020302020302020202020202020202020302020302020300A20202020322E3032303820202020322E3830383320202020302E303030302043202020302020302020302020302020302020302020202020202020202020302020302020300A20202020312E3330343220202020332E3232303820202020302E303030302043202020302020302020302020302020302020302020202020202020202020302020302020300A20202020302E3731363720202020322E3633373520202020302E30303030204F202020302020302020302020302020302020302020202020202020202020302020302020300A20202020312E3330303020202020342E3034353820202020302E30303030204F202020302020302020302020302020302020302020202020202020202020302020302020300A20202020302E3030303020202020332E3035303020202020302E303030302043202020302020302020302020302020302020302020202020202020202020302020302020300A2020372020382020312020302020202020302020300A2020342020332020312020302020202020302020300A2020382020392020322020302020202020302020300A2020352020342020312020302020202020302020300A2020392031302020312020302020202020302020300A2020312020352020312020302020202020302020300A2031302031312020312020302020202020302020300A2020322020312020312020302020202020302020300A2020342031322020312020312020202020302020300A2020322020362020322020302020202020302020300A2031322031332020312020302020202020302020300A2031332031342020312020302020202020302020300A2020332020372020312020312020202020302020300A2031332031352020322020302020202020302020300A2020332020322020312020302020202020302020300A2031342031362020312020302020202020302020300A4D2020454E44
Contributor: Tsuzimoto Y, Tsugawa H, Bamba T, Fukusaki E, engineering department, Osaka Univ.
InstType: EI
InstName: Pegasus II TOF-MS system, Leco; GC 6890, Agilent Technologies
IoniMethod: EI
IonPolarity: pos
Date: 2010-10-09 19:48:36+02:00
Num Peaks: 170
85 33 86 12 87 24 89 33 90 25 91 999 92 717 93 830 94 395 95 191 
96 85 97 101 98 24 99 47 101 14 102 11 103 58 104 85 105 418 106 461 
107 735 108 234 109 107 110 304 111 147 112 725 113 93 114 12 115 55 116 24 
117 127 118 363 119 436 120 866 121 679 122 220 123 172 124 255 125 51 126 26 
127 11 128 12 129 75 130 77 131 139 132 734 133 272 134 173 135 78 136 42 
137 20 138 54 139 16 140 3 141 10 142 24 143 11 144 52 145 44 146 294 
147 235 148 753 149 142 150 161 151 106 152 82 153 37 154 33 155 8 156 5 
158 3 159 4 160 125 161 279 162 266 163 43 164 36 165 31 166 39 167 10 
170 1 171 6 172 6 173 2 174 13 175 10 176 2 178 26 179 17 180 504 
181 76 182 22 183 14 184 70 185 118 186 12 188 5 189 11 190 22 191 14 
192 433 193 80 194 30 195 14 196 4 197 2 198 4 204 4 206 59 207 11 
215 4 218 1 220 7 221 9 222 181 223 46 224 63 225 9 226 6 232 2 
237 1 242 2 253 48 254 7 261 3 263 4 274 2 276 2 285 1 287 3 
288 2 292 1 297 3 307 4 308 1 316 1 327 3 329 1 333 1 342 4 
343 3 347 1 349 2 364 5 382 1 383 7 384 3 385 2 394 1 395 2 
397 1 405 1 424 2 426 1 429 1 442 4 452 1 454 1 456 5 460 4 
464 1 474 2 477 2 479 3 487 2 488 2 490 1 491 1 494 6 498 1 
