Name: ParaXanthine
CAS: 611-59-6
MW: 180
Formula: C7H8N4O2
Synonym: KEGG: C13747
Synonym: CID: 4687
Synonym: MassBank: OUF00415
Synonym: ParaXanthine
Structure: 310A33320A20204143442F4C6162733037303330393135323932440A2031332031342020302020302020302020302020302020302020302020302020312056323030300A20202032302E3336373020202D31372E3037373820202020302E30303030204E202020302020302020302020302020302020302020302020302020302020302020302020300A20202031392E3233373220202D31362E3432323620202020302E303030302043202020302020302020302020302020302020302020302020302020302020302020302020300A20202032312E3438363920202D31362E3433323520202020302E303030302043202020302020302020302020302020302020302020302020302020302020302020302020300A20202032312E3438393020202D31352E3134353120202020302E303030302043202020302020302020302020302020302020302020302020302020302020302020302020300A20202032302E3336393920202D31342E3530313320202020302E303030302043202020302020302020302020302020302020302020302020302020302020302020302020300A20202031392E3234373020202D31352E3134353120202020302E30303030204E202020302020302020302020302020302020302020302020302020302020302020302020300A20202032332E3731383120202D31362E3433323620202020302E30303030204E202020302020302020302020302020302020302020302020302020302020302020302020300A20202032332E3731383120202D31352E3134353120202020302E303030302043202020302020302020302020302020302020302020302020302020302020302020302020300A20202032322E3631333420202D31342E3439373120202020302E30303030204E202020302020302020302020302020302020302020302020302020302020302020302020300A20202032322E3631383520202D31332E3136373120202020302E303030302043202020302020302020302020302020302020302020302020302020302020302020302020300A20202032302E3337303920202D31332E3137313320202020302E30303030204F202020302020302020302020302020302020302020302020302020302020302020302020300A20202031382E3039383720202D31342E3437333920202020302E303030302043202020302020302020302020302020302020302020302020302020302020302020302020300A20202031382E3038323220202D31372E3038323020202020302E30303030204F202020302020302020302020302020302020302020302020302020302020302020302020300A2020312020322020312020302020302020302020300A2020312020332020312020302020302020302020300A2020332020342020322020302020302020302020300A2020342020352020312020302020302020302020300A2020352020362020312020302020302020302020300A2020322020362020312020302020302020302020300A2020372020382020322020302020302020302020300A2020382020392020312020302020302020302020300A2020342020392020312020302020302020302020300A2020332020372020312020302020302020302020300A2020392031302020312020302020302020302020300A2020352031312020322020302020302020302020300A2020362031322020312020302020302020302020300A2020322031332020322020302020302020302020300A4D2020454E44
Contributor: Tsuzimoto Y, Tsugawa H, Bamba T, Fukusaki E, engineering department, Osaka Univ.
InstType: EI
InstName: Pegasus II TOF-MS system, Leco; GC 6890, Agilent Technologies
IoniMethod: EI
IonPolarity: pos
Date: 2010-10-09 19:48:36+02:00
Num Peaks: 107
85 80 86 55 87 15 88 4 89 43 90 13 91 19 92 5 93 17 94 29 
95 65 96 32 97 18 98 55 99 22 100 70 101 12 102 5 103 1 104 3 
105 2 106 4 107 11 108 16 109 31 110 16 111 52 112 11 113 9 114 2 
115 4 116 1 118 83 119 14 120 12 121 3 122 10 123 21 124 22 125 250 
126 36 127 14 128 2 129 1 133 1 134 6 135 5 136 15 137 9 138 4 
139 17 140 5 141 7 142 1 146 1 147 4 148 6 149 4 150 59 151 21 
152 18 153 8 154 6 155 1 156 1 161 4 162 2 163 24 164 16 165 6 
166 15 167 6 168 3 169 2 178 2 179 15 180 434 181 67 182 22 183 3 
193 10 194 7 195 7 196 3 207 14 208 7 209 5 210 3 212 1 213 1 
220 1 221 7 222 2 223 8 224 2 235 3 236 8 237 999 238 197 239 54 
240 7 244 1 248 1 251 6 252 157 253 29 254 9 
