Name: L-(-)-Threonine
CAS: 72-19-5
MW: 119
Formula: C4H9NO3
Synonym: KEGG: C00188
Synonym: CID: 6288
Synonym: MassBank: OUF00331
Synonym: L-(-)-Threonine
Structure: 4330303030313339342E6364780A20204368656D447261773132323630383139323032440A2031302020392020302020302020302020302020302020302020302020303939392056323030300A20202020302E323430392020202D302E3131393520202020302E303030302043202020302020302020302020302020302020302020302020302020302020302020302020300A20202020302E3536363620202020302E3434353020202020302E303030302043202020302020302020302020302020302020302020302020302020302020302020302020300A20202020312E3038353920202020302E3538343220202020302E30303030204F202020302020302020302020302020302020302020302020302020302020302020302020300A20202020302E3132393020202020302E3838323620202020302E30303030204F202020302020302020302020302020302020302020302020302020302020302020302020300A20202020302E363633392020202D302E3532313820202020302E303030302048202020302020302020302020302020302020302020302020302020302020302020302020300A20202020302E313538342020202D302E3838323620202020302E30303030204E202020302020302020302020302020302020302020302020302020302020302020302020300A2020202D302E343831302020202D302E3131393520202020302E303030302043202020302020302020302020302020302020302020302020302020302020302020302020300A2020202D302E3933363620202020302E3333363120202020302E30303030204F202020302020302020302020302020302020302020302020302020302020302020302020300A2020202D302E363438362020202D302E3734353120202020302E303030302043202020302020302020302020302020302020302020302020302020302020302020302020300A2020202D312E303835392020202D302E3238313620202020302E303030302048202020302020302020302020302020302020302020302020302020302020302020302020300A2020312020322020312020302020202020200A2020322020332020312020302020202020200A2020322020342020322020302020202020200A2020312020352020312020362020202020200A2020312020362020312020312020202020200A2020312020372020312020302020202020200A2020382020372020312020302020202020200A2020372020392020312020312020202020200A2020372031302020312020362020202020200A4D2020454E44
Contributor: Tsuzimoto Y, Tsugawa H, Bamba T, Fukusaki E, engineering department, Osaka Univ.
InstType: EI
InstName: Pegasus II TOF-MS system, Leco; GC 6890, Agilent Technologies
IoniMethod: EI
IonPolarity: pos
Date: 2010-10-09 19:48:36+02:00
Num Peaks: 118
85 37 86 100 87 91 88 21 89 13 90 3 91 2 92 3 93 2 94 2 
95 2 96 3 97 4 98 26 99 24 100 405 101 784 102 143 103 90 104 12 
105 16 107 1 110 3 111 1 112 20 113 12 114 102 115 87 116 42 117 999 
118 126 119 69 120 10 121 3 126 4 127 6 128 243 129 280 130 196 131 183 
132 182 133 212 134 44 135 24 136 2 140 2 141 1 142 7 143 12 144 27 
145 11 146 38 147 530 148 97 149 68 150 9 151 3 156 10 157 6 158 31 
159 43 160 39 161 11 162 5 163 14 164 2 172 20 173 3 174 28 175 8 
176 10 177 18 178 4 179 1 186 19 187 5 188 15 189 8 190 7 191 24 
192 4 193 1 200 2 201 1 202 84 203 105 204 40 205 16 206 4 207 2 
214 1 215 1 216 8 217 12 218 646 219 678 220 169 221 76 222 13 223 4 
225 1 230 22 231 8 232 8 233 1 244 1 246 1 248 6 276 2 290 1 
291 153 292 108 293 48 294 16 295 4 320 28 321 8 322 2 
