Name: D-(+)-Fucose
CAS: 2438-80-4
MW: 164
Formula: C6H12O5
Synonym: CID: 3034656
Synonym: MassBank: OUF00232
Synonym: D-(+)-Fucose
Structure: 310A32360A20204143442F4C6162733039333031303039323732440A2031312031302020302020302020312020302020302020302020302020302020312056323030300A20202031312E3033343120202D31312E3334363020202020302E303030302043202020302020302020302020302020302020302020302020302020302020302020302020300A20202031322E3138353920202D31322E3031313020202020302E303030302043202020302020302020302020302020302020302020302020302020302020302020302020300A20202031332E3333373720202D31312E3334363020202020302E303030302043202020302020302020302020302020302020302020302020302020302020302020302020300A20202031342E3438393520202D31322E3031313020202020302E303030302043202020302020302020302020302020302020302020302020302020302020302020302020300A20202031352E3634313320202D31312E3334363020202020302E303030302043202020302020302020302020302020302020302020302020302020302020302020302020300A20202020392E3838323320202D31322E3031313020202020302E303030302043202020302020302020302020302020302020302020302020302020302020302020302020300A20202031312E3033343120202D31302E3031363020202020302E30303030204F202020302020302020302020302020302020302020302020302020302020302020302020300A20202031322E3138353920202D31332E3334313020202020302E30303030204F202020302020302020302020302020302020302020302020302020302020302020302020300A20202031332E3333373720202D31302E3031363020202020302E30303030204F202020302020302020302020302020302020302020302020302020302020302020302020300A20202031342E3438393520202D31332E3334313020202020302E30303030204F202020302020302020302020302020302020302020302020302020302020302020302020300A20202020382E3733303420202D31312E3334363020202020302E30303030204F202020302020302020302020302020302020302020302020302020302020302020302020300A2020322020312020312020302020302020302020300A2020332020322020312020302020302020302020300A2020342020332020312020302020302020302020300A2020352020342020312020302020302020302020300A2020312020362020312020302020302020302020300A2020312020372020312020312020302020302020300A2020322020382020312020312020302020302020300A2020332020392020312020362020302020302020300A2020342031302020312020362020302020302020300A2020362031312020322020302020302020302020300A4D2020454E44
Contributor: Tsuzimoto Y, Tsugawa H, Bamba T, Fukusaki E, engineering department, Osaka Univ.
InstType: EI
InstName: Pegasus II TOF-MS system, Leco; GC 6890, Agilent Technologies
IoniMethod: EI
IonPolarity: pos
Date: 2010-10-09 19:48:36+02:00
Num Peaks: 117
85 10 86 5 87 9 88 5 89 79 90 7 91 5 97 1 98 2 99 8 
100 42 101 34 102 17 103 90 104 10 105 18 106 1 107 1 108 1 111 2 
112 2 113 5 114 6 115 22 116 12 117 999 118 111 119 49 120 3 121 1 
126 2 127 6 128 2 129 79 130 23 131 72 132 10 133 73 134 10 135 6 
141 2 142 4 143 26 144 5 145 5 146 1 147 170 148 27 149 21 150 2 
151 1 155 2 156 1 157 1 158 3 159 3 160 91 161 53 162 9 163 11 
164 2 170 1 171 6 172 5 173 4 174 2 175 2 177 4 182 1 186 1 
188 1 189 17 190 5 191 18 192 3 193 1 201 12 202 3 203 12 204 21 
205 10 206 3 207 2 214 4 215 1 216 1 217 15 218 5 219 32 220 7 
221 6 222 1 230 1 231 11 232 4 233 24 234 7 235 5 236 1 244 4 
245 2 246 2 262 1 270 1 274 1 277 43 278 14 279 7 280 1 291 4 
292 1 293 2 305 1 306 1 321 17 322 6 323 2 
