Name: D-(-)-a-Phenylglycine
CAS: 875-74-1
MW: 292
Formula: C13H12N2O4S
Synonym: CID: 571647
Synonym: MassBank: OUF00221
Synonym: D-(-)-a-Phenylglycine
Structure: 32302032312020302020302020302020302020302020302020302020302020312056323030300A20202D37302E3030303020202035382E3030303020202020302E303030302043202020302020302020302020302020302020302020302020302020302020300A20202D36302E3030303020202034312E3030303020202020302E303030302043202020302020302020302020302020302020302020302020302020302020300A20202034312E3030303020202D32372E3030303020202020302E303030302043202020302020302020302020302020302020302020302020302020302020300A20202035312E303030302020202D392E3030303020202020302E303030302043202020302020302020302020302020302020302020302020302020302020300A20202D34302E3030303020202034312E3030303020202020302E303030302043202020302020302020302020302020302020302020302020302020302020300A20202D37302E3030303020202032342E3030303020202020302E303030302043202020302020302020302020302020302020302020302020302020302020300A20202032302E3030303020202D32372E3030303020202020302E303030302043202020302020302020302020302020302020302020302020302020302020300A20202034312E3030303020202020382E3030303020202020302E303030302043202020302020302020302020302020302020302020302020302020302020300A20202031312E303030302020202D392E3030303020202020302E303030302043202020302020302020302020302020302020302020302020302020302020300A2020202D392E303030302020202D392E3030303020202020302E303030302053202020302020302020302020302020302020302020302020302020302020300A20202032302E3030303020202020382E3030303020202020302E303030302043202020302020302020302020302020302020302020302020302020302020300A2020202D392E3030303020202031312E3030303020202020302E30303030204F202020302020302020302020302020302020302020302020302020302020300A2020202D392E3030303020202D32392E3030303020202020302E30303030204F202020302020302020302020302020302020302020302020302020302020300A20202D32392E303030302020202D392E3030303020202020302E30303030204E202020302020302020302020302020302020302020302020302020302020300A20202035312E3030303020202032362E3030303020202020302E30303030204E202020302020302020302020302020302020302020302020302020302020300A20202034312E3030303020202034332E3030303020202020302E30303030204F202020302020302020302020302020302020302020302020302020302020300A20202037302E3030303020202032362E3030303020202020302E30303030204F202020302020302020302020302020302020302020302020302020302020300A20202D32392E3030303020202032352E3030303020202020302E303030302043202020302020302020302020302020302020302020302020302020302020300A20202D33392E3030303020202020372E3030303020202020302E303030302043202020302020302020302020302020302020302020302020302020302020300A20202D35392E3030303020202020372E3030303020202020302E303030302043202020302020302020302020302020302020302020302020302020302020300A2020312020322020312020302020302020302020300A2020322020352020322020302020302020302020300A2020322020362020312020302020302020302020300A2020332020342020322020302020302020302020300A2020332020372020312020302020302020302020300A2020342020382020312020302020302020302020300A2020352031382020312020302020302020302020300A2020362032302020322020302020302020302020300A2020372020392020322020302020302020302020300A2020382031352020312020302020302020302020300A2020382031312020322020302020302020302020300A2020392031302020312020302020302020302020300A2020392031312020312020302020302020302020300A2031302031322020322020302020302020302020300A2031302031332020322020302020302020302020300A2031302031342020312020302020302020302020300A2031342031392020312020302020302020302020300A2031352031362020322020302020302020302020300A2031352031372020322020302020302020302020300A2031382031392020322020302020302020302020300A2031392032302020312020302020302020302020300A4D2020454E44
Contributor: Tsuzimoto Y, Tsugawa H, Bamba T, Fukusaki E, engineering department, Osaka Univ.
InstType: EI
InstName: Pegasus II TOF-MS system, Leco; GC 6890, Agilent Technologies
IoniMethod: EI
IonPolarity: pos
Date: 2010-10-09 19:48:36+02:00
Num Peaks: 74
85 2 86 5 87 4 88 1 89 13 90 12 91 12 92 2 93 5 95 1 
99 1 100 4 101 2 102 4 103 33 104 48 105 35 106 33 107 9 108 1 
109 1 111 1 115 4 116 3 117 14 118 9 119 16 120 5 121 8 122 1 
123 1 125 1 129 1 130 32 131 18 132 34 133 27 134 7 135 42 136 7 
137 4 143 1 144 1 145 4 146 16 147 110 148 38 149 14 150 2 160 5 
161 2 162 75 163 22 164 7 165 1 174 1 175 1 176 17 177 9 178 999 
179 174 180 50 181 7 190 13 191 2 192 1 193 1 252 29 253 16 254 6 
255 1 264 1 280 8 281 3 
