Name: Behenic acid
CAS: 112-85-6
MW: 340
Formula: C22H44O2
Synonym: KEGG: C08281
Synonym: CID: 8215
Synonym: MassBank: OUF00124
Synonym: Behenic acid
Structure: 4330303030313231312E6364780A20204368656D447261773132323630383139313432440A2032342032332020302020302020302020302020302020302020302020303939392056323030300A20202020332E3634383620202020322E3832343920202020302E303030302043202020302020302020302020302020302020302020302020302020302020302020302020300A20202020342E3930363820202020322E3732313820202020302E303030302043202020302020302020302020302020302020302020302020302020302020302020302020300A20202020342E3930363820202020332E3139363620202020302E30303030204F202020302020302020302020302020302020302020302020302020302020302020302020300A20202020352E3337383320202020322E3434393520202020302E30303030204F202020302020302020302020302020302020302020302020302020302020302020302020300A2020202D362E373839362020202D332E3139363620202020302E303030302043202020302020302020302020302020302020302020302020302020302020302020302020300A2020202D362E303735312020202D322E3738343120202020302E303030302043202020302020302020302020302020302020302020302020302020302020302020302020300A2020202D352E333632382020202D332E3139353320202020302E303030302043202020302020302020302020302020302020302020302020302020302020302020302020300A2020202D342E363432382020202D322E3737393720202020302E303030302043202020302020302020302020302020302020302020302020302020302020302020302020300A2020202D332E393335352020202D332E3138383020202020302E303030302043202020302020302020302020302020302020302020302020302020302020302020302020300A2020202D332E323133312020202D322E3737303920202020302E303030302043202020302020302020302020302020302020302020302020302020302020302020302020300A2020202D322E353037302020202D332E3137383620202020302E303030302043202020302020302020302020302020302020302020302020302020302020302020302020300A2020202D312E373834302020202D322E3736313120202020302E303030302043202020302020302020302020302020302020302020302020302020302020302020302020300A2020202D312E303738322020202D332E3136383620202020302E303030302043202020302020302020302020302020302020302020302020302020302020302020302020300A2020202D302E333535302020202D322E3735313120202020302E303030302043202020302020302020302020302020302020302020302020302020302020302020302020300A20202020302E333530372020202D332E3135383520202020302E303030302043202020302020302020302020302020302020302020302020302020302020302020302020300A20202020312E303733392020202D322E3734303920202020302E303030302043202020302020302020302020302020302020302020302020302020302020302020302020300A20202020312E373739362020202D332E3134383320202020302E303030302043202020302020302020302020302020302020302020302020302020302020302020302020300A20202020322E353032382020202D322E3733303720202020302E303030302043202020302020302020302020302020302020302020302020302020302020302020302020300A20202020332E323038352020202D332E3133383220202020302E303030302043202020302020302020302020302020302020302020302020302020302020302020302020300A20202020332E393331372020202D322E3732303620202020302E303030302043202020302020302020302020302020302020302020302020302020302020302020302020300A20202020342E363337342020202D332E3132383020202020302E303030302043202020302020302020302020302020302020302020302020302020302020302020302020300A20202020352E333630362020202D322E3731303420202020302E303030302043202020302020302020302020302020302020302020302020302020302020302020302020300A20202020362E303636332020202D332E3131373820202020302E303030302043202020302020302020302020302020302020302020302020302020302020302020302020300A20202020362E373839362020202D322E3730303320202020302E303030302043202020302020302020302020302020302020302020302020302020302020302020302020300A2020322020332020322020302020202020200A2020322020342020312020302020202020200A2020312020352020312020302020202020200A2020322032342020312020302020202020200A2020352020362020312020302020202020200A2020362020372020312020302020202020200A2020372020382020312020302020202020200A2020382020392020312020302020202020200A2020392031302020312020302020202020200A2031302031312020312020302020202020200A2031312031322020312020302020202020200A2031322031332020312020302020202020200A2031332031342020312020302020202020200A2031342031352020312020302020202020200A2031352031362020312020302020202020200A2031362031372020312020302020202020200A2031372031382020312020302020202020200A2031382031392020312020302020202020200A2031392032302020312020302020202020200A2032302032312020312020302020202020200A2032312032322020312020302020202020200A2032322032332020312020302020202020200A2032332032342020312020302020202020200A4D202053545920203120202031205355500A4D2020534C4220203120202031202020310A4D202053414C202020312031352020203520202036202020372020203820202039202031302020313120203132202031332020313420203135202031362020313720203138202031390A4D202053414C2020203120203520203230202032312020323220203233202032340A4D202053424C2020203120203220202033202020340A4D2020534D5420202031205B4348325D32300A4D20205342562020203120203320202D31342E303435342020202D322E333039370A4D2020534256202020312020342020202D312E373234342020202D312E373130330A4D2020454E44
Contributor: Tsuzimoto Y, Tsugawa H, Bamba T, Fukusaki E, engineering department, Osaka Univ.
InstType: EI
InstName: Pegasus II TOF-MS system, Leco; GC 6890, Agilent Technologies
IoniMethod: EI
IonPolarity: pos
Date: 2010-10-09 19:48:36+02:00
Num Peaks: 145
85 43 86 10 87 10 88 6 89 31 90 4 91 11 92 2 93 21 94 4 
95 62 96 12 97 73 98 54 99 27 100 4 101 12 102 4 103 5 105 23 
106 2 107 13 108 1 109 24 110 5 111 36 112 14 113 7 114 2 115 11 
116 61 117 999 118 111 119 43 120 3 121 14 122 2 123 9 124 3 125 10 
126 4 127 6 128 5 129 460 130 72 131 134 132 537 133 143 134 31 135 15 
136 2 137 4 138 1 139 4 140 3 141 4 142 2 143 45 144 7 145 316 
146 44 147 16 148 1 149 5 151 1 153 3 154 5 155 4 157 9 158 2 
159 26 160 4 161 1 163 1 167 2 168 2 169 1 171 20 172 5 173 7 
174 5 177 1 181 1 185 34 186 10 187 23 188 9 189 1 199 7 200 1 
201 63 202 11 203 3 210 1 213 5 214 1 215 6 216 1 227 8 228 2 
229 3 230 1 241 8 242 2 243 8 244 2 255 5 256 1 257 10 258 3 
269 4 270 1 271 3 272 1 279 1 283 3 284 1 285 2 297 3 298 1 
299 2 300 1 311 1 312 1 313 5 314 2 327 2 328 1 353 6 354 5 
355 3 356 1 369 6 370 4 371 2 396 11 397 83 398 54 399 17 400 4 
411 2 412 26 413 17 414 5 415 1 
