Name: Ethylmalonic acid
CAS: 601-75-2
MW: 132
Formula: C5H8O4
Synonym: CID: 11756
Synonym: MassBank: OUF00226
Synonym: Ethylmalonic acid
Structure: 310A32320A36303137332D37332D312E6D6F6C0A20204368656D447261773038303431303038313032440A2020392020382020302020302020302020302020302020302020302020303939392056323030300A2020202D302E303033302020202D302E3335303220202020302E303030302043202020302020302020302020302020302020302020302020302020302020302020302020300A2020202D302E383230312020202D302E3335303220202020302E303030302043202020302020302020302020302020302020302020302020302020302020302020302020300A20202020302E3430383520202020302E3335343120202020302E303030302043202020302020302020302020302020302020302020302020302020302020302020302020300A20202020302E343038352020202D312E3036363320202020302E303030302043202020302020302020302020302020302020302020302020302020302020302020302020300A2020202D312E323333352020202D312E3036363320202020302E30303030204F202020302020302020302020302020302020302020302020302020302020302020302020300A2020202D312E3233333520202020302E3335343120202020302E30303030204F202020302020302020302020302020302020302020302020302020302020302020302020300A2020202D302E3030333020202020312E3036363320202020302E30303030204F202020302020302020302020302020302020302020302020302020302020302020302020300A20202020312E3233333520202020302E3335343120202020302E30303030204F202020302020302020302020302020302020302020302020302020302020302020302020300A20202020312E323333352020202D312E3036363320202020302E303030302043202020302020302020302020302020302020302020302020302020302020302020302020300A2020312020322020312020302020202020200A2020312020332020312020302020202020200A2020312020342020312020302020202020200A2020322020352020312020302020202020200A2020322020362020322020302020202020200A2020332020372020312020302020202020200A2020332020382020322020302020202020200A2020342020392020312020302020202020200A4D2020454E44
Contributor: Tsuzimoto Y, Tsugawa H, Bamba T, Fukusaki E, engineering department, Osaka Univ.
InstType: EI
InstName: Pegasus II TOF-MS system, Leco; GC 6890, Agilent Technologies
IoniMethod: EI
IonPolarity: pos
Date: 2010-10-09 19:48:36+02:00
Num Peaks: 80
85 16 86 3 87 8 88 2 89 6 90 1 92 2 93 4 95 2 97 14 
98 4 99 28 100 5 101 7 102 3 103 11 104 2 105 6 111 1 113 3 
115 11 116 3 117 21 118 3 119 7 123 6 127 14 128 2 129 64 130 8 
131 36 132 6 133 75 134 11 135 7 142 2 143 40 144 7 145 6 146 2 
147 999 148 159 149 106 150 12 151 4 157 3 158 1 159 8 160 2 161 1 
171 13 172 1 173 16 174 3 175 2 186 4 187 1 189 2 190 2 191 2 
203 1 204 13 205 4 206 1 217 97 218 21 219 9 220 1 232 15 233 6 
234 2 245 4 246 1 248 13 249 3 250 1 261 42 262 10 263 4 276 1 
