Name: DL-Homocysteine
CAS: 454-29-5
MW: 135
Formula: C4H9NO2S
Synonym: KEGG: C05330
Synonym: CID: 778
Synonym: MassBank: OUF00191
Synonym: DL-Homocysteine
Structure: 310A32300A200A200A200A2020382020372020302020302020302020302020302020302020302020303939392056323030300A20202033302E3330393220202D32312E3937303220202020302E303030302043202020302020302020332020302020302020302020302020302020302020302020302020300A20202033312E3836373020202D32312E3538363920202020302E303030302043202020302020302020302020302020302020302020302020302020302020302020302020300A20202032392E3334313620202D32312E3030393020202020302E303030302043202020302020302020302020302020302020302020302020302020302020302020302020300A20202032392E3633303720202D32332E3136333720202020302E30303030204E202020302020302020302020302020302020302020302020302020302020302020302020300A20202033322E3831353620202D32322E3536373020202020302E303030302043202020302020302020302020302020302020302020302020302020302020302020302020300A20202032382E3032383620202D32312E3337333320202020302E30303030204F202020302020302020302020302020302020302020302020302020302020302020302020300A20202032392E3639393820202D31392E3638393620202020302E30303030204F202020302020302020302020302020302020302020302020302020302020302020302020300A20202033342E3134313220202D32322E3234303420202020302E303030302053202020302020302020302020302020302020302020302020302020302020302020302020300A2020312020322020312020302020202020302020300A2020312020332020312020302020202020302020300A2020312020342020312020302020202020302020300A2020322020352020312020302020202020302020300A2020332020362020312020302020202020302020300A2020332020372020322020302020202020302020300A2020352020382020312020302020202020302020300A4D2020454E44
Contributor: Tsuzimoto Y, Tsugawa H, Bamba T, Fukusaki E, engineering department, Osaka Univ.
InstType: EI
InstName: Pegasus II TOF-MS system, Leco; GC 6890, Agilent Technologies
IoniMethod: EI
IonPolarity: pos
Date: 2010-10-09 19:48:36+02:00
Num Peaks: 134
85 16 86 28 87 16 88 8 89 10 90 21 91 55 92 8 93 8 94 1 
95 1 96 6 97 4 98 28 99 10 100 244 101 52 102 30 103 31 104 6 
105 13 106 6 107 1 110 3 111 1 112 27 113 10 114 82 115 35 116 13 
117 31 118 18 119 252 120 28 121 22 122 1 126 17 127 9 128 999 129 159 
130 85 131 49 132 44 133 82 134 15 135 11 136 1 137 1 140 2 141 1 
142 3 143 1 144 12 145 4 146 18 147 268 148 49 149 40 150 6 151 3 
156 5 157 3 158 9 159 6 160 13 161 8 162 16 163 14 164 4 165 4 
166 1 167 1 170 1 172 21 173 13 174 17 175 5 176 3 177 2 178 1 
179 2 186 4 187 1 188 12 189 7 190 4 191 2 192 2 193 1 200 5 
201 2 202 65 203 20 204 9 205 2 206 1 207 1 214 1 216 4 217 1 
218 58 219 108 220 25 221 11 222 1 230 20 231 6 232 21 233 5 234 632 
235 138 236 86 237 15 238 4 245 13 246 16 247 4 248 3 261 26 262 6 
263 4 264 1 279 1 308 25 309 11 310 6 311 1 336 4 337 1 350 1 
351 36 352 15 353 8 354 1 
