Name: a-MethylBenzylamine
CAS: 618-36-0
MW: 121
Formula: C8H11N
Synonym: KEGG: C02455
Synonym: CID: 7408
Synonym: MassBank: OUF00496
Synonym: a-MethylBenzylamine
Structure: 310A32330A2020392020392020302020302020302020302020302020302020302020302020312056323030300A20202D31372E3030303020202035302E3030303020202020302E303030302043202020302020302020302020302020302020302020302020302020302020300A20202020302E3030303020202034302E3030303020202020302E303030302043202020302020302020302020302020302020302020302020302020302020300A20202031382E3030303020202035302E3030303020202020302E30303030204E202020302020302020302020302020302020302020302020302020302020300A20202020302E3030303020202032302E3030303020202020302E303030302043202020302020302020302020302020302020302020302020302020302020300A20202D31372E3030303020202031302E3030303020202020302E303030302043202020302020302020302020302020302020302020302020302020302020300A20202031382E3030303020202031302E3030303020202020302E303030302043202020302020302020302020302020302020302020302020302020302020300A20202D31372E3030303020202D31312E3030303020202020302E303030302043202020302020302020302020302020302020302020302020302020302020300A20202031382E3030303020202D31312E3030303020202020302E303030302043202020302020302020302020302020302020302020302020302020302020300A20202020302E3030303020202D32312E3030303020202020302E303030302043202020302020302020302020302020302020302020302020302020302020300A2020312020322020312020302020302020302020300A2020322020332020312020302020302020302020300A2020322020342020312020302020302020302020300A2020342020352020322020302020302020302020300A2020342020362020312020302020302020302020300A2020352020372020312020302020302020302020300A2020362020382020322020302020302020302020300A2020372020392020322020302020302020302020300A2020382020392020312020302020302020302020300A4D2020454E44
Contributor: Tsuzimoto Y, Tsugawa H, Bamba T, Fukusaki E, engineering department, Osaka Univ.
InstType: EI
InstName: Pegasus II TOF-MS system, Leco; GC 6890, Agilent Technologies
IoniMethod: EI
IonPolarity: pos
Date: 2010-10-09 19:48:36+02:00
Num Peaks: 70
85 3 86 15 87 3 88 2 89 21 90 6 91 49 92 8 93 15 94 3 
95 4 96 2 98 3 99 1 100 48 101 7 102 13 103 79 104 94 105 110 
106 57 107 21 108 3 109 4 110 1 114 10 115 10 116 95 117 21 118 16 
119 24 120 27 121 19 122 3 123 1 129 1 130 3 131 7 132 25 133 18 
134 7 135 338 136 50 137 14 138 1 143 2 144 1 145 22 146 16 147 8 
148 9 149 3 150 1 159 9 160 7 161 25 162 34 163 7 164 2 174 1 
176 26 177 8 178 999 179 166 180 47 181 5 190 1 191 1 192 8 193 6 
