Name: 5-Methylcytosine
CAS: 554-01-8
MW: 125
Formula: C5H7N3O
Synonym: KEGG: C02376
Synonym: CID: 65040
Synonym: MassBank: OUF00081
Synonym: 5-Methylcytosine
Structure: 310A32330A3C4341535F49443E203535342D30312D38093C4B4547475F49443E20433032333736093C4E414D453E20352D4D657468796C6379746F73696E093C464F524D554C413E20433548374E334F093C45584143544D4153533E203132352E303538393131383631093C415645524147454D4153533E203132352E31323837093C534D494C45533E204343283D43312943284E293D4E43283D4F294E31093C434F505952494748543E2041524D2050524F4A45435420687474703A2F2F7777772E6D657461626F6C6F6D652E6A702F0A2020392020392020302020302020302020302020302020302020302020303939392056323030300A20202020332E3733323120202020312E3530303020202020302E30303030204E202020302020302020302020312020302020302020302020302020302020302020302020300A20202020322E3836363020202020312E3030303020202020302E303030302043202020302020302020302020302020302020302020302020302020302020302020302020300A20202020322E383636302020202D302E3030303020202020302E30303030204E202020302020302020302020302020302020302020302020302020302020302020302020300A20202020332E373332312020202D302E3530303020202020302E303030302043202020302020302020302020302020302020302020302020302020302020302020302020300A20202020342E3539383120202020302E3030303020202020302E303030302043202020302020302020302020302020302020302020302020302020302020302020302020300A20202020342E3539383120202020312E3030303020202020302E303030302043202020302020302020302020312020302020302020302020302020302020302020302020300A20202020322E3030303020202020312E3530303020202020302E30303030204F202020302020302020302020302020302020302020302020302020302020302020302020300A20202020332E373332312020202D312E3530303020202020302E30303030204E202020302020302020302020322020302020302020302020302020302020302020302020300A20202020352E343634312020202D302E3530303020202020302E303030302043202020302020302020302020332020302020302020302020302020302020302020302020300A2020332020342020322020302020302020302020300A2020332020322020312020302020302020302020300A2020322020312020312020302020302020302020300A2020312020362020312020302020302020302020300A2020362020352020322020302020302020302020300A2020352020342020312020302020302020302020300A2020322020372020322020302020302020302020300A2020342020382020312020302020302020302020300A2020352020392020312020302020302020302020300A4D2020454E44
Contributor: Tsuzimoto Y, Tsugawa H, Bamba T, Fukusaki E, engineering department, Osaka Univ.
InstType: EI
InstName: Pegasus II TOF-MS system, Leco; GC 6890, Agilent Technologies
IoniMethod: EI
IonPolarity: pos
Date: 2010-10-09 19:48:36+02:00
Num Peaks: 152
85 66 86 118 87 22 88 13 89 4 90 2 91 1 92 2 93 4 94 4 
95 12 96 33 97 24 98 48 99 40 100 273 101 36 102 21 103 9 104 3 
105 10 106 6 107 5 108 7 109 19 110 32 111 37 112 319 113 54 114 28 
115 18 116 24 117 17 118 5 119 10 120 57 121 6 122 2 123 14 124 10 
125 9 126 29 127 18 128 17 129 5 130 74 131 52 132 29 133 41 134 11 
135 4 136 1 137 21 138 28 139 148 140 23 141 18 142 9 143 8 144 6 
145 1 146 84 147 281 148 52 149 24 150 7 151 4 152 7 153 22 154 11 
155 6 156 4 157 25 158 16 159 5 160 1 164 44 165 8 166 14 167 5 
168 5 169 7 170 7 171 5 172 8 173 3 174 1 178 2 179 1 180 7 
181 16 182 42 183 9 184 161 185 38 186 17 187 2 188 1 194 2 195 3 
196 38 197 14 198 9 199 2 200 1 208 1 209 1 210 1 211 28 212 8 
213 4 214 1 215 1 222 1 223 1 224 9 225 9 226 4 227 18 228 4 
229 1 237 2 238 118 239 52 240 19 241 4 245 1 246 1 247 1 248 1 
249 1 250 1 252 5 253 9 254 999 255 263 256 104 257 19 258 3 259 1 
260 1 261 1 262 1 263 1 264 1 265 1 268 23 269 198 270 54 271 20 
272 3 273 1 
