Name: L-Leucine
CAS: 61-90-5
MW: 131
Formula: C6H13NO2
Synonym: KEGG: C00123
Synonym: CID: 6106
Synonym: MassBank: OUF00305
Synonym: L-Leucine
Structure: 4330303030313337372E6364780A20204368656D447261773132323630383139323032440A2031302020392020302020302020302020302020302020302020302020303939392056323030300A20202020302E333632382020202D302E3134303120202020302E303030302043202020302020302020302020302020302020302020302020302020302020302020302020300A20202020302E3737303920202020302E3434353020202020302E303030302043202020302020302020302020302020302020302020302020302020302020302020302020300A20202020312E3239303320202020302E3538343220202020302E30303030204F202020302020302020302020302020302020302020302020302020302020302020302020300A20202020302E3333333320202020302E3838323620202020302E30303030204F202020302020302020302020302020302020302020302020302020302020302020302020300A20202020302E383638322020202D302E3532313820202020302E303030302048202020302020302020302020302020302020302020302020302020302020302020302020300A20202020302E333632382020202D302E3838323620202020302E30303030204E202020302020302020302020302020302020302020302020302020302020302020302020300A2020202D302E3236363320202020302E3032383420202020302E303030302043202020302020302020302020302020302020302020302020302020302020302020302020300A2020202D302E373731302020202D302E3236333020202020302E303030302043202020302020302020302020302020302020302020302020302020302020302020302020300A2020202D302E393132362020202D302E3739313420202020302E303030302043202020302020302020302020302020302020302020302020302020302020302020302020300A2020202D312E3239303320202020302E3235363320202020302E303030302043202020302020302020302020302020302020302020302020302020302020302020302020300A2020312020322020312020302020202020200A2020322020332020312020302020202020200A2020322020342020322020302020202020200A2020312020352020312020362020202020200A2020312020362020312020312020202020200A2020312020372020312020302020202020200A2020372020382020312020302020202020200A2020382020392020312020302020202020200A2020382031302020312020302020202020200A4D2020454E44
Contributor: Tsuzimoto Y, Tsugawa H, Bamba T, Fukusaki E, engineering department, Osaka Univ.
InstType: EI
InstName: Pegasus II TOF-MS system, Leco; GC 6890, Agilent Technologies
IoniMethod: EI
IonPolarity: pos
Date: 2010-10-09 19:48:36+02:00
Num Peaks: 79
85 8 86 83 87 13 88 5 89 3 90 1 91 1 92 1 93 1 94 1 
95 1 96 5 97 3 98 7 99 10 100 99 101 19 102 169 103 46 104 11 
105 6 110 2 112 4 113 3 114 7 115 31 116 37 117 22 118 6 119 7 
120 1 126 2 127 1 128 26 129 12 130 45 131 22 132 24 133 43 134 9 
135 4 142 20 143 6 144 7 145 1 146 7 147 134 148 24 149 12 150 1 
156 5 157 3 158 999 159 149 160 46 161 5 170 14 171 4 172 2 174 4 
175 1 176 2 177 3 188 4 189 1 202 1 203 2 204 1 216 1 218 29 
219 7 220 3 231 1 232 36 233 11 234 4 260 11 261 3 262 1 
