Name: 1-Methyl uracil
CAS: 615-77-0
MW: 170
Formula: C6H6N2O4
Synonym: CID: 152258
Synonym: MassBank: OUF00010
Synonym: 1-Methyl uracil
Structure: 31322031322020302020302020302020302020302020302020302020302020312056323030300A20202031382E3030303020202D32382E3030303020202020302E303030302043202020302020302020302020302020302020302020302020302020302020300A20202031382E303030302020202D382E3030303020202020302E30303030204E202020302020302020302020302020302020302020302020302020302020300A20202020322E3030303020202020332E3030303020202020302E303030302043202020302020302020302020302020302020302020302020302020302020300A20202033342E3030303020202020332E3030303020202020302E303030302043202020302020302020302020302020302020302020302020302020302020300A20202020382E3030303020202032332E3030303020202020302E303030302043202020302020302020302020302020302020302020302020302020302020300A20202D31362E303030302020202D372E3030303020202020302E303030302043202020302020302020302020302020302020302020302020302020302020300A20202032382E3030303020202032332E3030303020202020302E30303030204E202020302020302020302020302020302020302020302020302020302020300A2020202D322E3030303020202034312E3030303020202020302E303030302043202020302020302020302020302020302020302020302020302020302020300A20202D31362E3030303020202D32372E3030303020202020302E30303030204F202020302020302020302020302020302020302020302020302020302020300A20202D33332E3030303020202020332E3030303020202020302E30303030204F202020302020302020302020302020302020302020302020302020302020300A20202D32332E3030303020202034312E3030303020202020302E30303030204F202020302020302020302020302020302020302020302020302020302020300A20202020382E3030303020202035382E3030303020202020302E30303030204F202020302020302020302020302020302020302020302020302020302020300A2020312020322020312020302020302020302020300A2020322020332020312020302020302020302020300A2020322020342020312020302020302020302020300A2020332020352020322020302020302020302020300A2020332020362020312020302020302020302020300A2020342020372020322020302020302020302020300A2020352020372020312020302020302020302020300A2020352020382020312020302020302020302020300A2020362020392020312020302020302020302020300A2020362031302020322020302020302020302020300A2020382031312020312020302020302020302020300A2020382031322020322020302020302020302020300A4D2020454E44
Contributor: Tsuzimoto Y, Tsugawa H, Bamba T, Fukusaki E, engineering department, Osaka Univ.
InstType: EI
InstName: Pegasus II TOF-MS system, Leco; GC 6890, Agilent Technologies
IoniMethod: EI
IonPolarity: pos
Date: 2010-10-09 19:48:36+02:00
Num Peaks: 135
85 35 86 136 87 17 88 10 89 11 90 1 91 7 92 13 93 8 94 3 
95 11 96 15 97 11 98 15 99 56 100 705 101 72 102 47 103 5 104 1 
105 2 107 3 108 2 109 25 110 9 111 11 112 34 113 38 114 16 115 5 
116 2 117 2 118 1 119 1 120 1 122 3 123 3 124 30 125 19 126 77 
127 17 128 15 129 3 130 2 131 2 135 1 136 1 137 2 138 2 139 31 
140 28 141 21 142 31 143 5 144 1 152 1 153 25 154 8 155 17 156 16 
157 5 158 1 159 2 162 1 163 1 165 2 167 15 168 5 169 6 170 7 
171 3 175 1 179 2 180 3 181 3 182 7 183 999 184 146 185 51 186 6 
187 1 190 2 191 1 193 2 194 1 195 1 196 4 197 366 198 302 199 57 
200 17 201 1 209 2 212 1 222 1 233 1 248 2 260 1 268 1 277 1 
281 1 299 1 301 1 302 1 310 1 312 1 314 1 320 1 330 1 333 1 
334 1 337 1 339 1 353 1 358 1 374 1 376 1 385 1 390 2 392 1 
401 1 405 1 421 1 429 2 430 1 434 1 439 1 443 1 447 1 450 1 
454 1 456 1 457 1 482 1 499 1 
