Name: Succinic acid
CAS: 110-15-6
MW: 118
Formula: C4H6O4
Synonym: KEGG: C00042
Synonym: CID: 1110
Synonym: MassBank: OUF00465
Synonym: Succinic acid
Structure: 310A32300A4330303030313230352E6364780A20204368656D447261773132323630383139313432440A2020382020372020302020302020302020302020302020302020302020303939392056323030300A20202020302E313931302020202D302E3138303920202020302E303030302043202020302020302020302020302020302020302020302020302020302020302020302020300A20202020302E3639303020202020302E3130373120202020302E303030302043202020302020302020302020302020302020302020302020302020302020302020302020300A20202020302E3639303020202020302E3630323420202020302E30303030204F202020302020302020302020302020302020302020302020302020302020302020302020300A20202020312E333238312020202D302E3236313320202020302E30303030204F202020302020302020302020302020302020302020302020302020302020302020302020300A2020202D302E3330363720202020302E3130363420202020302E303030302043202020302020302020302020302020302020302020302020302020302020302020302020300A2020202D302E383839322020202D302E3137393620202020302E303030302043202020302020302020302020302020302020302020302020302020302020302020302020300A2020202D312E3332383120202020302E3235393420202020302E30303030204F202020302020302020302020302020302020302020302020302020302020302020302020300A2020202D312E333132302020202D302E3630323420202020302E30303030204F202020302020302020302020302020302020302020302020302020302020302020302020300A2020312020322020312020302020202020200A2020322020332020322020302020202020200A2020322020342020312020302020202020200A2020312020352020312020302020202020200A2020362020352020312020302020202020200A2020362020372020322020302020202020200A2020362020382020312020302020202020200A4D2020454E44
Contributor: Tsuzimoto Y, Tsugawa H, Bamba T, Fukusaki E, engineering department, Osaka Univ.
InstType: EI
InstName: Pegasus II TOF-MS system, Leco; GC 6890, Agilent Technologies
IoniMethod: EI
IonPolarity: pos
Date: 2010-10-09 19:48:36+02:00
Num Peaks: 55
85 12 86 12 87 8 88 4 89 8 90 1 92 1 93 3 95 1 99 7 
100 1 101 9 102 2 103 7 104 1 105 4 113 11 114 1 115 13 116 23 
117 16 118 2 119 4 128 3 129 84 130 12 131 22 132 4 133 39 134 5 
135 4 143 6 145 7 146 1 147 999 148 157 149 87 150 9 151 2 156 2 
157 5 163 2 172 45 173 23 174 4 175 3 190 1 203 3 217 2 218 6 
219 1 247 76 248 15 249 7 262 4 
