Name: Uracil
CAS: 66-22-8
MW: 112
Formula: C4H4N2O2
Synonym: KEGG: C00106
Synonym: CID: 1174
Synonym: MassBank: OUF00483
Synonym: Uracil
Structure: 310A32310A4330303030313531332E6364780A20204368656D447261773132323630383139323432440A2020382020382020302020302020302020302020302020302020302020303939392056323030300A2020202D302E3331303620202020302E3030313720202020302E30303030204E202020302020302020302020302020302020302020302020302020302020302020302020300A2020202D302E333130362020202D302E3537393120202020302E303030302043202020302020302020302020302020302020302020302020302020302020302020302020300A20202020302E313932342020202D302E3836393520202020302E30303030204E202020302020302020302020302020302020302020302020302020302020302020302020300A20202020302E363935342020202D302E3537393120202020302E303030302043202020302020302020302020302020302020302020302020302020302020302020302020300A20202020302E3639353420202020302E3030313720202020302E303030302043202020302020302020302020302020302020302020302020302020302020302020302020300A20202020302E3139323420202020302E3239323120202020302E303030302043202020302020302020302020302020302020302020302020302020302020302020302020300A20202020302E3139323420202020302E3836393520202020302E30303030204F202020302020302020302020302020302020302020302020302020302020302020302020300A2020202D302E363935342020202D302E3830313320202020302E30303030204F202020302020302020302020302020302020302020302020302020302020302020302020300A2020312020322020312020302020202020200A2020322020332020312020302020202020200A2020332020342020312020302020202020200A2020342020352020322020302020202020200A2020352020362020312020302020202020200A2020362020312020312020302020202020200A2020362020372020322020302020202020200A2020322020382020322020302020202020200A4D2020454E44
Contributor: Tsuzimoto Y, Tsugawa H, Bamba T, Fukusaki E, engineering department, Osaka Univ.
InstType: EI
InstName: Pegasus II TOF-MS system, Leco; GC 6890, Agilent Technologies
IoniMethod: EI
IonPolarity: pos
Date: 2010-10-09 19:48:36+02:00
Num Peaks: 123
85 82 86 37 87 20 88 4 89 5 90 1 91 4 92 4 93 3 94 4 
95 8 96 27 97 14 98 45 99 999 100 212 101 82 102 18 103 18 104 3 
105 31 106 8 107 1 108 1 109 33 110 7 111 15 112 11 113 247 114 27 
115 20 116 8 117 31 118 5 119 7 120 5 121 1 123 2 124 6 125 5 
126 226 127 36 128 13 129 5 130 3 131 90 132 17 133 47 134 7 135 3 
137 1 138 3 139 5 140 7 141 7 142 7 143 4 144 5 145 1 146 2 
147 486 148 77 149 40 150 4 151 1 152 1 153 19 154 3 155 2 156 11 
157 17 158 17 159 5 160 3 161 1 166 6 167 8 168 5 169 25 170 6 
171 3 172 5 173 2 174 6 175 1 181 2 182 7 183 18 184 10 185 19 
186 4 187 2 196 1 197 4 198 3 199 3 200 1 201 1 210 1 211 4 
212 4 213 3 214 1 225 5 226 2 227 1 239 21 240 10 241 498 242 108 
243 47 244 7 245 2 246 1 247 1 253 1 254 2 255 249 256 220 257 60 
258 19 259 3 260 1 
