Name: MassBank: OUF00126
CAS: 100-21-0
MW: 166
Formula: C8H6O4
Synonym: KEGG: C06337
Synonym: CID: 4356128
Synonym: MassBank: OUF00126
Synonym: Benzen-1,4-Dicarboxylic acid
Structure: 310A32390A3C4341535F49443E203130302D32312D30093C4B4547475F49443E20433036333337093C4E414D453E205465726570687468616C617465093C464F524D554C413E20433848364F34093C45584143544D4153533E203136362E3032363630383637393939393938093C415645524147454D4153533E203136362E3133303834093C534D494C45533E204F43283D4F2963286331296363632863312943284F293D4F093C434F505952494748543E2041524D2050524F4A45435420687474703A2F2F7777772E6D657461626F6C6F6D652E6A702F0A2031322031322020302020302020302020302020302020302020302020303939392056323030300A20202020302E303030302020202D302E3831373220202020302E303030302043202020302020302020302020302020302020302020302020302020302020302020302020300A20202020302E303033342020202D312E3635353220202020302E303030302043202020302020302020302020302020302020302020302020302020302020302020302020300A2020202D302E373137322020202D302E3430363920202020302E303030302043202020302020302020302020312020302020302020302020302020302020302020302020300A20202020302E373036392020202D302E3430363920202020302E303030302043202020302020302020302020312020302020302020302020302020302020302020302020300A20202020302E373331302020202D322E3036393020202020302E30303030204F202020302020302020302020312020302020302020302020302020302020302020302020300A2020202D302E373234312020202D322E3037323420202020302E30303030204F202020302020302020302020302020302020302020302020302020302020302020302020300A2020202D302E3731373220202020302E3431333820202020302E303030302043202020302020302020302020312020302020302020302020302020302020302020302020300A20202020302E3730363920202020302E3431333820202020302E303030302043202020302020302020302020312020302020302020302020302020302020302020302020300A20202020302E3030303020202020302E3832343120202020302E303030302043202020302020302020302020302020302020302020302020302020302020302020302020300A20202020302E3030303020202020312E3634343820202020302E303030302043202020302020302020302020302020302020302020302020302020302020302020302020300A20202020302E3732373620202020322E3036353520202020302E30303030204F202020302020302020302020312020302020302020302020302020302020302020302020300A2020202D302E3732343120202020322E3036393020202020302E30303030204F202020302020302020302020302020302020302020302020302020302020302020302020300A2020312020322020312020302020302020302020300A2020312020332020312020302020302020302020300A2020312020342020322020302020302020302020300A2020322020352020312020302020302020302020300A2020322020362020322020302020302020302020300A2020332020372020322020302020302020302020300A2020342020382020312020302020302020302020300A2020372020392020312020302020302020302020300A2020392031302020312020302020302020302020300A2031302031312020312020302020302020302020300A2031302031322020322020302020302020302020300A2020382020392020322020302020302020302020300A4D2020454E44
Contributor: Tsuzimoto Y, Tsugawa H, Bamba T, Fukusaki E, engineering department, Osaka Univ.
InstType: EI
InstName: Pegasus II TOF-MS system, Leco; GC 6890, Agilent Technologies
IoniMethod: EI
IonPolarity: pos
Date: 2010-10-09 19:48:36+02:00
Num Peaks: 139
85 19 86 3 87 7 88 6 89 137 90 41 91 85 92 14 93 20 94 3 
95 10 96 11 97 7 98 3 99 3 100 1 101 7 102 6 103 967 104 504 
105 80 106 9 107 18 108 3 109 6 110 4 111 6 112 3 113 1 115 14 
116 5 117 16 118 68 119 53 120 13 121 45 122 7 123 5 125 13 126 50 
127 10 128 1 129 4 130 1 131 14 132 12 133 75 134 74 135 244 136 37 
137 13 138 1 140 230 141 25 142 1 143 2 145 8 146 2 147 19 148 19 
149 53 150 32 151 14 152 3 153 1 159 1 161 3 162 2 163 12 164 3 
165 4 175 3 176 2 177 48 178 86 179 29 180 8 181 2 191 3 192 33 
193 74 194 17 195 6 205 8 206 3 207 22 208 6 209 4 210 1 217 1 
219 3 220 8 221 365 222 65 223 27 224 4 225 1 235 2 236 3 237 5 
238 1 249 2 250 6 251 225 252 68 253 55 254 12 255 4 265 1 266 2 
267 3 268 2 269 1 270 1 271 1 272 1 273 1 275 1 276 1 277 1 
278 1 279 2 280 3 281 2 282 1 283 1 284 1 293 1 294 15 295 999 
296 261 297 105 298 18 299 4 309 8 310 53 311 15 312 6 313 1 
