Name: 2'-Deoxyuridine
CAS: 951-78-0
MW: 228
Formula: C9H12N2O5
Synonym: KEGG: C00526
Synonym: CID: 13712
Synonym: MassBank: OUF00030
Synonym: 2'-Deoxyuridine
Structure: 4330303031393639372E6364780A20204368656D447261773132323930383230303732440A2031362031372020302020302020302020302020302020302020302020303939392056323030300A20202020302E333839382020202D312E3632333320202020302E303030302043202020302020302020302020302020302020302020302020302020302020302020302020300A2020202D302E363033362020202D312E3632333320202020302E303030302043202020302020302020302020302020302020302020302020302020302020302020302020300A2020202D302E393130362020202D312E3332313220202020302E303030302043202020302020302020302020302020302020302020302020302020302020302020302020300A2020202D302E313035372020202D312E3133353020202020302E30303030204F202020302020302020302020302020302020302020302020302020302020302020302020300A20202020302E363938302020202D312E3332313220202020302E303030302043202020302020302020302020302020302020302020302020302020302020302020302020300A2020202D302E363033362020202D322E3039383420202020302E30303030204F202020302020302020302020302020302020302020302020302020302020302020302020300A20202020302E363938302020202D302E3337363620202020302E30303030204E202020302020302020302020302020302020302020302020302020302020302020302020300A2020202D302E393133352020202D302E3737323720202020302E303030302043202020302020302020302020302020302020302020302020302020302020302020302020300A2020202D312E343132352020202D302E3630363220202020302E30303030204F202020302020302020302020302020302020302020302020302020302020302020302020300A20202020312E3431323520202020302E3033353920202020302E303030302043202020302020302020302020302020302020302020302020302020302020302020302020300A20202020312E3431323520202020302E3836303920202020302E303030302043202020302020302020302020302020302020302020302020302020302020302020302020300A20202020302E3639383020202020312E3237333420202020302E303030302043202020302020302020302020302020302020302020302020302020302020302020302020300A2020202D302E3031363420202020302E3836303920202020302E30303030204E202020302020302020302020302020302020302020302020302020302020302020302020300A2020202D302E3031363420202020302E3033353920202020302E303030302043202020302020302020302020302020302020302020302020302020302020302020302020300A20202020302E3639383020202020322E3039383420202020302E30303030204F202020302020302020302020302020302020302020302020302020302020302020302020300A2020202D302E373330392020202D302E3337363620202020302E30303030204F202020302020302020302020302020302020302020302020302020302020302020302020300A2020312020322020312020312020202020200A2020332020322020312020312020202020200A2020332020342020312020302020202020200A2020342020352020312020302020202020200A2020352020312020312020312020202020200A2020322020362020312020302020202020200A2020352020372020312020302020202020200A2020332020382020312020302020202020200A2020382020392020312020302020202020200A2020372031302020312020302020202020200A2031302031312020322020302020202020200A2031312031322020312020302020202020200A2031322031332020312020302020202020200A2031332031342020312020302020202020200A2031342020372020312020302020202020200A2031322031352020322020302020202020200A2031342031362020322020302020202020200A4D2020454E44
Contributor: Tsuzimoto Y, Tsugawa H, Bamba T, Fukusaki E, engineering department, Osaka Univ.
InstType: EI
InstName: Pegasus II TOF-MS system, Leco; GC 6890, Agilent Technologies
IoniMethod: EI
IonPolarity: pos
Date: 2010-10-09 19:48:36+02:00
Num Peaks: 120
85 26 86 8 87 17 88 6 89 24 90 3 91 3 92 3 94 4 95 12 
96 38 97 13 98 9 99 59 100 23 101 100 102 13 103 999 104 102 105 51 
106 3 107 1 108 9 109 2 110 1 111 24 112 19 113 34 114 5 115 22 
116 14 117 179 118 21 119 15 120 3 122 2 124 7 125 10 126 8 127 25 
128 8 129 143 130 19 131 35 132 5 133 67 134 8 135 7 136 2 137 1 
138 1 139 2 140 3 141 7 142 12 143 30 144 5 145 83 146 8 147 80 
148 13 149 11 150 3 151 7 152 1 153 2 154 2 155 71 156 16 157 34 
158 4 159 3 163 3 167 1 168 2 169 67 170 46 171 216 172 36 173 19 
174 1 175 2 177 1 179 1 183 3 184 11 185 7 186 1 189 21 190 3 
191 2 192 5 193 2 195 5 196 3 204 2 211 17 212 2 213 1 217 15 
218 3 219 3 240 2 241 2 242 4 243 2 244 1 245 6 246 1 249 1 
261 37 262 6 263 3 264 2 267 4 282 2 283 1 453 1 454 1 483 1 
