Name: Alanylalanine
CAS: 1948-31-8
MW: 160
Formula: C6H12N2O3
Synonym: CID: 5484352
Synonym: MassBank: OUF00106
Synonym: Alanylalanine
Structure: 313934382D32392D342E6D6F6C0A20204368656D447261773038303231303132333932440A2031312031302020302020302020302020302020302020302020302020303939392056323030300A20202020302E3731333920202020302E3139393620202020302E303030302043202020302020302020302020302020302020302020302020302020302020302020302020300A20202020312E343236382020202D302E3230313520202020302E303030302043202020302020302020302020302020302020302020302020302020302020302020302020300A2020202D302E303033302020202D302E3230313520202020302E30303030204E202020302020302020302020302020302020302020302020302020302020302020302020300A20202020302E3731333920202020312E3033313720202020302E303030302043202020302020302020302020302020302020302020302020302020302020302020302020300A20202020312E343236382020202D312E3033313720202020302E30303030204F202020302020302020302020302020302020302020302020302020302020302020302020300A20202020322E3134373820202020302E3139393620202020302E30303030204F202020302020302020302020302020302020302020302020302020302020302020302020300A2020202D302E3731323020202020302E3139393620202020302E303030302043202020302020302020302020302020302020302020302020302020302020302020302020300A2020202D312E343332382020202D302E3230313520202020302E303030302043202020302020302020302020302020302020302020302020302020302020302020302020300A2020202D302E3731323020202020312E3033313720202020302E30303030204F202020302020302020302020302020302020302020302020302020302020302020302020300A2020202D312E343332382020202D312E3033313720202020302E303030302043202020302020302020302020302020302020302020302020302020302020302020302020300A2020202D322E3134373820202020302E3139393620202020302E30303030204E202020302020302020302020302020302020302020302020302020302020302020302020300A2020312020322020312020302020202020200A2020312020332020312020312020202020200A2020312020342020312020302020202020200A2020322020352020312020302020202020200A2020322020362020322020302020202020200A2020332020372020312020302020202020200A2020372020382020312020302020202020200A2020372020392020322020302020202020200A2020382031302020312020302020202020200A2020382031312020312020362020202020200A4D2020454E44
Contributor: Tsuzimoto Y, Tsugawa H, Bamba T, Fukusaki E, engineering department, Osaka Univ.
InstType: EI
InstName: Pegasus II TOF-MS system, Leco; GC 6890, Agilent Technologies
IoniMethod: EI
IonPolarity: pos
Date: 2010-10-09 19:48:36+02:00
Num Peaks: 140
85 16 86 54 87 16 88 6 89 2 93 1 94 1 96 1 97 12 98 11 
99 12 100 576 101 80 102 43 103 17 104 3 110 1 111 1 112 7 113 11 
114 154 115 41 116 130 117 40 118 12 119 10 120 1 125 1 126 3 127 1 
128 17 129 18 130 85 131 38 132 18 133 42 134 6 135 3 141 2 142 8 
143 3 144 17 145 3 146 21 147 119 148 24 149 19 150 5 151 1 152 1 
153 1 154 2 156 10 157 12 158 18 159 4 160 8 161 3 162 1 167 2 
168 1 169 9 170 6 171 4 172 39 173 7 174 48 175 8 176 6 177 1 
178 2 184 1 186 17 187 4 188 999 189 205 190 165 191 28 192 11 193 2 
199 3 200 31 201 20 202 7 203 2 204 1 206 1 211 1 215 12 216 9 
217 2 218 10 219 2 225 1 227 2 228 2 229 1 230 1 232 1 240 1 
243 19 244 5 245 1 246 29 247 7 248 1 250 1 254 1 257 1 259 2 
260 2 271 14 272 4 273 4 274 1 275 1 276 2 278 1 287 1 299 1 
311 1 348 1 351 1 360 2 361 37 362 17 363 7 364 1 367 1 369 1 
373 1 430 1 432 1 452 1 471 1 473 1 477 2 479 1 481 1 491 1 
