Name: Coniferyl aldehyde
CAS: 458-36-6
MW: 178
Formula: C10H10O3
Synonym: KEGG: C02666
Synonym: CID: 5280536
Synonym: MassBank: OUF00144
Synonym: Coniferyl aldehyde
Structure: 4330303030323732382E6364780A20204368656D447261773132323630383231313832440A2031342031342020302020302020302020302020302020302020302020303939392056323030300A2020202D312E3033303420202020302E3030303320202020302E303030302043202020302020302020302020302020302020302020302020302020302020302020302020300A2020202D312E303330342020202D302E3437353920202020302E303030302043202020302020302020302020302020302020302020302020302020302020302020302020300A2020202D302E363138302020202D302E3731333920202020302E303030302043202020302020302020302020302020302020302020302020302020302020302020302020300A2020202D302E323035362020202D302E3437353920202020302E303030302043202020302020302020302020302020302020302020302020302020302020302020302020300A2020202D302E3230353620202020302E3030303320202020302E303030302043202020302020302020302020302020302020302020302020302020302020302020302020300A2020202D302E3631383020202020302E3233383420202020302E303030302043202020302020302020302020302020302020302020302020302020302020302020302020300A20202020302E3230363420202020302E3233383220202020302E303030302043202020302020302020302020302020302020302020302020302020302020302020302020300A20202020302E3631383420202020302E3030303320202020302E303030302043202020302020302020302020302020302020302020302020302020302020302020302020300A20202020312E3033303420202020302E3233383220202020302E303030302043202020302020302020302020302020302020302020302020302020302020302020302020300A2020202D312E343432342020202D302E3731333720202020302E30303030204F202020302020302020302020302020302020302020302020302020302020302020302020300A20202020312E3434323420202020302E3030303320202020302E30303030204F202020302020302020302020302020302020302020302020302020302020302020302020300A20202020312E3033303420202020302E3731333920202020302E303030302048202020302020302020302020302020302020302020302020302020302020302020302020300A2020202D312E3338373620202020302E3631393120202020302E30303030204F202020302020302020302020302020302020302020302020302020302020302020302020300A2020202D302E3637333220202020302E3230363620202020302E303030302043202020302020302020302020302020302020302020302020302020302020302020302020300A2020312020322020322020302020202020200A2020322020332020312020302020202020200A2020332020342020322020302020202020200A2020342020352020312020302020202020200A2020352020362020322020302020202020200A2020362020312020312020302020202020200A2020352020372020312020302020202020200A2020372020382020322020302020202020200A2020382020392020312020302020202020200A2020322031302020312020302020202020200A2020392031312020322020302020202020200A2020392031322020312020302020202020200A2020312031332020312020302020202020200A2031332031342020312020302020202020200A4D202053545920203120202031205355500A4D2020534C4220203120202031202020310A4D202053414C2020203120203220203133202031340A4D202053424C20202031202031202031330A4D2020534D5420202031204F4348330A4D2020534256202020312031332020202D332E3838393420202020332E333230390A4D2020454E44
Contributor: Tsuzimoto Y, Tsugawa H, Bamba T, Fukusaki E, engineering department, Osaka Univ.
InstType: EI
InstName: Pegasus II TOF-MS system, Leco; GC 6890, Agilent Technologies
IoniMethod: EI
IonPolarity: pos
Date: 2010-10-09 19:48:36+02:00
Num Peaks: 170
85 22 86 17 87 27 88 138 89 371 90 77 91 109 92 24 93 17 94 45 
95 52 96 7 97 3 98 5 99 9 100 8 101 168 102 148 103 78 104 86 
105 56 106 13 107 31 108 10 109 75 110 8 111 6 113 6 114 22 115 109 
116 401 117 186 118 60 119 37 120 14 121 22 122 2 123 10 124 16 125 10 
126 5 127 12 128 37 129 39 130 56 131 45 132 80 133 52 134 11 135 80 
136 48 137 66 138 7 140 9 141 5 142 32 143 24 144 229 145 59 146 43 
147 45 148 19 149 39 150 16 151 15 152 3 153 2 154 1 156 16 157 11 
158 14 159 30 160 109 161 93 162 29 163 38 164 10 165 28 166 7 167 2 
169 3 170 4 172 28 173 57 174 65 175 105 176 88 177 26 178 7 179 35 
180 7 181 2 185 9 186 26 187 132 188 154 189 83 190 90 191 69 192 25 
193 16 194 4 195 4 198 5 200 19 201 9 202 199 203 84 204 51 205 33 
206 50 207 13 208 3 209 1 211 1 212 1 213 1 214 4 215 4 216 47 
217 615 218 999 219 280 220 92 221 35 222 7 224 2 226 2 228 5 229 3 
230 13 231 18 232 279 233 121 234 42 235 8 237 1 238 1 240 3 241 4 
242 1 243 4 246 11 247 56 248 898 249 291 250 92 251 10 252 3 259 1 
261 3 262 3 263 2 264 68 265 12 267 3 271 1 277 2 278 384 279 470 
280 124 281 31 314 1 317 1 346 1 382 1 388 1 433 1 444 2 492 1 
