Name: 1-Hexadecanol
CAS: 36653-82-4
MW: 242
Formula: C16H34O
Synonym: KEGG: C00823
Synonym: CID: 2682
Synonym: MassBank: OUF00006
Synonym: 1-Hexadecanol
Structure: 312D48455841444543414E4F4C2E6D6F6C0A20204368656D447261773131313930393134313932440A2031372031362020302020302020302020302020302020302020302020303939392056323030300A2020202D352E3030313320202020302E3230363220202020302E303030302043202020302020302020302020302020302020302020302020302020302020302020302020300A2020202D342E323836382020202D302E3230363320202020302E303030302043202020302020302020302020302020302020302020302020302020302020302020302020300A2020202D332E3537323420202020302E3230363220202020302E303030302043202020302020302020302020302020302020302020302020302020302020302020302020300A2020202D322E383537392020202D302E3230363220202020302E303030302043202020302020302020302020302020302020302020302020302020302020302020302020300A2020202D322E3134333420202020302E3230363220202020302E303030302043202020302020302020302020302020302020302020302020302020302020302020302020300A2020202D312E343238392020202D302E3230363220202020302E303030302043202020302020302020302020302020302020302020302020302020302020302020302020300A2020202D302E3731343520202020302E3230363220202020302E303030302043202020302020302020302020302020302020302020302020302020302020302020302020300A20202020302E303030302020202D302E3230363220202020302E303030302043202020302020302020302020302020302020302020302020302020302020302020302020300A20202020302E3731343520202020302E3230363220202020302E303030302043202020302020302020302020302020302020302020302020302020302020302020302020300A20202020312E343238392020202D302E3230363220202020302E303030302043202020302020302020302020302020302020302020302020302020302020302020302020300A20202020322E3134333420202020302E3230363220202020302E303030302043202020302020302020302020302020302020302020302020302020302020302020302020300A20202020322E383537392020202D302E3230363220202020302E303030302043202020302020302020302020302020302020302020302020302020302020302020302020300A20202020332E3537323420202020302E3230363320202020302E303030302043202020302020302020302020302020302020302020302020302020302020302020302020300A20202020342E323836382020202D302E3230363220202020302E303030302043202020302020302020302020302020302020302020302020302020302020302020302020300A20202020352E3030313320202020302E3230363320202020302E303030302043202020302020302020302020302020302020302020302020302020302020302020302020300A20202020352E373135382020202D302E3230363220202020302E303030302043202020302020302020302020302020302020302020302020302020302020302020302020300A2020202D352E373135382020202D302E3230363320202020302E30303030204F202020302020302020302020302020302020302020302020302020302020302020302020300A2020312020322020312020302020202020200A2020322020332020312020302020202020200A2020332020342020312020302020202020200A2020342020352020312020302020202020200A2020352020362020312020302020202020200A2020362020372020312020302020202020200A2020372020382020312020302020202020200A2020382020392020312020302020202020200A2020392031302020312020302020202020200A2031302031312020312020302020202020200A2031312031322020312020302020202020200A2031322031332020312020302020202020200A2031332031342020312020302020202020200A2031342031352020312020302020202020200A2031352031362020312020302020202020200A2020312031372020312020302020202020200A4D2020454E44
Contributor: Tsuzimoto Y, Tsugawa H, Bamba T, Fukusaki E, engineering department, Osaka Univ.
InstType: EI
InstName: Pegasus II TOF-MS system, Leco; GC 6890, Agilent Technologies
IoniMethod: EI
IonPolarity: pos
Date: 2010-10-09 19:48:36+02:00
Num Peaks: 135
85 204 86 24 87 103 88 49 89 621 90 64 91 226 92 21 93 19 94 4 
95 71 96 38 97 616 98 65 99 150 100 23 101 357 102 42 103 756 104 75 
105 34 106 2 107 6 108 1 109 30 110 16 111 302 112 39 113 68 114 14 
115 184 116 24 117 22 118 4 119 1 121 3 123 11 124 9 125 114 126 18 
127 32 128 4 129 120 130 15 131 33 132 3 135 1 137 5 138 4 139 36 
140 8 141 17 142 2 143 43 144 5 145 18 146 2 151 2 152 2 153 18 
154 4 155 6 156 1 157 25 158 4 159 7 160 1 165 1 166 1 167 9 
168 3 169 3 170 1 171 24 172 4 173 4 174 1 179 1 181 5 182 2 
183 2 184 1 185 22 186 4 187 3 188 1 189 1 190 1 193 1 194 1 
195 2 196 7 197 3 198 1 199 25 200 5 201 4 202 1 203 1 204 1 
206 1 207 1 209 1 210 1 211 1 213 28 214 5 215 3 216 1 217 1 
218 1 221 1 224 12 225 3 226 1 227 23 228 4 229 2 230 1 241 11 
242 2 243 1 244 1 255 1 283 9 284 3 297 2 298 13 299 999 300 331 
301 93 302 18 303 2 314 2 315 1 
