Name: Allantoin
CAS: 97-59-6
MW: 158
Formula: C4H6N4O3
Synonym: KEGG: C01551
Synonym: CID: 204
Synonym: MassBank: OUF00110
Synonym: Allantoin
Structure: 4330303030373436382E6364780A20204368656D447261773132323930383037313632440A2031312031312020302020302020302020302020302020302020302020303939392056323030300A2020202D312E3238373720202020302E3432373120202020302E30303030204E202020302020302020302020302020302020302020302020302020302020302020302020300A2020202D312E303332302020202D302E3335373220202020302E303030302043202020302020302020302020302020302020302020302020302020302020302020302020300A2020202D302E323037302020202D302E3335363420202020302E303030302043202020302020302020302020302020302020302020302020302020302020302020302020300A20202020302E3034373120202020302E3432383520202020302E30303030204E202020302020302020302020302020302020302020302020302020302020302020302020300A2020202D302E3632303820202020302E3931323720202020302E303030302043202020302020302020302020302020302020302020302020302020302020302020302020300A2020202D312E353136322020202D312E3032353220202020302E30303030204F202020302020302020302020302020302020302020302020302020302020302020302020300A20202020302E323738372020202D312E3032333320202020302E30303030204E202020302020302020302020302020302020302020302020302020302020302020302020300A20202020312E313033372020202D312E3032333320202020302E303030302043202020302020302020302020302020302020302020302020302020302020302020302020300A20202020312E353136322020202D302E3330383820202020302E30303030204F202020302020302020302020302020302020302020302020302020302020302020302020300A20202020312E353136322020202D312E3733373720202020302E30303030204E202020302020302020302020302020302020302020302020302020302020302020302020300A2020202D302E3632313720202020312E3733373720202020302E30303030204F202020302020302020302020302020302020302020302020302020302020302020302020300A2020312020322020312020302020202020200A2020322020332020312020302020202020200A2020332020342020312020302020202020200A2020342020352020312020302020202020200A2020352020312020312020302020202020200A2020322020362020322020302020202020200A2020332020372020312020302020202020200A2020372020382020312020302020202020200A2020382020392020322020302020202020200A2020382031302020312020302020202020200A2020352031312020322020302020202020200A4D2020454E44
Contributor: Tsuzimoto Y, Tsugawa H, Bamba T, Fukusaki E, engineering department, Osaka Univ.
InstType: EI
InstName: Pegasus II TOF-MS system, Leco; GC 6890, Agilent Technologies
IoniMethod: EI
IonPolarity: pos
Date: 2010-10-09 19:48:36+02:00
Num Peaks: 125
85 62 86 137 87 44 88 32 89 31 93 15 95 6 96 8 98 3 99 142 
100 999 101 424 102 151 103 17 105 13 109 1 111 9 114 9 115 135 116 283 
117 183 118 27 125 3 126 6 128 4 129 149 130 81 131 70 132 137 133 69 
134 8 135 4 140 9 142 21 143 44 144 24 145 9 146 2 147 361 148 39 
149 28 152 6 153 11 157 60 158 38 159 13 160 4 171 55 172 60 173 190 
174 132 175 44 176 21 185 6 186 31 187 18 188 32 189 613 190 128 191 48 
199 1 200 22 201 7 204 5 212 5 215 2 216 2 217 3 225 8 227 14 
236 4 238 3 242 14 243 87 244 30 245 4 247 6 249 17 250 4 254 8 
258 32 259 681 260 185 261 62 262 1 274 11 279 4 281 3 285 4 286 15 
288 5 302 6 314 16 317 3 320 6 331 4 341 1 347 8 351 6 352 3 
353 1 355 6 359 86 360 22 361 3 368 6 373 9 374 52 388 7 396 6 
397 7 404 5 408 4 409 1 410 1 411 11 417 1 418 13 423 3 432 8 
449 4 453 3 473 1 476 7 492 10 
