Name: D-Lyxose
CAS: 1949-78-6
MW: 150
Formula: C5H10O5
Synonym: KEGG: C01508
Synonym: CID: 439508
Synonym: MassBank: OUF00204
Synonym: D-Lyxose
Structure: 31393439362D38342D352E6D6F6C0A20204368656D447261773038303231303132333932440A2031302031302020302020302020302020302020302020302020302020303939392056323030300A2020202D302E343239322020202D302E3030323020202020302E303030302043202020302020302020302020302020302020302020302020302020302020302020302020300A2020202D302E303035302020202D302E3730393620202020302E303030302043202020302020302020302020302020302020302020302020302020302020302020302020300A2020202D302E3031343920202020302E3730373620202020302E303030302043202020302020302020302020302020302020302020302020302020302020302020302020300A2020202D312E323339382020202D302E3030323020202020302E30303030204F202020302020302020302020302020302020302020302020302020302020302020302020300A20202020302E383035372020202D302E3731393520202020302E303030302043202020302020302020302020302020302020302020302020302020302020302020302020300A2020202D302E343137332020202D312E3432373120202020302E30303030204F202020302020302020302020302020302020302020302020302020302020302020302020300A20202020302E3830353720202020302E3731393520202020302E303030302043202020302020302020302020302020302020302020302020302020302020302020302020300A2020202D302E3433393120202020312E3432373120202020302E30303030204F202020302020302020302020302020302020302020302020302020302020302020302020300A20202020312E323230302020202D302E3030323020202020302E30303030204F202020302020302020302020302020302020302020302020302020302020302020302020300A20202020312E323339382020202D312E3431373220202020302E30303030204F202020302020302020302020302020302020302020302020302020302020302020302020300A2020312020322020312020302020202020200A2020312020332020312020302020202020200A2020312020342020312020362020202020200A2020322020352020312020302020202020200A2020322020362020312020362020202020200A2020332020372020312020302020202020200A2020332020382020312020312020202020200A2020352020392020312020302020202020200A2020352031302020312020302020202020200A2020372020392020312020302020202020200A4D2020454E44
Contributor: Tsuzimoto Y, Tsugawa H, Bamba T, Fukusaki E, engineering department, Osaka Univ.
InstType: EI
InstName: Pegasus II TOF-MS system, Leco; GC 6890, Agilent Technologies
IoniMethod: EI
IonPolarity: pos
Date: 2010-10-09 19:48:36+02:00
Num Peaks: 132
85 9 86 7 87 14 88 10 89 156 90 14 91 7 94 1 98 4 99 11 
100 57 101 42 102 24 103 999 104 97 105 62 106 3 107 1 109 1 111 4 
112 4 113 9 114 9 115 11 116 12 117 112 118 12 119 19 120 1 121 1 
126 6 127 5 128 4 129 109 130 24 131 52 132 10 133 126 134 18 135 13 
140 3 141 1 142 5 143 18 144 3 145 12 146 2 147 338 148 56 149 37 
150 5 151 1 152 1 154 1 156 1 157 12 158 8 159 5 160 74 161 24 
162 6 163 17 164 3 165 1 168 2 171 1 172 6 173 7 174 13 175 13 
176 2 177 6 184 1 188 3 189 119 190 24 191 34 192 6 193 3 200 4 
201 7 202 2 203 8 204 29 205 41 206 8 207 8 208 1 214 3 215 1 
216 3 217 380 218 81 219 39 220 6 221 11 222 2 223 1 229 1 230 1 
231 6 232 5 233 36 234 10 235 5 238 1 240 1 241 1 247 1 248 3 
256 5 257 1 258 1 261 1 262 9 263 2 274 2 275 1 277 30 278 12 
279 5 280 2 291 4 292 1 305 1 306 2 307 119 308 38 309 19 310 4 
320 1 467 1 
