Name: N-Acetyl-DL-Valine
CAS: 3067-19-4
MW: 159
Formula: C7H13NO3
Synonym: CID: 227752
Synonym: MassBank: OUF00379
Synonym: N-Acetyl-DL-Valine
Structure: 38372D33322D312E6D6F6C0A20204368656D447261773036323130393038323332440A2031312031302020302020302020302020302020302020302020302020303939392056323030300A2020202D302E383235302020202D302E3731343520202020302E303030302043202020302020302020302020302020302020302020302020302020302020302020302020300A20202020302E3431323520202020302E3030303020202020302E30303030204E202020302020302020302020302020302020302020302020302020302020302020302020300A2020202D302E3431323520202020302E3030303020202020302E303030302043202020302020302020302020302020302020302020302020302020302020302020302020300A2020202D302E3832353020202020302E3731343520202020302E303030302043202020302020302020302020302020302020302020302020302020302020302020302020300A2020202D302E3431323520202020312E3432383920202020302E303030302043202020302020302020302020302020302020302020302020302020302020302020302020300A2020202D312E3635303020202020302E3731343520202020302E303030302043202020302020302020302020302020302020302020302020302020302020302020302020300A2020202D302E343132352020202D312E3432383920202020302E30303030204F202020302020302020302020302020302020302020302020302020302020302020302020300A2020202D312E363530302020202D302E3731343520202020302E30303030204F202020302020302020302020302020302020302020302020302020302020302020302020300A20202020302E383235302020202D302E3731343520202020302E303030302043202020302020302020302020302020302020302020302020302020302020302020302020300A20202020312E363530302020202D302E3731343520202020302E30303030204F202020302020302020302020302020302020302020302020302020302020302020302020300A20202020302E343132352020202D312E3432383920202020302E303030302043202020302020302020302020302020302020302020302020302020302020302020302020300A2020322020332020312020302020202020200A2020312020332020312020302020202020200A2020332020342020312020302020202020200A2020342020352020312020302020202020200A2020342020362020312020302020202020200A2020312020372020322020302020202020200A2020312020382020312020302020202020200A2020392031302020322020302020202020200A2020392031312020312020302020202020200A2020322020392020312020302020202020200A4D2020454E44
Contributor: Tsuzimoto Y, Tsugawa H, Bamba T, Fukusaki E, engineering department, Osaka Univ.
InstType: EI
InstName: Pegasus II TOF-MS system, Leco; GC 6890, Agilent Technologies
IoniMethod: EI
IonPolarity: pos
Date: 2010-10-09 19:48:36+02:00
Num Peaks: 82
85 29 86 45 87 54 88 15 89 20 90 5 91 26 92 8 93 8 94 3 
95 5 96 24 97 13 98 29 99 193 100 43 101 18 102 29 103 24 104 5 
110 1 111 2 112 14 113 125 114 999 115 76 116 268 117 79 118 29 119 4 
125 1 126 33 127 4 128 21 129 14 130 159 131 64 132 70 133 9 134 5 
140 3 141 9 142 9 143 29 144 20 145 43 146 263 147 44 148 13 149 1 
156 41 157 94 158 22 159 9 160 1 168 1 170 6 171 3 172 332 173 64 
174 46 175 5 176 1 186 6 187 114 188 28 189 16 190 2 198 1 200 1 
202 1 216 268 217 43 218 15 219 1 231 9 232 1 242 1 285 1 321 1 
422 1 494 1 
