Name: Glutaric anhydrate
CAS: 108-55-4
MW: 198
Formula: C8H14N4O2
Synonym: CID: 536000
Synonym: MassBank: OUF00250
Synonym: Glutaric anhydrate
Structure: 31342031362020302020302020302020302020302020302020302020302020312056323030300A20202020382E3030303020202032332E3030303020202020302E303030302043202020302020302020302020302020302020302020302020302020302020300A20202D31312E3030303020202031322E3030303020202020302E303030302043202020302020302020302020302020302020302020302020302020302020300A2020202D332E3030303020202020352E3030303020202020302E303030302043202020302020302020302020302020302020302020302020302020302020300A20202032362E3030303020202031322E3030303020202020302E303030302043202020302020302020302020302020302020302020302020302020302020300A20202020382E3030303020202034352E3030303020202020302E30303030204E202020302020302020302020302020302020302020302020302020302020300A20202D31312E3030303020202D31302E3030303020202020302E30303030204E202020302020302020302020302020302020302020302020302020302020300A2020202D332E3030303020202D31392E3030303020202020302E30303030204E202020302020302020302020302020302020302020302020302020302020300A20202032362E303030302020202D392E3030303020202020302E30303030204E202020302020302020302020302020302020302020302020302020302020300A20202D31312E3030303020202035352E3030303020202020302E30303030204F202020302020302020302020302020302020302020302020302020302020300A20202032362E3030303020202035352E3030303020202020302E30303030204F202020302020302020302020302020302020302020302020302020302020300A20202D32362E3030303020202D31362E3030303020202020302E303030302043202020302020302020302020302020302020302020302020302020302020300A20202031342E3030303020202D31382E3030303020202020302E303030302043202020302020302020302020302020302020302020302020302020302020300A20202D31372E3030303020202D32362E3030303020202020302E303030302043202020302020302020302020302020302020302020302020302020302020300A20202031342E3030303020202D32352E3030303020202020302E303030302043202020302020302020302020302020302020302020302020302020302020300A2020312020322020312020302020302020302020300A2020312020332020312020302020302020302020300A2020312020342020312020302020302020302020300A2020312020352020312020302020302020302020300A2020322020362020312020302020302020302020300A2020332020372020312020302020302020302020300A2020342020382020312020302020302020302020300A2020352020392020322020302020302020302020300A2020352031302020322020302020302020302020300A2020362031312020312020302020302020302020300A2020362031322020312020302020302020302020300A2020372031332020312020302020302020302020300A2020372031342020312020302020302020302020300A2020382031342020312020302020302020302020300A2020382031322020312020302020302020302020300A2031312031332020312020302020302020302020300A4D2020454E44
Contributor: Tsuzimoto Y, Tsugawa H, Bamba T, Fukusaki E, engineering department, Osaka Univ.
InstType: EI
InstName: Pegasus II TOF-MS system, Leco; GC 6890, Agilent Technologies
IoniMethod: EI
IonPolarity: pos
Date: 2010-10-09 19:48:36+02:00
Num Peaks: 97
85 63 86 9 87 13 88 27 89 18 90 2 91 2 92 3 93 4 94 1 
95 6 96 2 97 159 98 12 99 22 100 5 101 55 102 9 103 14 104 3 
105 5 106 1 107 1 109 1 111 3 112 1 113 11 114 2 115 24 116 126 
117 60 118 11 119 8 120 1 121 1 123 13 124 1 125 1 127 11 128 4 
129 190 130 70 131 37 132 9 133 65 134 9 135 6 136 1 141 1 142 2 
143 17 144 3 145 17 146 4 147 999 148 150 149 135 150 17 151 7 152 1 
155 1 157 1 158 192 159 55 160 13 161 3 162 7 163 3 164 1 171 7 
172 1 173 1 175 1 186 60 187 24 188 5 189 16 190 4 191 3 201 2 
203 47 204 44 205 11 206 4 217 4 218 1 219 3 220 1 233 43 234 15 
235 6 236 1 261 128 262 28 263 12 264 2 276 1 
