Name: Coniferyl aldehyde
CAS: 458-36-6
MW: 178
Formula: C10H10O3
Synonym: KEGG: C02666
Synonym: CID: 5280536
Synonym: MassBank: OUF00143
Synonym: Coniferyl aldehyde
Structure: 4330303030323732382E6364780A20204368656D447261773132323630383231313832440A2031342031342020302020302020302020302020302020302020302020303939392056323030300A2020202D312E3033303420202020302E3030303320202020302E303030302043202020302020302020302020302020302020302020302020302020302020302020302020300A2020202D312E303330342020202D302E3437353920202020302E303030302043202020302020302020302020302020302020302020302020302020302020302020302020300A2020202D302E363138302020202D302E3731333920202020302E303030302043202020302020302020302020302020302020302020302020302020302020302020302020300A2020202D302E323035362020202D302E3437353920202020302E303030302043202020302020302020302020302020302020302020302020302020302020302020302020300A2020202D302E3230353620202020302E3030303320202020302E303030302043202020302020302020302020302020302020302020302020302020302020302020302020300A2020202D302E3631383020202020302E3233383420202020302E303030302043202020302020302020302020302020302020302020302020302020302020302020302020300A20202020302E3230363420202020302E3233383220202020302E303030302043202020302020302020302020302020302020302020302020302020302020302020302020300A20202020302E3631383420202020302E3030303320202020302E303030302043202020302020302020302020302020302020302020302020302020302020302020302020300A20202020312E3033303420202020302E3233383220202020302E303030302043202020302020302020302020302020302020302020302020302020302020302020302020300A2020202D312E343432342020202D302E3731333720202020302E30303030204F202020302020302020302020302020302020302020302020302020302020302020302020300A20202020312E3434323420202020302E3030303320202020302E30303030204F202020302020302020302020302020302020302020302020302020302020302020302020300A20202020312E3033303420202020302E3731333920202020302E303030302048202020302020302020302020302020302020302020302020302020302020302020302020300A2020202D312E3338373620202020302E3631393120202020302E30303030204F202020302020302020302020302020302020302020302020302020302020302020302020300A2020202D302E3637333220202020302E3230363620202020302E303030302043202020302020302020302020302020302020302020302020302020302020302020302020300A2020312020322020322020302020202020200A2020322020332020312020302020202020200A2020332020342020322020302020202020200A2020342020352020312020302020202020200A2020352020362020322020302020202020200A2020362020312020312020302020202020200A2020352020372020312020302020202020200A2020372020382020322020302020202020200A2020382020392020312020302020202020200A2020322031302020312020302020202020200A2020392031312020322020302020202020200A2020392031322020312020302020202020200A2020312031332020312020302020202020200A2031332031342020312020302020202020200A4D202053545920203120202031205355500A4D2020534C4220203120202031202020310A4D202053414C2020203120203220203133202031340A4D202053424C20202031202031202031330A4D2020534D5420202031204F4348330A4D2020534256202020312031332020202D332E3838393420202020332E333230390A4D2020454E44
Contributor: Tsuzimoto Y, Tsugawa H, Bamba T, Fukusaki E, engineering department, Osaka Univ.
InstType: EI
InstName: Pegasus II TOF-MS system, Leco; GC 6890, Agilent Technologies
IoniMethod: EI
IonPolarity: pos
Date: 2010-10-09 19:48:36+02:00
Num Peaks: 171
85 21 86 15 87 34 88 121 89 388 90 77 91 88 92 29 93 24 94 49 
95 43 96 11 97 3 98 6 99 10 100 11 101 164 102 137 103 71 104 86 
105 54 106 11 107 35 108 10 109 73 110 9 111 10 112 1 113 9 114 22 
115 107 116 395 117 187 118 54 119 32 120 13 121 24 122 5 123 5 124 17 
125 9 126 1 127 13 128 43 129 45 130 60 131 48 132 95 133 55 134 16 
135 71 136 42 137 62 138 8 139 1 140 7 141 7 142 37 143 28 144 242 
145 63 146 53 147 49 148 23 149 43 150 16 151 19 153 1 154 3 155 3 
156 16 157 14 158 20 159 36 160 98 161 90 162 30 163 40 164 11 165 33 
166 10 167 1 170 2 171 5 172 26 173 64 174 71 175 107 176 91 177 27 
178 10 179 39 180 8 181 2 184 1 185 9 186 29 187 120 188 156 189 81 
190 97 191 74 192 27 193 16 194 3 195 2 198 2 199 2 200 19 201 12 
202 188 203 81 204 50 205 32 206 49 207 14 208 3 209 3 210 1 212 1 
214 2 215 4 216 50 217 592 218 999 219 285 220 90 221 38 222 9 223 2 
228 6 229 6 230 13 231 20 232 278 233 114 234 42 235 10 236 3 237 1 
238 1 240 5 241 2 242 2 243 3 244 1 246 21 247 58 248 914 249 294 
250 91 251 19 252 1 260 1 261 1 262 3 263 2 264 64 265 16 266 3 
267 3 268 2 270 1 277 2 278 387 279 482 280 117 281 32 282 3 355 1 
358 1 
