Name: 2'-Deoxyinosine
CAS: 890-38-0
MW: 252
Formula: C10H12N4O4
Synonym: KEGG: C05512
Synonym: CID: 65058
Synonym: MassBank: OUF00027
Synonym: 2'-Deoxyinosine
Structure: 310A34330A20204143442F4C6162733039333031303039313332440A2031382032302020302020302020312020302020302020302020302020302020312056323030300A20202032302E3037363220202D31322E3030373920202020302E303030302043202020302020302020302020302020302020302020302020302020302020302020302020300A20202031372E393531382020202D362E3831333020202020302E303030302043202020302020302020302020302020302020302020302020302020302020302020302020300A20202031392E313033332020202D342E3831393720202020302E303030302043202020302020302020302020302020302020302020302020302020302020302020302020300A20202032302E3734313420202D31302E3835353920202020302E303030302043202020302020302020302020302020302020302020302020302020302020302020302020300A20202032302E323534362020202D352E3438343820202020302E303030302043202020302020302020302020302020302020302020302020302020302020302020302020300A20202032302E323534362020202D362E3831333020202020302E303030302043202020302020302020302020302020302020302020302020302020302020302020302020300A20202032322E3037313220202D31302E3835353920202020302E303030302043202020302020302020302020302020302020302020302020302020302020302020302020300A20202032322E343832312020202D392E3539313020202020302E303030302043202020302020302020302020302020302020302020302020302020302020302020302020300A20202032322E353538342020202D362E3831333020202020302E303030302043202020302020302020302020302020302020302020302020302020302020302020302020300A20202032312E343035392020202D382E3830383920202020302E303030302043202020302020302020302020302020302020302020302020302020302020302020302020300A20202031392E313033332020202D332E3438393320202020302E30303030204F202020302020302020302020302020302020302020302020302020302020302020302020300A20202032312E343035392020202D372E3437383120202020302E30303030204E202020302020302020302020302020302020302020302020302020302020302020302020300A20202032302E333239392020202D392E3539313020202020302E30303030204F202020302020302020302020302020302020302020302020302020302020302020302020300A20202032322E353538342020202D352E3438343820202020302E30303030204E202020302020302020302020302020302020302020302020302020302020302020302020300A20202031392E313033332020202D372E3437383120202020302E30303030204E202020302020302020302020302020302020302020302020302020302020302020302020300A20202031372E393531382020202D352E3438343820202020302E30303030204E202020302020302020302020302020302020302020302020302020302020302020302020300A20202032302E3734313420202D31332E3136303420202020302E30303030204F202020302020302020302020302020302020302020302020302020302020302020302020300A20202032322E3733363320202D31322E3030373920202020302E30303030204F202020302020302020302020302020302020302020302020302020302020302020302020300A2031362020322020312020302020302020302020300A2031352020362020312020302020302020302020300A2020362020352020322020302020302020302020300A2020352020332020312020302020302020302020300A2020322031352020322020302020302020302020300A2031362020332020312020302020302020302020300A2031322020392020312020302020302020302020300A2020392031342020322020302020302020302020300A2020362031322020312020302020302020302020300A2020352031342020312020302020302020302020300A2020332031312020322020302020302020302020300A2020382020372020312020302020302020302020300A2031302020382020312020302020302020302020300A2031332020342020312020302020302020302020300A2020342020372020312020302020302020302020300A2031302031332020312020302020302020302020300A2031302031322020312020312020302020302020300A2020342020312020312020312020302020302020300A2020312031372020312020302020302020302020300A2020372031382020312020362020302020302020300A4D2020454E44
Contributor: Tsuzimoto Y, Tsugawa H, Bamba T, Fukusaki E, engineering department, Osaka Univ.
InstType: EI
InstName: Pegasus II TOF-MS system, Leco; GC 6890, Agilent Technologies
IoniMethod: EI
IonPolarity: pos
Date: 2010-10-09 19:48:36+02:00
Num Peaks: 71
85 150 89 35 95 107 96 7 101 237 103 999 104 35 109 122 111 79 112 43 
117 194 123 158 129 309 133 28 139 64 143 35 145 100 147 395 159 57 160 71 
172 43 178 64 179 14 193 280 194 21 196 28 201 28 207 86 208 21 209 596 
214 43 235 21 239 28 252 43 254 79 267 93 271 114 278 71 279 7 303 14 
312 21 315 158 317 86 319 86 320 21 329 64 335 129 339 7 344 43 352 28 
354 50 361 21 367 93 382 64 395 71 396 64 397 71 398 50 404 100 410 50 
414 7 419 7 421 71 435 86 442 35 456 7 458 50 471 21 472 21 476 50 
479 28 
