Name: L-Serine
CAS: 56-45-1
MW: 105
Formula: C3H7NO3
Synonym: KEGG: C00065
Synonym: CID: 5951
Synonym: MassBank: OUF00325
Synonym: L-Serine
Structure: 310A32300A4330303030313339332E6364780A20204368656D447261773132323630383139323032440A2020382020372020302020302020302020302020302020302020302020303939392056323030300A20202020302E3736303720202020302E3237373420202020302E303030302043202020302020302020302020302020302020302020302020302020302020302020302020300A20202020312E303832342020202D302E3237393820202020302E30303030204F202020302020302020302020302020302020302020302020302020302020302020302020300A20202020312E3034333620202020302E3736373420202020302E30303030204F202020302020302020302020302020302020302020302020302020302020302020302020300A20202020302E313131342020202D302E3039373520202020302E303030302043202020302020302020302020302020302020302020302020302020302020302020302020300A20202020302E323836362020202D302E3735313320202020302E303030302048202020302020302020302020302020302020302020302020302020302020302020302020300A2020202D302E323735342020202D302E3736373420202020302E30303030204E202020302020302020302020302020302020302020302020302020302020302020302020300A2020202D302E3332353120202020302E3333393020202020302E303030302043202020302020302020302020302020302020302020302020302020302020302020302020300A2020202D312E3038323420202020302E3333393020202020302E30303030204F202020302020302020302020302020302020302020302020302020302020302020302020300A2020312020322020312020302020202020200A2020312020332020322020302020202020200A2020312020342020312020302020202020200A2020342020352020312020362020202020200A2020342020362020312020312020202020200A2020342020372020312020302020202020200A2020372020382020312020302020202020200A4D2020454E44
Contributor: Tsuzimoto Y, Tsugawa H, Bamba T, Fukusaki E, engineering department, Osaka Univ.
InstType: EI
InstName: Pegasus II TOF-MS system, Leco; GC 6890, Agilent Technologies
IoniMethod: EI
IonPolarity: pos
Date: 2010-10-09 19:48:36+02:00
Num Peaks: 62
85 12 86 29 87 31 88 56 89 26 90 6 91 16 98 2 99 5 100 79 
101 31 102 40 103 161 104 12 105 12 111 1 115 12 116 999 117 132 118 51 
119 7 128 2 129 5 130 77 131 43 132 687 133 120 134 40 135 7 143 6 
144 134 145 17 146 80 147 124 148 24 149 19 150 4 159 53 160 5 188 17 
190 1 203 2 206 7 213 1 216 2 217 1 219 42 220 6 221 1 228 1 
232 2 234 34 235 3 250 1 256 3 257 1 286 1 314 1 356 1 379 1 
446 1 488 2 
