Name: N-Acetyl-L-Glutamate
CAS: 1188-37-0
MW: 189
Formula: C7H11NO5
Synonym: KEGG: C00624
Synonym: CID: 70914
Synonym: MassBank: OUF00370
Synonym: N-Acetyl-L-Glutamate
Structure: 313138382D33332D362E6D6F6C0A20204368656D447261773037323931303139343332440A2031332031322020302020302020302020302020302020302020302020303939392056323030300A20202020302E3730383420202020302E3430383720202020302E303030302043202020302020302020302020302020302020302020302020302020302020302020302020300A2020202D302E3030333920202020302E3832313520202020302E303030302043202020302020302020302020302020302020302020302020302020302020302020302020300A20202020302E373038342020202D302E3430343820202020302E30303030204E202020302020302020302020302020302020302020302020302020302020302020302020300A20202020312E3432323720202020302E3832313520202020302E303030302043202020302020302020302020302020302020302020302020302020302020302020302020300A2020202D302E3731303320202020302E3430383720202020302E303030302043202020302020302020302020302020302020302020302020302020302020302020302020300A2020202D302E303033392020202D302E3831373520202020302E303030302043202020302020302020302020302020302020302020302020302020302020302020302020300A20202020312E3432323720202020312E3634383920202020302E30303030204F202020302020302020302020302020302020302020302020302020302020302020302020300A20202020322E3134333020202020302E3430383720202020302E30303030204F202020302020302020302020302020302020302020302020302020302020302020302020300A2020202D312E3432383620202020302E3832313520202020302E303030302043202020302020302020302020302020302020302020302020302020302020302020302020300A2020202D302E373130332020202D302E3430343820202020302E303030302043202020302020302020302020302020302020302020302020302020302020302020302020300A2020202D302E303033392020202D312E3634383920202020302E30303030204F202020302020302020302020302020302020302020302020302020302020302020302020300A2020202D322E3134333020202020302E3430383720202020302E30303030204F202020302020302020302020302020302020302020302020302020302020302020302020300A2020202D312E3432383620202020312E3634383920202020302E30303030204F202020302020302020302020302020302020302020302020302020302020302020302020300A2020312020322020312020302020202020200A2020312020332020312020312020202020200A2020312020342020312020302020202020200A2020322020352020312020302020202020200A2020332020362020312020302020202020200A2020342020372020312020302020202020200A2020342020382020322020302020202020200A2020352020392020312020302020202020200A2020362031302020312020302020202020200A2020362031312020322020302020202020200A2020392031322020312020302020202020200A2020392031332020322020302020202020200A4D2020454E44
Contributor: Tsuzimoto Y, Tsugawa H, Bamba T, Fukusaki E, engineering department, Osaka Univ.
InstType: EI
InstName: Pegasus II TOF-MS system, Leco; GC 6890, Agilent Technologies
IoniMethod: EI
IonPolarity: pos
Date: 2010-10-09 19:48:36+02:00
Num Peaks: 204
85 373 86 80 87 62 88 61 89 65 90 16 91 22 92 14 93 22 94 5 
95 39 96 14 97 27 98 182 99 121 100 93 101 119 102 54 103 355 104 43 
105 26 106 3 107 3 108 10 109 3 110 17 111 101 112 87 113 27 114 53 
115 60 116 510 117 218 118 70 119 33 120 5 121 3 123 1 124 4 125 22 
126 783 127 68 128 44 129 185 130 171 131 187 132 56 133 135 134 29 135 21 
136 3 137 2 138 8 139 3 140 75 141 28 142 139 143 57 144 74 145 67 
146 97 147 296 148 60 149 128 150 24 151 14 152 4 153 115 154 32 155 9 
156 978 157 194 158 999 159 284 160 84 161 18 162 13 163 6 164 1 165 2 
166 3 167 3 168 3 169 18 170 44 171 36 172 93 173 51 174 328 175 52 
176 20 177 5 178 1 179 2 180 1 181 1 182 11 183 4 184 68 185 29 
186 471 187 105 188 36 189 64 190 14 191 8 192 1 196 1 197 1 198 11 
199 28 200 113 201 41 202 38 203 13 204 66 205 15 206 9 207 1 208 2 
212 1 214 6 215 7 216 735 217 120 218 43 219 5 220 1 221 1 223 1 
226 15 227 3 228 268 229 46 230 78 231 23 232 11 233 7 234 2 235 1 
238 1 243 48 244 13 245 5 246 1 247 1 248 6 249 7 250 3 251 1 
252 2 257 1 258 2 259 7 260 2 261 5 262 1 266 1 268 1 271 1 
272 2 273 1 274 2 275 1 276 82 277 67 278 29 279 15 280 4 283 1 
289 16 290 35 291 12 292 6 293 2 294 1 300 4 301 2 303 1 304 1 
317 5 318 202 319 60 320 25 321 6 322 1 323 1 324 1 331 1 333 3 
334 1 348 1 360 1 361 1 363 2 372 1 405 1 406 1 443 1 448 1 
455 1 473 1 488 1 498 1 
