Name: Isobutylamine
CAS: 78-81-9
MW: 73
Formula: C4H11N
Synonym: KEGG: C02787
Synonym: CID: 6558
Synonym: MassBank: OUF00284
Synonym: Isobutylamine
Structure: 310A31340A2020352020342020302020302020302020302020302020302020302020302020312056323030300A20202020392E3030303020202033302E3030303020202020302E303030302043202020302020302020302020302020302020302020302020302020302020300A2020202D392E3030303020202032302E3030303020202020302E303030302043202020302020302020302020302020302020302020302020302020302020300A20202032362E3030303020202032302E3030303020202020302E30303030204E202020302020302020302020302020302020302020302020302020302020300A2020202D392E3030303020202020302E3030303020202020302E303030302043202020302020302020302020302020302020302020302020302020302020300A20202D32362E3030303020202033302E3030303020202020302E303030302043202020302020302020302020302020302020302020302020302020302020300A2020312020322020312020302020302020302020300A2020312020332020312020302020302020302020300A2020322020342020312020302020302020302020300A2020322020352020312020302020302020302020300A4D2020454E44
Contributor: Tsuzimoto Y, Tsugawa H, Bamba T, Fukusaki E, engineering department, Osaka Univ.
InstType: EI
InstName: Pegasus II TOF-MS system, Leco; GC 6890, Agilent Technologies
IoniMethod: EI
IonPolarity: pos
Date: 2010-10-09 19:48:36+02:00
Num Peaks: 57
85 24 86 714 87 71 88 30 89 2 96 1 97 2 98 4 99 14 100 341 
101 53 102 53 103 11 104 3 110 1 112 8 113 14 114 40 115 17 116 39 
117 51 118 10 119 4 126 6 127 1 128 399 129 55 130 109 131 48 132 14 
133 4 142 11 143 5 144 26 145 7 146 11 147 2 148 1 158 24 159 9 
160 5 172 15 173 5 174 999 175 184 176 82 177 10 178 2 186 5 200 5 
201 1 202 148 203 30 204 13 205 1 216 3 217 5 
