Name: DL-Homocysteine thiolactone
CAS: 10593-85-8
MW: 117
Formula: C4H7NOS
Synonym: CID: 134505
Synonym: MassBank: OUF00190
Synonym: DL-Homocysteine thiolactone
Structure: 310A31390A31303539332D37382D392E6D6F6C0A20204368656D447261773037323931303139303232440A2020372020372020302020302020302020302020302020302020302020303939392056323030300A2020202D302E323931352020202D302E3439353020202020302E303030302043202020302020302020302020302020302020302020302020302020302020302020302020300A20202020302E333739352020202D302E3936383020202020302E303030302053202020302020302020302020302020302020302020302020302020302020302020302020300A2020202D302E3033383520202020302E3330383020202020302E303030302043202020302020302020302020302020302020302020302020302020302020302020302020300A2020202D312E303631352020202D302E3737303020202020302E30303030204F202020302020302020302020302020302020302020302020302020302020302020302020300A20202020312E303631352020202D302E3437333020202020302E303030302043202020302020302020302020302020302020302020302020302020302020302020302020300A2020202D302E3533333520202020302E3936383020202020302E30303030204E202020302020302020302020302020302020302020302020302020302020302020302020300A20202020302E3830383520202020302E3330383020202020302E303030302043202020302020302020302020302020302020302020302020302020302020302020302020300A2020322020312020312020302020202020200A2020332020312020312020302020202020200A2020342020312020322020302020202020200A2020352020322020312020302020202020200A2020332020362020312020312020202020200A2020372020332020312020302020202020200A2020372020352020312020302020202020200A4D2020454E44
Contributor: Tsuzimoto Y, Tsugawa H, Bamba T, Fukusaki E, engineering department, Osaka Univ.
InstType: EI
InstName: Pegasus II TOF-MS system, Leco; GC 6890, Agilent Technologies
IoniMethod: EI
IonPolarity: pos
Date: 2010-10-09 19:48:36+02:00
Num Peaks: 112
85 17 86 25 87 14 88 10 90 17 91 48 92 6 93 7 96 6 97 3 
98 32 99 9 100 253 101 51 102 30 103 29 104 7 105 13 106 5 109 1 
110 2 112 31 113 9 114 89 115 38 116 10 117 33 118 15 119 267 120 32 
121 23 122 2 126 15 127 6 128 999 129 155 130 80 131 49 132 45 133 71 
134 12 135 11 136 2 137 1 144 11 145 3 146 21 147 242 148 47 149 36 
150 7 156 7 157 2 158 6 159 4 160 12 161 6 162 32 163 14 164 4 
165 1 172 19 173 17 174 19 176 2 177 1 186 1 188 8 189 9 190 3 
191 1 192 1 202 56 203 18 204 8 205 2 206 1 207 2 214 1 216 3 
218 51 219 104 220 26 221 7 222 2 229 1 230 18 231 4 232 14 233 2 
234 479 235 107 236 68 237 12 238 3 245 14 246 13 261 23 262 5 263 3 
279 2 298 1 306 1 308 22 309 10 310 4 311 2 336 4 351 28 352 9 
353 6 360 1 
