Name: 4-Hydroxybenzyl alcohol
CAS: 623-05-2
MW: 124
Formula: C7H8O2
Synonym: CID: 125
Synonym: MassBank: OUF00063
Synonym: 4-Hydroxybenzyl alcohol
Structure: 310A32330A342D487964726F787962656E7A796C20616C636F686F6C20283632332D30352D32290A20204143442F4C6162733034303330383138333832440A2020392020392020302020302020302020302020302020302020302020302020312056323030300A20202031332E373134372020202D362E3934363420202020302E303030302043202020302020302020302020302020302020302020302020302020302020302020302020300A20202031332E373134372020202D382E3237363420202020302E303030302043202020302020302020302020302020302020302020302020302020302020302020302020300A20202031322E353632382020202D362E3238313420202020302E303030302043202020302020302020302020302020302020302020302020302020302020302020302020300A20202031322E353632382020202D382E3934313420202020302E303030302043202020302020302020302020302020302020302020302020302020302020302020302020300A20202031312E343131302020202D362E3934363420202020302E303030302043202020302020302020302020302020302020302020302020302020302020302020302020300A20202031312E343131302020202D382E3237363420202020302E303030302043202020302020302020302020302020302020302020302020302020302020302020302020300A20202031322E353632382020202D342E3935313420202020302E303030302043202020302020302020302020302020302020302020302020302020302020302020302020300A20202031322E3536323820202D31302E3237313420202020302E30303030204F202020302020302020302020302020302020302020302020302020302020302020302020300A20202031332E373134362020202D342E3238363420202020302E30303030204F202020302020302020302020302020302020302020302020302020302020302020302020300A2020322020312020312020302020302020302020300A2020332020312020322020302020302020302020300A2020342020322020322020302020302020302020300A2020352020332020312020302020302020302020300A2020362020342020312020302020302020302020300A2020362020352020322020302020302020302020300A2020332020372020312020302020302020302020300A2020342020382020312020302020302020302020300A2020372020392020312020302020302020302020300A4D2020454E44
Contributor: Tsuzimoto Y, Tsugawa H, Bamba T, Fukusaki E, engineering department, Osaka Univ.
InstType: EI
InstName: Pegasus II TOF-MS system, Leco; GC 6890, Agilent Technologies
IoniMethod: EI
IonPolarity: pos
Date: 2010-10-09 19:48:36+02:00
Num Peaks: 133
85 22 86 5 87 14 88 4 89 113 90 46 91 75 92 8 93 13 94 2 
95 28 96 7 97 9 98 2 99 5 100 2 101 4 102 11 103 55 104 48 
105 71 106 71 107 26 108 3 109 8 110 2 111 11 112 3 113 2 114 1 
115 13 116 3 117 15 118 5 119 97 120 13 121 23 122 4 123 10 124 2 
125 1 127 2 128 1 129 1 130 2 131 22 132 5 133 56 134 11 135 37 
136 6 137 16 138 3 139 1 143 4 144 1 145 14 146 4 147 521 148 89 
149 123 150 24 151 69 152 13 153 4 154 1 157 1 159 2 160 1 161 24 
162 8 163 95 164 31 165 100 166 15 167 7 168 1 169 1 175 3 176 2 
177 27 178 14 179 999 180 186 181 54 182 7 183 1 190 4 191 9 192 3 
193 38 194 10 195 7 196 2 207 10 208 4 209 33 210 11 211 5 212 1 
219 1 220 1 221 2 222 1 223 42 224 13 225 18 226 6 227 2 235 7 
236 4 237 30 238 15 239 5 240 1 251 6 252 3 253 232 254 73 255 27 
256 5 257 1 260 1 261 1 263 1 264 1 265 2 266 2 267 207 268 285 
269 80 270 27 271 4 
