Name: MassBank: OUF00045
CAS: 99-50-3
MW: 154
Formula: C7H6O4
Synonym: KEGG: C00230
Synonym: CID: 72
Synonym: MassBank: OUF00045
Synonym: 3,4-dihydroxybenzoate
Structure: 4330303030323636382E6364780A20204368656D447261773132323630383231313632440A2031312031312020302020302020302020302020302020302020302020303939392056323030300A2020202D302E3639363020202020302E3533353620202020302E303030302043202020302020302020302020302020302020302020302020302020302020302020302020300A2020202D302E363936302020202D302E3030303720202020302E303030302043202020302020302020302020302020302020302020302020302020302020302020302020300A2020202D302E323331362020202D302E3236383820202020302E303030302043202020302020302020302020302020302020302020302020302020302020302020302020300A20202020302E323332382020202D302E3030303720202020302E303030302043202020302020302020302020302020302020302020302020302020302020302020302020300A20202020302E3233323820202020302E3533353620202020302E303030302043202020302020302020302020302020302020302020302020302020302020302020302020300A2020202D302E3233313620202020302E3830333720202020302E303030302043202020302020302020302020302020302020302020302020302020302020302020302020300A20202020302E363937322020202D302E3236383820202020302E303030302043202020302020302020302020302020302020302020302020302020302020302020302020300A20202020312E313630342020202D302E3030313420202020302E30303030204F202020302020302020302020302020302020302020302020302020302020302020302020300A20202020302E363937322020202D302E3830333720202020302E30303030204F202020302020302020302020302020302020302020302020302020302020302020302020300A2020202D312E3136303420202020302E3830333720202020302E30303030204F202020302020302020302020302020302020302020302020302020302020302020302020300A2020202D312E313630342020202D302E3236383820202020302E30303030204F202020302020302020302020302020302020302020302020302020302020302020302020300A2020312020322020322020302020202020200A2020322020332020312020302020202020200A2020332020342020322020302020202020200A2020342020352020312020302020202020200A2020352020362020322020302020202020200A2020362020312020312020302020202020200A2020342020372020312020302020202020200A2020372020382020312020302020202020200A2020372020392020322020302020202020200A2020312031302020312020302020202020200A2020322031312020312020302020202020200A4D2020454E44
Contributor: Tsuzimoto Y, Tsugawa H, Bamba T, Fukusaki E, engineering department, Osaka Univ.
InstType: EI
InstName: Pegasus II TOF-MS system, Leco; GC 6890, Agilent Technologies
IoniMethod: EI
IonPolarity: pos
Date: 2010-10-09 19:48:36+02:00
Num Peaks: 134
85 7 86 1 87 5 88 1 89 21 90 7 91 21 92 5 93 12 94 1 
95 9 96 1 97 3 98 4 99 3 101 1 102 2 103 18 104 8 105 30 
106 4 107 19 108 3 109 20 110 2 111 4 112 1 113 1 115 8 116 1 
117 8 118 3 119 23 120 3 121 10 122 2 123 11 124 1 126 6 127 1 
129 2 131 16 132 2 133 47 134 9 135 26 136 8 137 99 138 14 139 5 
143 4 145 3 146 1 147 41 148 8 149 20 150 7 151 9 152 1 153 1 
157 1 159 1 161 3 162 1 163 22 164 11 165 92 166 23 167 7 168 1 
177 7 178 3 179 21 180 4 181 5 182 1 183 1 189 1 191 6 192 5 
193 999 194 155 195 62 196 9 197 2 205 2 206 1 207 18 208 4 209 6 
210 1 211 5 212 1 221 3 222 2 223 79 224 20 225 8 226 1 235 1 
237 9 238 2 239 2 251 2 253 1 265 4 266 1 267 34 268 8 269 3 
279 2 280 1 281 28 282 10 283 4 284 1 297 1 310 1 311 57 312 28 
313 16 314 5 315 1 354 2 355 68 356 35 357 15 358 4 369 4 370 108 
371 45 372 21 373 5 374 1 
