Name: 2-Aminoethanol
CAS: 141-43-5
MW: 61
Formula: C2H7NO
Synonym: MassBank: OUF00019
Synonym: 2-Aminoethanol
Structure: 310A31320A4330303030373237392E6364780A20204368656D447261773132323930383037303932440A2020342020332020302020302020302020302020302020302020302020303939392056323030300A2020202D312E303731372020202D302E3230363220202020302E30303030204F202020302020302020302020302020302020302020302020302020302020302020302020300A2020202D302E3335373220202020302E3230363220202020302E303030302043202020302020302020302020302020302020302020302020302020302020302020302020300A20202020302E333537322020202D302E3230363220202020302E303030302043202020302020302020302020302020302020302020302020302020302020302020302020300A20202020312E3037313720202020302E3230363220202020302E30303030204E202020302020302020302020302020302020302020302020302020302020302020302020300A2020322020312020312020302020202020200A2020332020322020312020302020202020200A2020342020332020312020302020202020200A4D2020454E44
Contributor: Tsuzimoto Y, Tsugawa H, Bamba T, Fukusaki E, engineering department, Osaka Univ.
InstType: EI
InstName: Pegasus II TOF-MS system, Leco; GC 6890, Agilent Technologies
IoniMethod: EI
IonPolarity: pos
Date: 2010-10-09 19:48:36+02:00
Num Peaks: 69
85 10 86 378 87 46 88 28 89 16 90 2 91 1 98 3 99 7 100 393 
101 56 102 62 103 28 104 5 105 7 106 1 112 1 113 10 114 53 115 27 
116 26 117 36 118 9 119 16 120 2 121 1 128 2 129 5 130 67 131 57 
132 17 133 116 134 17 135 9 136 1 142 2 143 2 144 11 145 4 146 8 
147 213 148 34 149 17 150 2 156 1 158 12 159 4 160 3 161 1 170 1 
171 1 172 25 173 7 174 999 175 183 176 83 177 10 178 2 186 1 187 2 
188 14 189 4 190 3 204 3 205 1 246 1 262 18 263 5 264 2 
