Name: b-Lactose
CAS: 5965-66-2
MW: 342
Formula: C12H22O11
Synonym: KEGG: C01970
Synonym: CID: 6134
Synonym: MassBank: OUF00296
Synonym: b-Lactose
Structure: 35393635362D34382D332E6D6F6C0A20204368656D447261773038303431303038303732440A2032332032342020302020302020302020302020302020302020302020303939392056323030300A2020202D302E3734303320202020302E3436373020202020302E303030302043202020302020302020302020302020302020302020302020302020302020302020302020300A2020202D302E363736322020202D302E3334353820202020302E303030302043202020302020302020302020302020302020302020302020302020302020302020302020300A2020202D302E3036303620202020302E3933373620202020302E30303030204F202020302020302020302020302020302020302020302020302020302020302020302020300A2020202D312E3438363620202020302E3831383820202020302E303030302043202020302020302020302020302020302020302020302020302020302020302020302020300A2020202D312E333531312020202D302E3831343020202020302E30303030204F202020302020302020302020302020302020302020302020302020302020302020302020300A20202020302E303630362020202D302E3639373520202020302E303030302043202020302020302020302020302020302020302020302020302020302020302020302020300A20202020302E3637363220202020302E3537383720202020302E303030302043202020302020302020302020302020302020302020302020302020302020302020302020300A2020202D322E3136313620202020302E3335323920202020302E303030302043202020302020302020302020302020302020302020302020302020302020302020302020300A2020202D312E3535333220202020312E3634333520202020302E30303030204F202020302020302020302020302020302020302020302020302020302020302020302020300A2020202D322E303937342020202D302E3435353120202020302E303030302043202020302020302020302020302020302020302020302020302020302020302020302020300A20202020302E313239352020202D312E3531393920202020302E30303030204F202020302020302020302020302020302020302020302020302020302020302020302020300A20202020302E373337392020202D302E3232373020202020302E30303030204F202020302020302020302020302020302020302020302020302020302020302020302020300A20202020312E3334383820202020312E3035313720202020302E303030302043202020302020302020302020302020302020302020302020302020302020302020302020300A2020202D322E3931323620202020302E3730393520202020302E30303030204F202020302020302020302020302020302020302020302020302020302020302020302020300A2020202D322E373737322020202D302E3932383120202020302E30303030204F202020302020302020302020302020302020302020302020302020302020302020302020300A20202020312E343839302020202D302E3537383720202020302E303030302043202020302020302020302020302020302020302020302020302020302020302020302020300A20202020322E3039373520202020302E3730303020202020302E303030302043202020302020302020302020302020302020302020302020302020302020302020302020300A20202020312E3238373020202020312E3837343020202020302E30303030204F202020302020302020302020302020302020302020302020302020302020302020302020300A20202020322E313638372020202D302E3131323920202020302E303030302043202020302020302020302020302020302020302020302020302020302020302020302020300A20202020312E353533322020202D312E3430333520202020302E303030302043202020302020302020302020302020302020302020302020302020302020302020302020300A20202020322E3737373220202020312E3136383220202020302E30303030204F202020302020302020302020302020302020302020302020302020302020302020302020300A20202020322E393132362020202D302E3435393920202020302E30303030204F202020302020302020302020302020302020302020302020302020302020302020302020300A20202020302E383733342020202D312E3837343020202020302E30303030204F202020302020302020302020302020302020302020302020302020302020302020302020300A2020312020322020312020302020202020200A2020312020332020312020362020202020200A2020312020342020312020302020202020200A2020322020352020312020302020202020200A2020322020362020312020312020202020200A2020372020332020312020312020202020200A2020342020382020312020302020202020200A2020342020392020312020312020202020200A2020352031302020312020302020202020200A2020362031312020312020302020202020200A2020372031322020312020302020202020200A2020372031332020312020302020202020200A2020382031342020312020362020202020200A2020382031302020312020302020202020200A2031302031352020312020312020202020200A2031322031362020312020302020202020200A2031332031372020312020302020202020200A2031332031382020312020362020202020200A2031362031392020312020302020202020200A2031362032302020312020312020202020200A2031372032312020312020312020202020200A2031372031392020312020302020202020200A2031392032322020312020312020202020200A2032302032332020312020302020202020200A4D2020454E44
Contributor: Tsuzimoto Y, Tsugawa H, Bamba T, Fukusaki E, engineering department, Osaka Univ.
InstType: EI
InstName: Pegasus II TOF-MS system, Leco; GC 6890, Agilent Technologies
IoniMethod: EI
IonPolarity: pos
Date: 2010-10-09 19:48:36+02:00
Num Peaks: 297
85 25 86 16 87 21 88 23 89 248 90 24 91 16 92 3 93 3 94 4 
95 7 96 6 97 47 98 9 99 26 100 52 101 78 102 42 103 520 104 55 
105 94 106 13 107 7 108 3 109 22 110 7 111 18 112 7 113 30 114 29 
115 33 116 37 117 406 118 44 119 33 120 4 121 3 122 1 123 2 124 2 
125 5 126 7 127 22 128 17 129 458 130 77 131 98 132 19 133 203 134 29 
135 21 136 3 137 2 138 5 139 10 140 7 141 19 142 25 143 121 144 19 
145 34 146 9 147 999 148 164 149 121 150 16 151 11 152 7 153 14 154 7 
155 79 156 20 157 101 158 25 159 19 160 188 161 41 162 14 163 39 164 7 
165 5 166 2 167 8 168 11 169 319 170 52 171 30 172 11 173 25 174 10 
175 17 176 3 177 15 178 4 179 4 180 6 181 7 182 5 183 14 184 5 
185 9 186 11 187 8 188 4 189 93 190 26 191 180 192 34 193 18 194 4 
195 6 196 6 197 5 198 7 199 11 200 5 201 12 202 5 203 30 204 844 
205 357 206 114 207 38 208 8 209 3 210 24 211 6 212 5 213 2 214 4 
215 20 216 24 217 550 218 137 219 61 220 13 221 33 222 8 223 8 224 2 
225 1 226 1 227 10 228 7 229 41 230 26 231 54 232 19 233 34 234 10 
235 6 236 1 237 1 238 1 239 2 240 5 241 13 242 8 243 94 244 32 
245 31 246 15 247 23 248 6 249 3 250 1 252 1 253 1 254 4 255 7 
256 10 257 12 258 6 259 24 260 9 261 5 262 8 263 5 264 1 265 6 
266 2 267 1 268 8 269 13 270 10 271 90 272 25 273 15 274 6 275 8 
276 8 277 4 278 3 279 3 281 1 282 1 283 1 284 1 285 2 286 2 
287 3 288 2 289 3 290 1 291 16 292 6 293 4 294 1 295 1 297 1 
299 1 300 22 301 8 302 4 303 2 304 5 305 26 306 12 307 8 308 3 
309 1 313 2 315 1 316 1 317 10 318 12 319 165 320 60 321 29 322 7 
323 2 328 1 329 1 330 2 331 32 332 21 333 13 334 5 335 2 336 1 
337 4 338 1 343 4 344 4 345 8 346 4 347 2 348 1 349 1 358 4 
359 15 360 23 361 317 362 129 363 62 364 19 365 6 366 1 373 1 374 4 
375 1 376 2 377 3 378 2 379 1 389 1 390 7 391 3 392 1 393 2 
405 1 408 1 409 11 410 6 411 3 421 1 422 2 423 1 427 2 428 1 
435 1 436 1 449 2 450 3 451 14 452 9 453 4 454 1 464 3 465 2 
466 2 479 4 480 19 481 14 482 6 483 2 484 1 
