Name: Serotonin
CAS: 50-67-9
MW: 176
Formula: C10H12N2O
Synonym: KEGG: C00780
Synonym: CID: 5202
Synonym: MassBank: OUF00456
Synonym: Serotonin
Structure: 4330303030313432392E6364780A20204368656D447261773132323630383139323132440A2031332031342020302020302020302020302020302020302020302020303939392056323030300A2020202D312E3135343620202020302E3038343520202020302E303030302043202020302020302020302020302020302020302020302020302020302020302020302020300A2020202D312E313534362020202D302E3437323420202020302E303030302043202020302020302020302020302020302020302020302020302020302020302020302020300A2020202D302E363732332020202D302E3735303820202020302E303030302043202020302020302020302020302020302020302020302020302020302020302020302020300A2020202D302E313930302020202D302E3437323420202020302E303030302043202020302020302020302020302020302020302020302020302020302020302020302020300A2020202D302E3139303020202020302E3038343520202020302E303030302043202020302020302020302020302020302020302020302020302020302020302020302020300A2020202D302E3637323320202020302E3336323920202020302E303030302043202020302020302020302020302020302020302020302020302020302020302020302020300A20202020302E333339362020202D302E3634343520202020302E30303030204E202020302020302020302020302020302020302020302020302020302020302020302020300A20202020302E363636392020202D302E3139333920202020302E303030302043202020302020302020302020302020302020302020302020302020302020302020302020300A20202020302E3333393620202020302E3235363620202020302E303030302043202020302020302020302020302020302020302020302020302020302020302020302020300A20202020302E3632343920202020302E3735303820202020302E303030302043202020302020302020302020302020302020302020302020302020302020302020302020300A20202020312E3137363720202020302E3735303820202020302E303030302043202020302020302020302020302020302020302020302020302020302020302020302020300A20202020312E3633353520202020302E3239323020202020302E30303030204E202020302020302020302020302020302020302020302020302020302020302020302020300A2020202D312E3633353520202020302E3336323220202020302E30303030204F202020302020302020302020302020302020302020302020302020302020302020302020300A2020312020322020322020302020202020200A2020322020332020312020302020202020200A2020332020342020322020302020202020200A2020342020352020312020302020202020200A2020352020362020322020302020202020200A2020362020312020312020302020202020200A2020342020372020312020302020202020200A2020372020382020312020302020202020200A2020382020392020322020302020202020200A2020392020352020312020302020202020200A2020392031302020312020302020202020200A2031302031312020312020302020202020200A2031312031322020312020302020202020200A2020312031332020312020302020202020200A4D2020454E44
Contributor: Tsuzimoto Y, Tsugawa H, Bamba T, Fukusaki E, engineering department, Osaka Univ.
InstType: EI
InstName: Pegasus II TOF-MS system, Leco; GC 6890, Agilent Technologies
IoniMethod: EI
IonPolarity: pos
Date: 2010-10-09 19:48:36+02:00
Num Peaks: 126
85 4 86 257 87 27 88 11 89 5 90 2 91 3 92 1 93 1 99 2 
100 112 101 22 102 33 103 9 104 2 105 1 113 4 114 4 115 17 116 13 
117 22 118 5 119 3 120 1 121 1 127 2 128 13 129 21 130 44 131 20 
132 8 133 4 134 2 135 2 136 1 137 1 140 1 141 2 142 8 143 9 
144 15 145 6 146 43 147 10 148 4 149 1 154 2 155 1 156 5 157 2 
158 9 159 4 160 6 161 3 162 2 163 1 169 1 170 6 171 2 172 16 
173 6 174 999 175 183 176 84 177 10 178 2 181 1 184 3 185 2 186 6 
187 3 188 27 189 6 190 3 198 1 199 1 200 4 201 2 202 15 203 5 
204 7 205 2 206 1 213 1 214 1 215 2 216 7 217 3 218 45 219 13 
220 4 229 1 230 4 231 4 232 5 233 3 234 1 244 1 246 2 248 2 
260 4 261 2 262 2 263 1 272 1 273 1 274 2 275 1 276 3 277 1 
287 1 288 2 289 14 290 6 291 2 302 1 303 8 304 3 305 1 375 1 
376 2 377 16 378 7 379 3 392 3 393 1 
