Name: L-(-)-Phenylalanine
CAS: 63-91-2
MW: 165
Formula: C9H11NO2
Synonym: KEGG: C00079
Synonym: CID: 6140
Synonym: MassBank: OUF00320
Synonym: L-(-)-Phenylalanine
Structure: 4330303030313338362E6364780A20204368656D447261773132323630383139323032440A2031332031332020302020302020302020302020302020302020302020303939392056323030300A20202020302E373934342020202D302E3131393520202020302E303030302043202020302020302020302020302020302020302020302020302020302020302020302020300A20202020312E3132303020202020302E3434353020202020302E303030302043202020302020302020302020302020302020302020302020302020302020302020302020300A20202020312E3633393420202020302E3538343220202020302E30303030204F202020302020302020302020302020302020302020302020302020302020302020302020300A20202020302E3638323420202020302E3838323620202020302E30303030204F202020302020302020302020302020302020302020302020302020302020302020302020300A20202020312E323137332020202D302E3532313820202020302E303030302048202020302020302020302020302020302020302020302020302020302020302020302020300A20202020302E373131392020202D302E3838323620202020302E30303030204E202020302020302020302020302020302020302020302020302020302020302020302020300A20202020302E3037323520202020302E3030343220202020302E303030302043202020302020302020302020302020302020302020302020302020302020302020302020300A2020202D312E363339342020202D302E3134303120202020302E303030302043202020302020302020302020302020302020302020302020302020302020302020302020300A2020202D312E333839392020202D302E3537323120202020302E303030302043202020302020302020302020302020302020302020302020302020302020302020302020300A2020202D302E383931312020202D302E3537323120202020302E303030302043202020302020302020302020302020302020302020302020302020302020302020302020300A2020202D302E363431372020202D302E3134303120202020302E303030302043202020302020302020302020302020302020302020302020302020302020302020302020300A2020202D302E3839313120202020302E3239313920202020302E303030302043202020302020302020302020302020302020302020302020302020302020302020302020300A2020202D312E3338393920202020302E3239313920202020302E303030302043202020302020302020302020302020302020302020302020302020302020302020302020300A2020312020322020312020302020202020200A2020322020332020312020302020202020200A2020322020342020322020302020202020200A2020312020352020312020362020202020200A2020312020362020312020312020202020200A2020312020372020312020302020202020200A2020382020392020312020302020202020200A2020392031302020322020302020202020200A2031302031312020312020302020202020200A2031312031322020322020302020202020200A2031322031332020312020302020202020200A2031332020382020322020302020202020200A2031312020372020312020302020202020200A4D2020454E44
Contributor: Tsuzimoto Y, Tsugawa H, Bamba T, Fukusaki E, engineering department, Osaka Univ.
InstType: EI
InstName: Pegasus II TOF-MS system, Leco; GC 6890, Agilent Technologies
IoniMethod: EI
IonPolarity: pos
Date: 2010-10-09 19:48:36+02:00
Num Peaks: 105
85 14 86 57 87 20 88 8 89 48 90 25 91 392 92 65 93 16 94 2 
95 3 96 2 97 1 98 6 99 4 100 595 101 85 102 45 103 87 104 23 
105 22 106 3 107 8 108 1 109 1 110 1 112 1 113 2 114 2 115 26 
116 14 117 48 118 32 119 29 120 94 121 31 122 4 123 1 128 6 129 6 
130 114 131 72 132 83 133 84 134 20 135 25 136 4 137 1 142 1 143 3 
144 10 145 12 146 56 147 372 148 68 149 36 150 5 151 1 158 8 159 12 
160 45 161 16 162 19 163 24 164 5 165 1 172 2 173 1 174 16 175 5 
176 26 177 31 178 8 179 2 188 3 189 2 190 12 191 14 192 677 193 124 
194 34 195 6 196 1 202 4 203 17 204 31 205 9 206 4 207 1 217 4 
218 999 219 200 220 91 221 14 222 6 235 1 266 54 267 23 268 10 269 2 
276 1 278 1 294 15 295 4 296 2 
