Name: N-a-Acetyl-L-Ornithine
CAS: 6205-08-9
MW: 174
Formula: C7H14N2O3
Synonym: KEGG: C00437
Synonym: CID: 439232
Synonym: MassBank: OUF00398
Synonym: N-a-Acetyl-L-Ornithine
Structure: 310A32380A20204143442F4C6162733037303330393135303332440A2031322031312020302020302020312020302020302020302020302020302020312056323030300A20202032302E373035342020202D352E3530303120202020302E303030302043202020302020302020302020302020302020302020302020302020302020302020302020300A20202032302E363939342020202D372E3033303020202020302E30303030204E202020302020302020302020302020302020302020302020302020302020302020302020300A20202032312E383536302020202D342E3833333020202020302E303030302043202020302020302020302020302020302020302020302020302020302020302020302020300A20202031392E353438382020202D342E3833333020202020302E303030302043202020302020302020302020302020302020302020302020302020302020302020302020300A20202032312E383536302020202D372E3639373020202020302E303030302043202020302020302020302020302020302020302020302020302020302020302020302020300A20202032312E383433372020202D332E3431333220202020302E30303030204F202020302020302020302020302020302020302020302020302020302020302020302020300A20202032332E303036362020202D352E3530363120202020302E30303030204F202020302020302020302020302020302020302020302020302020302020302020302020300A20202031382E333938322020202D352E3439333920202020302E303030302043202020302020302020302020302020302020302020302020302020302020302020302020300A20202032312E383530302020202D392E3136353620202020302E303030302043202020302020302020302020302020302020302020302020302020302020302020302020300A20202032332E303036362020202D372E3033363020202020302E30303030204F202020302020302020302020302020302020302020302020302020302020302020302020300A20202031372E323437382020202D342E3832363920202020302E303030302043202020302020302020302020302020302020302020302020302020302020302020302020300A20202031362E303931302020202D352E3439333920202020302E30303030204E202020302020302020302020302020302020302020302020302020302020302020302020300A2020312020322020312020312020302020302020300A2020312020332020312020302020302020302020300A2020312020342020312020302020302020302020300A2020322020352020312020302020302020302020300A2020332020362020312020302020302020302020300A2020332020372020322020302020302020302020300A2020342020382020312020302020302020302020300A2020352020392020312020302020302020302020300A2020352031302020322020302020302020302020300A2020382031312020312020302020302020302020300A2031312031322020312020302020302020302020300A4D2020454E44
Contributor: Tsuzimoto Y, Tsugawa H, Bamba T, Fukusaki E, engineering department, Osaka Univ.
InstType: EI
InstName: Pegasus II TOF-MS system, Leco; GC 6890, Agilent Technologies
IoniMethod: EI
IonPolarity: pos
Date: 2010-10-09 19:48:36+02:00
Num Peaks: 210
85 30 86 386 87 55 88 23 89 8 90 2 91 1 92 3 93 3 94 33 
95 7 96 21 97 11 98 26 99 37 100 251 101 53 102 63 103 29 104 6 
105 6 106 1 107 1 108 1 109 3 110 11 111 6 112 74 113 34 114 290 
115 69 116 118 117 61 118 16 119 19 120 2 121 4 122 2 123 2 124 5 
125 4 126 27 127 11 128 38 129 44 130 140 131 102 132 63 133 109 134 21 
135 12 136 1 137 1 138 3 139 5 140 27 141 16 142 345 143 69 144 43 
145 12 146 66 147 392 148 68 149 54 150 9 151 5 152 19 153 5 154 23 
155 11 156 37 157 50 158 233 159 40 160 27 161 11 162 3 163 2 166 3 
167 3 168 28 169 10 170 43 171 36 172 389 173 99 174 999 175 195 176 86 
177 14 178 5 179 1 180 1 181 1 182 5 183 6 184 52 185 64 186 26 
187 169 188 49 189 25 190 26 191 9 192 3 193 2 194 1 195 2 196 3 
197 1 198 13 199 5 200 816 201 168 202 78 203 17 204 15 205 9 206 3 
207 3 209 1 210 5 211 10 212 16 213 7 214 12 215 4 216 30 217 10 
218 13 219 3 220 4 221 16 222 3 223 1 226 8 227 3 228 5 229 2 
230 12 231 3 232 2 240 1 241 2 242 4 243 1 244 10 245 11 246 5 
247 2 248 7 249 1 256 1 258 26 259 8 260 6 261 7 262 5 263 1 
271 2 272 3 273 1 274 7 275 13 276 3 277 1 285 1 286 27 287 9 
288 21 289 7 290 2 299 14 300 12 301 7 302 25 303 9 304 2 315 1 
316 2 317 3 318 1 330 2 331 3 332 2 333 2 334 2 335 27 336 12 
337 5 357 1 358 1 359 2 360 1 372 2 373 3 374 1 375 2 389 1 
446 3 447 26 448 19 449 8 450 2 461 1 462 6 463 5 464 2 465 1 
