Name: D-(+)-Trehalose
CAS: 99-20-7
MW: 342
Formula: C12H22O11
Synonym: CID: 1143
Synonym: MassBank: OUF00477
Synonym: D-(+)-Trehalose
Structure: 4330303030313135322E6364780A20204368656D447261773132323630383139313232440A2032332032342020302020302020302020302020302020302020302020303939392056323030300A20202020302E3535333720202020302E3437353320202020302E303030302043202020302020302020302020302020302020302020302020302020302020302020302020300A20202020312E3233333420202020302E3836383820202020302E303030302043202020302020302020302020302020302020302020302020302020302020302020302020300A20202020312E3930333120202020302E3137323520202020302E303030302043202020302020302020302020302020302020302020302020302020302020302020302020300A20202020322E3637363120202020302E3237303720202020302E303030302043202020302020302020302020302020302020302020302020302020302020302020302020300A20202020312E373634372020202D302E3235353620202020302E303030302043202020302020302020302020302020302020302020302020302020302020302020302020300A20202020312E3235363820202020302E3235323320202020302E30303030204F202020302020302020302020302020302020302020302020302020302020302020302020300A20202020322E3531383620202020302E3738383020202020302E30303030204F202020302020302020302020302020302020302020302020302020302020302020302020300A20202020302E3739393820202020302E3836383820202020302E30303030204F202020302020302020302020302020302020302020302020302020302020302020302020300A2020202D322E3838383420202020302E3134353420202020302E303030302043202020302020302020302020302020302020302020302020302020302020302020302020300A2020202D322E323839372020202D302E3433373820202020302E303030302043202020302020302020302020302020302020302020302020302020302020302020302020300A2020202D312E3439323220202020302E3238343620202020302E303030302043202020302020302020302020302020302020302020302020302020302020302020302020300A2020202D302E3536323220202020302E3438393920202020302E303030302043202020302020302020302020302020302020302020302020302020302020302020302020300A2020202D322E3130333020202020302E3134363320202020302E303030302043202020302020302020302020302020302020302020302020302020302020302020302020300A2020202D312E3534323520202020302E3636303520202020302E30303030204F202020302020302020302020302020302020302020302020302020302020302020302020300A2020202D302E393336332020202D302E3339353620202020302E30303030204F202020302020302020302020302020302020302020302020302020302020302020302020300A2020202D332E333639352020202D302E3333353720202020302E30303030204F202020302020302020302020302020302020302020302020302020302020302020302020300A2020202D322E383132372020202D302E3537373920202020302E30303030204F202020302020302020302020302020302020302020302020302020302020302020302020300A2020202D302E323032322020202D302E3235383520202020302E30303030204F202020302020302020302020302020302020302020302020302020302020302020302020300A20202020332E333639352020202D302E3132393620202020302E30303030204F202020302020302020302020302020302020302020302020302020302020302020302020300A20202020322E333536302020202D302E3836383820202020302E303030302043202020302020302020302020302020302020302020302020302020302020302020302020300A20202020312E353539312020202D302E3635353320202020302E30303030204F202020302020302020302020302020302020302020302020302020302020302020302020300A2020202D322E3134363920202020302E3331393920202020302E303030302043202020302020302020302020302020302020302020302020302020302020302020302020300A2020202D322E3934333820202020302E3533333520202020302E30303030204F202020302020302020302020302020302020302020302020302020302020302020302020300A2020312020322020312020302020202020200A2020322020332020312020302020202020200A2020332020342020312020302020202020200A2020342020352020312020312020202020200A2020352020362020312020312020202020200A2020312020362020312020312020202020200A2020332020372020312020302020202020200A2020322020382020312020302020202020200A2020392031302020312020312020202020200A2031302031312020312020312020202020200A2031322031312020312020312020202020200A2020392031332020312020302020202020200A2031332031342020312020302020202020200A2031342031322020312020302020202020200A2031312031352020312020302020202020200A2020392031362020312020302020202020200A2031302031372020312020302020202020200A2031322031382020312020302020202020200A2020312031382020312020302020202020200A2020342031392020312020302020202020200A2020352032302020312020302020202020200A2032302032312020312020302020202020200A2031332032322020312020302020202020200A2032322032332020312020302020202020200A4D202053545920203120202031205355500A4D2020534C4220203120202031202020310A4D202053414C2020203120203220203230202032310A4D202053424C20202031202031202032310A4D2020534D5420202031204348324F480A4D2020534256202020312032312020202D332E3536353720202020312E303732390A4D202053545920203120202032205355500A4D2020534C4220203120202032202020320A4D202053414C2020203220203220203232202032330A4D202053424C20202032202031202032330A4D2020534D5420202032204348324F480A4D2020534256202020322032332020202D342E3230313020202020312E383539370A4D2020454E44
Contributor: Tsuzimoto Y, Tsugawa H, Bamba T, Fukusaki E, engineering department, Osaka Univ.
InstType: EI
InstName: Pegasus II TOF-MS system, Leco; GC 6890, Agilent Technologies
IoniMethod: EI
IonPolarity: pos
Date: 2010-10-09 19:48:36+02:00
Num Peaks: 252
85 30 86 6 87 22 88 9 89 57 90 7 91 6 92 2 93 2 94 2 
95 6 96 3 97 16 98 4 99 28 100 4 101 75 102 17 103 777 104 76 
105 38 106 3 107 2 108 1 109 48 110 4 111 23 112 3 113 46 114 12 
115 31 116 48 117 248 118 27 119 29 120 3 121 2 123 2 125 6 126 3 
127 23 128 8 129 632 130 81 131 130 132 20 133 192 134 28 135 21 136 3 
137 2 138 1 139 16 140 4 141 19 142 22 143 93 144 14 145 31 146 7 
147 962 148 153 149 129 150 17 151 13 152 3 153 21 154 7 155 106 156 20 
157 92 158 14 159 18 160 4 161 13 162 3 163 20 164 4 165 3 166 2 
167 7 168 3 169 441 170 77 171 45 172 7 173 30 174 7 175 20 176 5 
177 21 178 4 179 3 180 1 181 8 182 3 183 27 184 5 185 8 186 2 
187 8 188 2 189 129 190 35 191 999 192 182 193 86 194 11 195 4 196 1 
197 3 198 2 199 17 200 4 201 11 202 9 203 49 204 314 205 125 206 41 
207 26 208 5 209 3 211 2 213 2 214 1 215 20 216 8 217 594 218 152 
219 71 220 13 221 43 222 10 223 7 224 1 225 1 227 13 228 5 229 47 
230 27 231 45 232 13 233 28 234 10 235 4 236 1 239 3 240 1 241 16 
242 9 243 175 244 49 245 48 246 12 247 13 248 3 249 2 250 1 253 1 
255 8 256 4 257 20 258 6 259 16 260 5 261 3 262 1 263 15 264 5 
265 11 266 3 267 2 268 1 269 1 270 3 271 168 272 44 273 28 274 6 
275 3 276 1 277 2 278 3 279 11 280 3 281 2 287 5 288 3 289 6 
290 11 291 32 292 11 293 7 294 2 295 1 296 1 297 1 303 2 304 5 
305 28 306 13 307 7 308 2 309 1 315 1 317 12 318 8 319 54 320 22 
321 11 322 4 323 4 324 1 330 2 331 55 332 33 333 19 334 7 335 3 
336 1 345 9 346 5 347 4 348 1 349 2 359 2 360 28 361 913 362 322 
363 154 364 40 365 11 366 2 373 1 377 10 378 4 379 3 380 1 393 1 
407 1 408 1 435 9 436 5 437 3 450 1 451 7 452 4 453 2 463 3 
464 1 465 1 
