Name: b-Alanine
CAS: 107-95-9
MW: 89
Formula: C3H7NO2
Synonym: KEGG: C00099
Synonym: CID: 239
Synonym: MassBank: OUF00497
Synonym: b-Alanine
Structure: 310A31360A4330303030313333332E6364780A20204368656D447261773132323630383139313832440A2020362020352020302020302020302020302020302020302020302020303939392056323030300A2020202D312E313636392020202D302E3433353920202020302E30303030204E202020302020302020302020302020302020302020302020302020302020302020302020300A2020202D302E353833372020202D302E3039393220202020302E303030302043202020302020302020302020302020302020302020302020302020302020302020302020300A2020202D302E303134382020202D302E3432373620202020302E303030302043202020302020302020302020302020302020302020302020302020302020302020302020300A20202020302E353230302020202D302E3131383820202020302E303030302043202020302020302020302020302020302020302020302020302020302020302020302020300A20202020312E313636392020202D302E3439323320202020302E30303030204F202020302020302020302020302020302020302020302020302020302020302020302020300A20202020302E3532303020202020302E3439323320202020302E30303030204F202020302020302020302020302020302020302020302020302020302020302020302020300A2020312020322020312020302020202020200A2020322020332020312020302020202020200A2020332020342020312020302020202020200A2020342020352020312020302020202020200A2020342020362020322020302020202020200A4D2020454E44
Contributor: Tsuzimoto Y, Tsugawa H, Bamba T, Fukusaki E, engineering department, Osaka Univ.
InstType: EI
InstName: Pegasus II TOF-MS system, Leco; GC 6890, Agilent Technologies
IoniMethod: EI
IonPolarity: pos
Date: 2010-10-09 19:48:36+02:00
Num Peaks: 123
85 40 86 764 87 92 88 40 89 10 90 2 91 1 92 1 93 1 94 1 
95 12 96 2 97 3 98 7 99 96 100 506 101 111 102 99 103 42 104 10 
105 12 106 1 107 1 109 2 110 1 111 2 112 4 113 27 114 31 115 33 
116 47 117 103 118 19 119 30 120 4 121 2 125 1 126 4 127 1 128 6 
129 28 130 218 131 131 132 45 133 363 134 56 135 29 136 3 137 1 138 3 
140 3 141 1 142 29 143 8 144 12 145 6 146 72 147 740 148 122 149 67 
150 9 151 2 156 2 157 3 158 15 159 6 160 81 161 17 162 8 163 7 
164 1 170 1 171 4 172 33 173 28 174 999 175 189 176 103 177 15 178 4 
179 1 186 2 187 5 188 23 189 11 190 13 191 4 192 1 200 4 202 13 
203 2 204 15 205 8 206 2 214 2 215 1 216 10 217 4 218 9 219 3 
220 1 232 46 233 10 234 5 246 1 247 2 248 666 249 196 250 99 251 20 
252 5 262 1 274 1 288 13 289 6 290 160 291 49 292 23 293 5 294 1 
304 16 305 6 306 2 
