Name: HydroxyButyrate
CAS: 600-15-7
MW: 104
Formula: C4H8O3
Synonym: CID: 11266
Synonym: MassBank: OUF00270
Synonym: HydroxyButyrate
Structure: 310A31380A3630303135322D37302D332E6D6F6C0A20204368656D447261773038303431303038303932440A2020372020362020302020302020302020302020302020302020302020303939392056323030300A20202020302E303034302020202D302E3131383720202020302E303030302043202020302020302020302020302020302020302020302020302020302020302020302020300A20202020302E3738313720202020302E3131343820202020302E303030302043202020302020302020302020302020302020302020302020302020302020302020302020300A2020202D302E3539393720202020302E3432393520202020302E303030302043202020302020302020302020302020302020302020302020302020302020302020302020300A2020202D302E313734322020202D302E3932343320202020302E30303030204F202020302020302020302020302020302020302020302020302020302020302020302020300A20202020302E3936333920202020302E3932343320202020302E30303030204F202020302020302020302020302020302020302020302020302020302020302020302020300A20202020312E333931332020202D302E3433333420202020302E30303030204F202020302020302020302020302020302020302020302020302020302020302020302020300A2020202D312E3339313320202020302E3138303120202020302E303030302043202020302020302020302020302020302020302020302020302020302020302020302020300A2020312020322020312020302020202020200A2020312020332020312020302020202020200A2020312020342020312020302020202020200A2020322020352020312020302020202020200A2020322020362020322020302020202020200A2020332020372020312020302020202020200A4D2020454E44
Contributor: Tsuzimoto Y, Tsugawa H, Bamba T, Fukusaki E, engineering department, Osaka Univ.
InstType: EI
InstName: Pegasus II TOF-MS system, Leco; GC 6890, Agilent Technologies
IoniMethod: EI
IonPolarity: pos
Date: 2010-10-09 19:48:36+02:00
Num Peaks: 70
85 26 86 4 87 22 88 5 89 9 90 1 91 1 92 1 93 1 94 2 
95 27 96 3 97 2 98 1 99 25 100 3 101 34 102 12 103 25 104 4 
105 11 106 1 107 1 109 7 110 1 111 1 112 1 113 4 114 1 115 52 
116 12 117 30 118 4 119 10 120 1 129 9 130 19 131 999 132 129 133 149 
134 17 135 8 143 20 144 2 145 2 146 1 147 860 148 140 149 82 150 8 
151 2 161 1 175 5 176 1 189 3 190 52 191 14 192 5 193 1 204 1 
205 76 206 19 207 8 208 1 217 2 219 6 220 1 233 44 234 9 235 4 
