Name: L-Valine
CAS: 72-18-4
MW: 117
Formula: C5H11NO2
Synonym: KEGG: C00183
Synonym: CID: 6287
Synonym: MassBank: OUF00334
Synonym: L-Valine
Structure: 310A32320A4330303030313339382E6364780A20204368656D447261773132323630383139323032440A2020392020382020302020302020302020302020302020302020302020303939392056323030300A20202020302E313539302020202D302E3131393520202020302E303030302043202020302020302020302020302020302020302020302020302020302020302020302020300A20202020302E3438343620202020302E3434353020202020302E303030302043202020302020302020302020302020302020302020302020302020302020302020302020300A20202020312E3030343020202020302E3538343220202020302E30303030204F202020302020302020302020302020302020302020302020302020302020302020302020300A20202020302E3034373120202020302E3838323620202020302E30303030204F202020302020302020302020302020302020302020302020302020302020302020302020300A20202020302E353831392020202D302E3532313820202020302E303030302048202020302020302020302020302020302020302020302020302020302020302020302020300A20202020302E303736352020202D302E3838323620202020302E30303030204E202020302020302020302020302020302020302020302020302020302020302020302020300A2020202D302E393135332020202D302E3535343420202020302E303030302043202020302020302020302020302020302020302020302020302020302020302020302020300A2020202D302E343339312020202D302E3037383320202020302E303030302043202020302020302020302020302020302020302020302020302020302020302020302020300A2020202D312E3030343020202020302E3535373220202020302E303030302043202020302020302020302020302020302020302020302020302020302020302020302020300A2020312020322020312020302020202020200A2020322020332020312020302020202020200A2020322020342020322020302020202020200A2020312020352020312020362020202020200A2020312020362020312020312020202020200A2020312020382020312020302020202020200A2020382020372020312020302020202020200A2020382020392020312020302020202020200A4D2020454E44
Contributor: Tsuzimoto Y, Tsugawa H, Bamba T, Fukusaki E, engineering department, Osaka Univ.
InstType: EI
InstName: Pegasus II TOF-MS system, Leco; GC 6890, Agilent Technologies
IoniMethod: EI
IonPolarity: pos
Date: 2010-10-09 19:48:36+02:00
Num Peaks: 76
85 135 86 203 87 555 88 145 89 61 90 18 91 199 92 19 93 35 95 5 
97 12 98 8 99 1 100 89 101 16 102 291 103 850 104 95 105 15 112 14 
113 138 114 44 115 11 117 54 118 51 125 1 128 452 129 142 130 886 131 253 
132 68 133 5 143 21 144 22 146 999 147 169 148 51 156 743 157 196 158 84 
159 30 160 8 163 1 168 5 174 602 175 74 176 24 186 7 194 2 205 1 
209 1 210 4 212 1 225 3 258 1 295 1 319 7 338 4 340 5 350 6 
384 1 390 8 398 7 402 5 405 1 406 8 407 12 408 10 409 1 426 8 
430 1 431 5 454 1 473 5 474 5 482 3 
