Name: Pyruvate
CAS: 127-17-3
MW: 88
Formula: C3H4O3
Synonym: KEGG: C00022
Synonym: CID: 1060
Synonym: MassBank: OUF00439
Synonym: Pyruvate
Structure: 310A31360A4330303030313230302E6364780A20204368656D447261773132323630383139313432440A2020362020352020302020302020302020302020302020302020302020303939392056323030300A2020202D302E333139362020202D302E3135333620202020302E303030302043202020302020302020302020302020302020302020302020302020302020302020302020300A20202020302E3137393320202020302E3133343520202020302E303030302043202020302020302020302020302020302020302020302020302020302020302020302020300A20202020302E3137393320202020302E3632393720202020302E30303030204F202020302020302020302020302020302020302020302020302020302020302020302020300A20202020302E383137342020202D302E3233333920202020302E30303030204F202020302020302020302020302020302020302020302020302020302020302020302020300A2020202D302E3831373420202020302E3133333820202020302E303030302043202020302020302020302020302020302020302020302020302020302020302020302020300A2020202D302E333139362020202D302E3632393720202020302E30303030204F202020302020302020302020302020302020302020302020302020302020302020302020300A2020312020322020312020302020202020200A2020322020332020322020302020202020200A2020322020342020312020302020202020200A2020312020352020312020302020202020200A2020312020362020322020302020202020200A4D2020454E44
Contributor: Tsuzimoto Y, Tsugawa H, Bamba T, Fukusaki E, engineering department, Osaka Univ.
InstType: EI
InstName: Pegasus II TOF-MS system, Leco; GC 6890, Agilent Technologies
IoniMethod: EI
IonPolarity: pos
Date: 2010-10-09 19:48:36+02:00
Num Peaks: 38
85 11 86 20 87 9 88 6 89 680 90 61 91 32 92 2 93 3 98 12 
99 227 100 181 101 34 102 7 103 20 104 1 110 1 114 33 115 316 116 41 
117 82 118 10 119 4 122 1 128 2 130 9 131 2 143 19 144 6 158 72 
159 25 160 3 174 999 175 126 176 44 177 2 189 35 190 3 
