Name: Cinnamyl alcohol
CAS: 104-54-1
MW: 134
Formula: C9H10O
Synonym: MassBank: OUF00138
Synonym: Cinnamyl alcohol
Structure: 332D5048454E594C2D322D50524F50454E2D312D4F4C2E6D6F6C0A20204368656D447261773033323331303132313432440A2031302031302020302020302020302020302020302020302020302020303939392056323030300A2020202D312E343238392020202D302E3832353020202020302E303030302043202020302020302020302020302020302020302020302020302020302020302020302020300A2020202D302E373134352020202D302E3431323520202020302E303030302043202020302020302020302020302020302020302020302020302020302020302020302020300A20202020302E303030302020202D302E3832353020202020302E303030302043202020302020302020302020302020302020302020302020302020302020302020302020300A2020202D322E313433342020202D302E3431323520202020302E30303030204F202020302020302020302020302020302020302020302020302020302020302020302020300A20202020302E373134352020202D302E3431323520202020302E303030302043202020302020302020302020302020302020302020302020302020302020302020302020300A20202020302E3731343520202020302E3431323520202020302E303030302043202020302020302020302020302020302020302020302020302020302020302020302020300A20202020312E3432383920202020302E3832353020202020302E303030302043202020302020302020302020302020302020302020302020302020302020302020302020300A20202020322E3134333420202020302E3431323520202020302E303030302043202020302020302020302020302020302020302020302020302020302020302020302020300A20202020322E313433342020202D302E3431323520202020302E303030302043202020302020302020302020302020302020302020302020302020302020302020302020300A20202020312E343238392020202D302E3832353020202020302E303030302043202020302020302020302020302020302020302020302020302020302020302020302020300A2020312020322020312020302020202020200A2020322020332020322020302020202020200A2020312020342020312020302020202020200A2020352020362020312020302020202020200A2020362020372020322020302020202020200A2020372020382020312020302020202020200A2020382020392020322020302020202020200A2020392031302020312020302020202020200A2020352031302020322020302020202020200A2020332020352020312020302020202020200A4D2020454E44
Contributor: Tsuzimoto Y, Tsugawa H, Bamba T, Fukusaki E, engineering department, Osaka Univ.
InstType: EI
InstName: Pegasus II TOF-MS system, Leco; GC 6890, Agilent Technologies
IoniMethod: EI
IonPolarity: pos
Date: 2010-10-09 19:48:36+02:00
Num Peaks: 74
85 15 86 9 87 19 88 23 89 100 90 16 91 266 92 25 93 3 94 1 
95 4 96 10 98 2 99 3 101 7 102 41 103 56 104 26 105 44 106 3 
107 4 109 1 110 1 111 4 113 30 114 16 115 713 116 426 117 999 118 109 
119 9 120 1 121 4 127 3 128 11 129 29 130 6 131 40 132 19 133 8 
134 3 135 141 136 21 137 8 143 1 145 14 146 2 147 7 148 2 149 4 
154 1 159 2 161 15 162 4 163 3 173 12 174 1 175 26 176 4 177 16 
178 2 179 27 180 3 189 2 190 1 191 265 192 52 193 14 204 1 205 118 
206 284 207 57 208 14 209 1 
