Name: Benzoic acid
CAS: 65-85-0
MW: 122
Formula: C7H6O2
Synonym: KEGG: C00180
Synonym: CID: 243
Synonym: MassBank: OUF00127
Synonym: Benzoic acid
Structure: 310A32330A4330303030303230372E6364780A20204368656D447261773132323630383138343332440A2020392020392020302020302020302020302020302020302020302020303939392056323030300A2020202D302E373134352020202D302E3230353220202020302E303030302043202020302020302020302020302020302020302020302020302020302020302020302020300A2020202D302E373134352020202D312E3033303220202020302E303030302043202020302020302020302020302020302020302020302020302020302020302020302020300A20202020302E303030302020202D312E3434323720202020302E303030302043202020302020302020302020302020302020302020302020302020302020302020302020300A20202020302E373134352020202D312E3033303220202020302E303030302043202020302020302020302020302020302020302020302020302020302020302020302020300A20202020302E373134352020202D302E3230353220202020302E303030302043202020302020302020302020302020302020302020302020302020302020302020302020300A20202020302E3030303020202020302E3230373320202020302E303030302043202020302020302020302020302020302020302020302020302020302020302020302020300A20202020302E3030303020202020312E3033303920202020302E303030302043202020302020302020302020302020302020302020302020302020302020302020302020300A2020202D302E3731333320202020312E3434323720202020302E30303030204F202020302020302020302020302020302020302020302020302020302020302020302020300A20202020302E3731333320202020312E3434323720202020302E30303030204F202020302020302020302020302020302020302020302020302020302020302020302020300A2020312020322020322020302020202020200A2020322020332020312020302020202020200A2020332020342020322020302020202020200A2020342020352020312020302020202020200A2020352020362020322020302020202020200A2020362020312020312020302020202020200A2020362020372020312020302020202020200A2020372020382020312020302020202020200A2020372020392020322020302020202020200A4D2020454E44
Contributor: Tsuzimoto Y, Tsugawa H, Bamba T, Fukusaki E, engineering department, Osaka Univ.
InstType: EI
InstName: Pegasus II TOF-MS system, Leco; GC 6890, Agilent Technologies
IoniMethod: EI
IonPolarity: pos
Date: 2010-10-09 19:48:36+02:00
Num Peaks: 47
85 3 89 4 90 9 91 15 92 4 93 6 94 1 95 3 96 1 103 5 
104 10 105 999 106 79 107 12 108 1 109 2 117 1 118 1 119 13 120 4 
121 15 122 7 123 1 131 1 133 3 134 9 135 674 136 95 137 29 138 2 
149 6 150 2 151 1 161 1 163 4 164 3 165 1 175 1 178 5 179 837 
180 128 181 40 182 4 193 16 194 75 195 12 196 3 
