Name: 1-Aminocycropropane-1-carboxylic acid
CAS: 22059-21-8
MW: 101
Formula: C4H7NO2
Synonym: KEGG: C01234
Synonym: CID: 535
Synonym: MassBank: OUF00005
Synonym: 1-Aminocycropropane-1-carboxylic acid
Structure: 310A31390A4330303030373536362E6364780A20204368656D447261773132323930383037313932440A2020372020372020302020302020302020302020302020302020302020303939392056323030300A2020202D312E3037313720202020302E3135313020202020302E30303030204E202020302020302020302020302020302020302020302020302020302020302020302020300A2020202D302E333537322020202D302E3236313520202020302E303030302043202020302020302020302020302020302020302020302020302020302020302020302020300A20202020302E3335373220202020302E3135313020202020302E303030302043202020302020302020302020302020302020302020302020302020302020302020302020300A20202020312E303731372020202D302E3236313520202020302E30303030204F202020302020302020302020302020302020302020302020302020302020302020302020300A2020202D302E373639372020202D302E3937363020202020302E303030302043202020302020302020302020302020302020302020302020302020302020302020302020300A20202020302E303535332020202D302E3937363020202020302E303030302043202020302020302020302020302020302020302020302020302020302020302020302020300A20202020302E3335373220202020302E3937363020202020302E30303030204F202020302020302020302020302020302020302020302020302020302020302020302020300A2020322020312020312020302020202020200A2020332020322020312020302020202020200A2020342020332020312020302020202020200A2020322020352020312020302020202020200A2020322020362020312020302020202020200A2020352020362020312020302020202020200A2020332020372020322020302020202020200A4D2020454E44
Contributor: Tsuzimoto Y, Tsugawa H, Bamba T, Fukusaki E, engineering department, Osaka Univ.
InstType: EI
InstName: Pegasus II TOF-MS system, Leco; GC 6890, Agilent Technologies
IoniMethod: EI
IonPolarity: pos
Date: 2010-10-09 19:48:36+02:00
Num Peaks: 97
85 50 86 47 87 23 88 7 89 4 90 2 91 1 92 2 93 2 94 6 
95 1 96 11 97 6 98 62 99 21 100 65 101 16 102 15 103 23 104 4 
105 9 106 1 110 9 111 6 112 87 113 28 114 37 115 23 116 21 117 27 
118 9 119 8 120 1 124 1 126 34 127 58 128 373 129 55 130 38 131 63 
132 52 133 100 134 18 135 8 140 6 141 2 142 4 143 2 144 4 145 3 
146 11 147 999 148 169 149 89 150 11 151 2 156 9 157 12 158 24 159 7 
160 5 161 1 162 2 169 2 170 3 171 1 172 12 173 14 174 21 175 11 
176 4 177 1 186 35 187 8 188 10 189 1 190 14 191 2 192 1 196 1 
200 2 202 315 203 75 204 32 205 5 214 3 216 16 217 12 218 3 219 1 
230 78 231 19 232 7 233 1 245 38 246 9 247 2 
