Name: N-Acetyl-L-Leucine
CAS: 1188-21-2
MW: 173
Formula: C8H15NO3
Synonym: KEGG: C02710
Synonym: CID: 70912
Synonym: MassBank: OUF00372
Synonym: N-Acetyl-L-Leucine
Structure: 310A32380A3C4341535F49443E20313138382D32312D32093C4B4547475F49443E20433032373130093C4E414D453E204E2D41636574796C2D4C2D6C657563696E093C464F524D554C413E2043384831354E4F33093C45584143544D4153533E203137332E313035313933333531093C415645524147454D4153533E203137332E3230393634093C534D494C45533E204343284329435B4340485D284E432843293D4F2943284F293D4F093C434F505952494748543E2041524D2050524F4A45435420687474703A2F2F7777772E6D657461626F6C6F6D652E6A702F0A2031322031312020302020302020312020302020302020302020302020303939392056323030300A20202020342E353938312020202D312E3235303020202020302E303030302043202020302020302020302020302020302020302020302020302020302020302020302020300A20202020342E353938312020202D302E3235303020202020302E303030302043202020302020302020322020312020302020302020302020302020302020302020302020300A20202020332E3733323120202020302E3235303020202020302E303030302043202020302020302020302020322020302020302020302020302020302020302020302020300A20202020322E383636302020202D302E3235303020202020302E303030302043202020302020302020302020312020302020302020302020302020302020302020302020300A20202020322E3030303020202020302E3235303020202020302E303030302043202020302020302020302020332020302020302020302020302020302020302020302020300A20202020322E383636302020202D312E3235303020202020302E303030302043202020302020302020302020332020302020302020302020302020302020302020302020300A20202020352E3436343120202020302E3235303020202020302E30303030204E202020302020302020302020312020302020302020302020302020302020302020302020300A20202020352E3436343120202020312E3235303020202020302E303030302043202020302020302020302020302020302020302020302020302020302020302020302020300A20202020342E3539383120202020312E3735303020202020302E303030302043202020302020302020302020332020302020302020302020302020302020302020302020300A20202020332E373332302020202D312E3735303020202020302E30303030204F202020302020302020302020302020302020302020302020302020302020302020302020300A20202020352E343634312020202D312E3735303020202020302E30303030204F202020302020302020302020312020302020302020302020302020302020302020302020300A20202020362E3333303120202020312E3735303020202020302E30303030204F202020302020302020302020302020302020302020302020302020302020302020302020300A2020322020332020312020302020302020302020300A2020332020342020312020302020302020302020300A2031302020312020322020302020302020302020300A2020312020322020312020302020302020302020300A2020322020372020312020362020302020302020300A2020342020362020312020302020302020302020300A2020352020342020312020302020302020302020300A2020312031312020312020302020302020302020300A2020372020382020312020302020302020302020300A2020382020392020312020302020302020302020300A2020382031322020322020302020302020302020300A4D2020454E44
Contributor: Tsuzimoto Y, Tsugawa H, Bamba T, Fukusaki E, engineering department, Osaka Univ.
InstType: EI
InstName: Pegasus II TOF-MS system, Leco; GC 6890, Agilent Technologies
IoniMethod: EI
IonPolarity: pos
Date: 2010-10-09 19:48:36+02:00
Num Peaks: 82
85 44 86 999 87 83 88 9 89 14 90 3 91 10 92 3 93 4 94 4 
95 9 96 17 97 14 98 6 99 124 100 38 101 12 102 16 103 15 104 18 
105 3 106 1 109 1 110 4 111 4 112 62 113 10 114 5 115 5 116 137 
117 47 118 16 119 2 125 2 126 7 127 16 128 515 129 88 130 59 131 27 
132 10 133 1 134 2 137 1 140 10 141 1 142 37 143 12 144 18 145 17 
146 69 147 17 148 4 154 1 155 6 156 4 157 1 158 348 159 51 160 42 
161 6 162 1 170 5 171 31 172 6 173 6 174 2 184 3 185 1 186 8 
187 2 188 22 189 33 190 4 191 1 201 23 202 11 203 2 230 163 231 28 
232 9 245 3 
