Name: MassBank: OUF00001
CAS: 109-76-2
MW: 74
Formula: C3H10N2
Synonym: KEGG: C00986
Synonym: CID: 428
Synonym: MassBank: OUF00001
Synonym: 1,3-Propanediamine
Structure: 310A31340A4330303030373430342E6364780A20204368656D447261773132323930383037313332440A2020352020342020302020302020302020302020302020302020302020303939392056323030300A2020202D302E363037342020202D302E3137353420202020302E303030302043202020302020302020302020302020302020302020302020302020302020302020302020300A20202020302E3030303120202020302E3137353420202020302E303030302043202020302020302020302020302020302020302020302020302020302020302020302020300A20202020302E363037342020202D302E3137353220202020302E303030302043202020302020302020302020302020302020302020302020302020302020302020302020300A20202020312E3231343720202020302E3137353420202020302E30303030204E202020302020302020302020302020302020302020302020302020302020302020302020300A2020202D312E3231343720202020302E3137353220202020302E30303030204E202020302020302020302020302020302020302020302020302020302020302020302020300A2020312020322020312020302020202020200A2020322020332020312020302020202020200A2020332020342020312020302020202020200A2020312020352020312020302020202020200A4D2020454E44
Contributor: Tsuzimoto Y, Tsugawa H, Bamba T, Fukusaki E, engineering department, Osaka Univ.
InstType: EI
InstName: Pegasus II TOF-MS system, Leco; GC 6890, Agilent Technologies
IoniMethod: EI
IonPolarity: pos
Date: 2010-10-09 19:48:36+02:00
Num Peaks: 73
85 25 86 645 87 69 88 42 89 3 97 2 98 14 99 11 100 333 101 55 
102 55 103 14 104 1 106 1 112 28 113 24 114 50 115 30 116 65 117 56 
118 10 119 5 126 6 127 8 128 83 129 54 130 233 131 64 132 43 133 4 
134 1 136 1 142 3 143 1 144 21 145 6 146 82 147 14 148 4 156 8 
157 2 158 41 159 8 160 501 161 92 162 47 163 1 170 22 171 10 172 565 
173 149 174 999 175 191 176 84 177 9 184 1 185 7 186 158 187 43 188 33 
189 4 190 1 200 1 201 337 202 78 203 36 204 6 215 1 216 3 259 11 
275 1 347 1 404 1 
