Name: MassBank: OUF00002
CAS: 5625-37-6
MW: 302
Formula: C8H18N2O6S2
Synonym: CID: 6992709
Synonym: MassBank: OUF00002
Synonym: 1,4-Piperazine diethanesulfonic acid
Structure: 310A34310A20204143442F4C6162733034323730393039313832440A2031382031382020302020302020302020302020302020302020302020302020312056323030300A20202020382E333938302020202D362E3239303820202020302E30303030204E202020302020302020302020302020302020302020302020302020302020302020302020300A20202020382E383738372020202D372E3132333420202020302E303030302043202020302020302020302020302020302020302020302020302020302020302020302020300A20202020392E383430312020202D372E3132333420202020302E303030302043202020302020302020302020302020302020302020302020302020302020302020302020300A20202031302E333230392020202D362E3239303820202020302E30303030204E202020302020302020302020302020302020302020302020302020302020302020302020300A20202020392E383430312020202D352E3435383220202020302E303030302043202020302020302020302020302020302020302020302020302020302020302020302020300A20202020382E383738372020202D352E3435383220202020302E303030302043202020302020302020302020302020302020302020302020302020302020302020302020300A20202020372E343339392020202D362E3239303820202020302E303030302043202020302020302020302020302020302020302020302020302020302020302020302020300A20202020362E393630382020202D372E3132303520202020302E303030302043202020302020302020302020302020302020302020302020302020302020302020302020300A20202020362E303032372020202D372E3132303520202020302E303030302053202020302020302020302020302020302020302020302020302020302020302020302020300A20202020352E303434362020202D372E3132303520202020302E30303030204F202020302020302020302020302020302020302020302020302020302020302020302020300A20202031312E323739302020202D362E3239303820202020302E303030302043202020302020302020302020302020302020302020302020302020302020302020302020300A20202031312E373538302020202D352E3436313020202020302E303030302043202020302020302020302020302020302020302020302020302020302020302020302020300A20202031322E373136312020202D352E3436313020202020302E303030302053202020302020302020302020302020302020302020302020302020302020302020302020300A20202031332E363734322020202D352E3436313020202020302E30303030204F202020302020302020302020302020302020302020302020302020302020302020302020300A20202020362E303032372020202D362E3136323420202020302E30303030204F202020302020302020302020302020302020302020302020302020302020302020302020300A20202020362E303032372020202D382E3037383620202020302E30303030204F202020302020302020302020302020302020302020302020302020302020302020302020300A20202031322E373136312020202D362E3431393220202020302E30303030204F202020302020302020302020302020302020302020302020302020302020302020302020300A20202031322E373136312020202D342E3530323920202020302E30303030204F202020302020302020302020302020302020302020302020302020302020302020302020300A2020312020322020312020302020302020302020300A2020322020332020312020302020302020302020300A2020332020342020312020302020302020302020300A2020342020352020312020302020302020302020300A2020352020362020312020302020302020302020300A2020362020312020312020302020302020302020300A2020312020372020312020302020302020302020300A2020372020382020312020302020302020302020300A2020382020392020312020302020302020302020300A2020392031302020312020302020302020302020300A2020342031312020312020302020302020302020300A2031312031322020312020302020302020302020300A2031322031332020312020302020302020302020300A2031332031342020312020302020302020302020300A2020392031352020322020302020302020302020300A2020392031362020322020302020302020302020300A2031332031372020322020302020302020302020300A2031332031382020322020302020302020302020300A4D2020454E44
Contributor: Tsuzimoto Y, Tsugawa H, Bamba T, Fukusaki E, engineering department, Osaka Univ.
InstType: EI
InstName: Pegasus II TOF-MS system, Leco; GC 6890, Agilent Technologies
IoniMethod: EI
IonPolarity: pos
Date: 2010-10-09 19:48:36+02:00
Num Peaks: 64
87 12 89 13 92 3 93 3 95 2 99 4 100 1 101 3 102 10 103 27 
104 3 105 10 106 10 111 3 115 25 117 7 118 2 119 6 123 3 129 3 
131 53 132 7 133 31 134 5 139 14 146 1 147 999 148 152 149 82 150 6 
152 15 153 3 154 4 167 1 169 2 171 5 179 1 184 4 188 3 198 2 
212 1 217 1 227 121 228 22 229 9 230 1 236 2 267 1 288 1 310 1 
342 3 349 1 373 1 384 1 415 1 425 1 428 1 444 6 460 3 470 3 
478 1 483 1 487 1 489 1 
