Name: Quinic acid
CAS: 77-95-2
MW: 192
Formula: C7H12O6
Synonym: CID: 1064
Synonym: MassBank: OUF00440
Synonym: Quinic acid
Structure: 4330303030313230312E6364780A20204368656D447261773132323630383139313432440A2031332031332020302020302020302020302020302020302020302020303939392056323030300A2020202D302E3835343520202020302E3530333820202020302E303030302043202020302020302020302020302020302020302020302020302020302020302020302020300A2020202D302E3132323220202020302E3136333420202020302E303030302043202020302020302020302020302020302020302020302020302020302020302020302020300A20202020302E3531343720202020302E3333343120202020302E303030302043202020302020302020302020302020302020302020302020302020302020302020302020300A20202020312E313436312020202D302E3534383120202020302E303030302043202020302020302020302020302020302020302020302020302020302020302020302020300A20202020302E343139332020202D302E3233373120202020302E303030302043202020302020302020302020302020302020302020302020302020302020302020302020300A2020202D302E323837352020202D302E3432363420202020302E303030302043202020302020302020302020302020302020302020302020302020302020302020302020300A2020202D302E3835343520202020302E3839363220202020302E30303030204F202020302020302020302020302020302020302020302020302020302020302020302020300A20202020302E363032362020202D302E3932313120202020302E30303030204F202020302020302020302020302020302020302020302020302020302020302020302020300A20202020312E353639302020202D302E3132353120202020302E30303030204F202020302020302020302020302020302020302020302020302020302020302020302020300A20202020302E3531343720202020302E3932313120202020302E30303030204F202020302020302020302020302020302020302020302020302020302020302020302020300A2020202D312E353639302020202D302E3230303520202020302E303030302043202020302020302020302020302020302020302020302020302020302020302020302020300A2020202D312E3536393020202020302E3632343520202020302E30303030204F202020302020302020302020302020302020302020302020302020302020302020302020300A2020202D302E383534352020202D302E3631333020202020302E30303030204F202020302020302020302020302020302020302020302020302020302020302020302020300A2020312020322020312020302020202020200A2020322020332020312020302020202020200A2020332020342020312020302020202020200A2020342020352020312020312020202020200A2020352020362020312020312020202020200A2020312020362020312020312020202020200A2020312020372020312020302020202020200A2020352020382020312020302020202020200A2020342020392020312020302020202020200A2020332031302020312020302020202020200A2020312031312020312020302020202020200A2031312031322020322020302020202020200A2031312031332020312020302020202020200A4D202053545920203120202031205355500A4D2020534C4220203120202031202020310A4D202053414C202020312020332020313120203132202031330A4D202053424C20202031202031202031310A4D2020534D542020203120434F4F480A4D2020534256202020312031312020202D342E3433313820202020312E313139350A4D2020454E44
Contributor: Tsuzimoto Y, Tsugawa H, Bamba T, Fukusaki E, engineering department, Osaka Univ.
InstType: EI
InstName: Pegasus II TOF-MS system, Leco; GC 6890, Agilent Technologies
IoniMethod: EI
IonPolarity: pos
Date: 2010-10-09 19:48:36+02:00
Num Peaks: 272
85 16 86 4 87 13 88 5 89 11 90 3 91 22 92 6 93 18 94 6 
95 11 96 4 97 13 98 5 99 22 100 3 101 60 102 12 103 82 104 9 
105 18 106 3 107 3 108 1 109 8 110 2 111 17 112 5 113 14 114 5 
115 89 116 37 117 53 118 8 119 24 120 4 121 9 122 1 123 5 124 1 
125 10 126 3 127 16 128 6 129 71 130 10 131 96 132 16 133 239 134 36 
135 27 136 4 137 4 138 1 139 9 140 5 141 76 142 19 143 83 144 11 
145 11 146 4 147 999 148 161 149 124 150 15 151 34 152 6 153 8 154 4 
155 21 156 15 157 15 158 3 159 7 160 2 161 14 162 3 163 7 164 2 
165 7 166 9 167 44 168 9 169 42 170 7 171 7 172 3 173 7 174 2 
175 13 176 3 177 12 178 3 179 4 180 3 181 12 182 6 183 50 184 8 
185 7 186 1 187 3 188 1 189 37 190 17 191 169 192 33 193 40 194 8 
195 11 196 3 197 3 199 2 200 2 201 11 202 3 203 15 204 153 205 48 
206 18 207 28 208 7 209 7 210 2 211 5 212 1 213 2 214 1 215 45 
216 18 217 52 218 12 219 6 220 3 221 39 222 9 223 12 224 4 225 7 
226 2 227 2 228 1 229 11 230 12 231 18 232 5 233 2 237 1 238 2 
239 73 240 29 241 15 242 9 243 35 244 31 245 13 246 5 247 2 248 1 
249 2 250 1 251 2 252 1 253 2 254 8 255 438 256 112 257 78 258 17 
259 11 260 2 261 1 263 1 265 4 266 1 267 14 268 5 269 4 270 1 
271 3 272 2 273 6 274 1 275 1 278 4 279 1 280 1 281 3 282 5 
283 18 284 6 285 6 286 2 287 1 289 4 290 2 291 7 292 4 293 2 
294 1 297 2 298 1 299 2 300 1 301 1 302 1 303 2 304 1 305 12 
306 6 307 4 308 2 311 1 312 1 313 16 314 8 315 4 316 2 317 2 
318 2 319 3 320 3 321 1 327 1 329 15 330 7 331 14 332 6 333 16 
334 50 335 18 336 8 337 1 341 1 342 1 343 5 344 23 345 634 346 234 
347 112 348 28 349 8 350 1 356 1 357 10 358 4 359 2 361 1 371 3 
372 35 373 15 374 8 375 3 376 1 418 3 419 25 420 13 421 8 422 2 
434 4 435 31 436 17 437 9 438 3 439 1 447 4 448 2 449 1 462 5 
463 3 464 1 
