Name: 2-Dehydro-D-gluconate
CAS: 669-90-9
MW: 194
Formula: C6H10O7
Synonym: CID: 3035456
Synonym: MassBank: OUF00023
Synonym: 2-Dehydro-D-gluconate
Structure: 36363939302D33342D392E6D6F6C0A20204368656D447261773038303431303139353532440A2031332031322020302020302020302020302020302020302020302020303939392056323030300A20202020302E323137362020202D302E3337323120202020302E303030302043202020302020302020302020302020302020302020302020302020302020302020302020300A2020202D302E3231353120202020302E3336393520202020302E303030302043202020302020302020302020302020302020302020302020302020302020302020302020300A2020202D302E323135312020202D312E3037303520202020302E303030302043202020302020302020302020302020302020302020302020302020302020302020302020300A20202020312E303430312020202D302E3337323120202020302E30303030204F202020302020302020302020302020302020302020302020302020302020302020302020300A20202020302E3231373620202020312E3037303520202020302E303030302043202020302020302020302020302020302020302020302020302020302020302020302020300A2020202D312E3034303120202020302E3336393520202020302E30303030204F202020302020302020302020302020302020302020302020302020302020302020302020300A20202020302E323137362020202D312E3739313820202020302E303030302043202020302020302020302020302020302020302020302020302020302020302020302020300A2020202D312E303430312020202D312E3037303520202020302E30303030204F202020302020302020302020302020302020302020302020302020302020302020302020300A2020202D302E3231353120202020312E3739313820202020302E303030302043202020302020302020302020302020302020302020302020302020302020302020302020300A20202020312E3034303120202020312E3037303520202020302E30303030204F202020302020302020302020302020302020302020302020302020302020302020302020300A20202020312E303430312020202D312E3733313120202020302E30303030204F202020302020302020302020302020302020302020302020302020302020302020302020300A2020202D302E313531392020202D322E3531333120202020302E30303030204F202020302020302020302020302020302020302020302020302020302020302020302020300A20202020302E3231373620202020322E3531333120202020302E30303030204F202020302020302020302020302020302020302020302020302020302020302020302020300A2020312020322020312020302020202020200A2020312020332020312020302020202020200A2020312020342020312020362020202020200A2020322020352020312020302020202020200A2020322020362020312020362020202020200A2020332020372020312020302020202020200A2020332020382020322020302020202020200A2020352020392020312020302020202020200A2020352031302020312020312020202020200A2020372031312020312020302020202020200A2020372031322020322020302020202020200A2020392031332020312020302020202020200A4D2020454E44
Contributor: Tsuzimoto Y, Tsugawa H, Bamba T, Fukusaki E, engineering department, Osaka Univ.
InstType: EI
InstName: Pegasus II TOF-MS system, Leco; GC 6890, Agilent Technologies
IoniMethod: EI
IonPolarity: pos
Date: 2010-10-09 19:48:36+02:00
Num Peaks: 267
85 29 86 33 87 26 88 16 89 302 90 31 91 15 92 3 93 3 94 5 
95 5 96 13 97 3 98 15 99 18 100 21 101 66 102 34 103 999 104 102 
105 65 106 6 107 2 108 1 109 1 110 3 111 7 112 4 113 35 114 27 
115 23 116 23 117 246 118 29 119 30 120 5 121 3 122 1 124 4 125 1 
126 20 127 10 128 21 129 124 130 22 131 103 132 22 133 247 134 35 135 24 
136 4 137 2 138 2 139 2 140 6 141 6 142 19 143 32 144 8 145 17 
146 3 147 829 148 137 149 91 150 12 151 6 152 5 153 2 154 4 155 4 
156 8 157 21 158 16 159 12 160 4 161 8 162 2 163 32 164 6 165 3 
166 5 167 3 168 8 169 2 170 10 171 6 172 133 173 34 174 25 175 24 
176 7 177 19 178 4 179 2 182 6 183 2 184 48 185 11 186 223 187 69 
188 34 189 93 190 28 191 72 192 18 193 10 194 9 195 4 196 4 197 3 
198 12 199 3 200 14 201 235 202 54 203 32 204 72 205 78 206 21 207 21 
208 5 209 1 210 8 211 1 212 7 213 2 214 23 215 10 216 21 217 472 
218 103 219 55 220 9 221 29 222 8 223 4 226 1 227 2 228 4 229 7 
230 13 231 13 232 4 233 1 234 1 238 1 240 8 241 2 242 5 243 1 
244 4 245 2 246 10 247 3 248 1 249 1 250 1 251 1 252 1 253 1 
254 3 255 3 256 8 257 3 258 12 259 12 260 7 261 4 262 1 263 1 
264 1 265 2 266 1 267 1 268 2 269 1 270 4 271 1 272 2 273 1 
274 2 275 2 276 41 277 48 278 20 279 9 280 3 281 1 282 1 283 1 
284 4 286 3 287 1 288 19 289 9 290 9 291 12 292 5 293 2 294 1 
300 1 301 1 302 4 303 3 304 3 305 5 306 5 307 50 308 20 309 9 
310 1 314 6 315 2 316 3 317 1 318 2 319 7 320 3 321 1 328 3 
329 1 330 4 331 2 332 5 333 2 334 1 335 1 344 3 345 1 346 4 
347 5 348 16 349 223 350 95 351 43 352 12 353 3 357 1 358 2 360 1 
362 1 363 1 372 2 373 1 374 2 377 2 378 22 379 10 380 4 381 1 
388 1 390 8 391 4 392 2 402 1 404 2 405 1 406 1 432 1 436 1 
446 3 447 2 448 1 462 1 478 3 479 1 480 1 
