Name: S-Benzyl-L-Cysteine
CAS: 3054-01-1
MW: 211
Formula: C10H13NO2S
Synonym: CID: 220175
Synonym: MassBank: OUF00453
Synonym: S-Benzyl-L-Cysteine
Structure: 31342031342020302020302020302020302020302020302020302020302020312056323030300A20202D33332E303030302020202D352E3030303020202020302E303030302043202020302020302020302020302020302020302020302020302020302020300A20202D33332E3030303020202031362E3030303020202020302E303030302043202020302020302020302020302020302020302020302020302020302020300A20202D35322E3030303020202D31352E3030303020202020302E303030302043202020302020302020302020302020302020302020302020302020302020300A20202D35322E3030303020202032352E3030303020202020302E303030302043202020302020302020302020302020302020302020302020302020302020300A20202D31362E3030303020202032352E3030303020202020302E303030302043202020302020302020302020302020302020302020302020302020302020300A20202D36392E303030302020202D352E3030303020202020302E303030302043202020302020302020302020302020302020302020302020302020302020300A20202D36392E3030303020202031362E3030303020202020302E303030302043202020302020302020302020302020302020302020302020302020302020300A20202020312E3030303020202031362E3030303020202020302E303030302053202020302020302020302020302020302020302020302020302020302020300A20202031382E3030303020202032352E3030303020202020302E303030302043202020302020302020302020302020302020302020302020302020302020300A20202033362E3030303020202031362E3030303020202020302E303030302043202020302020302020302020302020302020302020302020302020302020300A20202033362E303030302020202D352E3030303020202020302E30303030204E202020302020302020302020302020302020302020302020302020302020300A20202035332E3030303020202032352E3030303020202020302E303030302043202020302020302020302020302020302020302020302020302020302020300A20202037302E3030303020202031362E3030303020202020302E30303030204F202020302020302020302020302020302020302020302020302020302020300A20202035332E3030303020202034352E3030303020202020302E30303030204F202020302020302020302020302020302020302020302020302020302020300A2020312020322020322020302020302020302020300A2020312020332020312020302020302020302020300A2020322020342020312020302020302020302020300A2020322020352020312020302020302020302020300A2020332020362020322020302020302020302020300A2020342020372020322020302020302020302020300A2020352020382020312020302020302020302020300A2020362020372020312020302020302020302020300A2020382020392020312020302020302020302020300A2020392031302020312020302020302020302020300A2031302031312020312020302020302020302020300A2031302031322020312020302020302020302020300A2031322031332020312020302020302020302020300A2031322031342020322020302020302020302020300A4D2020454E44
Contributor: Tsuzimoto Y, Tsugawa H, Bamba T, Fukusaki E, engineering department, Osaka Univ.
InstType: EI
InstName: Pegasus II TOF-MS system, Leco; GC 6890, Agilent Technologies
IoniMethod: EI
IonPolarity: pos
Date: 2010-10-09 19:48:36+02:00
Num Peaks: 127
85 7 86 28 87 11 88 4 89 41 90 20 91 999 92 100 93 8 94 1 
95 1 96 2 97 1 98 8 99 6 100 474 101 63 102 37 103 29 104 7 
105 10 106 3 108 1 110 1 112 1 113 3 114 10 115 61 116 87 117 31 
118 14 119 9 120 4 121 19 122 7 123 6 124 4 128 33 129 25 130 76 
131 48 132 92 133 76 134 15 135 11 136 1 137 9 138 4 142 2 143 2 
144 10 145 6 146 62 147 267 148 53 149 53 150 8 151 4 158 7 159 9 
160 10 161 6 162 2 163 18 164 6 165 5 166 10 167 1 172 6 173 4 
174 11 175 5 176 6 177 2 178 7 179 2 180 2 181 2 188 8 189 4 
190 11 191 4 192 2 200 1 202 3 203 15 204 7 205 4 206 2 207 1 
216 9 217 7 218 948 219 202 220 91 221 15 222 14 223 7 224 2 232 4 
233 17 234 5 235 2 236 1 237 2 238 402 239 97 240 43 241 8 242 2 
250 5 251 1 264 1 280 23 281 10 282 3 283 1 311 1 312 34 313 18 
314 8 315 2 340 5 341 3 355 7 356 5 357 1 
