Name: 4-Hydroxyphenylacetic acid
CAS: 156-38-7
MW: 152
Formula: C8H8O3
Synonym: KEGG: C00642
Synonym: CID: 127
Synonym: MassBank: OUF00067
Synonym: 4-Hydroxyphenylacetic acid
Structure: 310A32370A20204143442F4C6162733039333031303039313532440A2031312031312020302020302020302020302020302020302020302020302020312056323030300A20202031392E353837342020202D392E3438363620202020302E303030302043202020302020302020302020302020302020302020302020302020302020302020302020300A20202031382E343335362020202D382E3832313520202020302E303030302043202020302020302020302020302020302020302020302020302020302020302020302020300A20202032302E373339352020202D382E3832313520202020302E303030302043202020302020302020302020302020302020302020302020302020302020302020302020300A20202031382E343335362020202D372E3439313520202020302E303030302043202020302020302020302020302020302020302020302020302020302020302020302020300A20202032302E373339352020202D372E3439313520202020302E303030302043202020302020302020302020302020302020302020302020302020302020302020302020300A20202031392E353837342020202D362E3832373020202020302E303030302043202020302020302020302020302020302020302020302020302020302020302020302020300A20202032302E373339312020202D342E3833313420202020302E303030302043202020302020302020302020302020302020302020302020302020302020302020302020300A20202031392E353837342020202D352E3439363520202020302E303030302043202020302020302020302020302020302020302020302020302020302020302020302020300A20202031392E3538373420202D31302E3831363720202020302E30303030204F202020302020302020302020302020302020302020302020302020302020302020302020300A20202032302E373339312020202D332E3530313320202020302E30303030204F202020302020302020302020302020302020302020302020302020302020302020302020300A20202032312E383931332020202D352E3439363520202020302E30303030204F202020302020302020302020302020302020302020302020302020302020302020302020300A2020362020352020322020302020302020302020300A2020342020362020312020302020302020302020300A2020322020312020312020302020302020302020300A2020312020332020322020302020302020302020300A2020332020352020312020302020302020302020300A2020322020342020322020302020302020302020300A2020312020392020312020302020302020302020300A2020362020382020312020302020302020302020300A2020382020372020312020302020302020302020300A2020372031302020322020302020302020302020300A2020372031312020312020302020302020302020300A4D2020454E44
Contributor: Tsuzimoto Y, Tsugawa H, Bamba T, Fukusaki E, engineering department, Osaka Univ.
InstType: EI
InstName: Pegasus II TOF-MS system, Leco; GC 6890, Agilent Technologies
IoniMethod: EI
IonPolarity: pos
Date: 2010-10-09 19:48:36+02:00
Num Peaks: 167
85 35 86 7 87 22 88 16 89 267 90 151 91 100 92 14 93 22 94 2 
95 23 96 4 97 10 98 2 99 11 100 1 101 11 102 20 103 88 104 63 
105 119 106 22 107 43 108 6 109 18 110 3 111 9 112 1 113 3 115 24 
116 10 117 120 118 25 119 43 120 8 121 35 122 6 123 14 125 3 126 2 
128 2 129 2 130 3 131 45 132 10 133 227 134 40 135 152 136 24 137 31 
138 4 139 2 141 1 143 9 144 2 145 32 146 10 147 323 148 74 149 318 
150 52 151 26 152 4 153 2 154 2 155 1 156 2 157 2 158 2 159 6 
160 3 161 90 162 27 163 288 164 785 165 144 166 38 167 6 168 1 169 1 
173 1 175 11 176 7 177 122 178 37 179 999 180 169 181 51 182 6 183 2 
189 2 190 2 191 117 192 21 193 30 194 7 195 9 196 2 199 1 203 1 
204 1 205 3 206 23 207 13 208 19 209 30 210 9 211 6 212 1 217 1 
219 4 220 1 221 9 222 3 223 7 224 7 225 46 226 17 227 7 228 1 
229 1 231 1 233 1 235 5 236 5 237 34 238 12 239 5 240 1 242 1 
245 1 246 1 249 4 250 1 251 6 252 408 253 162 254 68 255 19 256 4 
265 17 266 6 267 6 268 2 269 1 271 1 273 1 274 1 278 1 279 3 
280 7 281 275 282 73 283 29 284 6 285 1 286 2 294 1 295 6 296 294 
297 83 298 32 299 8 300 2 301 1 324 1 429 1 
