Name: D-Glucuronate
CAS: 6556-12-3
MW: 194
Formula: C6H10O7
Synonym: CID: 610
Synonym: MassBank: OUF00178
Synonym: D-Glucuronate
Structure: 4330303030313132332E6364780A20204368656D447261773132323630383139313132440A2031332031332020302020302020302020302020302020302020302020303939392056323030300A2020202D302E3934353720202020302E3139323820202020302E303030302043202020302020302020302020302020302020302020302020302020302020302020302020300A2020202D302E353333322020202D302E3532313620202020302E303030302043202020302020302020302020302020302020302020302020302020302020302020302020300A20202020302E323634382020202D302E3331323620202020302E303030302043202020302020302020302020302020302020302020302020302020302020302020302020300A20202020312E303538312020202D302E3533393420202020302E303030302043202020302020302020302020302020302020302020302020302020302020302020302020300A20202020302E3634353620202020302E3137353220202020302E30303030204F202020302020302020302020302020302020302020302020302020302020302020302020300A2020202D302E313532352020202D302E3033333820202020302E303030302043202020302020302020302020302020302020302020302020302020302020302020302020300A20202020312E353330392020202D302E3036363520202020302E30303030204F202020302020302020302020302020302020302020302020302020302020302020302020300A2020202D312E353330392020202D302E3339323320202020302E30303030204F202020302020302020302020302020302020302020302020302020302020302020302020300A2020202D302E393539372020202D302E3237353420202020302E30303030204F202020302020302020302020302020302020302020302020302020302020302020302020300A2020202D302E303531312020202D302E3835393820202020302E30303030204F202020302020302020302020302020302020302020302020302020302020302020302020300A2020202D302E3239303720202020302E3438313820202020302E303030302043202020302020302020302020302020302020302020302020302020302020302020302020300A20202020302E3038373320202020302E3835393820202020302E30303030204F202020302020302020302020302020302020302020302020302020302020302020302020300A2020202D302E3734303720202020302E3734313720202020302E30303030204F202020302020302020302020302020302020302020302020302020302020302020302020300A2020312020322020312020312020202020200A2020322020332020312020312020202020200A2020342020332020312020312020202020200A2020342020352020312020302020202020200A2020352020362020312020302020202020200A2020362020312020312020302020202020200A2020342020372020312020302020202020200A2020312020382020312020302020202020200A2020322020392020312020302020202020200A2020332031302020312020302020202020200A2020362031312020312020302020202020200A2031312031322020322020302020202020200A2031312031332020312020302020202020200A4D2020454E44
Contributor: Tsuzimoto Y, Tsugawa H, Bamba T, Fukusaki E, engineering department, Osaka Univ.
InstType: EI
InstName: Pegasus II TOF-MS system, Leco; GC 6890, Agilent Technologies
IoniMethod: EI
IonPolarity: pos
Date: 2010-10-09 19:48:36+02:00
Num Peaks: 247
85 24 86 15 87 16 88 9 89 281 90 25 91 10 92 2 94 2 96 9 
97 3 98 2 99 27 100 49 101 48 102 73 103 351 104 35 105 75 106 4 
107 2 108 2 111 9 112 4 113 9 114 17 115 30 116 25 117 55 118 9 
119 34 120 3 121 2 124 3 125 4 126 9 127 15 128 10 129 102 130 65 
131 124 132 27 133 314 134 45 135 24 136 2 137 1 139 2 140 3 141 5 
142 11 143 254 144 36 145 26 146 8 147 999 148 164 149 112 150 11 151 6 
152 1 153 1 154 6 155 2 156 2 157 11 158 8 159 9 160 492 161 75 
162 26 163 39 164 6 165 3 166 3 167 1 168 3 169 2 170 5 171 102 
172 38 173 20 174 7 175 14 176 4 177 18 178 1 179 3 182 8 183 7 
184 1 185 4 186 1 187 4 188 5 189 167 190 49 191 79 192 15 193 8 
194 1 195 2 196 3 198 1 199 1 200 3 201 6 202 2 203 12 204 87 
205 45 206 12 207 24 208 8 210 5 211 1 212 1 214 14 215 11 216 13 
217 139 218 34 219 85 220 23 221 53 222 13 223 7 224 2 226 2 227 1 
228 4 229 5 230 10 231 19 232 10 233 17 234 8 235 13 236 4 237 2 
238 1 240 3 241 1 242 3 243 2 244 1 245 31 246 12 247 5 248 2 
253 1 255 3 256 6 257 7 258 5 259 1 261 5 262 5 263 4 264 1 
265 4 267 2 268 1 272 1 273 1 274 14 275 5 276 1 277 22 278 13 
279 4 282 3 283 4 287 2 288 1 289 3 291 24 292 209 293 128 294 51 
295 12 296 1 303 2 304 4 305 69 306 55 307 26 308 6 309 5 314 9 
315 4 317 2 318 3 319 10 320 7 321 7 322 4 323 1 324 2 328 3 
329 2 330 3 332 35 333 678 334 456 335 186 336 67 337 17 338 5 339 1 
344 1 345 6 346 5 347 7 348 4 349 3 351 1 361 3 362 3 363 1 
364 2 368 1 371 2 376 1 377 3 378 1 379 1 386 1 388 1 392 1 
393 9 394 6 395 5 418 3 419 8 420 5 422 4 423 28 424 22 425 10 
426 3 454 1 457 1 461 2 474 1 491 1 496 1 
