Name: 5-Hydroxyindoleacetate
CAS: 54-16-0
MW: 191
Formula: C10H9NO3
Synonym: KEGG: C05635
Synonym: CID: 1826
Synonym: MassBank: OUF00075
Synonym: 5-Hydroxyindoleacetate
Structure: 4330303030303130342E6364780A20204368656D447261773132323630383138343032440A2031342031352020302020302020302020302020302020302020302020303939392056323030300A2020202D312E3738333320202020302E3431323520202020302E303030302043202020302020302020302020302020302020302020302020302020302020302020302020300A2020202D312E373833332020202D302E3431323520202020302E303030302043202020302020302020302020302020302020302020302020302020302020302020302020300A2020202D312E303638382020202D302E3832353020202020302E303030302043202020302020302020302020302020302020302020302020302020302020302020302020300A2020202D302E333534332020202D302E3431323520202020302E303030302043202020302020302020302020302020302020302020302020302020302020302020302020300A2020202D302E3335343320202020302E3431323520202020302E303030302043202020302020302020302020302020302020302020302020302020302020302020302020300A2020202D312E3036383820202020302E3832353020202020302E303030302043202020302020302020302020302020302020302020302020302020302020302020302020300A20202020312E3036383820202020302E3339313920202020302E303030302043202020302020302020302020302020302020302020302020302020302020302020302020300A20202020312E303638382020202D302E3433333120202020302E303030302043202020302020302020302020302020302020302020302020302020302020302020302020300A20202020302E333935362020202D302E3738333820202020302E30303030204E202020302020302020302020302020302020302020302020302020302020302020302020300A20202020312E3738333320202020302E3830343420202020302E303030302043202020302020302020302020302020302020302020302020302020302020302020302020300A2020202D322E3439373720202020302E3832353020202020302E30303030204F202020302020302020302020302020302020302020302020302020302020302020302020300A20202020322E343937372020202D302E3032303620202020302E303030302043202020302020302020302020302020302020302020302020302020302020302020302020300A20202020322E3439373720202020302E3830343420202020302E30303030204F202020302020302020302020302020302020302020302020302020302020302020302020300A20202020312E373833332020202D302E3433333120202020302E30303030204F202020302020302020302020302020302020302020302020302020302020302020302020300A2020312020322020312020302020202020200A2020322020332020322020302020202020200A2020332020342020312020302020202020200A2020342020352020322020302020202020200A2020352020362020312020302020202020200A2020362020312020322020302020202020200A2020352020372020312020302020202020200A2020372020382020322020302020202020200A2020342020392020312020302020202020200A2020392020382020312020302020202020200A2020372031302020312020302020202020200A2020312031312020312020302020202020200A2031302031322020312020302020202020200A2031322031332020322020302020202020200A2031322031342020312020302020202020200A4D202053545920203120202031205355500A4D2020534C4220203120202031202020310A4D202053414C202020312020332020313220203133202031340A4D202053424C20202031202031202031330A4D2020534D542020203120434F4F480A4D2020534256202020312031332020202D332E3434383120202020322E323036390A4D2020454E44
Contributor: Tsuzimoto Y, Tsugawa H, Bamba T, Fukusaki E, engineering department, Osaka Univ.
InstType: EI
InstName: Pegasus II TOF-MS system, Leco; GC 6890, Agilent Technologies
IoniMethod: EI
IonPolarity: pos
Date: 2010-10-09 19:48:36+02:00
Num Peaks: 214
85 5 86 2 87 4 88 4 89 14 90 3 91 7 92 2 93 8 94 4 
95 4 96 2 99 4 100 6 101 19 102 6 103 12 104 4 105 11 106 1 
107 5 109 3 110 1 113 3 114 2 115 34 116 13 117 22 118 7 119 11 
120 3 121 11 123 2 127 5 128 29 129 4 130 14 131 17 132 5 133 20 
134 4 135 8 140 3 141 7 142 27 143 14 144 12 145 11 146 22 147 81 
148 18 149 11 150 3 151 2 153 3 154 7 155 4 156 12 157 6 158 4 
159 11 160 7 161 2 162 2 163 1 165 3 167 1 168 3 169 3 170 13 
171 7 172 19 173 9 174 15 175 12 176 5 177 3 179 2 180 2 181 1 
182 4 183 2 184 13 185 10 186 43 187 13 188 11 189 13 190 2 191 1 
192 4 193 5 194 2 195 2 196 16 197 4 198 8 199 5 200 18 201 13 
202 77 203 32 204 9 205 3 206 3 207 3 208 3 211 1 212 2 213 2 
214 7 215 6 216 27 217 23 218 15 219 8 220 1 226 2 227 1 228 2 
229 2 230 14 231 8 232 8 233 11 234 4 235 4 237 1 238 1 242 2 
243 2 244 12 245 6 246 4 247 4 248 2 249 2 256 1 257 2 258 9 
259 4 260 37 261 17 262 6 263 1 264 1 272 3 273 4 274 17 275 10 
276 11 278 3 280 1 286 3 287 3 288 62 289 33 290 999 291 288 292 107 
293 22 294 4 296 1 297 1 301 1 302 1 304 9 305 2 306 3 307 1 
309 1 317 1 318 3 319 2 327 1 330 1 331 1 333 1 334 2 335 1 
336 1 341 1 345 1 348 2 349 2 350 1 352 1 353 1 356 1 360 1 
361 1 362 1 363 2 364 24 365 19 366 10 367 4 376 2 378 1 379 1 
391 3 392 33 393 18 394 8 395 2 404 1 406 17 407 173 408 87 409 39 
410 13 411 3 459 1 473 1 
