Name: 4-Aminobutyric acid
CAS: 56-12-2
MW: 103
Formula: C4H9NO2
Synonym: KEGG: C00334
Synonym: CID: 119
Synonym: MassBank: OUF00061
Synonym: 4-Aminobutyric acid
Structure: 310A32350A4330303030313333372E6364780A20204368656D447261773132323630383139313832440A2020372020362020302020302020302020302020302020302020302020303939392056323030300A2020202D302E3834373420202020302E3239373120202020302E30303030204E202020302020302020302020302020302020302020302020302020302020302020302020300A20202020302E3235363320202020302E3237373420202020302E303030302043202020302020302020302020302020302020302020302020302020302020302020302020300A20202020302E393033322020202D302E3039363120202020302E30303030204F202020302020302020302020302020302020302020302020302020302020302020302020300A20202020302E3235363320202020302E3838383620202020302E30303030204F202020302020302020302020302020302020302020302020302020302020302020302020300A2020202D302E393033322020202D302E3437363120202020302E303030302043202020302020302020302020302020302020302020302020302020302020302020302020300A2020202D302E313838372020202D302E3838383620202020302E303030302043202020302020302020302020302020302020302020302020302020302020302020302020300A20202020302E353235372020202D302E3437363120202020302E303030302043202020302020302020302020302020302020302020302020302020302020302020302020300A2020322020332020312020302020202020200A2020322020342020322020302020202020200A2020312020352020312020302020202020200A2020322020372020312020302020202020200A2020352020362020312020302020202020200A2020362020372020312020302020202020200A4D202053545920203120202031205355500A4D2020534C4220203120202031202020310A4D202053414C202020312020332020203520202036202020370A4D202053424C2020203120203220202033202020340A4D2020534D5420202031202843483229330A4D2020534256202020312020332020202D352E3432313620202020312E323439370A4D2020534256202020312020342020202D352E3039363420202020312E323639340A4D2020454E44
Contributor: Tsuzimoto Y, Tsugawa H, Bamba T, Fukusaki E, engineering department, Osaka Univ.
InstType: EI
InstName: Pegasus II TOF-MS system, Leco; GC 6890, Agilent Technologies
IoniMethod: EI
IonPolarity: pos
Date: 2010-10-09 19:48:36+02:00
Num Peaks: 112
85 32 86 363 87 48 88 19 89 11 90 1 91 1 92 1 93 1 95 1 
96 2 97 4 98 18 99 29 100 203 101 43 102 39 103 20 104 4 105 6 
106 1 110 3 111 2 112 17 113 17 114 30 115 28 116 30 117 46 118 9 
119 13 120 2 121 1 124 2 125 1 126 4 127 3 128 13 129 22 130 80 
131 67 132 22 133 96 134 15 135 8 136 1 137 1 138 1 139 1 140 21 
141 4 142 87 143 84 144 26 145 13 146 37 147 496 148 82 149 46 150 5 
151 2 154 2 155 1 156 29 157 10 158 15 159 4 160 4 161 2 168 1 
170 5 171 2 172 43 173 10 174 999 175 174 176 82 177 10 178 2 184 1 
186 4 187 4 188 3 189 2 190 1 198 2 200 4 201 1 204 3 205 2 
214 16 215 4 216 72 217 14 218 7 219 5 220 2 221 1 228 1 230 5 
231 1 232 3 246 27 247 6 248 3 288 1 303 1 304 141 305 45 306 22 
307 5 308 1 
