Name: p-Hydroxybenzoic acid
CAS: 99-96-7
MW: 138
Formula: C7H6O3
Synonym: KEGG: C00156
Synonym: CID: 135
Synonym: MassBank: OUF00425
Synonym: p-Hydroxybenzoic acid
Structure: 4330303030303835362E6364780A20204368656D447261773132323630383139303332440A2031302031302020302020302020302020302020302020302020302020303939392056323030300A2020202D302E3730373720202020302E3230343920202020302E303030302043202020302020302020302020302020302020302020302020302020302020302020302020300A2020202D302E373037372020202D302E3631333920202020302E303030302043202020302020302020302020302020302020302020302020302020302020302020302020300A20202020302E303031322020202D312E3032333220202020302E303030302043202020302020302020302020302020302020302020302020302020302020302020302020300A20202020302E373039392020202D302E3631343120202020302E303030302043202020302020302020302020302020302020302020302020302020302020302020302020300A20202020302E3730393920202020302E3230323720202020302E303030302043202020302020302020302020302020302020302020302020302020302020302020302020300A20202020302E3030303420202020302E3631323420202020302E303030302043202020302020302020302020302020302020302020302020302020302020302020302020300A20202020302E303031322020202D312E3834393220202020302E30303030204F202020302020302020302020302020302020302020302020302020302020302020302020300A20202020302E3030303420202020312E3433363520202020302E303030302043202020302020302020302020302020302020302020302020302020302020302020302020300A2020202D302E3731343520202020312E3834393220202020302E30303030204F202020302020302020302020302020302020302020302020302020302020302020302020300A20202020302E3731343520202020312E3834383820202020302E30303030204F202020302020302020302020302020302020302020302020302020302020302020302020300A2020312020322020322020302020202020200A2020322020332020312020302020202020200A2020332020342020322020302020202020200A2020342020352020312020302020202020200A2020352020362020322020302020202020200A2020362020312020312020302020202020200A2020362020382020312020302020202020200A2020332020372020312020302020202020200A2020382020392020322020302020202020200A2020382031302020312020302020202020200A4D2020454E44
Contributor: Tsuzimoto Y, Tsugawa H, Bamba T, Fukusaki E, engineering department, Osaka Univ.
InstType: EI
InstName: Pegasus II TOF-MS system, Leco; GC 6890, Agilent Technologies
IoniMethod: EI
IonPolarity: pos
Date: 2010-10-09 19:48:36+02:00
Num Peaks: 150
85 47 86 5 87 11 88 6 89 142 90 61 91 218 92 108 93 51 94 7 
95 40 96 22 97 18 98 8 99 11 100 2 101 5 102 5 103 73 104 95 
105 91 106 15 107 34 108 6 109 21 110 4 111 33 112 7 113 4 115 21 
116 4 117 23 118 35 119 60 120 36 121 70 122 39 123 22 124 4 125 7 
126 279 127 30 128 1 129 3 130 1 131 29 132 7 133 93 134 23 135 151 
136 24 137 19 138 3 139 2 141 2 143 5 144 1 145 10 146 3 147 84 
148 24 149 106 150 34 151 116 152 18 153 7 154 1 155 1 157 3 158 1 
159 1 161 5 162 3 163 24 164 9 165 21 166 17 167 7 168 1 175 2 
176 1 177 18 178 7 179 105 180 20 181 17 182 3 183 1 189 1 191 26 
192 12 193 725 194 142 195 63 196 10 197 3 205 1 206 2 207 75 208 19 
209 15 210 6 211 1 221 12 222 9 223 999 224 257 225 104 226 19 227 4 
228 1 237 12 238 4 239 3 240 1 241 1 242 1 243 1 244 1 245 1 
246 2 247 1 248 2 249 2 250 1 251 5 252 3 253 3 254 2 255 2 
256 1 265 3 266 7 267 892 268 234 269 93 270 17 271 3 272 1 273 2 
274 1 275 1 276 1 277 1 278 1 281 25 282 213 283 58 284 22 285 4 
