Name: 2-Aminopimelic acid
CAS: 627-76-9
MW: 175
Formula: C7H13NO4
Synonym: CID: 101122
Synonym: MassBank: OUF00021
Synonym: 2-Aminopimelic acid
Structure: 363237372D36302D372E6D6F6C0A20204368656D447261773038303431303139313632440A2031322031312020302020302020302020302020302020302020302020303939392056323030300A2020202D302E3731353420202020302E3230323220202020302E303030302043202020302020302020302020302020302020302020302020302020302020302020302020300A2020202D302E303032332020202D302E3230343620202020302E303030302043202020302020302020302020302020302020302020302020302020302020302020302020300A2020202D312E343330382020202D302E3230343620202020302E303030302043202020302020302020302020302020302020302020302020302020302020302020302020300A20202020302E3731353520202020302E3230323220202020302E303030302043202020302020302020302020302020302020302020302020302020302020302020302020300A2020202D322E3134363220202020302E3230323220202020302E303030302043202020302020302020302020302020302020302020302020302020302020302020302020300A2020202D312E343330382020202D312E3033343520202020302E30303030204E202020302020302020302020302020302020302020302020302020302020302020302020300A20202020312E343330382020202D302E3230343620202020302E303030302043202020302020302020302020302020302020302020302020302020302020302020302020300A2020202D322E383634302020202D302E3230343620202020302E30303030204F202020302020302020302020302020302020302020302020302020302020302020302020300A2020202D322E3134363220202020312E3033343520202020302E30303030204F202020302020302020302020302020302020302020302020302020302020302020302020300A20202020322E3134363220202020302E3230323220202020302E303030302043202020302020302020302020302020302020302020302020302020302020302020302020300A20202020322E383634302020202D302E3230343620202020302E30303030204F202020302020302020302020302020302020302020302020302020302020302020302020300A20202020322E3134363220202020312E3033343520202020302E30303030204F202020302020302020302020302020302020302020302020302020302020302020302020300A2020312020322020312020302020202020200A2020312020332020312020302020202020200A2020322020342020312020302020202020200A2020332020352020312020302020202020200A2020332020362020312020302020202020200A2020342020372020312020302020202020200A2020352020382020312020302020202020200A2020352020392020322020302020202020200A2020372031302020312020302020202020200A2031302031312020312020302020202020200A2031302031322020322020302020202020200A4D2020454E44
Contributor: Tsuzimoto Y, Tsugawa H, Bamba T, Fukusaki E, engineering department, Osaka Univ.
InstType: EI
InstName: Pegasus II TOF-MS system, Leco; GC 6890, Agilent Technologies
IoniMethod: EI
IonPolarity: pos
Date: 2010-10-09 19:48:36+02:00
Num Peaks: 192
85 29 86 35 87 21 88 14 89 16 90 18 91 6 92 5 93 8 94 82 
95 73 96 14 97 9 98 27 99 22 100 553 101 81 102 97 103 52 104 11 
105 8 106 2 107 1 108 2 109 2 110 17 111 8 112 106 113 20 114 57 
115 118 116 132 117 66 118 356 119 50 120 18 121 2 122 23 123 7 124 3 
125 7 126 17 127 6 128 189 129 83 130 44 131 58 132 47 133 125 134 23 
135 16 136 3 137 1 138 3 139 3 140 12 141 50 142 37 143 13 144 7 
145 7 146 10 147 387 148 74 149 89 150 16 151 12 152 13 153 6 154 13 
155 51 156 31 157 91 158 23 159 53 160 13 161 9 162 2 163 5 164 2 
165 1 166 7 167 78 168 132 169 69 170 21 171 8 172 16 173 6 174 31 
175 7 176 9 177 7 178 3 179 3 180 2 181 1 182 7 183 2 184 329 
185 61 186 35 187 8 188 7 189 4 190 8 191 7 192 8 193 3 194 3 
195 1 196 15 197 6 198 2 199 1 200 3 201 1 202 20 203 11 204 5 
205 3 206 1 207 2 212 4 213 1 214 7 215 3 216 7 217 5 218 71 
219 25 220 10 221 5 222 2 223 1 224 1 225 2 226 2 227 1 228 2 
229 2 230 4 231 4 232 4 233 2 234 1 235 1 236 1 237 1 239 1 
240 1 241 3 242 6 243 4 244 4 245 2 246 2 247 1 248 1 251 1 
252 1 256 1 257 2 258 48 259 14 260 7 261 1 272 2 273 5 274 999 
275 287 276 116 277 21 278 4 286 53 287 17 288 7 289 1 302 1 347 1 
348 28 349 15 350 8 351 2 375 2 376 36 377 19 378 8 379 2 391 6 
392 2 393 1 
