Name: Oxalate
CAS: 144-62-7
MW: 89
Formula: C2H2O4
Synonym: KEGG: C00209
Synonym: CID: 3819775
Synonym: MassBank: OUF00407
Synonym: Oxalate
Structure: 310A31360A4330303030313139382E6364780A20204368656D447261773132323630383139313432440A2020362020352020302020302020302020302020302020302020302020303939392056323030300A2020202D302E333139362020202D302E3133333520202020302E303030302043202020302020302020302020302020302020302020302020302020302020302020302020300A20202020302E3137393320202020302E3135343620202020302E303030302043202020302020302020302020302020302020302020302020302020302020302020302020300A20202020302E3137393320202020302E3634393820202020302E30303030204F202020302020302020302020302020302020302020302020302020302020302020302020300A20202020302E383137342020202D302E3231333820202020302E30303030204F202020302020302020302020302020302020302020302020302020302020302020302020300A2020202D302E3831373420202020302E3135333920202020302E30303030204F202020302020302020302020302020302020302020302020302020302020302020302020300A2020202D302E333139362020202D302E3634393820202020302E30303030204F202020302020302020302020302020302020302020302020302020302020302020302020300A2020312020322020312020302020202020200A2020322020332020322020302020202020200A2020322020342020312020302020202020200A2020312020352020312020302020202020200A2020312020362020322020302020202020200A4D2020454E44
Contributor: Tsuzimoto Y, Tsugawa H, Bamba T, Fukusaki E, engineering department, Osaka Univ.
InstType: EI
InstName: Pegasus II TOF-MS system, Leco; GC 6890, Agilent Technologies
IoniMethod: EI
IonPolarity: pos
Date: 2010-10-09 19:48:36+02:00
Num Peaks: 42
85 2 86 1 87 17 88 3 89 8 91 1 92 1 93 4 95 1 99 1 
101 8 102 27 103 28 104 4 105 10 106 1 113 2 115 16 116 5 117 24 
118 4 119 4 131 46 132 9 133 60 134 9 135 4 146 1 147 999 148 161 
149 84 150 9 151 2 175 22 176 6 177 2 190 57 191 10 192 4 219 36 
220 6 221 3 
