Name: Acetylsalicylic acid
CAS: 50-78-2
MW: 180
Formula: C9H8O4
Synonym: KEGG: C01405
Synonym: CID: 2244
Synonym: MassBank: OUF00091
Synonym: Acetylsalicylic acid
Structure: 310A33310A20204143442F4C6162733034303730373031303432440A2031332031332020302020302020302020302020302020302020302020302020312056323030300A20202020382E373033352020202D382E3230363920202020302E30303030204F202020302020302020302020302020302020302020302020302020302020302020302020300A20202020372E353532372020202D382E3837313320202020302E303030302043202020302020302020302020302020302020302020302020302020302020302020302020300A20202020362E343031392020202D382E3230363920202020302E30303030204F202020302020302020302020302020302020302020302020302020302020302020302020300A20202020372E3535323720202D31302E3230303120202020302E303030302043202020302020302020302020302020302020302020302020302020302020302020302020300A20202020382E3730333520202D31302E3836343520202020302E303030302043202020302020302020302020302020302020302020302020302020302020302020302020300A20202020382E3730333520202D31322E3139333420202020302E303030302043202020302020302020302020302020302020302020302020302020302020302020302020300A20202020372E3535323720202D31322E3835373820202020302E303030302043202020302020302020302020302020302020302020302020302020302020302020302020300A20202020362E3430313920202D31322E3139333420202020302E303030302043202020302020302020302020302020302020302020302020302020302020302020302020300A20202020362E3430313920202D31302E3836343520202020302E303030302043202020302020302020302020302020302020302020302020302020302020302020302020300A20202020392E3835343320202D31302E3230303120202020302E30303030204F202020302020302020302020302020302020302020302020302020302020302020302020300A20202031312E3030353220202D31302E3836343520202020302E303030302043202020302020302020302020302020302020302020302020302020302020302020302020300A20202031322E3135363020202D31302E3230303120202020302E303030302043202020302020302020302020302020302020302020302020302020302020302020302020300A20202031312E3030353220202D31322E3139333420202020302E30303030204F202020302020302020302020302020302020302020302020302020302020302020302020300A2020312020322020322020302020302020302020300A2020322020332020312020302020302020302020300A2020322020342020312020302020302020302020300A2020342020352020312020302020302020302020300A2020342020392020322020302020302020302020300A2020352020362020322020302020302020302020300A2020352031302020312020302020302020302020300A2020362020372020312020302020302020302020300A2020372020382020322020302020302020302020300A2020382020392020312020302020302020302020300A2031302031312020312020302020302020302020300A2031312031322020312020302020302020302020300A2031312031332020322020302020302020302020300A4D2020454E44
Contributor: Tsuzimoto Y, Tsugawa H, Bamba T, Fukusaki E, engineering department, Osaka Univ.
InstType: EI
InstName: Pegasus II TOF-MS system, Leco; GC 6890, Agilent Technologies
IoniMethod: EI
IonPolarity: pos
Date: 2010-10-09 19:48:36+02:00
Num Peaks: 151
85 43 86 5 87 19 88 6 89 73 90 45 91 396 92 107 93 29 94 4 
95 30 96 8 97 14 98 3 99 5 100 1 101 9 102 9 103 59 104 17 
105 84 106 13 107 16 108 4 109 10 111 7 112 2 113 3 114 1 115 72 
116 12 117 22 118 16 119 39 120 41 121 39 122 5 123 19 124 2 125 2 
126 38 127 4 128 2 129 11 130 1 131 42 132 9 133 151 134 29 135 479 
136 71 137 43 138 6 139 2 141 1 143 3 144 1 145 12 146 3 147 120 
148 25 149 296 150 51 151 90 152 13 153 15 154 1 155 1 157 1 159 31 
160 5 161 11 162 4 163 16 164 8 165 12 166 8 167 3 171 1 173 1 
174 1 175 59 176 12 177 29 178 5 179 79 180 14 181 44 182 9 183 4 
184 1 185 1 189 2 191 7 192 3 193 128 194 53 195 38 196 7 197 2 
205 1 206 1 207 7 208 2 209 223 210 59 211 33 212 6 213 2 215 1 
219 1 221 9 222 3 223 3 224 1 225 11 226 3 227 2 230 1 231 1 
232 1 233 43 234 15 235 8 236 2 237 1 239 1 240 1 247 2 248 1 
249 60 250 26 251 19 252 4 253 2 257 1 258 1 259 1 260 1 262 1 
263 1 264 1 265 22 266 15 267 999 268 249 269 100 270 19 271 3 281 1 
472 1 
