Name: Putrescine
CAS: 110-60-1
MW: 88
Formula: C4H12N2
Synonym: MassBank: OUF00431
Synonym: Putrescine
Structure: 310A32330A4330303030313432382E6364780A20204368656D447261773132323630383139323132440A2020362020352020302020302020302020302020302020302020302020303939392056323030300A2020202D312E3430383120202020302E3531393520202020302E30303030204E202020302020302020302020302020302020302020302020302020302020302020302020300A20202020302E3834303620202020302E3531393520202020302E30303030204E202020302020302020302020302020302020302020302020302020302020302020302020300A2020202D302E373335332020202D302E3130373020202020302E303030302043202020302020302020302020302020302020302020302020302020302020302020302020300A2020202D302E303230382020202D302E3531393520202020302E303030302043202020302020302020302020302020302020302020302020302020302020302020302020300A20202020302E363933362020202D302E3130373020202020302E303030302043202020302020302020302020302020302020302020302020302020302020302020302020300A20202020312E343038312020202D302E3531393520202020302E303030302043202020302020302020302020302020302020302020302020302020302020302020302020300A2020312020332020312020302020202020200A2020322020362020312020302020202020200A2020332020342020312020302020202020200A2020342020352020312020302020202020200A2020352020362020312020302020202020200A4D202053545920203120202031205355500A4D2020534C4220203120202031202020310A4D202053414C20202031202034202020332020203420202035202020360A4D202053424C2020203120203220202031202020320A4D2020534D5420202031202843483229340A4D2020534256202020312020312020202D322E3432323420202020312E363436310A4D2020534256202020312020322020202D322E3532373820202020312E323333360A4D2020454E44
Contributor: Tsuzimoto Y, Tsugawa H, Bamba T, Fukusaki E, engineering department, Osaka Univ.
InstType: EI
InstName: Pegasus II TOF-MS system, Leco; GC 6890, Agilent Technologies
IoniMethod: EI
IonPolarity: pos
Date: 2010-10-09 19:48:36+02:00
Num Peaks: 86
85 13 86 213 87 24 88 11 89 1 96 1 97 3 98 10 99 33 100 106 
101 19 102 18 103 4 104 1 110 7 111 1 112 12 113 8 114 24 115 15 
116 24 117 19 118 5 119 1 124 2 125 2 126 30 127 5 128 18 129 7 
130 64 131 29 132 15 133 3 139 1 140 10 141 2 142 34 143 6 144 9 
145 3 146 37 147 6 148 2 156 4 157 1 158 10 159 2 160 6 161 5 
162 1 170 4 171 2 172 60 173 16 174 999 175 175 176 78 177 9 178 2 
184 2 185 1 186 6 187 14 188 7 189 2 190 1 198 2 199 4 200 50 
201 11 202 5 203 1 213 2 214 68 215 16 216 7 217 1 218 1 228 2 
361 9 362 4 363 2 376 6 377 3 378 1 
