Name: 1-Methylhistamine
CAS: 501-75-7
MW: 125
Formula: C6H11N3
Synonym: KEGG: C05127
Synonym: CID: 3614
Synonym: MassBank: OUF00012
Synonym: 1-Methylhistamine
Structure: 310A32330A20204143442F4C6162733039333031303038353532440A2020392020392020302020302020302020302020302020302020302020302020312056323030300A20202032312E363930382020202D342E3832303320202020302E303030302043202020302020302020302020302020302020302020302020302020302020302020302020300A20202032302E343933392020202D352E3438353620202020302E303030302043202020302020302020302020302020302020302020302020302020302020302020302020300A20202032302E343933392020202D362E3734393020202020302E303030302043202020302020302020302020302020302020302020302020302020302020302020302020300A20202032312E363930382020202D332E3439303320202020302E30303030204E202020302020302020302020302020302020302020302020302020302020302020302020300A20202031392E343239342020202D372E3534373420202020302E303030302043202020302020302020302020302020302020302020302020302020302020302020302020300A20202032312E353537382020202D372E3534373420202020302E30303030204E202020302020302020302020302020302020302020302020302020302020302020302020300A20202031392E383238362020202D382E3831303820202020302E30303030204E202020302020302020302020302020302020302020302020302020302020302020302020300A20202032312E313538352020202D382E3831303820202020302E303030302043202020302020302020302020302020302020302020302020302020302020302020302020300A20202031392E303330322020202D392E3837353420202020302E303030302043202020302020302020302020302020302020302020302020302020302020302020302020300A2020312020322020312020302020302020302020300A2020312020342020312020302020302020302020300A2020322020332020312020302020302020302020300A2020332020352020322020302020302020302020300A2020332020362020312020302020302020302020300A2020352020372020312020302020302020302020300A2020362020382020322020302020302020302020300A2020372020382020312020302020302020302020300A2020372020392020312020302020302020302020300A4D2020454E44
Contributor: Tsuzimoto Y, Tsugawa H, Bamba T, Fukusaki E, engineering department, Osaka Univ.
InstType: EI
InstName: Pegasus II TOF-MS system, Leco; GC 6890, Agilent Technologies
IoniMethod: EI
IonPolarity: pos
Date: 2010-10-09 19:48:36+02:00
Num Peaks: 112
85 23 86 652 87 65 88 29 89 2 90 2 91 1 92 2 93 2 94 4 
95 93 96 60 97 33 98 23 99 13 100 338 101 49 102 34 103 6 104 3 
105 1 107 8 108 12 109 18 110 9 111 7 112 51 113 20 114 15 115 10 
116 26 117 28 118 6 119 3 120 6 121 2 122 2 123 7 124 6 125 8 
126 33 127 14 128 6 129 4 130 94 131 23 132 14 133 3 134 1 135 9 
136 3 137 7 138 3 139 16 140 7 141 6 142 3 143 1 144 6 145 2 
146 33 147 6 148 3 149 3 150 6 151 7 152 3 153 15 154 7 155 3 
156 2 158 7 159 1 160 2 164 4 165 7 166 6 167 10 168 170 169 29 
170 11 171 2 172 12 173 4 174 999 175 186 176 84 177 10 178 4 179 3 
180 95 181 18 182 13 183 2 184 1 194 2 195 1 196 7 197 1 222 1 
224 2 225 1 238 3 239 1 252 3 253 2 254 152 255 38 256 14 257 2 
268 3 269 1 
