Name: Nicotinamide
CAS: 98-92-0
MW: 122
Formula: C6H6N2O
Synonym: KEGG: C00153
Synonym: CID: 936
Synonym: MassBank: OUF00389
Synonym: Nicotinamide
Structure: 310A32330A4330303030303230392E6364780A20204368656D447261773132323630383138343332440A2020392020392020302020302020302020302020302020302020302020303939392056323030300A2020202D312E3030303620202020302E3537373620202020302E303030302043202020302020302020302020302020302020302020302020302020302020302020302020300A2020202D312E303030362020202D302E3030303320202020302E303030302043202020302020302020302020302020302020302020302020302020302020302020302020300A2020202D302E353030312020202D302E3238393220202020302E303030302043202020302020302020302020302020302020302020302020302020302020302020302020300A20202020302E303030332020202D302E3030303320202020302E303030302043202020302020302020302020302020302020302020302020302020302020302020302020300A20202020302E3030303320202020302E3537373620202020302E303030302043202020302020302020302020302020302020302020302020302020302020302020302020300A2020202D302E3530303120202020302E3836363520202020302E30303030204E202020302020302020302020302020302020302020302020302020302020302020302020300A20202020302E353030342020202D302E3238393020202020302E303030302043202020302020302020302020302020302020302020302020302020302020302020302020300A20202020312E303030362020202D302E3030303320202020302E30303030204E202020302020302020302020302020302020302020302020302020302020302020302020300A20202020302E353030342020202D302E3836363520202020302E30303030204F202020302020302020302020302020302020302020302020302020302020302020302020300A2020312020322020322020302020202020200A2020322020332020312020302020202020200A2020332020342020322020302020202020200A2020342020352020312020302020202020200A2020352020362020322020302020202020200A2020362020312020312020302020202020200A2020342020372020312020302020202020200A2020372020382020312020302020202020200A2020372020392020322020302020202020200A4D2020454E44
Contributor: Tsuzimoto Y, Tsugawa H, Bamba T, Fukusaki E, engineering department, Osaka Univ.
InstType: EI
InstName: Pegasus II TOF-MS system, Leco; GC 6890, Agilent Technologies
IoniMethod: EI
IonPolarity: pos
Date: 2010-10-09 19:48:36+02:00
Num Peaks: 98
85 11 86 130 87 15 88 7 89 32 90 12 91 4 92 8 93 15 94 16 
95 5 96 9 97 3 98 5 99 6 100 111 101 14 102 16 103 13 104 140 
105 179 106 53 107 8 108 6 109 6 110 4 111 1 112 8 113 5 114 7 
115 3 116 8 117 8 118 2 119 16 120 14 121 5 122 20 123 3 124 1 
126 4 127 2 128 5 129 4 130 18 131 7 132 5 133 3 134 6 135 6 
136 374 137 49 138 18 139 2 140 1 144 2 145 1 146 4 147 1 148 1 
149 6 150 8 151 7 152 3 153 1 156 1 158 2 159 1 160 1 161 5 
162 1 163 14 164 3 165 9 166 3 167 2 169 37 170 8 171 1 172 5 
174 280 175 61 176 26 177 7 178 4 179 999 180 153 181 45 182 4 183 1 
184 1 185 1 186 4 187 1 193 74 194 51 195 10 196 2 
