Name: DL-Norvaline
CAS: 760-78-1
MW: 117
Formula: C5H11NO2
Synonym: CID: 1182
Synonym: MassBank: OUF00199
Synonym: DL-Norvaline
Structure: 310A32300A2020382020372020302020302020302020302020302020302020302020302020312056323030300A20202031372E3030303020202032302E3030303020202020302E303030302043202020302020302020302020302020302020302020302020302020302020300A20202020302E3030303020202031302E3030303020202020302E303030302043202020302020302020302020302020302020302020302020302020302020300A20202031372E3030303020202034302E3030303020202020302E303030302043202020302020302020302020302020302020302020302020302020302020300A20202033352E3030303020202031302E3030303020202020302E303030302043202020302020302020302020302020302020302020302020302020302020300A20202D31372E3030303020202032302E3030303020202020302E303030302043202020302020302020302020302020302020302020302020302020302020300A20202020302E3030303020202D31302E3030303020202020302E30303030204E202020302020302020302020302020302020302020302020302020302020300A20202D31372E3030303020202034302E3030303020202020302E30303030204F202020302020302020302020302020302020302020302020302020302020300A20202D33352E3030303020202031302E3030303020202020302E30303030204F202020302020302020302020302020302020302020302020302020302020300A2020312020322020312020302020302020302020300A2020312020332020312020302020302020302020300A2020312020342020312020302020302020302020300A2020322020352020312020302020302020302020300A2020322020362020312020302020302020302020300A2020352020372020312020302020302020302020300A2020352020382020322020302020302020302020300A4D2020454E44
Contributor: Tsuzimoto Y, Tsugawa H, Bamba T, Fukusaki E, engineering department, Osaka Univ.
InstType: EI
InstName: Pegasus II TOF-MS system, Leco; GC 6890, Agilent Technologies
IoniMethod: EI
IonPolarity: pos
Date: 2010-10-09 19:48:36+02:00
Num Peaks: 65
85 11 86 20 87 10 88 5 89 3 94 3 95 1 96 2 97 2 98 10 
99 7 100 83 101 16 102 25 103 34 104 4 105 7 107 1 110 2 111 1 
112 4 113 3 114 25 115 24 116 8 117 19 118 4 119 7 120 1 126 1 
128 21 129 9 130 15 131 21 132 17 133 37 134 7 135 3 142 7 143 3 
144 999 145 138 146 49 147 178 148 30 149 17 150 2 156 21 157 5 158 9 
159 3 160 2 163 1 172 3 174 5 175 1 202 5 203 2 204 1 218 63 
219 18 220 7 221 1 246 11 247 2 
