Name: Paeonol
CAS: 552-41-0
MW: 166
Formula: C9H10O3
Synonym: KEGG: C10712
Synonym: CID: 11092
Synonym: MassBank: OUF00410
Synonym: Paeonol
Structure: 4330303030323730342E6364780A20204368656D447261773132323630383231313732440A2031322031322020302020302020302020302020302020302020302020303939392056323030300A2020202D302E3536373720202020302E3134363720202020302E303030302043202020302020302020302020302020302020302020302020302020302020302020302020300A2020202D302E353637372020202D302E3332383220202020302E303030302043202020302020302020302020302020302020302020302020302020302020302020302020300A2020202D302E313536352020202D302E3536353620202020302E303030302043202020302020302020302020302020302020302020302020302020302020302020302020300A20202020302E323534372020202D302E3332383220202020302E303030302043202020302020302020302020302020302020302020302020302020302020302020302020300A20202020302E3235343720202020302E3134363720202020302E303030302043202020302020302020302020302020302020302020302020302020302020302020302020300A2020202D302E3135363520202020302E3338343120202020302E303030302043202020302020302020302020302020302020302020302020302020302020302020302020300A2020202D302E3135363520202020302E3835383420202020302E303030302043202020302020302020302020302020302020302020302020302020302020302020302020300A2020202D302E3437323620202020312E3034303920202020302E30303030204F202020302020302020302020302020302020302020302020302020302020302020302020300A20202020302E3235363120202020312E3039363720202020302E303030302043202020302020302020302020302020302020302020302020302020302020302020302020300A20202020302E3636353520202020302E3338333820202020302E30303030204F202020302020302020302020302020302020302020302020302020302020302020302020300A2020202D302E363635352020202D302E3638343220202020302E30303030204F202020302020302020302020302020302020302020302020302020302020302020302020300A20202020302E303438392020202D312E3039363720202020302E303030302043202020302020302020302020302020302020302020302020302020302020302020302020300A2020312020322020322020302020202020200A2020322020332020312020302020202020200A2020332020342020322020302020202020200A2020342020352020312020302020202020200A2020352020362020322020302020202020200A2020362020312020312020302020202020200A2020362020372020312020302020202020200A2020372020382020322020302020202020200A2020372020392020312020302020202020200A2020352031302020312020302020202020200A2020332031312020312020302020202020200A2031312031322020312020302020202020200A4D202053545920203120202031205355500A4D2020534C4220203120202031202020310A4D202053414C2020203120203220203131202031320A4D202053424C20202031202031202031310A4D2020534D5420202031204F4348330A4D2020534256202020312031312020202D352E3935303420202020322E363236380A4D2020454E44
Contributor: Tsuzimoto Y, Tsugawa H, Bamba T, Fukusaki E, engineering department, Osaka Univ.
InstType: EI
InstName: Pegasus II TOF-MS system, Leco; GC 6890, Agilent Technologies
IoniMethod: EI
IonPolarity: pos
Date: 2010-10-09 19:48:36+02:00
Num Peaks: 108
85 30 86 1 87 2 88 5 89 53 90 16 91 45 92 18 93 16 94 4 
95 28 96 2 97 6 99 8 101 3 102 1 103 18 104 137 105 36 106 19 
107 24 108 10 109 12 110 13 111 9 112 4 113 4 116 3 118 3 119 10 
120 3 121 39 122 7 123 13 124 1 125 2 129 1 130 1 131 4 133 7 
134 3 135 18 136 4 137 31 138 6 139 4 147 18 148 5 149 41 150 64 
151 79 152 8 153 2 161 6 162 8 163 15 164 4 165 68 166 20 167 9 
169 3 176 1 177 8 179 38 180 279 181 103 182 21 183 9 184 1 189 4 
191 12 192 7 193 43 194 11 195 3 196 4 201 1 205 49 206 16 207 19 
208 18 209 13 214 1 217 3 221 2 222 2 223 999 224 191 225 60 226 7 
228 1 229 1 238 14 239 2 245 1 246 2 251 1 275 1 302 2 322 1 
324 1 330 3 333 1 339 1 367 2 392 1 441 1 464 1 
