Name: DL-Allothreonine
CAS: 144-98-9
MW: 119
Formula: C4H9NO3
Synonym: KEGG: C12317
Synonym: CID: 6971050
Synonym: MassBank: OUF00112
Synonym: DL-Allothreonine
Structure: 310A32300A3134343938372D37362D382E6D6F6C0A20204368656D447261773037333131303137353732440A2020382020372020302020302020302020302020302020302020302020303939392056323030300A2020202D302E3030333020202020302E3139393220202020302E303030302043202020302020302020302020302020302020302020302020302020302020302020302020300A2020202D302E373130352020202D302E3230313120202020302E303030302043202020302020302020302020302020302020302020302020302020302020302020302020300A20202020302E373038352020202D302E3230313120202020302E303030302043202020302020302020302020302020302020302020302020302020302020302020302020300A2020202D302E3030333020202020312E3032393520202020302E30303030204E202020302020302020302020302020302020302020302020302020302020302020302020300A2020202D302E373130352020202D312E3032393520202020302E303030302043202020302020302020302020302020302020302020302020302020302020302020302020300A2020202D312E3432393920202020302E3139393220202020302E30303030204F202020302020302020302020302020302020302020302020302020302020302020302020300A20202020302E373038352020202D312E3032393520202020302E30303030204F202020302020302020302020302020302020302020302020302020302020302020302020300A20202020312E3432393920202020302E3139393220202020302E30303030204F202020302020302020302020302020302020302020302020302020302020302020302020300A2020312020322020312020302020202020200A2020312020332020312020302020202020200A2020312020342020312020312020202020200A2020322020352020312020302020202020200A2020322020362020312020312020202020200A2020332020372020312020302020202020200A2020332020382020322020302020202020200A4D2020454E44
Contributor: Tsuzimoto Y, Tsugawa H, Bamba T, Fukusaki E, engineering department, Osaka Univ.
InstType: EI
InstName: Pegasus II TOF-MS system, Leco; GC 6890, Agilent Technologies
IoniMethod: EI
IonPolarity: pos
Date: 2010-10-09 19:48:36+02:00
Num Peaks: 124
85 35 86 95 87 79 88 19 89 12 90 3 91 1 92 2 93 2 94 2 
95 1 96 4 97 6 98 26 99 36 100 383 101 790 102 134 103 86 104 11 
105 15 107 1 111 4 112 15 113 9 114 83 115 72 116 37 117 999 118 124 
119 69 120 7 121 4 125 1 126 3 127 4 128 140 129 261 130 151 131 167 
132 164 133 185 134 39 135 21 136 2 139 1 140 1 141 1 142 5 143 9 
144 26 145 10 146 25 147 488 148 89 149 59 150 9 151 2 154 1 155 5 
156 7 157 5 158 28 159 42 160 38 161 10 162 1 163 11 164 1 165 2 
167 1 169 2 170 1 172 17 173 4 174 23 175 5 176 10 177 15 178 3 
186 13 187 4 188 12 189 6 190 8 191 20 192 3 193 1 200 1 202 72 
203 97 204 37 205 12 206 4 207 2 214 2 216 5 217 8 218 384 219 596 
220 140 221 70 222 11 223 3 230 16 231 8 232 7 233 4 246 1 248 5 
276 2 277 1 290 2 291 153 292 94 293 42 294 13 295 1 296 2 320 24 
321 7 322 1 418 1 446 1 
