Name: Cytosine
CAS: 71-30-7
MW: 111
Formula: C4H5N3O
Synonym: KEGG: C00380
Synonym: CID: 597
Synonym: MassBank: OUF00148
Synonym: Cytosine
Structure: 310A32310A4330303030313439382E6364780A20204368656D447261773132323630383139323332440A2020382020382020302020302020302020302020302020302020302020303939392056323030300A2020202D302E333130332020202D312E3338363120202020302E30303030204E202020302020302020302020302020302020302020302020302020302020302020302020300A20202020302E353937392020202D302E3836313720202020302E303030302043202020302020302020302020302020302020302020302020302020302020302020302020300A20202020302E3539373920202020302E3138373020202020302E30303030204E202020302020302020302020302020302020302020302020302020302020302020302020300A2020202D302E3331303320202020302E3731313420202020302E303030302043202020302020302020302020302020302020302020302020302020302020302020302020300A2020202D312E3231383620202020302E3138373020202020302E303030302043202020302020302020302020302020302020302020302020302020302020302020302020300A2020202D312E323138362020202D302E3836313720202020302E303030302043202020302020302020302020302020302020302020302020302020302020302020302020300A20202020312E323138362020202D312E3232303020202020302E30303030204F202020302020302020302020302020302020302020302020302020302020302020302020300A2020202D302E3331303320202020312E3338363120202020302E30303030204E202020302020302020302020302020302020302020302020302020302020302020302020300A2020312020322020312020302020202020200A2020322020332020312020302020202020200A2020332020342020322020302020202020200A2020342020352020312020302020202020200A2020352020362020322020302020202020200A2020362020312020312020302020202020200A2020322020372020322020302020202020200A2020342020382020312020302020202020200A4D2020454E44
Contributor: Tsuzimoto Y, Tsugawa H, Bamba T, Fukusaki E, engineering department, Osaka Univ.
InstType: EI
InstName: Pegasus II TOF-MS system, Leco; GC 6890, Agilent Technologies
IoniMethod: EI
IonPolarity: pos
Date: 2010-10-09 19:48:36+02:00
Num Peaks: 130
85 62 86 121 87 33 88 17 89 4 90 3 91 14 92 5 93 9 94 21 
95 83 96 34 97 77 98 999 99 178 100 540 101 117 102 44 103 16 104 6 
105 38 106 5 107 3 108 4 109 27 110 26 111 28 112 53 113 123 114 82 
115 40 116 45 117 24 118 5 119 3 120 19 121 2 122 3 123 39 124 26 
125 269 126 46 127 37 128 12 129 8 130 150 131 73 132 47 133 22 134 7 
135 1 136 7 137 3 138 17 139 22 140 29 141 19 142 11 143 7 144 4 
145 2 146 128 147 252 148 50 149 22 150 53 151 9 152 37 153 9 154 12 
155 24 156 48 157 36 158 17 159 4 164 3 165 1 166 18 167 18 168 100 
169 20 170 471 171 98 172 50 173 12 180 4 181 8 182 76 183 27 184 24 
185 3 186 1 193 1 194 2 195 2 197 42 198 13 199 7 200 2 203 1 
210 14 211 5 212 6 213 12 214 3 222 1 224 38 225 9 226 4 237 4 
238 185 239 66 240 878 241 194 242 78 243 13 244 3 245 2 246 1 247 1 
248 1 250 1 252 1 253 11 254 941 255 445 256 141 257 39 258 4 270 1 
