Name: Suberic acid
CAS: 505-48-6
MW: 174
Formula: C8H14O4
Synonym: KEGG: C08278
Synonym: CID: 10457
Synonym: MassBank: OUF00464
Synonym: Suberic acid
Structure: 4330303030313230342E6364780A20204368656D447261773132323630383139313432440A2031322031312020302020302020302020302020302020302020302020303939392056323030300A20202020312E323139332020202D302E3134313320202020302E303030302043202020302020302020302020302020302020302020302020302020302020302020302020300A20202020312E3731383320202020302E3134363720202020302E303030302043202020302020302020302020302020302020302020302020302020302020302020302020300A20202020312E3731383320202020302E3634323020202020302E30303030204F202020302020302020302020302020302020302020302020302020302020302020302020300A20202020322E333536342020202D302E3232313720202020302E30303030204F202020302020302020302020302020302020302020302020302020302020302020302020300A20202020302E3732313620202020302E3134363120202020302E303030302043202020302020302020302020302020302020302020302020302020302020302020302020300A20202020302E323233382020202D302E3134313320202020302E303030302043202020302020302020302020302020302020302020302020302020302020302020302020300A2020202D302E3237333920202020302E3134363120202020302E303030302043202020302020302020302020302020302020302020302020302020302020302020302020300A2020202D302E373730352020202D302E3134303620202020302E303030302043202020302020302020302020302020302020302020302020302020302020302020302020300A2020202D312E3236353820202020302E3134353420202020302E303030302043202020302020302020302020302020302020302020302020302020302020302020302020300A2020202D312E373739302020202D302E3133393920202020302E303030302043202020302020302020302020302020302020302020302020302020302020302020302020300A2020202D322E3335363420202020302E3139333420202020302E30303030204F202020302020302020302020302020302020302020302020302020302020302020302020300A2020202D322E323831302020202D302E3634323020202020302E30303030204F202020302020302020302020302020302020302020302020302020302020302020302020300A2020312020322020312020302020202020200A2020322020332020322020302020202020200A2020322020342020312020302020202020200A2020312020352020312020302020202020200A2020352020362020312020302020202020200A2020362020372020312020302020202020200A2020372020382020312020302020202020200A2020382020392020312020302020202020200A2031302020392020312020302020202020200A2031302031312020322020302020202020200A2031302031322020312020302020202020200A4D2020454E44
Contributor: Tsuzimoto Y, Tsugawa H, Bamba T, Fukusaki E, engineering department, Osaka Univ.
InstType: EI
InstName: Pegasus II TOF-MS system, Leco; GC 6890, Agilent Technologies
IoniMethod: EI
IonPolarity: pos
Date: 2010-10-09 19:48:36+02:00
Num Peaks: 184
85 93 86 88 87 48 88 45 89 80 90 13 91 65 92 17 93 356 94 45 
95 386 96 49 97 404 98 38 99 104 100 17 101 98 102 22 103 77 104 12 
105 24 106 3 107 5 108 3 109 180 110 136 111 188 112 20 113 29 114 11 
115 60 116 198 117 745 118 91 119 63 120 10 121 185 122 42 123 7 124 2 
125 8 126 3 127 24 128 14 129 999 130 154 131 115 132 88 133 219 134 49 
135 32 136 8 137 43 138 452 139 633 140 69 141 37 142 20 143 107 144 46 
145 89 146 15 147 625 148 111 149 772 150 120 151 69 152 7 153 6 155 52 
156 21 157 74 158 24 159 26 160 5 161 3 162 5 163 6 165 2 166 2 
167 7 168 7 169 780 170 137 171 157 172 61 173 19 174 23 175 5 176 1 
177 3 179 2 180 2 181 1 182 3 183 13 184 25 185 183 186 65 187 658 
188 120 189 49 190 17 191 59 192 10 193 7 194 1 195 2 197 2 199 7 
200 63 201 16 202 6 203 30 204 199 205 57 206 19 207 3 210 6 211 71 
212 13 213 134 214 28 215 11 216 2 217 215 218 61 219 23 220 4 221 1 
223 1 227 1 228 39 229 28 230 7 231 18 232 6 233 2 234 1 241 1 
243 16 244 7 245 6 246 4 247 2 248 2 249 1 250 1 251 1 252 1 
255 1 256 1 257 2 258 2 259 46 260 19 261 10 262 5 263 2 264 1 
265 1 268 1 269 1 271 2 273 1 274 1 275 4 276 10 277 6 278 2 
286 3 287 1 302 5 303 345 304 186 305 63 306 15 307 2 319 1 338 1 
422 1 449 1 473 1 492 1 
