Name: 4-Hydroxypyridine
CAS: 626-64-2
MW: 95
Formula: C5H5NO
Synonym: CID: 12290
Synonym: MassBank: OUF00068
Synonym: 4-Hydroxypyridine
Structure: 310A31390A4330303030373430362E6364780A20204368656D447261773132323930383037313332440A2020372020372020302020302020302020302020302020302020302020303939392056323030300A2020202D302E3535333720202020302E3030303720202020302E303030302043202020302020302020302020302020302020302020302020302020302020302020302020300A2020202D302E353533372020202D302E3633383720202020302E303030302043202020302020302020302020302020302020302020302020302020302020302020302020300A20202020302E303030302020202D302E3935383420202020302E30303030204E202020302020302020302020302020302020302020302020302020302020302020302020300A20202020302E353533372020202D302E3633383720202020302E303030302043202020302020302020302020302020302020302020302020302020302020302020302020300A20202020302E3535333720202020302E3030303720202020302E303030302043202020302020302020302020302020302020302020302020302020302020302020302020300A20202020302E3030303020202020302E3332303420202020302E303030302043202020302020302020302020302020302020302020302020302020302020302020302020300A20202020302E3030303020202020302E3935383420202020302E30303030204F202020302020302020302020302020302020302020302020302020302020302020302020300A2020312020322020322020302020202020200A2020322020332020312020302020202020200A2020332020342020322020302020202020200A2020342020352020312020302020202020200A2020352020362020322020302020202020200A2020362020312020312020302020202020200A2020362020372020312020302020202020200A4D2020454E44
Contributor: Tsuzimoto Y, Tsugawa H, Bamba T, Fukusaki E, engineering department, Osaka Univ.
InstType: EI
InstName: Pegasus II TOF-MS system, Leco; GC 6890, Agilent Technologies
IoniMethod: EI
IonPolarity: pos
Date: 2010-10-09 19:48:36+02:00
Num Peaks: 52
85 26 86 8 87 1 90 1 91 5 92 19 93 22 94 14 95 17 96 9 
97 8 98 5 99 135 100 15 101 6 102 1 104 1 106 11 107 4 108 11 
109 27 110 7 111 4 112 5 120 1 122 43 123 7 124 12 125 11 126 10 
127 1 132 9 133 1 134 61 135 13 136 42 137 12 138 11 139 1 146 2 
148 2 150 9 151 5 152 999 153 136 154 44 155 4 165 1 166 3 167 245 
168 35 169 11 
