Name: D-Ribulose-5-phosphate
CAS: 93-87-8
MW: 230
Formula: C5H11O8P
Synonym: KEGG: C00117
Synonym: CID: 439167
Synonym: MassBank: OUF00213
Synonym: D-Ribulose-5-phosphate
Structure: 310A33330A20204143442F4C6162733039323931303135353432440A2031342031342020302020302020312020302020302020302020302020302020312056323030300A20202031312E3039313020202D31332E3233373820202020302E303030302043202020302020302020302020302020302020302020302020302020302020302020302020300A20202031322E3136373720202D31322E3435373020202020302E30303030204F202020302020302020302020302020302020302020302020302020302020302020302020300A20202031312E3530303920202D31342E3530333120202020302E303030302043202020302020302020302020302020302020302020302020302020302020302020302020300A20202031332E3234333020202D31332E3233393720202020302E303030302043202020302020302020302020302020302020302020302020302020302020302020302020300A20202031322E3833313120202D31342E3530343220202020302E303030302043202020302020302020302020302020302020302020302020302020302020302020302020300A20202031342E3339343820202D31322E3537343720202020302E303030302043202020302020302020302020302020302020302020302020302020302020302020302020300A20202031352E3534363720202D31332E3233393720202020302E30303030204F202020302020302020302020302020302020302020302020302020302020302020302020300A20202020392E3933393220202D31322E3537323820202020302E30303030204F202020302020302020302020302020302020302020302020302020302020302020302020300A20202031302E3731383320202D31352E3537383420202020302E30303030204F202020302020302020302020302020302020302020302020302020302020302020302020300A20202031332E3631323020202D31352E3538303920202020302E30303030204F202020302020302020302020302020302020302020302020302020302020302020302020300A20202031362E3837363720202D31332E3233393720202020302E303030302050202020302020302020302020302020302020302020302020302020302020302020302020300A20202031382E3230363720202D31332E3233393720202020302E30303030204F202020302020302020302020302020302020302020302020302020302020302020302020300A20202031362E3837363720202D31342E3536393720202020302E30303030204F202020302020302020302020302020302020302020302020302020302020302020302020300A20202031362E3837363720202D31312E3930393720202020302E30303030204F202020302020302020302020302020302020302020302020302020302020302020302020300A2020322020312020312020302020302020302020300A2020332020312020312020302020302020302020300A2020342020322020312020302020302020302020300A2020352020332020312020302020302020302020300A2020352020342020312020302020302020302020300A2020342020362020312020362020302020302020300A2020362020372020312020302020302020302020300A2020382020312020312020302020302020302020300A2020332020392020312020312020302020302020300A2020352031302020312020312020302020302020300A2020372031312020312020302020302020302020300A2031312031322020312020302020302020302020300A2031312031332020312020302020302020302020300A2031312031342020322020302020302020302020300A4D2020454E44
Contributor: Tsuzimoto Y, Tsugawa H, Bamba T, Fukusaki E, engineering department, Osaka Univ.
InstType: EI
InstName: Pegasus II TOF-MS system, Leco; GC 6890, Agilent Technologies
IoniMethod: EI
IonPolarity: pos
Date: 2010-10-09 19:48:36+02:00
Num Peaks: 261
85 36 86 19 87 27 88 19 89 296 90 29 91 22 92 4 93 8 94 6 
95 6 96 10 97 4 98 20 99 27 100 43 101 259 102 37 103 300 104 33 
105 61 106 8 107 11 108 1 109 5 110 3 111 9 112 8 113 32 114 142 
115 61 116 87 117 62 118 11 119 46 120 6 121 19 122 2 123 8 124 2 
125 7 126 30 127 14 128 36 129 220 130 38 131 73 132 16 133 284 134 41 
135 80 136 9 137 29 138 5 139 5 140 15 141 8 142 28 143 29 144 9 
145 10 146 3 147 437 148 74 149 57 150 9 151 32 152 15 153 10 154 21 
155 8 156 21 157 12 158 13 159 7 160 3 161 3 162 1 163 21 164 3 
165 11 166 8 167 17 168 47 169 14 170 10 171 3 172 17 173 31 174 39 
175 10 176 3 177 11 178 2 179 10 180 2 181 43 182 12 183 21 184 22 
185 6 186 10 187 5 188 8 189 15 190 4 191 45 192 11 193 42 194 9 
195 54 196 11 197 22 198 24 199 6 200 14 201 8 202 10 203 6 204 7 
205 10 206 2 207 67 208 17 209 16 210 6 211 219 212 40 213 24 214 17 
215 9 216 17 217 90 218 27 219 11 220 2 221 7 222 2 223 3 224 1 
225 70 226 18 227 37 228 24 229 9 230 16 231 8 232 3 233 1 237 1 
239 1 240 13 241 15 242 23 243 16 244 12 245 4 246 1 247 1 253 34 
254 8 255 11 256 27 257 28 258 19 259 7 260 3 261 3 262 27 263 10 
264 3 267 2 268 1 269 20 270 4 271 3 272 5 273 2 274 3 276 1 
281 1 283 15 284 6 285 20 286 6 287 4 288 15 289 4 290 4 291 1 
297 1 298 11 299 285 300 93 301 48 302 13 303 3 304 1 305 1 311 1 
313 8 314 10 315 92 316 32 317 18 318 6 319 2 327 1 328 12 329 4 
330 5 331 23 332 12 333 5 340 3 341 58 342 37 343 15 344 4 345 3 
346 6 347 10 348 5 349 3 350 2 351 1 352 1 353 2 354 2 355 5 
356 43 357 999 358 322 359 162 360 38 361 10 362 22 363 9 364 4 370 3 
371 5 372 3 373 10 374 4 375 1 377 1 378 25 379 10 380 5 381 1 
386 4 387 45 388 21 389 18 390 5 391 1 408 1 429 3 430 1 431 1 
482 1 
