Name: Pyridoxal
CAS: 66-72-8
MW: 167
Formula: C8H9NO3
Synonym: KEGG: C00250
Synonym: CID: 1050
Synonym: MassBank: OUF00433
Synonym: Pyridoxal
Structure: 4330303030373530392E6364780A20204368656D447261773132323930383037313732440A2031322031322020302020302020302020302020302020302020302020303939392056323030300A2020202D312E303731372020202D302E3230363220202020302E303030302043202020302020302020302020302020302020302020302020302020302020302020302020300A2020202D312E303731372020202D312E3033313320202020302E303030302043202020302020302020302020302020302020302020302020302020302020302020302020300A2020202D302E333537322020202D312E3434333820202020302E30303030204E202020302020302020302020302020302020302020302020302020302020302020302020300A20202020302E333537322020202D312E3033313320202020302E303030302043202020302020302020302020302020302020302020302020302020302020302020302020300A20202020302E333537322020202D302E3230363220202020302E303030302043202020302020302020302020302020302020302020302020302020302020302020302020300A2020202D302E3335373220202020302E3230363220202020302E303030302043202020302020302020302020302020302020302020302020302020302020302020302020300A2020202D302E3335373220202020312E3033313320202020302E303030302043202020302020302020302020302020302020302020302020302020302020302020302020300A20202020302E3335373220202020312E3434333820202020302E30303030204F202020302020302020302020302020302020302020302020302020302020302020302020300A2020202D312E3738363220202020302E3230363220202020302E30303030204F202020302020302020302020302020302020302020302020302020302020302020302020300A2020202D312E373836322020202D312E3434333820202020302E303030302043202020302020302020302020302020302020302020302020302020302020302020302020300A20202020312E3037313720202020302E3230363220202020302E303030302043202020302020302020302020302020302020302020302020302020302020302020302020300A20202020312E373836322020202D302E3230363220202020302E30303030204F202020302020302020302020302020302020302020302020302020302020302020302020300A2020312020322020322020302020202020200A2020322020332020312020302020202020200A2020332020342020322020302020202020200A2020342020352020312020302020202020200A2020352020362020322020302020202020200A2020362020312020312020302020202020200A2020362020372020312020302020202020200A2020372020382020322020302020202020200A2020312020392020312020302020202020200A2020322031302020312020302020202020200A2031312020352020312020302020202020200A2031322031312020312020302020202020200A4D2020454E44
Contributor: Tsuzimoto Y, Tsugawa H, Bamba T, Fukusaki E, engineering department, Osaka Univ.
InstType: EI
InstName: Pegasus II TOF-MS system, Leco; GC 6890, Agilent Technologies
IoniMethod: EI
IonPolarity: pos
Date: 2010-10-09 19:48:36+02:00
Num Peaks: 209
85 41 86 29 87 18 88 14 89 563 90 69 91 156 92 73 93 49 94 38 
95 55 96 31 97 39 98 26 99 26 100 48 101 12 102 26 103 48 104 52 
105 41 106 40 107 45 108 39 109 59 110 32 111 26 112 7 113 5 114 4 
115 14 116 17 117 40 118 59 119 94 120 107 121 30 122 32 123 42 124 35 
125 20 126 8 127 4 128 3 129 13 130 21 131 104 132 34 133 73 134 44 
135 38 136 53 137 20 138 11 139 7 140 3 141 4 142 3 143 12 144 9 
145 210 146 44 147 222 148 56 149 33 150 76 151 43 152 31 153 7 154 3 
155 9 156 2 157 6 158 6 159 6 160 14 161 22 162 57 163 37 164 56 
165 33 166 35 167 34 168 7 169 3 170 2 171 3 172 3 173 8 174 16 
175 28 176 44 177 47 178 87 179 34 180 22 181 9 182 7 183 3 184 1 
185 2 186 3 187 32 188 14 189 84 190 38 191 156 192 107 193 84 194 35 
195 12 196 5 197 3 198 2 199 1 200 1 201 4 202 5 203 81 204 127 
205 158 206 47 207 24 208 13 209 5 210 5 211 2 212 1 214 2 215 1 
216 2 217 46 218 19 219 653 220 157 221 225 222 52 223 20 224 9 226 1 
232 1 233 10 234 8 235 45 236 27 237 61 238 19 239 5 240 2 247 2 
248 2 249 9 250 12 251 12 252 33 253 10 254 3 255 1 259 1 261 1 
263 10 264 11 265 23 266 16 267 8 268 4 269 1 270 1 273 1 276 1 
277 20 278 19 279 14 280 8 281 3 282 1 283 1 284 1 286 1 288 1 
291 1 292 7 293 361 294 223 295 78 296 23 297 3 298 1 299 2 300 4 
301 3 302 3 303 4 304 4 305 3 306 2 307 12 308 24 309 999 310 316 
311 123 312 26 313 4 324 1 325 66 326 20 327 7 340 2 341 1 
