Name: Acetoacetyl-CoA
CAS: 1420-36-6
MW: 851
Formula: C25H40N7O18P3S
Synonym: CID: 74
Synonym: MassBank: OUF00093
Synonym: Acetoacetyl-CoA
Structure: 4330303030373236392E6364780A20204368656D447261773132323930383037303932440A2035342035362020302020302020302020302020302020302020302020303939392056323030300A2020202D322E323838392020202D312E3637303620202020302E30303030204E202020302020302020302020302020302020302020302020302020302020302020302020300A2020202D312E393138302020202D312E3035303320202020302E303030302043202020302020302020302020302020302020302020302020302020302020302020302020300A2020202D322E323638382020202D302E3431383020202020302E30303030204E202020302020302020302020302020302020302020302020302020302020302020302020300A2020202D322E393933302020202D302E3430373520202020302E303030302043202020302020302020302020302020302020302020302020302020302020302020302020300A2020202D332E333633392020202D312E3032373820202020302E303030302043202020302020302020302020302020302020302020302020302020302020302020302020300A2020202D332E303131332020202D312E3635393620202020302E303030302043202020302020302020302020302020302020302020302020302020302020302020302020300A2020202D332E3436373920202020302E3133363820202020302E30303030204E202020302020302020302020302020302020302020302020302020302020302020302020300A2020202D342E313331392020202D302E3134373520202020302E303030302043202020302020302020302020302020302020302020302020302020302020302020302020300A2020202D342E303638322020202D302E3836373020202020302E30303030204E202020302020302020302020302020302020302020302020302020302020302020302020300A2020202D332E3135343920202020302E3932393720202020302E303030302043202020302020302020302020302020302020302020302020302020302020302020302020300A2020202D322E3334323620202020302E3738353720202020302E30303030204F202020302020302020302020302020302020302020302020302020302020302020302020300A2020202D312E3935343620202020312E3531333820202020302E303030302043202020302020302020302020302020302020302020302020302020302020302020302020300A2020202D322E3532373220202020322E3130373820202020302E303030302043202020302020302020302020302020302020302020302020302020302020302020302020300A2020202D332E3236393020202020312E3734363820202020302E303030302043202020302020302020302020302020302020302020302020302020302020302020302020300A2020202D332E3834313720202020322E3334303720202020302E30303030204F202020302020302020302020302020302020302020302020302020302020302020302020300A2020202D322E3332313120202020322E3937303220202020302E30303030204F202020302020302020302020302020302020302020302020302020302020302020302020300A2020202D312E3036373920202020312E3531393420202020302E303030302043202020302020302020302020302020302020302020302020302020302020302020302020300A2020202D302E3735313220202020302E3837323920202020302E30303030204F202020302020302020302020302020302020302020302020302020302020302020302020300A2020202D332E303236302020202D322E3237373220202020302E30303030204E202020302020302020302020302020302020302020302020302020302020302020302020300A20202020322E363836362020202D312E3533373820202020302E303030302043202020302020302020302020302020302020302020302020302020302020302020302020300A20202020322E363932312020202D302E3731323820202020302E30303030204E202020302020302020302020302020302020302020302020302020302020302020302020300A20202020332E343039332020202D302E3330353020202020302E303030302043202020302020302020302020302020302020302020302020302020302020302020302020300A20202020332E3431343720202020302E3531393920202020302E303030302043202020302020302020302020302020302020302020302020302020302020302020302020300A20202020342E3133313920202020302E3932373720202020302E30303030204F202020302020302020302020302020302020302020302020302020302020302020302020300A20202020302E393232392020202D302E3438393420202020302E303030302050202020302020302020302020302020302020302020302020302020302020302020302020300A20202020302E343431312020202D312E3135393120202020302E30303030204F202020302020302020302020302020302020302020302020302020302020302020302020300A20202020312E3430343820202020302E3138303220202020302E30303030204F202020302020302020302020302020302020302020302020302020302020302020302020300A2020202D322E3637343420202020332E3430383520202020302E303030302050202020302020302020302020302020302020302020302020302020302020302020302020300A2020202D332E3339363220202020332E3030393120202020302E30303030204F202020302020302020302020302020302020302020302020302020302020302020302020300A2020202D312E3935323520202020332E3830373920202020302E30303030204F202020302020302020302020302020302020302020302020302020302020302020302020300A2020202D332E3234373020202020342E3030323420202020302E30303030204F202020302020302020302020302020302020302020302020302020302020302020302020300A20202020342E313231302020202D302E3732323220202020302E30303030204F202020302020302020302020302020302020302020302020302020302020302020302020300A20202020312E353933332020202D302E3937303320202020302E30303030204F202020302020302020302020302020302020302020302020302020302020302020302020300A20202020302E3037333820202020302E3837323920202020302E303030302050202020302020302020302020302020302020302020302020302020302020302020302020300A20202020302E3037333820202020312E3639373920202020302E30303030204F202020302020302020302020302020302020302020302020302020302020302020302020300A20202020302E3037333820202020302E3034373920202020302E30303030204F202020302020302020302020302020302020302020302020302020302020302020302020300A20202020322E3232393820202020302E3138303220202020302E303030302043202020302020302020302020302020302020302020302020302020302020302020302020300A20202020322E3634323320202020302E3839343720202020302E303030302043202020302020302020302020302020302020302020302020302020302020302020302020300A20202020332E3035343820202020312E3630393220202020302E303030302043202020302020302020302020302020302020302020302020302020302020302020302020300A20202020312E3932373820202020312E3330373220202020302E303030302043202020302020302020302020302020302020302020302020302020302020302020302020300A20202020312E393639322020202D312E3934353120202020302E303030302043202020302020302020302020302020302020302020302020302020302020302020302020300A20202020312E393633322020202D322E3737303120202020302E303030302043202020302020302020302020302020302020302020302020302020302020302020302020300A20202020322E363734372020202D332E3138373820202020302E30303030204F202020302020302020302020302020302020302020302020302020302020302020302020300A20202020312E323435382020202D332E3137373420202020302E30303030204E202020302020302020302020302020302020302020302020302020302020302020302020300A20202020302E353331332020202D322E3736343920202020302E303030302043202020302020302020302020302020302020302020302020302020302020302020302020300A2020202D302E313833312020202D332E3137373420202020302E303030302043202020302020302020302020302020302020302020302020302020302020302020302020300A2020202D302E383937362020202D322E3736343920202020302E303030302053202020302020302020302020302020302020302020302020302020302020302020302020300A2020202D312E363132312020202D332E3137373420202020302E303030302043202020302020302020302020302020302020302020302020302020302020302020302020300A2020202D322E333236362020202D322E3736343920202020302E303030302043202020302020302020302020302020302020302020302020302020302020302020302020300A2020202D332E303431302020202D332E3137373420202020302E303030302043202020302020302020302020302020302020302020302020302020302020302020302020300A2020202D312E363132312020202D342E3030323420202020302E30303030204F202020302020302020302020302020302020302020302020302020302020302020302020300A20202020302E3839383820202020302E3837323920202020302E30303030204F202020302020302020302020302020302020302020302020302020302020302020302020300A2020202D332E303431302020202D342E3030323420202020302E30303030204F202020302020302020302020302020302020302020302020302020302020302020302020300A2020202D332E373535352020202D322E3736343920202020302E303030302043202020302020302020302020302020302020302020302020302020302020302020302020300A2020312020322020312020302020202020200A2020322020332020322020302020202020200A2020332020342020312020302020202020200A2020342020352020322020302020202020200A2020352020362020312020302020202020200A2020312020362020322020302020202020200A2020342020372020312020302020202020200A2020372020382020312020302020202020200A2020382020392020322020302020202020200A2020352020392020312020302020202020200A2031302031312020312020302020202020200A2031312031322020312020302020202020200A2031322031332020312020302020202020200A2031332031342020312020302020202020200A2031342031302020312020302020202020200A2031342031352020312020302020202020200A2031332031362020312020302020202020200A2031322031372020312020302020202020200A2020362031392020312020302020202020200A2032302032312020312020302020202020200A2032312032322020312020302020202020200A2032322032332020312020302020202020200A2032332032342020312020302020202020200A2032352032362020322020302020202020200A2032352032372020312020302020202020200A2031362032382020312020302020202020200A2032382032392020322020302020202020200A2032382033302020312020302020202020200A2032382033312020312020302020202020200A2032322033322020322020302020202020200A2032352033332020312020302020202020200A2031372031382020312020302020202020200A2031382033342020312020302020202020200A2033342033352020322020302020202020200A2033342033362020312020302020202020200A2033362032352020312020302020202020200A2032372033372020312020302020202020200A2033372033382020312020302020202020200A2033382033392020312020302020202020200A2032332033382020312020302020202020200A2033382034302020312020302020202020200A2032302034312020312020302020202020200A2034312034322020312020302020202020200A2034322034332020322020302020202020200A2034322034342020312020302020202020200A2034352034342020312020302020202020200A2034362034352020312020302020202020200A2034372034362020312020302020202020200A2034382034372020312020302020202020200A2034392034382020312020302020202020200A2034392035302020312020302020202020200A2034382035312020322020302020202020200A2033342035322020312020302020202020200A2020372031302020312020302020202020200A2035302035332020322020302020202020200A2035302035342020312020302020202020200A4D2020454E44
Contributor: Tsuzimoto Y, Tsugawa H, Bamba T, Fukusaki E, engineering department, Osaka Univ.
InstType: EI
InstName: Pegasus II TOF-MS system, Leco; GC 6890, Agilent Technologies
IoniMethod: EI
IonPolarity: pos
Date: 2010-10-09 19:48:36+02:00
Num Peaks: 81
85 13 86 120 87 20 88 17 89 999 90 87 91 54 92 3 93 2 95 1 
96 6 97 49 98 12 99 25 100 86 101 13 102 24 103 7 104 25 105 34 
106 3 111 10 112 26 113 20 114 66 115 30 116 36 117 4 118 1 119 37 
120 4 121 2 125 3 126 21 127 15 128 38 129 15 130 12 131 19 132 4 
139 1 140 9 141 7 142 9 143 7 144 68 145 39 146 37 147 3 153 2 
154 17 155 34 156 8 157 4 158 1 159 14 160 27 161 9 162 1 167 1 
168 1 169 31 170 38 171 31 172 8 173 1 184 1 185 68 186 72 187 12 
188 3 199 3 200 1 201 184 202 38 203 10 204 1 217 4 232 76 233 12 
234 3 
