Name: L-Histidine
CAS: 71-00-1
MW: 155
Formula: C6H9N3O2
Synonym: KEGG: C00135
Synonym: CID: 6274
Synonym: MassBank: OUF00309
Synonym: L-Histidine
Structure: 4330303030313336332E6364780A20204368656D447261773132323630383139313932440A2031322031322020302020302020302020302020302020302020302020303939392056323030300A20202020302E383536332020202D302E3134303120202020302E303030302043202020302020302020302020302020302020302020302020302020302020302020302020300A20202020312E3236343420202020302E3434353020202020302E303030302043202020302020302020302020302020302020302020302020302020302020302020302020300A20202020312E3738333720202020302E3538343220202020302E30303030204F202020302020302020302020302020302020302020302020302020302020302020302020300A20202020302E3832363820202020302E3838323620202020302E30303030204F202020302020302020302020302020302020302020302020302020302020302020302020300A20202020312E333631372020202D302E3532313820202020302E303030302048202020302020302020302020302020302020302020302020302020302020302020302020300A20202020302E383536332020202D302E3838323620202020302E30303030204E202020302020302020302020302020302020302020302020302020302020302020302020300A20202020302E313133382020202D302E3136303820202020302E303030302043202020302020302020302020302020302020302020302020302020302020302020302020300A2020202D312E3738333720202020302E3233313120202020302E30303030204E202020302020302020302020302020302020302020302020302020302020302020302020300A2020202D312E373833372020202D302E3430383320202020302E303030302043202020302020302020302020302020302020302020302020302020302020302020302020300A2020202D312E313735372020202D302E3630353820202020302E30303030204E202020302020302020302020302020302020302020302020302020302020302020302020300A2020202D302E373939382020202D302E3038383620202020302E303030302043202020302020302020302020302020302020302020302020302020302020302020302020300A2020202D312E3137353720202020302E3432383720202020302E303030302043202020302020302020302020302020302020302020302020302020302020302020302020300A2020312020322020312020302020202020200A2020322020332020312020302020202020200A2020322020342020322020302020202020200A2020312020352020312020362020202020200A2020312020362020312020312020202020200A2020312020372020312020302020202020200A2020382020392020312020302020202020200A2020392031302020322020302020202020200A2031302031312020312020302020202020200A2031312031322020322020302020202020200A2031322020382020312020302020202020200A2031312020372020312020302020202020200A4D2020454E44
Contributor: Tsuzimoto Y, Tsugawa H, Bamba T, Fukusaki E, engineering department, Osaka Univ.
InstType: EI
InstName: Pegasus II TOF-MS system, Leco; GC 6890, Agilent Technologies
IoniMethod: EI
IonPolarity: pos
Date: 2010-10-09 19:48:36+02:00
Num Peaks: 123
85 16 86 13 87 4 88 1 89 1 90 1 92 1 93 2 95 1 96 5 
97 5 98 13 99 4 100 90 101 17 102 7 103 8 105 2 108 1 109 2 
110 14 111 7 112 17 113 4 114 2 115 5 116 3 117 7 118 3 119 2 
120 2 121 2 122 1 123 2 124 4 125 4 126 15 127 4 128 5 129 2 
130 13 131 14 132 22 133 16 134 4 135 2 136 2 137 2 138 3 139 8 
140 3 141 3 142 1 144 2 146 3 147 55 148 11 149 7 150 4 151 3 
152 2 153 39 154 999 155 223 156 57 157 9 158 3 159 3 160 3 163 2 
165 2 166 23 167 8 168 3 172 2 174 2 175 1 180 1 181 2 182 17 
183 6 184 3 190 1 194 1 198 1 202 1 203 3 208 1 211 2 212 1 
218 48 219 10 220 4 223 1 224 1 225 3 226 15 227 4 228 2 237 1 
238 34 239 11 240 4 241 1 252 1 253 1 254 159 255 41 256 17 257 12 
258 3 266 8 267 2 268 2 328 4 329 2 330 1 338 1 356 14 357 5 
358 2 371 4 372 2 
