Name: Hydrocinnamate
CAS: 501-52-0
MW: 150
Formula: C9H10O2
Synonym: MassBank: OUF00269
Synonym: Hydrocinnamate
Structure: 31312031312020302020302020302020302020302020302020302020302020312056323030300A20202020392E3030303020202D32352E3030303020202020302E303030302043202020302020302020302020302020302020302020302020302020302020300A20202020392E303030302020202D352E3030303020202020302E303030302043202020302020302020302020302020302020302020302020302020302020300A2020202D392E3030303020202D33352E3030303020202020302E303030302043202020302020302020302020302020302020302020302020302020302020300A2020202D392E3030303020202020342E3030303020202020302E303030302043202020302020302020302020302020302020302020302020302020302020300A20202D32362E3030303020202D32352E3030303020202020302E303030302043202020302020302020302020302020302020302020302020302020302020300A20202D32362E303030302020202D352E3030303020202020302E303030302043202020302020302020302020302020302020302020302020302020302020300A2020202D392E3030303020202032342E3030303020202020302E303030302043202020302020302020302020302020302020302020302020302020302020300A20202020392E3030303020202033342E3030303020202020302E303030302043202020302020302020302020302020302020302020302020302020302020300A20202020392E3030303020202035342E3030303020202020302E303030302043202020302020302020302020302020302020302020302020302020302020300A20202032372E3030303020202036342E3030303020202020302E30303030204F202020302020302020302020302020302020302020302020302020302020300A2020202D392E3030303020202036342E3030303020202020302E30303030204F202020302020302020302020302020302020302020302020302020302020300A2020312020322020322020302020302020302020300A2020312020332020312020302020302020302020300A2020322020342020312020302020302020302020300A2020332020352020322020302020302020302020300A2020342020362020322020302020302020302020300A2020342020372020312020302020302020302020300A2020352020362020312020302020302020302020300A2020372020382020312020302020302020302020300A2020382020392020312020302020302020302020300A2020392031302020312020302020302020302020300A2020392031312020322020302020302020302020300A4D2020454E44
Contributor: Tsuzimoto Y, Tsugawa H, Bamba T, Fukusaki E, engineering department, Osaka Univ.
InstType: EI
InstName: Pegasus II TOF-MS system, Leco; GC 6890, Agilent Technologies
IoniMethod: EI
IonPolarity: pos
Date: 2010-10-09 19:48:36+02:00
Num Peaks: 57
85 2 86 1 87 3 88 8 89 24 90 6 91 255 92 21 93 2 101 16 
102 17 103 92 104 999 105 129 106 8 107 3 115 12 116 21 117 4 118 1 
119 1 121 1 128 1 129 11 130 2 131 32 132 38 133 6 134 1 135 10 
136 1 137 1 145 4 146 1 147 4 148 1 149 2 150 1 151 1 161 3 
162 3 163 6 164 1 165 1 173 1 189 17 190 5 191 3 205 10 206 6 
207 199 208 36 209 10 210 1 222 96 223 19 224 5 
