Name: Taurine
CAS: 107-35-7
MW: 125
Formula: C2H7NO3S
Synonym: KEGG: C00245
Synonym: CID: 1123
Synonym: MassBank: OUF00470
Synonym: Taurine
Structure: 310A31380A3C4341535F49443E203130372D33352D37093C4B4547475F49443E20433030323435093C4E414D453E2054617572696E65093C464F524D554C413E20433248374E4F3353093C45584143544D4153533E203132352E303134363633373835093C415645524147454D4153533E203132352E3134373932093C534D494C45533E204E434353284F29283D4F293D4F093C434F505952494748543E2041524D2050524F4A45435420687474703A2F2F7777772E6D657461626F6C6F6D652E6A702F0A2020372020362020302020302020302020302020302020302020302020303939392056323030300A20202020332E373332312020202D302E3036373020202020302E303030302043202020302020302020302020322020302020302020302020302020302020302020302020300A20202020332E3733323120202020302E3933333020202020302E303030302043202020302020302020302020322020302020302020302020302020302020302020302020300A20202020342E3539383120202020312E3433333020202020302E30303030204E202020302020302020302020322020302020302020302020302020302020302020302020300A20202020322E383636302020202D302E3536373020202020302E303030302053202020302020302020302020302020302020302020302020302020302020302020302020300A20202020322E3336363020202020302E3239393020202020302E30303030204F202020302020302020302020312020302020302020302020302020302020302020302020300A20202020332E333636302020202D312E3433333020202020302E30303030204F202020302020302020302020302020302020302020302020302020302020302020302020300A20202020322E303030302020202D312E3036373020202020302E30303030204F202020302020302020302020302020302020302020302020302020302020302020302020300A2020312020342020312020302020302020302020300A2020342020352020312020302020302020302020300A2020322020312020312020302020302020302020300A2020342020362020322020302020302020302020300A2020332020322020312020302020302020302020300A2020342020372020322020302020302020302020300A4D2020454E44
Contributor: Tsuzimoto Y, Tsugawa H, Bamba T, Fukusaki E, engineering department, Osaka Univ.
InstType: EI
InstName: Pegasus II TOF-MS system, Leco; GC 6890, Agilent Technologies
IoniMethod: EI
IonPolarity: pos
Date: 2010-10-09 19:48:36+02:00
Num Peaks: 127
85 27 86 263 87 40 88 20 89 11 90 4 91 1 92 5 93 41 94 5 
95 21 96 1 97 2 98 15 99 18 100 505 101 71 102 51 103 29 104 8 
105 10 106 3 107 1 108 3 110 1 111 1 112 1 113 32 114 116 115 63 
116 51 117 55 118 12 119 33 120 5 121 3 122 11 123 8 124 1 125 1 
127 1 128 2 129 15 130 260 131 127 132 48 133 345 134 52 135 34 136 3 
137 6 138 1 142 3 143 2 144 5 145 4 146 34 147 999 148 163 149 94 
150 11 151 7 152 6 153 15 154 2 155 1 156 4 158 16 159 3 160 90 
161 19 162 7 164 1 165 4 170 1 171 2 172 99 173 23 174 378 175 72 
176 35 177 6 178 1 180 2 184 1 186 2 187 6 188 196 189 41 190 18 
191 4 194 1 195 2 196 11 197 2 198 1 204 5 205 2 206 1 210 3 
211 22 212 4 213 2 222 1 225 124 226 24 227 18 228 2 238 72 239 14 
240 11 241 4 246 1 248 32 249 8 250 3 252 3 253 1 254 10 255 1 
315 1 325 23 326 533 327 168 328 106 329 26 330 8 
