Name: Hippurate
CAS: 495-69-2
MW: 179
Formula: C9H9NO3
Synonym: KEGG: C01586
Synonym: CID: 464
Synonym: MassBank: OUF00264
Synonym: Hippurate
Structure: 310A33310A3C4341535F49443E203439352D36392D32093C4B4547475F49443E20433031353836093C4E414D453E20486970707572617465093C464F524D554C413E20433948394E4F33093C45584143544D4153533E203137392E303538323433313539093C415645524147454D4153533E203137392E31373237093C534D494C45533E204F43283D4F29434E43283D4F2963286331296363636331093C434F505952494748543E2041524D2050524F4A45435420687474703A2F2F7777772E6D657461626F6C6F6D652E6A702F0A2031332031332020302020302020302020302020302020302020302020303939392056323030300A20202020322E3836363020202020322E3030303020202020302E303030302043202020302020302020302020302020302020302020302020302020302020302020302020300A20202020332E3733323120202020312E3530303020202020302E303030302043202020302020302020302020322020302020302020302020302020302020302020302020300A20202020332E3733323120202020302E3530303020202020302E30303030204E202020302020302020302020312020302020302020302020302020302020302020302020300A20202020342E3539383120202020302E3030303020202020302E303030302043202020302020302020302020302020302020302020302020302020302020302020302020300A20202020342E353938312020202D312E3030303020202020302E303030302043202020302020302020302020302020302020302020302020302020302020302020302020300A20202020332E373332312020202D312E3530303020202020302E303030302043202020302020302020302020312020302020302020302020302020302020302020302020300A20202020332E373332312020202D322E3530303020202020302E303030302043202020302020302020302020312020302020302020302020302020302020302020302020300A20202020342E353938312020202D332E3030303020202020302E303030302043202020302020302020302020312020302020302020302020302020302020302020302020300A20202020352E343634312020202D322E3530303020202020302E303030302043202020302020302020302020312020302020302020302020302020302020302020302020300A20202020352E343634312020202D312E3530303020202020302E303030302043202020302020302020302020312020302020302020302020302020302020302020302020300A20202020322E3030303020202020312E3530303020202020302E30303030204F202020302020302020302020312020302020302020302020302020302020302020302020300A20202020322E3836363020202020332E3030303020202020302E30303030204F202020302020302020302020302020302020302020302020302020302020302020302020300A20202020352E3436343120202020302E3530303020202020302E30303030204F202020302020302020302020302020302020302020302020302020302020302020302020300A2031302020352020322020302020302020302020300A2031302020392020312020302020302020302020300A2020392020382020322020302020302020302020300A2020382020372020312020302020302020302020300A2020372020362020322020302020302020302020300A2020362020352020312020302020302020302020300A2020342020332020312020302020302020302020300A2020342031332020322020302020302020302020300A2020352020342020312020302020302020302020300A2020332020322020312020302020302020302020300A2020312031312020312020302020302020302020300A2020312031322020322020302020302020302020300A2020322020312020312020302020302020302020300A4D2020454E44
Contributor: Tsuzimoto Y, Tsugawa H, Bamba T, Fukusaki E, engineering department, Osaka Univ.
InstType: EI
InstName: Pegasus II TOF-MS system, Leco; GC 6890, Agilent Technologies
IoniMethod: EI
IonPolarity: pos
Date: 2010-10-09 19:48:36+02:00
Num Peaks: 98
85 3 86 21 87 8 88 8 89 36 90 22 91 321 92 27 93 4 95 1 
96 1 99 1 100 12 101 11 102 6 103 30 104 25 105 999 106 82 107 8 
114 1 115 6 116 49 117 76 118 12 119 9 120 1 121 6 129 1 130 8 
131 12 132 7 133 34 134 8 135 13 136 1 137 1 143 1 144 10 145 2 
146 10 147 91 148 19 149 16 150 2 151 1 158 1 159 1 160 1 161 6 
162 10 163 17 164 3 165 1 174 8 175 2 176 3 177 18 178 41 179 9 
180 2 189 1 190 29 191 6 192 23 193 4 194 1 204 32 205 18 206 176 
207 34 208 10 209 1 218 9 219 1 220 1 232 1 233 35 234 8 235 2 
236 4 237 1 264 3 265 1 278 8 279 2 280 24 281 11 282 3 283 1 
306 1 308 29 309 9 310 3 322 13 323 17 324 5 325 2 
