Name: 3-Methyladenine
CAS: 5142-23-4
MW: 149
Formula: C6H7N5
Synonym: KEGG: C00913
Synonym: CID: 1673
Synonym: MassBank: OUF00057
Synonym: 3-Methyladenine
Structure: 31312031322020302020302020302020302020302020302020302020302020312056323030300A20202D31372E3030303020202D32312E3030303020202020302E303030302043202020302020302020302020302020302020302020302020302020302020300A20202D31372E303030302020202D332E3030303020202020302E30303030204E202020302020302020302020302020302020302020302020302020302020300A20202020302E3030303020202020362E3030303020202020302E303030302043202020302020302020302020302020302020302020302020302020302020300A20202D33352E3030303020202020362E3030303020202020302E303030302043202020302020302020302020302020302020302020302020302020302020300A20202031382E303030302020202D332E3030303020202020302E30303030204E202020302020302020302020302020302020302020302020302020302020300A20202020302E3030303020202032332E3030303020202020302E303030302043202020302020302020302020302020302020302020302020302020302020300A20202D33352E3030303020202032332E3030303020202020302E30303030204E202020302020302020302020302020302020302020302020302020302020300A20202033362E3030303020202020362E3030303020202020302E303030302043202020302020302020302020302020302020302020302020302020302020300A20202033362E3030303020202032332E3030303020202020302E30303030204E202020302020302020302020302020302020302020302020302020302020300A20202D31372E3030303020202033322E3030303020202020302E303030302043202020302020302020302020302020302020302020302020302020302020300A20202D31372E3030303020202035302E3030303020202020302E30303030204E202020302020302020302020302020302020302020302020302020302020300A2020312020322020312020302020302020302020300A2020322020332020312020302020302020302020300A2020322020342020312020302020302020302020300A2020332020352020322020302020302020302020300A2020332020362020312020302020302020302020300A2020342020372020322020302020302020302020300A2020352020382020312020302020302020302020300A2020362031302020322020302020302020302020300A2020362020392020312020302020302020302020300A2020372031302020312020302020302020302020300A2020382020392020322020302020302020302020300A2031302031312020312020302020302020302020300A4D2020454E44
Contributor: Tsuzimoto Y, Tsugawa H, Bamba T, Fukusaki E, engineering department, Osaka Univ.
InstType: EI
InstName: Pegasus II TOF-MS system, Leco; GC 6890, Agilent Technologies
IoniMethod: EI
IonPolarity: pos
Date: 2010-10-09 19:48:36+02:00
Num Peaks: 101
85 110 86 48 87 5 88 18 89 2 92 12 93 35 94 140 95 85 96 61 
97 31 98 36 99 97 100 31 101 8 103 49 104 1 105 1 106 6 107 24 
108 17 109 18 110 21 111 230 112 33 113 31 114 5 115 5 119 7 120 6 
121 84 122 135 123 32 124 18 125 38 126 8 127 3 132 1 133 7 134 11 
135 20 136 26 137 17 138 96 139 12 140 2 147 3 148 17 149 71 150 21 
151 31 152 90 153 19 154 1 161 3 162 11 163 9 164 20 165 30 166 12 
167 3 174 2 175 3 176 129 177 31 178 26 179 330 180 73 181 18 182 4 
189 10 190 41 191 21 192 8 193 13 194 24 195 2 197 1 198 1 199 3 
204 14 205 121 206 999 207 177 208 51 209 6 213 1 216 1 220 57 221 389 
222 75 223 18 267 2 270 1 285 2 307 1 361 1 435 1 449 1 457 1 
496 1 
