Name: Heptanedioate
CAS: 111-16-0
MW: 160
Formula: C7H12O4
Synonym: KEGG: C02656
Synonym: CID: 385
Synonym: MassBank: OUF00263
Synonym: Heptanedioate
Structure: 4330303030313139392E6364780A20204368656D447261773132323630383139313432440A2031312031302020302020302020302020302020302020302020302020303939392056323030300A20202020302E393231372020202D302E3337323820202020302E303030302043202020302020302020302020302020302020302020302020302020302020302020302020300A20202020312E343230372020202D302E3038343820202020302E303030302043202020302020302020302020302020302020302020302020302020302020302020302020300A20202020312E3432303720202020302E3431303520202020302E30303030204F202020302020302020302020302020302020302020302020302020302020302020302020300A20202020322E303538382020202D302E3435333220202020302E30303030204F202020302020302020302020302020302020302020302020302020302020302020302020300A20202020302E343234302020202D302E3038353420202020302E303030302043202020302020302020302020302020302020302020302020302020302020302020302020300A2020202D302E303733382020202D302E3337323820202020302E303030302043202020302020302020302020302020302020302020302020302020302020302020302020300A2020202D302E353730332020202D302E3038363120202020302E303030302043202020302020302020302020302020302020302020302020302020302020302020302020300A2020202D312E303636392020202D302E3337323820202020302E303030302043202020302020302020302020302020302020302020302020302020302020302020302020300A2020202D312E353633342020202D302E3038363120202020302E303030302043202020302020302020302020302020302020302020302020302020302020302020302020300A2020202D322E303538382020202D302E3337323120202020302E30303030204F202020302020302020302020302020302020302020302020302020302020302020302020300A2020202D312E3536333420202020302E3435333220202020302E30303030204F202020302020302020302020302020302020302020302020302020302020302020302020300A2020312020322020312020302020202020200A2020322020332020322020302020202020200A2020322020342020312020302020202020200A2020312020352020312020302020202020200A2020352020362020312020302020202020200A2020362020372020312020302020202020200A2020372020382020312020302020202020200A2020382020392020312020302020202020200A2020392031302020312020302020202020200A2020392031312020322020302020202020200A4D2020454E44
Contributor: Tsuzimoto Y, Tsugawa H, Bamba T, Fukusaki E, engineering department, Osaka Univ.
InstType: EI
InstName: Pegasus II TOF-MS system, Leco; GC 6890, Agilent Technologies
IoniMethod: EI
IonPolarity: pos
Date: 2010-10-09 19:48:36+02:00
Num Peaks: 139
85 57 86 29 87 24 88 36 89 40 90 7 91 8 92 5 93 8 94 2 
95 43 96 53 97 348 98 30 99 66 100 13 101 79 102 16 103 24 104 3 
105 11 106 1 107 7 108 1 109 2 110 1 111 8 112 4 113 26 114 9 
115 28 116 195 117 392 118 47 119 30 120 3 121 2 122 1 123 10 124 91 
125 863 126 75 127 19 128 11 129 406 130 65 131 69 132 46 133 140 134 25 
135 17 136 2 137 23 138 2 139 2 140 1 141 3 142 22 143 42 144 9 
145 29 146 7 147 593 148 103 149 222 150 33 151 20 152 2 153 4 154 3 
155 999 156 153 157 113 158 46 159 19 160 12 161 2 162 3 163 2 167 1 
168 3 169 26 170 28 171 100 172 65 173 355 174 53 175 17 176 2 177 1 
185 15 186 131 187 27 188 7 189 8 190 4 191 10 192 1 196 2 197 6 
198 1 199 121 200 19 201 7 202 1 203 10 204 94 205 22 206 9 207 1 
213 1 214 48 215 21 216 4 217 110 218 24 219 11 220 1 229 5 230 1 
231 4 232 2 233 1 243 4 244 2 245 18 246 4 247 2 261 5 262 8 
263 2 264 1 286 1 288 1 289 198 290 54 291 21 292 3 304 1 
