Name: DL-Homocysteine
CAS: 454-29-5
MW: 135
Formula: C4H9NO2S
Synonym: KEGG: C05330
Synonym: CID: 778
Synonym: MassBank: OUF00192
Synonym: DL-Homocysteine
Structure: 310A32300A200A200A200A2020382020372020302020302020302020302020302020302020302020303939392056323030300A20202033302E3330393220202D32312E3937303220202020302E303030302043202020302020302020332020302020302020302020302020302020302020302020302020300A20202033312E3836373020202D32312E3538363920202020302E303030302043202020302020302020302020302020302020302020302020302020302020302020302020300A20202032392E3334313620202D32312E3030393020202020302E303030302043202020302020302020302020302020302020302020302020302020302020302020302020300A20202032392E3633303720202D32332E3136333720202020302E30303030204E202020302020302020302020302020302020302020302020302020302020302020302020300A20202033322E3831353620202D32322E3536373020202020302E303030302043202020302020302020302020302020302020302020302020302020302020302020302020300A20202032382E3032383620202D32312E3337333320202020302E30303030204F202020302020302020302020302020302020302020302020302020302020302020302020300A20202032392E3639393820202D31392E3638393620202020302E30303030204F202020302020302020302020302020302020302020302020302020302020302020302020300A20202033342E3134313220202D32322E3234303420202020302E303030302053202020302020302020302020302020302020302020302020302020302020302020302020300A2020312020322020312020302020202020302020300A2020312020332020312020302020202020302020300A2020312020342020312020302020202020302020300A2020322020352020312020302020202020302020300A2020332020362020312020302020202020302020300A2020332020372020322020302020202020302020300A2020352020382020312020302020202020302020300A4D2020454E44
Contributor: Tsuzimoto Y, Tsugawa H, Bamba T, Fukusaki E, engineering department, Osaka Univ.
InstType: EI
InstName: Pegasus II TOF-MS system, Leco; GC 6890, Agilent Technologies
IoniMethod: EI
IonPolarity: pos
Date: 2010-10-09 19:48:36+02:00
Num Peaks: 118
85 12 86 11 87 10 88 20 89 5 90 3 91 8 92 1 93 2 96 1 
97 2 98 8 99 9 100 88 101 16 102 8 103 17 104 2 105 4 106 1 
112 8 113 4 114 35 115 16 116 8 117 21 118 9 119 7 120 1 126 7 
127 3 128 999 129 172 130 62 131 23 132 17 133 38 134 7 135 5 140 1 
142 5 143 3 144 3 145 3 146 10 147 144 148 25 149 25 150 2 151 1 
156 5 157 2 158 2 159 4 160 53 161 15 162 10 163 3 164 1 170 1 
171 7 172 17 173 6 174 6 175 2 176 1 186 1 187 1 188 47 189 9 
190 6 191 2 200 1 201 1 202 53 203 18 204 7 205 1 206 1 216 3 
217 6 218 75 219 30 220 9 221 3 228 6 229 1 230 4 231 1 232 11 
233 2 234 1 236 1 244 3 245 33 246 9 247 5 248 1 259 1 260 1 
262 2 263 1 264 1 277 1 278 40 279 11 280 5 281 1 316 1 319 1 
333 1 334 3 335 1 336 1 421 1 422 12 423 6 424 3 
