Name: N-FormylGlycine
CAS: 2491-15-8
MW: 103
Formula: C3H5NO3
Synonym: CID: 75606
Synonym: MassBank: OUF00385
Synonym: N-FormylGlycine
Structure: 310A31380A32343931302D36332D322E6D6F6C0A20204368656D447261773038303231303137353132440A2020372020362020302020302020302020302020302020302020302020303939392056323030300A2020202D302E3333313720202020302E3534313420202020302E303030302043202020302020302020302020302020302020302020302020302020302020302020302020300A2020202D312E3037303020202020302E3137333320202020302E303030302043202020302020302020302020302020302020302020302020302020302020302020302020300A20202020302E3333373620202020302E3039343520202020302E30303030204E202020302020302020302020302020302020302020302020302020302020302020302020300A2020202D312E313137322020202D302E3633303020202020302E30303030204F202020302020302020302020302020302020302020302020302020302020302020302020300A2020202D312E3735393120202020302E3633303020202020302E30303030204F202020302020302020302020302020302020302020302020302020302020302020302020300A20202020312E3037303020202020302E3436323720202020302E303030302043202020302020302020302020302020302020302020302020302020302020302020302020300A20202020312E3735393120202020302E3030373920202020302E30303030204F202020302020302020302020302020302020302020302020302020302020302020302020300A2020312020322020312020302020202020200A2020312020332020312020302020202020200A2020322020342020312020302020202020200A2020322020352020322020302020202020200A2020332020362020312020302020202020200A2020362020372020322020302020202020200A4D2020454E44
Contributor: Tsuzimoto Y, Tsugawa H, Bamba T, Fukusaki E, engineering department, Osaka Univ.
InstType: EI
InstName: Pegasus II TOF-MS system, Leco; GC 6890, Agilent Technologies
IoniMethod: EI
IonPolarity: pos
Date: 2010-10-09 19:48:36+02:00
Num Peaks: 69
85 11 86 409 87 50 88 22 89 4 95 3 97 1 98 1 99 8 100 233 
101 49 102 46 103 25 104 3 105 6 113 9 114 8 115 15 116 21 117 58 
118 11 119 19 120 2 128 1 129 4 130 50 131 57 132 19 133 169 134 28 
135 15 136 2 143 1 144 16 145 4 146 8 147 367 148 59 149 32 150 2 
151 1 158 24 159 7 160 14 161 3 172 13 173 3 174 999 175 197 176 89 
177 21 178 3 187 1 188 15 189 4 190 2 202 5 204 7 205 1 246 9 
247 3 248 140 249 46 250 23 251 4 252 1 276 44 277 14 278 6 
