Name: D-Glucosamine-6-Phosphate
CAS: 3616-42-0
MW: 259
Formula: C6H14NO8P
Synonym: CID: 609
Synonym: MassBank: OUF00176
Synonym: D-Glucosamine-6-Phosphate
Structure: 4330303031393538302E6364780A20204368656D447261773132323930383230303332440A2031362031362020302020302020302020302020302020302020302020303939392056323030300A2020202D302E373138372020202D302E3232343820202020302E303030302043202020302020302020302020302020302020302020302020302020302020302020302020300A2020202D302E333036322020202D302E3933393320202020302E303030302043202020302020302020302020302020302020302020302020302020302020302020302020300A20202020302E343931392020202D302E3733303220202020302E303030302043202020302020302020302020302020302020302020302020302020302020302020302020300A20202020312E323835322020202D302E3935373020202020302E303030302043202020302020302020302020302020302020302020302020302020302020302020302020300A20202020302E383732372020202D302E3234323520202020302E30303030204F202020302020302020302020302020302020302020302020302020302020302020302020300A20202020302E303734362020202D302E3435313520202020302E303030302043202020302020302020302020302020302020302020302020302020302020302020302020300A20202020312E323835322020202D312E3633323620202020302E30303030204F202020302020302020302020302020302020302020302020302020302020302020302020300A2020202D302E3039313720202020302E3136393220202020302E303030302043202020302020302020302020302020302020302020302020302020302020302020302020300A2020202D302E3539393820202020302E3436323520202020302E30303030204F202020302020302020302020302020302020302020302020302020302020302020302020300A2020202D312E323737392020202D302E3738343020202020302E30303030204F202020302020302020302020302020302020302020302020302020302020302020302020300A2020202D302E373334392020202D302E3639313820202020302E30303030204F202020302020302020302020302020302020302020302020302020302020302020302020300A20202020302E333131332020202D312E3430343220202020302E30303030204E202020302020302020302020302020302020302020302020302020302020302020302020300A2020202D302E3539393820202020312E3034383320202020302E303030302050202020302020302020302020302020302020302020302020302020302020302020302020300A2020202D312E3238353220202020312E3034383320202020302E30303030204F202020302020302020302020302020302020302020302020302020302020302020302020300A2020202D302E3131303520202020312E3034383320202020302E30303030204F202020302020302020302020302020302020302020302020302020302020302020302020300A2020202D302E3539393820202020312E3633323620202020302E30303030204F202020302020302020302020302020302020302020302020302020302020302020302020300A2020312020322020312020312020202020200A2020322020332020312020312020202020200A2020342020332020312020312020202020200A2020342020352020312020302020202020200A2020352020362020312020302020202020200A2020362020312020312020302020202020200A2020342020372020312020302020202020200A2020362020382020312020302020202020200A2020382020392020312020302020202020200A2020312031302020312020302020202020200A2020322031312020312020302020202020200A2020332031322020312020302020202020200A2020392031332020312020302020202020200A2031332031342020312020302020202020200A2031332031352020312020302020202020200A2031332031362020322020302020202020200A4D2020454E44
Contributor: Tsuzimoto Y, Tsugawa H, Bamba T, Fukusaki E, engineering department, Osaka Univ.
InstType: EI
InstName: Pegasus II TOF-MS system, Leco; GC 6890, Agilent Technologies
IoniMethod: EI
IonPolarity: pos
Date: 2010-10-09 19:48:36+02:00
Num Peaks: 304
85 27 86 10 87 19 88 8 89 30 90 4 91 5 93 1 94 1 96 7 
98 19 99 29 100 224 101 59 102 37 103 114 105 17 107 7 108 28 109 11 
110 16 111 19 112 24 113 43 114 2 115 64 116 37 117 35 118 4 119 22 
121 8 122 2 123 5 124 6 125 11 126 18 127 39 128 87 129 461 130 95 
131 102 132 31 133 194 134 20 135 40 136 16 137 11 138 13 139 16 140 14 
141 14 142 35 143 31 144 30 145 5 146 20 147 512 148 75 149 50 150 9 
151 19 152 27 153 5 154 17 155 18 156 33 157 21 158 18 159 15 161 3 
162 23 164 6 165 6 166 8 167 12 168 29 169 12 170 12 172 45 173 16 
174 4 175 17 176 3 178 2 179 1 180 48 181 21 182 22 183 6 184 10 
185 2 186 3 187 11 188 51 189 50 190 29 191 45 192 17 193 33 194 13 
195 11 197 15 198 13 199 9 200 27 201 12 202 12 203 999 204 247 205 91 
206 19 207 43 208 7 209 10 210 5 211 158 212 39 213 18 214 16 215 16 
216 75 217 33 218 45 219 23 220 14 221 3 222 7 224 5 225 36 226 15 
227 53 228 18 229 3 230 13 231 28 232 16 233 18 234 5 235 7 237 12 
238 7 239 6 240 40 241 17 242 22 243 21 244 21 245 3 246 9 250 4 
251 5 252 10 253 11 254 27 255 14 256 14 258 4 259 20 260 17 262 3 
263 2 266 3 268 16 269 43 270 57 271 31 272 43 273 18 274 14 275 7 
276 9 277 5 278 5 282 2 283 17 284 10 285 23 286 11 288 7 289 4 
290 4 291 1 292 3 294 6 295 2 296 10 297 8 298 16 299 283 300 160 
301 61 302 9 303 15 304 58 305 37 306 16 307 10 308 6 309 1 310 3 
311 4 313 2 314 15 315 151 316 92 317 51 318 8 319 8 320 12 322 9 
324 5 325 9 327 4 329 8 334 5 335 19 336 6 338 3 339 9 343 1 
344 10 345 10 346 3 349 4 352 2 353 16 356 1 357 7 358 14 360 5 
361 7 362 6 363 9 364 4 369 2 370 4 371 7 372 15 373 4 374 14 
375 1 377 41 378 48 379 24 380 6 381 2 382 16 384 12 385 8 386 52 
387 326 388 272 389 116 390 47 391 16 394 7 396 3 397 1 400 7 402 4 
403 3 404 11 406 1 408 5 409 10 411 3 414 2 415 8 417 7 418 2 
424 5 427 5 428 2 430 7 441 2 447 2 448 13 453 1 454 1 455 2 
462 1 465 3 466 2 467 6 472 7 473 7 474 1 475 3 478 10 481 3 
483 1 484 6 485 5 487 4 489 6 490 3 492 6 494 1 495 5 496 11 
497 5 498 10 499 2 500 15 
