Name: L-Rhamnose
CAS: 10485-94-6
MW: 164
Formula: C6H12O5
Synonym: CID: 19233
Synonym: MassBank: OUF00444
Synonym: L-Rhamnose
Structure: 3130342D38352D382E6D6F6C0A20204368656D447261773037323931303139303032440A2031312031302020302020302020302020302020302020302020302020303939392056323030300A2020202D302E303138352020202D302E3230353620202020302E303030302043202020302020302020302020302020302020302020302020302020302020302020302020300A20202020302E3639363720202020302E3230353620202020302E303030302043202020302020302020302020302020302020302020302020302020302020302020302020300A2020202D302E3733353720202020302E3230353620202020302E303030302043202020302020302020302020302020302020302020302020302020302020302020302020300A2020202D302E303138352020202D312E3031303520202020302E30303030204F202020302020302020302020302020302020302020302020302020302020302020302020300A20202020312E343132302020202D302E3230353620202020302E303030302043202020302020302020302020302020302020302020302020302020302020302020302020300A20202020302E3639363720202020312E3031303520202020302E30303030204F202020302020302020302020302020302020302020302020302020302020302020302020300A2020202D312E343531302020202D302E3230353620202020302E303030302043202020302020302020302020302020302020302020302020302020302020302020302020300A2020202D302E3733353720202020312E3031303520202020302E30303030204F202020302020302020302020302020302020302020302020302020302020302020302020300A20202020322E3132373220202020302E3230353620202020302E303030302043202020302020302020302020302020302020302020302020302020302020302020302020300A20202020312E343132302020202D312E3031303520202020302E30303030204F202020302020302020302020302020302020302020302020302020302020302020302020300A2020202D322E3132373220202020302E3131373920202020302E30303030204F202020302020302020302020302020302020302020302020302020302020302020302020300A2020312020322020312020302020202020200A2020312020332020312020302020202020200A2020312020342020312020312020202020200A2020322020352020312020302020202020200A2020322020362020312020312020202020200A2020332020372020312020302020202020200A2020332020382020312020362020202020200A2020352020392020312020302020202020200A2020352031302020312020362020202020200A2020372031312020322020302020202020200A4D2020454E44
Contributor: Tsuzimoto Y, Tsugawa H, Bamba T, Fukusaki E, engineering department, Osaka Univ.
InstType: EI
InstName: Pegasus II TOF-MS system, Leco; GC 6890, Agilent Technologies
IoniMethod: EI
IonPolarity: pos
Date: 2010-10-09 19:48:36+02:00
Num Peaks: 127
85 9 86 8 87 9 88 3 89 53 90 5 91 3 97 1 98 2 99 7 
100 28 101 27 102 14 103 21 104 2 105 23 106 2 107 1 108 1 111 2 
112 3 113 3 114 16 115 22 116 11 117 999 118 102 119 42 120 3 126 2 
127 7 128 5 129 58 130 19 131 59 132 8 133 52 134 7 135 4 140 1 
141 2 142 7 143 18 144 3 145 7 146 1 147 134 148 21 149 17 150 2 
151 1 154 1 155 1 156 2 157 2 158 4 159 2 160 159 161 54 162 11 
163 10 164 1 165 1 170 1 171 3 172 3 173 4 174 2 175 2 177 1 
182 2 183 1 186 1 188 1 189 13 190 4 191 12 192 2 193 1 200 1 
201 11 202 2 203 14 204 18 205 5 206 2 207 2 212 1 214 1 215 1 
216 6 217 15 218 5 219 21 220 4 221 4 222 1 228 3 229 1 230 1 
231 11 232 5 233 16 234 7 235 2 244 2 245 1 246 2 256 3 262 2 
271 1 274 4 275 1 277 41 278 13 279 6 280 1 291 3 292 1 293 2 
302 1 305 3 306 1 321 16 322 5 323 2 364 2 
