Name: 2-Hydroxypyridine
CAS: 142-08-5
MW: 95
Formula: C5H5NO
Synonym: KEGG: C02502
Synonym: CID: 8871
Synonym: MassBank: OUF00033
Synonym: 2-Hydroxypyridine
Structure: 310A31390A4330303030373430352E6364780A20204368656D447261773132323930383037313332440A2020372020372020302020302020302020302020302020302020302020303939392056323030300A2020202D302E3833303620202020302E3331393720202020302E303030302043202020302020302020302020302020302020302020302020302020302020302020302020300A2020202D302E383330362020202D302E3331393720202020302E303030302043202020302020302020302020302020302020302020302020302020302020302020302020300A2020202D302E323736392020202D302E3633393420202020302E30303030204E202020302020302020302020302020302020302020302020302020302020302020302020300A20202020302E323736392020202D302E3331393720202020302E303030302043202020302020302020302020302020302020302020302020302020302020302020302020300A20202020302E3237363920202020302E3331393720202020302E303030302043202020302020302020302020302020302020302020302020302020302020302020302020300A2020202D302E3237363920202020302E3633393420202020302E303030302043202020302020302020302020302020302020302020302020302020302020302020302020300A20202020302E383330362020202D302E3633393420202020302E30303030204F202020302020302020302020302020302020302020302020302020302020302020302020300A2020312020322020322020302020202020200A2020322020332020312020302020202020200A2020332020342020322020302020202020200A2020342020352020312020302020202020200A2020352020362020322020302020202020200A2020362020312020312020302020202020200A2020342020372020312020302020202020200A4D2020454E44
Contributor: Tsuzimoto Y, Tsugawa H, Bamba T, Fukusaki E, engineering department, Osaka Univ.
InstType: EI
InstName: Pegasus II TOF-MS system, Leco; GC 6890, Agilent Technologies
IoniMethod: EI
IonPolarity: pos
Date: 2010-10-09 19:48:36+02:00
Num Peaks: 43
85 5 86 4 91 2 92 17 93 16 94 6 95 20 96 13 97 37 98 11 
99 11 100 5 101 1 106 6 107 1 108 5 109 3 110 2 111 1 122 96 
123 12 124 8 125 2 126 1 132 1 134 2 135 2 136 37 137 16 138 9 
139 1 148 2 150 2 151 5 152 999 153 125 154 40 155 3 165 1 166 115 
167 95 168 16 169 3 
