Name: Methylsuccinic acid
CAS: 498-21-5
MW: 132
Formula: C5H8O4
Synonym: CID: 10349
Synonym: MassBank: OUF00358
Synonym: Methylsuccinic acid
Structure: 310A32320A20204143442F4C6162733038303730393134343732440A2020392020382020302020302020302020302020302020302020302020302020312056323030300A20202031372E353631352020202D342E3836333320202020302E30303030204F202020302020302020302020302020302020302020302020302020302020302020302020300A20202031382E333931322020202D342E3338343320202020302E303030302043202020302020302020302020302020302020302020302020302020302020302020302020300A20202031392E323231302020202D342E3836333320202020302E303030302043202020302020302020302020302020302020302020302020302020302020302020302020300A20202032302E303530372020202D342E3338343320202020302E303030302043202020302020302020302020302020302020302020302020302020302020302020302020300A20202032302E383830352020202D342E3836333320202020302E303030302043202020302020302020302020302020302020302020302020302020302020302020302020300A20202032312E373130322020202D342E3338343320202020302E30303030204F202020302020302020302020302020302020302020302020302020302020302020302020300A20202031382E333931322020202D332E3432363220202020302E30303030204F202020302020302020302020302020302020302020302020302020302020302020302020300A20202032302E383830352020202D352E3832313520202020302E30303030204F202020302020302020302020302020302020302020302020302020302020302020302020300A20202031392E323231302020202D352E3832313520202020302E303030302043202020302020302020302020302020302020302020302020302020302020302020302020300A2020312020322020312020302020302020302020300A2020322020332020312020302020302020302020300A2020332020342020312020302020302020302020300A2020342020352020312020302020302020302020300A2020352020362020312020302020302020302020300A2020322020372020322020302020302020302020300A2020352020382020322020302020302020302020300A2020332020392020312020302020302020302020300A4D2020454E44
Contributor: Tsuzimoto Y, Tsugawa H, Bamba T, Fukusaki E, engineering department, Osaka Univ.
InstType: EI
InstName: Pegasus II TOF-MS system, Leco; GC 6890, Agilent Technologies
IoniMethod: EI
IonPolarity: pos
Date: 2010-10-09 19:48:36+02:00
Num Peaks: 73
85 17 86 7 87 8 88 3 89 7 93 1 96 4 97 4 98 3 99 32 
100 5 101 10 102 3 103 10 104 1 105 4 111 1 113 4 115 13 116 8 
117 26 118 3 119 5 123 16 124 1 125 1 127 5 128 1 129 52 130 9 
131 21 132 4 133 43 134 6 135 4 142 5 143 80 144 12 145 9 146 1 
147 999 148 159 149 92 150 10 151 3 157 5 158 12 159 8 160 1 163 1 
170 4 171 4 175 3 186 33 187 15 188 3 189 3 190 4 191 2 204 14 
205 4 206 1 217 59 218 13 219 6 220 1 232 18 233 4 234 1 261 76 
262 17 263 7 276 1 
