Name: Glycyl-Glycine
CAS: 556-50-3
MW: 132
Formula: C4H8N2O3
Synonym: KEGG: C02037
Synonym: CID: 11163
Synonym: MassBank: OUF00258
Synonym: Glycyl-Glycine
Structure: 310A32320A3C4341535F49443E203535362D35302D33093C4B4547475F49443E20433032303337093C4E414D453E20476C7963796C676C7963696E093C464F524D554C413E20433448384E324F33093C45584143544D4153533E203133322E303533343932313332093C415645524147454D4153533E203133322E313138093C534D494C45533E204E4343283D4F294E4343284F293D4F093C434F505952494748543E2041524D2050524F4A45435420687474703A2F2F7777772E6D657461626F6C6F6D652E6A702F0A2020392020382020302020302020302020302020302020302020302020303939392056323030300A20202020342E3539383120202020312E3235303020202020302E303030302043202020302020302020302020302020302020302020302020302020302020302020302020300A20202020332E3733323120202020302E3735303020202020302E303030302043202020302020302020302020322020302020302020302020302020302020302020302020300A20202020332E373332312020202D302E3235303020202020302E30303030204E202020302020302020302020312020302020302020302020302020302020302020302020300A20202020322E383636302020202D302E3735303020202020302E303030302043202020302020302020302020302020302020302020302020302020302020302020302020300A20202020322E383636302020202D312E3735303020202020302E303030302043202020302020302020302020322020302020302020302020302020302020302020302020300A20202020322E303030302020202D322E3235303020202020302E30303030204E202020302020302020302020322020302020302020302020302020302020302020302020300A20202020352E3436343120202020302E3735303020202020302E30303030204F202020302020302020302020302020302020302020302020302020302020302020302020300A20202020342E3539383120202020322E3235303020202020302E30303030204F202020302020302020302020312020302020302020302020302020302020302020302020300A20202020322E303030302020202D302E3235303020202020302E30303030204F202020302020302020302020302020302020302020302020302020302020302020302020300A2020362020352020312020302020302020302020300A2020352020342020312020302020302020302020300A2020342020392020322020302020302020302020300A2020332020322020312020302020302020302020300A2020322020312020312020302020302020302020300A2020312020372020322020302020302020302020300A2020342020332020312020302020302020302020300A2020312020382020312020302020302020302020300A4D2020454E44
Contributor: Tsuzimoto Y, Tsugawa H, Bamba T, Fukusaki E, engineering department, Osaka Univ.
InstType: EI
InstName: Pegasus II TOF-MS system, Leco; GC 6890, Agilent Technologies
IoniMethod: EI
IonPolarity: pos
Date: 2010-10-09 19:48:36+02:00
Num Peaks: 130
85 8 86 234 87 29 88 17 89 5 97 1 98 8 99 5 100 133 101 32 
102 35 103 15 104 3 105 3 112 1 113 5 114 7 115 11 116 38 117 41 
118 8 119 10 120 1 127 3 128 3 129 14 130 46 131 46 132 17 133 63 
134 12 135 6 140 2 141 5 142 16 143 6 144 14 145 4 146 12 147 189 
148 32 149 20 150 2 151 1 156 1 157 1 158 16 159 8 160 13 161 4 
162 1 169 1 171 1 172 39 173 11 174 999 175 193 176 91 177 13 178 2 
185 1 186 1 187 8 188 11 189 5 190 5 191 1 199 2 200 2 201 3 
202 3 203 2 204 12 205 3 206 1 213 3 214 6 215 6 216 8 217 2 
218 12 219 4 220 1 221 4 222 1 229 2 230 2 231 1 232 1 234 4 
235 1 241 1 243 2 244 2 245 1 246 5 247 2 248 89 249 36 250 16 
251 4 258 1 259 7 260 2 261 2 262 2 273 1 274 1 287 1 288 3 
289 3 290 1 306 5 307 3 308 1 316 1 317 6 318 4 319 1 333 2 
334 1 404 7 405 62 406 51 407 24 408 9 409 2 420 5 421 4 422 2 
