Name: (-)-Epinephrine
CAS: 51-43-4
MW: 183
Formula: C9H13NO3
Synonym: KEGG: C00788
Synonym: CID: 5816
Synonym: MassBank: OUF00225
Synonym: (-)-Epinephrine
Structure: 310A33310A3C4341535F49443E2035312D34332D34093C4B4547475F49443E20433030373838093C4E414D453E204C2D416472656E616C696E65093C464F524D554C413E2043394831334E4F33093C45584143544D4153533E203138332E303839353433323837093C415645524147454D4153533E203138332E3230343436093C534D494C45533E20434E435B4340485D284F2963286331296363284F2963284F296331093C434F505952494748543E2041524D2050524F4A45435420687474703A2F2F7777772E6D657461626F6C6F6D652E6A702F0A2031332031332020302020302020312020302020302020302020302020303939392056323030300A20202032312E3230323820202D31372E3031333320202020302E303030302043202020302020302020302020302020302020302020302020302020302020302020302020300A20202032312E3230323820202D31382E3432383420202020302E303030302043202020302020302020302020312020302020302020302020302020302020302020302020300A20202031392E3938353720202D31362E3331343420202020302E303030302043202020302020302020302020312020302020302020302020302020302020302020302020300A20202032322E3430383320202D31362E3331343420202020302E303030302043202020302020302020322020312020302020302020302020302020302020302020302020300A20202031392E3938353720202D31392E3133383920202020302E303030302043202020302020302020302020312020302020302020302020302020302020302020302020300A20202031382E3737343220202D31372E3031333320202020302E303030302043202020302020302020302020302020302020302020302020302020302020302020302020300A20202032332E3631393620202D31372E3030373520202020302E303030302043202020302020302020302020322020302020302020302020302020302020302020302020300A20202032322E3430383320202D31342E3931363820202020302E30303030204F202020302020302020302020312020302020302020302020302020302020302020302020300A20202031382E3737343220202D31382E3432383420202020302E303030302043202020302020302020302020302020302020302020302020302020302020302020302020300A20202032342E3831393120202D31362E3330383720202020302E30303030204E202020302020302020302020312020302020302020302020302020302020302020302020300A20202031372E3536333020202D31392E3131353620202020302E30303030204F202020302020302020302020312020302020302020302020302020302020302020302020300A20202031372E3536373720202D31362E3331363520202020302E30303030204F202020302020302020302020312020302020302020302020302020302020302020302020300A20202032362E3032383420202D31372E3030303620202020302E303030302043202020302020302020302020332020302020302020302020302020302020302020302020300A2020312020332020312020302020302020302020300A2020312020342020312020302020302020302020300A2020322020352020312020302020302020302020300A2020332020362020322020302020302020302020300A2020342020372020312020302020302020302020300A2020342020382020312020312020302020302020300A2020352020392020322020302020302020302020300A2020372031302020312020302020302020302020300A2020392031312020312020302020302020302020300A2020362020392020312020302020302020302020300A2020362031322020312020302020302020302020300A2020312020322020322020302020302020302020300A2031302031332020312020302020302020302020300A4D2020454E44
Contributor: Tsuzimoto Y, Tsugawa H, Bamba T, Fukusaki E, engineering department, Osaka Univ.
InstType: EI
InstName: Pegasus II TOF-MS system, Leco; GC 6890, Agilent Technologies
IoniMethod: EI
IonPolarity: pos
Date: 2010-10-09 19:48:36+02:00
Num Peaks: 88
85 1 86 9 87 2 88 3 89 2 90 1 91 3 100 5 101 3 102 2 
103 3 104 1 105 3 114 2 115 6 116 999 117 116 118 41 119 6 121 1 
129 1 130 1 131 7 132 1 133 11 134 1 135 2 137 1 144 1 145 1 
146 1 147 41 148 7 149 5 150 1 151 1 160 3 161 2 162 2 163 2 
165 1 174 1 175 1 177 4 178 1 179 10 180 2 181 1 191 2 192 3 
193 9 194 2 195 1 205 2 207 2 209 1 220 2 221 2 222 1 223 1 
235 1 237 2 251 5 252 1 253 1 265 3 266 1 267 4 268 1 279 1 
280 1 281 5 282 1 294 2 308 1 309 1 339 1 354 2 355 34 356 13 
357 6 358 1 366 4 367 2 368 1 456 3 457 2 458 1 
