Name: Glycyl-Glycine
CAS: 556-50-3
MW: 132
Formula: C4H8N2O3
Synonym: KEGG: C02037
Synonym: CID: 11163
Synonym: MassBank: OUF00259
Synonym: Glycyl-Glycine
Structure: 310A32320A3C4341535F49443E203535362D35302D33093C4B4547475F49443E20433032303337093C4E414D453E20476C7963796C676C7963696E093C464F524D554C413E20433448384E324F33093C45584143544D4153533E203133322E303533343932313332093C415645524147454D4153533E203133322E313138093C534D494C45533E204E4343283D4F294E4343284F293D4F093C434F505952494748543E2041524D2050524F4A45435420687474703A2F2F7777772E6D657461626F6C6F6D652E6A702F0A2020392020382020302020302020302020302020302020302020302020303939392056323030300A20202020342E3539383120202020312E3235303020202020302E303030302043202020302020302020302020302020302020302020302020302020302020302020302020300A20202020332E3733323120202020302E3735303020202020302E303030302043202020302020302020302020322020302020302020302020302020302020302020302020300A20202020332E373332312020202D302E3235303020202020302E30303030204E202020302020302020302020312020302020302020302020302020302020302020302020300A20202020322E383636302020202D302E3735303020202020302E303030302043202020302020302020302020302020302020302020302020302020302020302020302020300A20202020322E383636302020202D312E3735303020202020302E303030302043202020302020302020302020322020302020302020302020302020302020302020302020300A20202020322E303030302020202D322E3235303020202020302E30303030204E202020302020302020302020322020302020302020302020302020302020302020302020300A20202020352E3436343120202020302E3735303020202020302E30303030204F202020302020302020302020302020302020302020302020302020302020302020302020300A20202020342E3539383120202020322E3235303020202020302E30303030204F202020302020302020302020312020302020302020302020302020302020302020302020300A20202020322E303030302020202D302E3235303020202020302E30303030204F202020302020302020302020302020302020302020302020302020302020302020302020300A2020362020352020312020302020302020302020300A2020352020342020312020302020302020302020300A2020342020392020322020302020302020302020300A2020332020322020312020302020302020302020300A2020322020312020312020302020302020302020300A2020312020372020322020302020302020302020300A2020342020332020312020302020302020302020300A2020312020382020312020302020302020302020300A4D2020454E44
Contributor: Tsuzimoto Y, Tsugawa H, Bamba T, Fukusaki E, engineering department, Osaka Univ.
InstType: EI
InstName: Pegasus II TOF-MS system, Leco; GC 6890, Agilent Technologies
IoniMethod: EI
IonPolarity: pos
Date: 2010-10-09 19:48:36+02:00
Num Peaks: 96
85 11 86 320 87 43 88 28 89 5 91 1 93 1 97 6 98 4 99 8 
100 171 101 44 102 76 103 20 104 5 105 1 111 1 113 6 114 12 115 14 
116 49 117 51 118 10 119 12 126 1 127 3 128 3 129 32 130 57 131 36 
132 17 133 49 134 9 135 4 141 20 142 8 143 9 144 16 145 5 146 17 
147 175 148 40 149 28 150 4 151 1 153 1 157 2 158 14 159 8 160 31 
161 7 162 4 163 1 169 5 170 3 171 2 172 38 173 11 174 999 175 202 
176 181 177 35 178 10 179 1 187 21 188 10 189 3 190 2 191 1 199 1 
200 2 201 6 202 3 203 2 204 4 213 2 214 8 215 28 216 9 217 5 
218 3 232 1 243 30 244 11 245 6 246 2 247 1 258 1 259 1 318 1 
332 2 333 69 334 56 335 19 336 4 438 1 
