Name: D-3-Phenyllactic acid
CAS: 103-82-2
MW: 136
Formula: C8H8O2
Synonym: MassBank: OUF00154
Synonym: D-3-Phenyllactic acid
Structure: 4330303030303735302E6364780A20204368656D447261773132323630383139303032440A2031302031302020302020302020302020302020302020302020302020303939392056323030300A2020202D312E3433333420202020302E3235393820202020302E303030302043202020302020302020302020302020302020302020302020302020302020302020302020300A2020202D312E343333342020202D302E3336323120202020302E303030302043202020302020302020302020302020302020302020302020302020302020302020302020300A2020202D302E383934392020202D302E3637333020202020302E303030302043202020302020302020302020302020302020302020302020302020302020302020302020300A2020202D302E333536332020202D302E3336323120202020302E303030302043202020302020302020302020302020302020302020302020302020302020302020302020300A2020202D302E3335363320202020302E3235393820202020302E303030302043202020302020302020302020302020302020302020302020302020302020302020302020300A2020202D302E3839343920202020302E3537303720202020302E303030302043202020302020302020302020302020302020302020302020302020302020302020302020300A20202020302E3138313920202020302E3537303520202020302E303030302043202020302020302020302020302020302020302020302020302020302020302020302020300A20202020302E3731383920202020302E3236303520202020302E303030302043202020302020302020302020302020302020302020302020302020302020302020302020300A20202020302E373138392020202D302E3536343520202020302E30303030204F202020302020302020302020302020302020302020302020302020302020302020302020300A20202020312E3433333420202020302E3637333020202020302E30303030204F202020302020302020302020302020302020302020302020302020302020302020302020300A2020312020322020322020302020202020200A2020322020332020312020302020202020200A2020332020342020322020302020202020200A2020342020352020312020302020202020200A2020352020362020322020302020202020200A2020362020312020312020302020202020200A2020352020372020312020302020202020200A2020372020382020312020302020202020200A2020382020392020322020302020202020200A2020382031302020312020302020202020200A4D2020454E44
Contributor: Tsuzimoto Y, Tsugawa H, Bamba T, Fukusaki E, engineering department, Osaka Univ.
InstType: EI
InstName: Pegasus II TOF-MS system, Leco; GC 6890, Agilent Technologies
IoniMethod: EI
IonPolarity: pos
Date: 2010-10-09 19:48:36+02:00
Num Peaks: 105
85 9 86 3 87 15 88 4 89 30 90 12 91 258 92 34 93 6 95 3 
97 3 98 1 99 4 100 1 101 22 102 28 103 116 104 87 105 33 106 4 
107 6 108 1 109 1 111 1 113 4 114 1 115 29 116 12 117 38 118 12 
119 29 120 8 121 28 122 4 123 2 126 7 127 2 128 2 129 7 130 2 
131 128 132 21 133 149 134 22 135 37 136 5 137 5 140 3 141 1 142 1 
143 3 144 1 145 13 146 4 147 999 148 163 149 91 150 11 151 5 152 1 
159 6 160 1 161 43 162 8 163 30 164 6 165 2 175 8 176 5 177 21 
178 11 179 3 190 25 191 23 192 30 193 885 194 152 195 44 196 5 197 1 
203 1 204 7 205 55 206 13 207 5 217 1 219 70 220 189 221 40 222 11 
223 2 235 4 236 1 251 3 252 1 253 1 267 72 268 29 269 11 270 2 
279 1 295 46 296 13 297 5 298 1 
