Name: Elaidic acid
CAS: 112-79-8
MW: 156
Formula: C12H12
Synonym: CID: 14315
Synonym: MassBank: OUF00222
Synonym: Elaidic acid
Structure: 31322031332020302020202020302020302020202020202020202020202020312056323030300A20202020302E3030303020202033302E3030303020202020302E303030302043202020302020302020302020302020302020302020202020202020202020302020302020300A20202020302E3030303020202031302E3030303020202020302E303030302043202020302020302020302020302020302020302020202020202020202020302020302020300A20202031372E3030303020202034302E3030303020202020302E303030302043202020302020302020302020302020302020302020202020202020202020302020302020300A20202031372E3030303020202020302E3030303020202020302E303030302043202020302020302020302020302020302020302020202020202020202020302020302020300A20202033352E3030303020202031302E3030303020202020302E303030302043202020302020302020302020302020302020302020202020202020202020302020302020300A20202033352E3030303020202033302E3030303020202020302E303030302043202020302020302020302020302020302020302020202020202020202020302020302020300A20202035322E3030303020202034302E3030303020202020302E303030302043202020302020302020302020302020302020302020202020202020202020302020302020300A20202035322E3030303020202020302E3030303020202020302E303030302043202020302020302020302020302020302020302020202020202020202020302020302020300A20202036392E3030303020202031302E3030303020202020302E303030302043202020302020302020302020302020302020302020202020202020202020302020302020300A20202036392E3030303020202033302E3030303020202020302E303030302043202020302020302020302020302020302020302020202020202020202020302020302020300A20202035322E3030303020202035392E3030303020202020302E303030302043202020302020302020302020302020302020302020202020202020202020302020302020300A20202036392E3030303020202036392E3030303020202020302E303030302043202020302020302020302020302020302020302020202020202020202020302020302020300A2020322020312020322020302020202020302020300A2020312020332020312020302020202020302020300A2020342020322020312020302020202020302020300A2020332020362020322020302020202020302020300A2020352020342020322020302020202020302020300A2020352020362020312020302020202020302020300A2020382020352020312020302020202020302020300A2020362020372020312020302020202020302020300A2020372031302020322020302020202020302020300A2020372031312020312020302020202020302020300A2020392020382020322020302020202020302020300A2031302020392020312020302020202020302020300A2031312031322020312020302020202020302020300A4D2020454E44
Contributor: Tsuzimoto Y, Tsugawa H, Bamba T, Fukusaki E, engineering department, Osaka Univ.
InstType: EI
InstName: Pegasus II TOF-MS system, Leco; GC 6890, Agilent Technologies
IoniMethod: EI
IonPolarity: pos
Date: 2010-10-09 19:48:36+02:00
Num Peaks: 189
85 58 86 19 87 15 88 12 89 45 90 7 91 58 92 18 93 78 94 45 
95 186 96 305 97 184 98 215 99 53 100 7 101 19 102 6 103 12 104 2 
105 50 106 13 107 44 108 29 109 101 110 107 111 76 112 40 113 12 114 3 
115 13 116 106 117 999 118 109 119 79 120 16 121 46 122 17 123 79 124 47 
125 29 126 13 127 9 128 10 129 822 130 114 131 166 132 186 133 82 134 40 
135 35 136 11 137 54 138 38 139 16 140 6 141 9 142 10 143 59 144 12 
145 314 146 45 147 33 148 18 149 14 150 7 151 34 152 47 153 12 154 3 
155 38 156 13 157 28 158 11 159 25 160 5 161 11 162 4 163 5 164 6 
165 19 166 28 167 12 168 7 169 25 170 11 171 41 172 17 173 19 174 6 
175 6 176 2 177 3 178 2 179 10 180 42 181 13 182 4 183 30 184 11 
185 80 186 21 187 18 188 9 189 5 190 2 191 2 192 1 193 7 194 7 
195 3 196 1 197 7 198 2 199 95 200 18 201 22 202 3 203 1 204 1 
206 1 207 8 208 5 209 3 210 1 211 6 212 1 213 15 214 3 215 4 
216 1 217 1 220 10 221 15 222 47 223 12 224 2 225 3 226 1 227 16 
228 3 229 4 230 1 235 7 236 9 237 1 239 2 241 14 242 4 243 4 
244 1 245 1 246 4 247 2 249 1 253 2 255 7 256 2 257 9 258 4 
259 1 263 1 264 43 265 12 266 2 267 1 269 2 270 1 271 4 272 5 
273 1 281 1 283 2 286 2 295 3 296 1 297 1 299 1 311 3 312 1 
313 1 338 7 339 151 340 61 341 17 342 3 354 18 355 8 356 1 
