Name: L-(-)-Proline
CAS: 147-85-3
MW: 115
Formula: C5H9NO2
Synonym: KEGG: C00148
Synonym: CID: 145742
Synonym: MassBank: OUF00322
Synonym: L-(-)-Proline
Structure: 310A32330A4330303030313338382E6364780A20204368656D447261773132323630383139323032440A2020392020392020302020302020302020302020302020302020302020303939392056323030300A2020202D302E3830313220202020302E3637303720202020302E303030302043202020302020302020302020302020302020302020302020302020302020302020302020300A2020202D302E3936363220202020302E3033303920202020302E303030302043202020302020302020302020302020302020302020302020302020302020302020302020300A2020202D302E353139332020202D302E3232373120202020302E30303030204E202020302020302020302020302020302020302020302020302020302020302020302020300A2020202D302E3037323420202020302E3033303920202020302E303030302043202020302020302020302020302020302020302020302020302020302020302020302020300A2020202D302E3232333720202020302E3637303720202020302E303030302043202020302020302020302020302020302020302020302020302020302020302020302020300A2020202D302E303732342020202D302E3637303720202020302E303030302048202020302020302020302020302020302020302020302020302020302020302020302020300A20202020302E353636322020202D302E3134303220202020302E303030302043202020302020302020302020302020302020302020302020302020302020302020302020300A20202020302E353636322020202D302E3530343920202020302E30303030204F202020302020302020302020302020302020302020302020302020302020302020302020300A20202020302E3936363220202020302E3039303820202020302E30303030204F202020302020302020302020302020302020302020302020302020302020302020302020300A2020312020322020312020302020202020200A2020322020332020312020302020202020200A2020332020342020312020302020202020200A2020342020352020312020302020202020200A2020342020362020312020362020202020200A2020342020372020312020312020202020200A2020372020382020312020302020202020200A2020372020392020322020302020202020200A2020352020312020312020302020202020200A4D2020454E44
Contributor: Tsuzimoto Y, Tsugawa H, Bamba T, Fukusaki E, engineering department, Osaka Univ.
InstType: EI
InstName: Pegasus II TOF-MS system, Leco; GC 6890, Agilent Technologies
IoniMethod: EI
IonPolarity: pos
Date: 2010-10-09 19:48:36+02:00
Num Peaks: 67
85 9 86 12 87 6 88 1 89 1 92 1 94 1 95 2 96 3 97 4 
98 7 99 14 100 24 101 10 102 6 103 17 104 1 105 3 107 2 110 2 
111 1 112 2 113 10 114 2 115 8 116 2 117 8 118 2 119 2 122 1 
124 6 125 1 126 5 127 4 128 3 129 1 130 1 131 14 132 3 133 19 
134 2 139 2 140 13 141 10 142 999 143 137 144 44 145 4 146 1 147 92 
148 16 149 8 150 1 154 1 156 1 158 2 170 11 171 1 172 6 173 1 
174 1 175 5 216 43 217 9 218 6 244 5 259 1 
