Name: Coniferyl alcohol
CAS: 458-35-5
MW: 180
Formula: C10H12O3
Synonym: KEGG: C00590
Synonym: CID: 1549095
Synonym: MassBank: OUF00142
Synonym: Coniferyl alcohol
Structure: 4330303030303631342E6364780A20204368656D447261773132323630383138353632440A2031332031332020302020302020302020302020302020302020302020303939392056323030300A20202020302E343132352020202D312E3037313720202020302E303030302043202020302020302020302020302020302020302020302020302020302020302020302020300A20202020312E323337352020202D312E3037313720202020302E303030302043202020302020302020302020302020302020302020302020302020302020302020302020300A20202020312E363530302020202D302E3335373220202020302E303030302043202020302020302020302020302020302020302020302020302020302020302020302020300A20202020312E3233373520202020302E3335373220202020302E303030302043202020302020302020302020302020302020302020302020302020302020302020302020300A20202020302E3431323520202020302E3335373220202020302E303030302043202020302020302020302020302020302020302020302020302020302020302020302020300A2020202D302E303030302020202D302E3335373220202020302E303030302043202020302020302020302020302020302020302020302020302020302020302020302020300A2020202D302E383235302020202D302E3335373220202020302E303030302043202020302020302020302020302020302020302020302020302020302020302020302020300A2020202D312E3233373520202020302E3335373220202020302E303030302043202020302020302020302020302020302020302020302020302020302020302020302020300A20202020322E343735302020202D302E3335373220202020302E30303030204F202020302020302020302020302020302020302020302020302020302020302020302020300A2020202D322E3036323520202020302E3335373220202020302E303030302043202020302020302020302020302020302020302020302020302020302020302020302020300A2020202D322E3437353020202020312E3037313720202020302E30303030204F202020302020302020302020302020302020302020302020302020302020302020302020300A20202020312E3635303020202020312E3037313720202020302E30303030204F202020302020302020302020302020302020302020302020302020302020302020302020300A20202020322E3437353020202020312E3037313720202020302E303030302043202020302020302020302020302020302020302020302020302020302020302020302020300A2020312020322020322020302020202020200A2020322020332020312020302020202020200A2020332020342020322020302020202020200A2020342020352020312020302020202020200A2020352020362020322020302020202020200A2020362020312020312020302020202020200A2020362020372020312020302020202020200A2020372020382020322020302020202020200A2020382031302020312020302020202020200A2020332020392020312020302020202020200A2020342031322020312020302020202020200A2031302031312020312020302020202020200A2031322031332020312020302020202020200A4D2020454E44
Contributor: Tsuzimoto Y, Tsugawa H, Bamba T, Fukusaki E, engineering department, Osaka Univ.
InstType: EI
InstName: Pegasus II TOF-MS system, Leco; GC 6890, Agilent Technologies
IoniMethod: EI
IonPolarity: pos
Date: 2010-10-09 19:48:36+02:00
Num Peaks: 290
85 29 86 12 87 35 88 45 89 315 90 57 91 235 92 30 93 18 94 56 
95 92 96 11 97 14 98 11 99 22 100 4 101 49 102 165 103 537 104 78 
105 87 106 15 107 22 108 8 109 17 110 13 111 21 112 9 113 70 114 28 
115 333 116 114 117 100 118 34 119 228 120 27 121 31 122 7 123 11 124 12 
125 17 126 11 127 59 128 137 129 207 130 77 131 714 132 165 133 179 134 56 
135 71 136 43 137 26 138 6 139 12 140 18 141 18 142 8 143 26 144 24 
145 96 146 21 147 337 148 60 149 107 150 24 151 69 152 14 153 8 154 3 
155 15 156 4 157 6 158 5 159 35 160 34 161 111 162 97 163 72 164 18 
165 32 166 62 167 17 168 6 169 7 170 5 171 11 172 7 173 99 174 118 
175 95 176 29 177 107 178 32 179 113 180 30 181 24 183 1 185 25 186 13 
187 57 188 31 189 198 190 71 191 102 192 186 193 117 194 42 195 18 196 5 
197 5 198 3 199 7 200 3 201 21 202 20 203 484 204 999 205 547 206 250 
207 79 208 21 209 44 210 13 211 4 212 3 214 2 215 3 216 8 217 37 
218 25 219 247 220 121 221 82 222 26 223 54 224 16 225 8 226 3 227 1 
228 2 229 1 230 2 231 3 233 59 234 131 235 422 236 127 237 38 238 12 
239 5 240 3 242 2 243 2 244 2 245 5 246 4 247 6 248 3 249 18 
250 12 251 20 252 7 253 20 254 7 255 4 256 3 257 1 259 1 260 2 
261 3 262 2 263 19 264 10 265 25 266 13 267 37 268 19 269 10 270 4 
271 5 272 2 273 1 274 1 275 2 276 3 277 11 278 11 279 28 280 17 
281 36 282 14 283 4 284 2 285 2 286 2 287 1 288 3 289 1 290 2 
291 11 292 18 293 623 294 524 295 224 296 72 297 100 298 38 299 12 300 4 
301 1 302 2 304 5 305 4 306 2 307 4 308 4 309 166 310 73 311 29 
312 7 313 3 314 1 315 2 316 3 317 4 319 2 320 1 322 9 323 123 
324 668 325 233 326 83 327 21 328 4 329 2 332 2 333 1 335 2 336 2 
351 2 363 1 364 1 373 1 374 1 375 1 378 2 384 1 386 1 392 1 
394 1 395 2 397 1 399 1 400 2 402 2 406 2 416 1 417 1 419 1 
421 1 426 1 427 1 431 2 433 1 435 1 437 2 441 1 442 1 443 1 
446 1 448 1 453 1 454 2 456 1 465 1 466 1 469 2 470 1 471 2 
472 2 478 1 483 1 487 1 488 2 489 1 491 2 496 1 497 1 500 1 
