Name: D-Panose
CAS: 33401-87-5
MW: 504
Formula: C18H32O16
Synonym: CID: 94448
Synonym: MassBank: OUF00209
Synonym: D-Panose
Structure: 310A37360A20204143442F4C6162733039323231303130323032440A2033352033362020302020302020312020302020302020302020302020302020312056323030300A20202031332E333531372020202D382E3235303920202020302E30303030204F202020302020302020302020302020302020302020302020302020302020302020302020300A20202031332E333531372020202D392E3538303920202020302E303030302043202020302020302020302020302020302020302020302020302020302020302020302020300A20202031322E313939382020202D372E3538353920202020302E303030302043202020302020302020302020302020302020302020302020302020302020302020302020300A20202031322E3139393820202D31302E3234353920202020302E303030302043202020302020302020302020302020302020302020302020302020302020302020302020300A20202031312E303438302020202D382E3235303920202020302E303030302043202020302020302020302020302020302020302020302020302020302020302020302020300A20202031312E303438302020202D392E3538303920202020302E303030302043202020302020302020302020302020302020302020302020302020302020302020302020300A20202031342E3530313720202D31302E3234393220202020302E303030302043202020302020302020302020302020302020302020302020302020302020302020302020300A20202031352E363535332020202D392E3538373420202020302E30303030204F202020302020302020302020302020302020302020302020302020302020302020302020300A20202031362E3830353320202D31302E3235353620202020302E303030302043202020302020302020302020302020302020302020302020302020302020302020302020300A20202031392E3130393020202D31302E3235353620202020302E303030302043202020302020302020302020302020302020302020302020302020302020302020302020300A20202031392E3130393020202D31312E3538353620202020302E303030302043202020302020302020302020302020302020302020302020302020302020302020302020300A20202031372E393537312020202D392E3539303620202020302E303030302043202020302020302020302020302020302020302020302020302020302020302020302020300A20202031372E3935373120202D31322E3235303620202020302E303030302043202020302020302020302020302020302020302020302020302020302020302020302020300A20202031362E3830353320202D31312E3538353620202020302E30303030204F202020302020302020302020302020302020302020302020302020302020302020302020300A20202031322E313939382020202D362E3235353920202020302E30303030204F202020302020302020302020302020302020302020302020302020302020302020302020300A20202031332E333532342020202D352E3539323320202020302E303030302043202020302020302020302020302020302020302020302020302020302020302020302020300A20202031332E333534302020202D342E3236323320202020302E303030302043202020302020302020302020302020302020302020302020302020302020302020302020300A20202031342E353036372020202D332E3539383820202020302E30303030204F202020302020302020302020302020302020302020302020302020302020302020302020300A20202031322E313939322020202D332E3630323620202020302E303030302043202020302020302020302020302020302020302020302020302020302020302020302020300A20202031312E303530342020202D342E3237323820202020302E30303030204F202020302020302020302020302020302020302020302020302020302020302020302020300A20202031342E353032362020202D362E3236303220202020302E303030302043202020302020302020302020302020302020302020302020302020302020302020302020300A20202031352E363536302020202D352E3539383120202020302E303030302043202020302020302020302020302020302020302020302020302020302020302020302020300A20202031362E383036322020202D362E3236363020202020302E303030302043202020302020302020302020302020302020302020302020302020302020302020302020300A20202031352E363539342020202D342E3236383120202020302E30303030204F202020302020302020302020302020302020302020302020302020302020302020302020300A20202031372E393537302020202D382E3236303620202020302E30303030204F202020302020302020302020302020302020302020302020302020302020302020302020300A20202032302E323630382020202D392E3539303620202020302E30303030204F202020302020302020302020302020302020302020302020302020302020302020302020300A20202032302E3236303820202D31322E3235303720202020302E30303030204F202020302020302020302020302020302020302020302020302020302020302020302020300A20202031372E3936363520202D31332E3538303620202020302E303030302043202020302020302020302020302020302020302020302020302020302020302020302020300A20202031392E3132333020202D31342E3233373420202020302E30303030204F202020302020302020302020302020302020302020302020302020302020302020302020300A20202031322E3139393820202D31312E3537353920202020302E30303030204F202020302020302020302020302020302020302020302020302020302020302020302020300A20202020392E3839363220202D31302E3234353920202020302E30303030204F202020302020302020302020302020302020302020302020302020302020302020302020300A20202020392E383936322020202D372E3538353920202020302E30303030204F202020302020302020302020302020302020302020302020302020302020302020302020300A20202031372E393539372020202D352E3630333820202020302E30303030204F202020302020302020302020302020302020302020302020302020302020302020302020300A20202031342E343939322020202D372E3539303220202020302E30303030204F202020302020302020302020302020302020302020302020302020302020302020302020300A20202031322E323032332020202D342E3932343520202020302E303030302048202020302020302020302020302020302020302020302020302020302020302020302020300A2020322020312020312020302020302020302020300A2020332020312020312020302020302020302020300A2020342020322020312020302020302020302020300A2020352020332020312020302020302020302020300A2020362020342020312020302020302020302020300A2020362020352020312020302020302020302020300A2020322020372020312020362020302020302020300A2020382020372020312020302020302020302020300A2020392020382020312020362020302020302020300A2031312031302020312020302020302020302020300A2031322031302020312020302020302020302020300A2031332031312020312020302020302020302020300A2020392031322020312020302020302020302020300A2031342031332020312020302020302020302020300A2031342020392020312020302020302020302020300A2020332031352020312020312020302020302020300A2031362031352020312020302020302020302020300A2031372031362020312020302020302020302020300A2031372031382020312020312020302020302020300A2031392031372020312020302020302020302020300A2032302031392020312020302020302020302020300A2032312031362020312020302020302020302020300A2032322032312020312020302020302020302020300A2032332032322020312020302020302020302020300A2032322032342020312020312020302020302020300A2031322032352020312020362020302020302020300A2031302032362020312020312020302020302020300A2031312032372020312020362020302020302020300A2031332032382020312020312020302020302020300A2032392032382020312020302020302020302020300A2020342033302020312020312020302020302020300A2020362033312020312020362020302020302020300A2020352033322020312020312020302020302020300A2032332033332020322020302020302020302020300A2032312033342020312020312020302020302020300A2031362033352020312020312020302020302020300A4D2020454E44
Contributor: Tsuzimoto Y, Tsugawa H, Bamba T, Fukusaki E, engineering department, Osaka Univ.
InstType: EI
InstName: Pegasus II TOF-MS system, Leco; GC 6890, Agilent Technologies
IoniMethod: EI
IonPolarity: pos
Date: 2010-10-09 19:48:36+02:00
Num Peaks: 106
87 10 89 72 91 1 97 15 99 4 100 39 101 18 102 7 103 537 104 56 
105 19 109 11 110 2 113 23 116 15 117 224 118 11 124 1 126 2 129 454 
130 33 131 51 133 144 134 1 135 8 139 3 141 6 142 6 143 78 145 24 
147 641 148 75 149 54 155 26 157 91 158 6 159 6 160 62 161 24 163 14 
169 205 170 37 171 6 173 12 177 3 183 15 186 2 189 104 190 13 191 141 
192 4 193 9 203 26 204 999 205 336 206 111 207 17 208 9 215 10 216 2 
217 428 218 122 219 48 221 8 224 5 229 3 231 31 232 23 233 36 243 100 
244 17 245 17 259 9 268 2 271 93 272 23 273 9 281 19 282 2 303 2 
305 15 306 8 317 2 318 11 319 43 331 3 332 4 349 3 351 1 355 3 
360 13 361 377 362 170 363 66 370 1 371 4 388 7 413 3 415 4 448 2 
460 1 462 1 470 8 476 1 479 2 487 6 
