Name: Urea
CAS: 57-13-6
MW: 60
Formula: CH4N2O
Synonym: KEGG: C00086
Synonym: CID: 1176
Synonym: MassBank: OUF00484
Synonym: Urea
Structure: 310A31320A4330303030373331342E6364780A20204368656D447261773132323930383037313032440A2020342020332020302020302020302020302020302020302020302020303939392056323030300A2020202D302E373134352020202D302E3631383820202020302E30303030204E202020302020302020302020302020302020302020302020302020302020302020302020300A20202020302E303030302020202D302E3230363220202020302E303030302043202020302020302020302020302020302020302020302020302020302020302020302020300A20202020302E373134352020202D302E3631383820202020302E30303030204E202020302020302020302020302020302020302020302020302020302020302020302020300A20202020302E3030303020202020302E3631383820202020302E30303030204F202020302020302020302020302020302020302020302020302020302020302020302020300A2020322020312020312020302020202020200A2020332020322020312020302020202020200A2020322020342020322020302020202020200A4D2020454E44
Contributor: Tsuzimoto Y, Tsugawa H, Bamba T, Fukusaki E, engineering department, Osaka Univ.
InstType: EI
InstName: Pegasus II TOF-MS system, Leco; GC 6890, Agilent Technologies
IoniMethod: EI
IonPolarity: pos
Date: 2010-10-09 19:48:36+02:00
Num Peaks: 69
85 27 86 28 87 100 88 12 89 6 90 7 96 3 97 4 98 5 99 151 
100 159 101 39 102 23 103 17 104 4 105 8 111 12 112 3 113 18 114 16 
115 34 116 18 117 23 118 6 119 3 125 1 126 1 127 5 128 1 129 4 
130 75 131 69 132 57 133 32 134 7 135 2 139 3 140 1 141 8 142 2 
143 3 146 69 147 999 148 156 149 72 150 9 151 1 155 14 156 4 157 19 
158 4 159 4 160 1 170 1 171 403 172 68 173 77 174 13 175 6 186 23 
187 5 188 4 189 415 190 73 191 37 192 4 204 21 205 4 206 1 
