Name: 5-Hydroxy-L-tryptophan
CAS: 4350-09-8
MW: 220
Formula: C11H12N2O3
Synonym: KEGG: C00643
Synonym: CID: 439280
Synonym: MassBank: OUF00076
Synonym: 5-Hydroxy-L-tryptophan
Structure: 4330303030313337312E6364780A20204368656D447261773132323630383139323032440A2031372031382020302020302020302020302020302020302020302020303939392056323030300A20202020302E3830323020202020302E3132303720202020302E303030302043202020302020302020302020302020302020302020302020302020302020302020302020300A20202020312E3231303120202020302E3730353920202020302E303030302043202020302020302020302020302020302020302020302020302020302020302020302020300A20202020312E3732393420202020302E3834353120202020302E30303030204F202020302020302020302020302020302020302020302020302020302020302020302020300A20202020302E3737323520202020312E3134333520202020302E30303030204F202020302020302020302020302020302020302020302020302020302020302020302020300A20202020312E333037342020202D302E3236303920202020302E303030302048202020302020302020302020302020302020302020302020302020302020302020302020300A20202020302E383032302020202D302E3632313820202020302E30303030204E202020302020302020302020302020302020302020302020302020302020302020302020300A20202020302E3130303720202020302E3132303720202020302E303030302043202020302020302020302020302020302020302020302020302020302020302020302020300A2020202D302E313936372020202D302E3339343520202020302E303030302043202020302020302020302020302020302020302020302020302020302020302020302020300A2020202D302E363833352020202D302E3339343520202020302E303030302043202020302020302020302020302020302020302020302020302020302020302020302020300A2020202D302E383333392020202D302E3835373420202020302E303030302043202020302020302020302020302020302020302020302020302020302020302020302020300A2020202D302E343430312020202D312E3134333520202020302E30303030204E202020302020302020302020302020302020302020302020302020302020302020302020300A2020202D302E303436332020202D302E3835373420202020302E303030302043202020302020302020302020302020302020302020302020302020302020302020302020300A2020202D312E303039322020202D302E3033323720202020302E303030302043202020302020302020302020302020302020302020302020302020302020302020302020300A2020202D312E343835332020202D302E3133333920202020302E303030302043202020302020302020302020302020302020302020302020302020302020302020302020300A2020202D312E363335372020202D302E3539363920202020302E303030302043202020302020302020302020302020302020302020302020302020302020302020302020300A2020202D312E333130302020202D302E3935383620202020302E303030302043202020302020302020302020302020302020302020302020302020302020302020302020300A2020202D312E3732393420202020302E3238383920202020302E30303030204F202020302020302020302020302020302020302020302020302020302020302020302020300A2020312020322020312020302020202020200A2020322020332020312020302020202020200A2020322020342020322020302020202020200A2020312020352020312020362020202020200A2020312020362020312020312020202020200A2020312020372020312020302020202020200A2020372020382020312020302020202020200A2020382020392020312020302020202020200A2020392031302020312020302020202020200A2031302031312020312020302020202020200A2031312031322020312020302020202020200A2031322020382020322020302020202020200A2020392031332020322020302020202020200A2031332031342020312020302020202020200A2031342031352020322020302020202020200A2031352031362020312020302020202020200A2031362031302020322020302020202020200A2031342031372020312020302020202020200A4D2020454E44
Contributor: Tsuzimoto Y, Tsugawa H, Bamba T, Fukusaki E, engineering department, Osaka Univ.
InstType: EI
InstName: Pegasus II TOF-MS system, Leco; GC 6890, Agilent Technologies
IoniMethod: EI
IonPolarity: pos
Date: 2010-10-09 19:48:36+02:00
Num Peaks: 126
85 3 86 12 87 8 88 5 89 8 90 5 91 6 92 1 93 1 95 1 
98 1 99 1 100 99 101 28 102 25 103 13 104 2 105 2 114 4 115 15 
116 6 117 13 118 6 119 4 121 1 127 2 128 16 129 25 130 30 131 15 
132 21 133 15 134 5 135 3 140 1 141 2 142 10 143 10 144 13 145 8 
146 43 147 73 148 16 149 7 152 2 154 2 155 2 156 4 157 3 158 4 
159 5 160 8 161 3 162 3 163 5 164 1 168 1 169 1 170 5 171 2 
172 7 173 3 174 9 175 3 176 9 177 3 178 1 184 3 185 4 186 6 
187 3 188 23 189 9 190 8 191 2 198 1 199 1 200 4 201 3 202 32 
203 19 204 22 205 6 206 7 207 1 213 1 214 4 215 3 216 20 217 19 
218 999 219 245 220 96 221 17 222 3 229 2 230 2 231 4 232 4 233 1 
242 1 246 8 247 2 248 1 257 1 258 1 259 1 288 1 290 5 291 2 
303 1 304 1 318 2 319 16 320 4 321 1 331 6 332 2 393 4 394 3 
395 1 421 3 422 1 436 6 437 3 438 1 
