Name: 5-Aminovaleric acid
CAS: 660-88-8
MW: 117
Formula: C5H11NO2
Synonym: KEGG: C00431
Synonym: CID: 138
Synonym: MassBank: OUF00072
Synonym: 5-Aminovaleric acid
Structure: 310A32300A3C4341535F49443E203636302D38382D38093C4B4547475F49443E20433030343331093C4E414D453E20352D416D696E6F70656E74616E6F617465093C464F524D554C413E2043354831314E4F32093C45584143544D4153533E203131372E3037383937383630303939393939093C415645524147454D4153533E203131372E3134363338303030303030303031093C534D494C45533E204E4343434343284F293D4F093C434F505952494748543E2041524D2050524F4A45435420687474703A2F2F7777772E6D657461626F6C6F6D652E6A702F0A2020382020372020302020302020302020302020302020302020302020303939392056323030300A20202020322E383636302020202D312E3235303020202020302E303030302043202020302020302020302020302020302020302020302020302020302020302020302020300A20202020332E373332312020202D302E3735303020202020302E303030302043202020302020302020302020322020302020302020302020302020302020302020302020300A20202020332E3733323120202020302E3235303020202020302E303030302043202020302020302020302020322020302020302020302020302020302020302020302020300A20202020342E3539383120202020302E3735303020202020302E303030302043202020302020302020302020322020302020302020302020302020302020302020302020300A20202020342E3539383120202020312E3735303020202020302E303030302043202020302020302020302020322020302020302020302020302020302020302020302020300A20202020352E3436343120202020322E3235303020202020302E30303030204E202020302020302020302020322020302020302020302020302020302020302020302020300A20202020322E303030302020202D302E3735303020202020302E30303030204F202020302020302020302020312020302020302020302020302020302020302020302020300A20202020322E383636302020202D322E3235303020202020302E30303030204F202020302020302020302020302020302020302020302020302020302020302020302020300A2020342020332020312020302020302020302020300A2020342020352020312020302020302020302020300A2020352020362020312020302020302020302020300A2020332020322020312020302020302020302020300A2020322020312020312020302020302020302020300A2020312020372020312020302020302020302020300A2020312020382020322020302020302020302020300A4D2020454E44
Contributor: Tsuzimoto Y, Tsugawa H, Bamba T, Fukusaki E, engineering department, Osaka Univ.
InstType: EI
InstName: Pegasus II TOF-MS system, Leco; GC 6890, Agilent Technologies
IoniMethod: EI
IonPolarity: pos
Date: 2010-10-09 19:48:36+02:00
Num Peaks: 98
85 19 86 222 87 29 88 16 89 5 96 2 97 4 98 8 99 20 100 137 
101 32 102 27 103 10 104 2 105 2 110 1 111 1 112 24 113 13 114 14 
115 15 116 58 117 29 118 7 119 7 120 1 126 5 127 2 128 17 129 98 
130 78 131 65 132 20 133 42 134 7 135 3 138 1 140 1 141 1 142 5 
143 5 144 6 145 3 146 24 147 175 148 30 149 20 150 2 151 1 152 7 
153 1 154 25 155 4 156 23 157 5 158 16 159 6 160 5 161 3 162 3 
170 11 171 2 172 20 173 6 174 999 175 193 176 87 177 11 178 2 184 1 
186 8 187 2 188 3 189 1 200 53 201 13 202 8 203 4 204 3 205 1 
217 2 221 4 222 1 228 17 229 5 230 8 231 2 244 13 245 4 246 2 
260 5 261 2 318 33 319 22 320 9 321 2 333 3 334 2 
