Name: Acetoacetic acid
CAS: 541-50-4
MW: 102
Formula: C4H6O3
Synonym: KEGG: C00164
Synonym: CID: 96
Synonym: MassBank: OUF00092
Synonym: Acetoacetic acid
Structure: 310A31380A4330303030373435382E6364780A20204368656D447261773132323930383037313532440A2020372020362020302020302020302020302020302020302020302020303939392056323030300A2020202D312E3432383920202020302E3631383820202020302E303030302043202020302020302020302020302020302020302020302020302020302020302020302020300A2020202D302E3731343520202020302E3230363220202020302E303030302043202020302020302020302020302020302020302020302020302020302020302020302020300A20202020302E3030303020202020302E3631383820202020302E303030302043202020302020302020302020302020302020302020302020302020302020302020302020300A20202020302E3731343520202020302E3230363220202020302E303030302043202020302020302020302020302020302020302020302020302020302020302020302020300A20202020312E3432383920202020302E3631383820202020302E30303030204F202020302020302020302020302020302020302020302020302020302020302020302020300A2020202D302E373134352020202D302E3631383820202020302E30303030204F202020302020302020302020302020302020302020302020302020302020302020302020300A20202020302E373134352020202D302E3631383820202020302E30303030204F202020302020302020302020302020302020302020302020302020302020302020302020300A2020322020312020312020302020202020200A2020332020322020312020302020202020200A2020342020332020312020302020202020200A2020352020342020322020302020202020200A2020322020362020322020302020202020200A2020342020372020312020302020202020200A4D2020454E44
Contributor: Tsuzimoto Y, Tsugawa H, Bamba T, Fukusaki E, engineering department, Osaka Univ.
InstType: EI
InstName: Pegasus II TOF-MS system, Leco; GC 6890, Agilent Technologies
IoniMethod: EI
IonPolarity: pos
Date: 2010-10-09 19:48:36+02:00
Num Peaks: 119
85 281 86 2 87 33 88 2 89 533 90 64 91 49 92 7 93 16 94 60 
95 60 96 46 97 48 98 213 99 70 100 12 101 47 103 7 109 7 111 9 
113 24 114 50 115 999 116 154 117 166 118 16 119 12 122 16 123 59 124 9 
125 19 126 53 127 14 128 12 129 85 130 38 131 130 133 149 138 2 139 6 
140 15 141 8 142 4 143 80 144 24 145 13 146 10 147 419 148 85 149 66 
154 275 155 26 156 34 157 59 158 12 159 27 160 4 161 2 163 172 165 3 
166 11 167 10 171 45 178 2 180 14 185 9 187 71 188 20 189 6 196 6 
197 16 198 16 199 9 202 19 203 165 204 60 205 22 206 12 211 2 212 41 
213 2 228 70 229 30 231 158 232 26 233 19 236 2 243 26 247 702 248 169 
249 86 250 4 265 4 268 4 270 13 274 2 303 2 314 2 318 8 319 4 
321 5 324 2 330 2 353 4 366 10 383 2 384 6 389 1 396 3 408 2 
409 7 416 4 425 1 428 2 432 5 456 2 485 4 490 2 494 1 
