Name: D-(+)-Xylose
CAS: 58-86-6
MW: 150
Formula: C5H10O5
Synonym: KEGG: C01394
Synonym: CID: 6027
Synonym: MassBank: OUF00493
Synonym: D-(+)-Xylose
Structure: 4330303030373239302E6364780A20204368656D447261773132323930383037313032440A2031302031302020302020302020302020302020302020302020302020303939392056323030300A2020202D302E3731343520202020302E3832353020202020302E303030302043202020302020302020302020302020302020302020302020302020302020302020302020300A2020202D302E3731343520202020302E3030303020202020302E303030302043202020302020302020302020302020302020302020302020302020302020302020302020300A20202020302E303030302020202D302E3431323520202020302E303030302043202020302020302020302020302020302020302020302020302020302020302020302020300A20202020302E3731343520202020302E3030303020202020302E303030302043202020302020302020302020302020302020302020302020302020302020302020302020300A20202020302E3731343520202020302E3832353020202020302E303030302043202020302020302020302020302020302020302020302020302020302020302020302020300A20202020302E3030303020202020312E3233373520202020302E30303030204F202020302020302020302020302020302020302020302020302020302020302020302020300A2020202D312E343238392020202D302E3431323520202020302E30303030204F202020302020302020302020302020302020302020302020302020302020302020302020300A20202020312E343238392020202D302E3431323520202020302E30303030204F202020302020302020302020302020302020302020302020302020302020302020302020300A20202020312E3432383920202020312E3233373520202020302E30303030204F202020302020302020302020302020302020302020302020302020302020302020302020300A20202020302E303030302020202D312E3233373520202020302E30303030204F202020302020302020302020302020302020302020302020302020302020302020302020300A2020312020322020312020302020202020200A2020322020332020312020302020202020200A2020332020342020312020302020202020200A2020342020352020312020302020202020200A2020352020362020312020302020202020200A2020362020312020312020302020202020200A2020322020372020312020362020202020200A2020342020382020312020362020202020200A2020352020392020312020362020202020200A2020332031302020312020312020202020200A4D2020454E44
Contributor: Tsuzimoto Y, Tsugawa H, Bamba T, Fukusaki E, engineering department, Osaka Univ.
InstType: EI
InstName: Pegasus II TOF-MS system, Leco; GC 6890, Agilent Technologies
IoniMethod: EI
IonPolarity: pos
Date: 2010-10-09 19:48:36+02:00
Num Peaks: 165
85 10 86 13 87 14 88 10 89 127 90 12 91 6 92 1 94 2 95 1 
96 1 97 1 98 5 99 11 100 42 101 46 102 22 103 999 104 97 105 72 
106 5 107 2 110 1 111 4 112 5 113 12 114 24 115 18 116 15 117 109 
118 12 119 17 120 2 121 1 126 6 127 7 128 8 129 94 130 22 131 49 
132 9 133 126 134 18 135 11 136 1 140 3 141 3 142 9 143 23 144 4 
145 16 146 3 147 366 148 60 149 41 150 5 151 3 152 1 154 1 155 1 
156 3 157 9 158 12 159 5 160 92 161 23 162 6 163 21 164 3 165 2 
166 1 167 1 168 10 169 3 170 2 171 1 172 7 173 8 174 10 175 12 
176 2 177 5 178 1 184 2 185 1 186 2 187 1 188 1 189 101 190 22 
191 38 192 7 193 3 198 6 199 1 200 4 201 6 202 3 203 6 204 43 
205 44 206 10 207 8 208 1 214 1 215 3 216 11 217 418 218 91 219 41 
220 6 221 9 222 2 223 1 228 2 229 1 230 3 231 8 232 5 233 29 
234 25 235 6 236 2 240 2 241 1 242 4 243 1 244 2 246 2 247 1 
248 3 256 5 257 4 258 2 262 10 263 3 264 1 265 1 272 1 274 4 
275 1 277 31 278 12 279 6 280 2 288 4 289 1 290 1 291 4 292 1 
302 1 305 2 306 3 307 143 308 44 309 21 310 5 311 1 318 1 319 1 
330 2 331 1 332 1 362 1 467 1 
