Name: Caffeine
CAS: 58-08-2
MW: 194
Formula: C8H10N4O2
Synonym: KEGG: C07481
Synonym: CID: 2519
Synonym: MassBank: OUF00133
Synonym: Caffeine
Structure: 4330303030313439322E6364780A20204368656D447261773132323630383139323332440A2031342031352020302020302020302020302020302020302020302020303939392056323030300A2020202D302E3635393520202020302E3331383520202020302E30303030204E202020302020302020302020302020302020302020302020302020302020302020302020300A2020202D302E363539352020202D302E3236323320202020302E303030302043202020302020302020302020302020302020302020302020302020302020302020302020300A2020202D302E313536352020202D302E3535323720202020302E30303030204E202020302020302020302020302020302020302020302020302020302020302020302020300A20202020302E333436352020202D302E3236323320202020302E303030302043202020302020302020302020302020302020302020302020302020302020302020302020300A20202020302E3334363520202020302E3331383520202020302E303030302043202020302020302020302020302020302020302020302020302020302020302020302020300A2020202D302E3135363520202020302E3630383920202020302E303030302043202020302020302020302020302020302020302020302020302020302020302020302020300A20202020302E383938392020202D302E3434313820202020302E30303030204E202020302020302020302020302020302020302020302020302020302020302020302020300A20202020312E3234303320202020302E3032383120202020302E303030302043202020302020302020302020302020302020302020302020302020302020302020302020300A20202020302E3839383920202020302E3439383020202020302E30303030204E202020302020302020302020302020302020302020302020302020302020302020302020300A2020202D302E3135363520202020312E3036343220202020302E30303030204F202020302020302020302020302020302020302020302020302020302020302020302020300A2020202D302E313536352020202D312E3036343220202020302E303030302043202020302020302020302020302020302020302020302020302020302020302020302020300A20202020312E3037383220202020312E3034393820202020302E303030302043202020302020302020302020302020302020302020302020302020302020302020302020300A2020202D312E3234303320202020302E3437343120202020302E303030302043202020302020302020302020302020302020302020302020302020302020302020302020300A2020202D312E303837342020202D302E3337373020202020302E30303030204F202020302020302020302020302020302020302020302020302020302020302020302020300A2020312020322020312020302020202020200A2020322020332020312020302020202020200A2020332020342020312020302020202020200A2020342020352020322020302020202020200A2020352020362020312020302020202020200A2020362020312020312020302020202020200A2020342020372020312020302020202020200A2020372020382020322020302020202020200A2020382020392020312020302020202020200A2020392020352020312020302020202020200A2020362031302020322020302020202020200A2020332031312020312020302020202020200A2020392031322020312020302020202020200A2020312031332020312020302020202020200A2020322031342020322020302020202020200A4D2020454E44
Contributor: Tsuzimoto Y, Tsugawa H, Bamba T, Fukusaki E, engineering department, Osaka Univ.
InstType: EI
InstName: Pegasus II TOF-MS system, Leco; GC 6890, Agilent Technologies
IoniMethod: EI
IonPolarity: pos
Date: 2010-10-09 19:48:36+02:00
Num Peaks: 50
85 1 88 1 92 6 93 20 94 93 95 30 96 16 97 39 98 2 106 4 
107 12 108 70 109 997 110 129 111 24 112 2 120 6 121 6 122 23 123 11 
124 15 125 2 126 1 132 2 133 1 134 2 135 10 136 77 137 96 138 36 
139 4 140 2 148 2 149 11 150 19 151 6 152 10 153 1 163 4 164 8 
165 75 166 18 167 1 176 1 179 3 192 1 193 185 194 999 195 106 196 10 
