Name: Dopamine
CAS: 51-61-6
MW: 153
Formula: C8H11NO2
Synonym: KEGG: C03758
Synonym: CID: 681
Synonym: MassBank: OUF00207
Synonym: Dopamine
Structure: 4330303030313430382E6364780A20204368656D447261773132323630383139323132440A2031312031312020302020302020302020302020302020302020302020303939392056323030300A2020202D312E333732372020202D302E3137323920202020302E303030302043202020302020302020302020302020302020302020302020302020302020302020302020300A2020202D312E303737322020202D302E3638343620202020302E303030302043202020302020302020302020302020302020302020302020302020302020302020302020300A2020202D302E343836332020202D302E3638343620202020302E303030302043202020302020302020302020302020302020302020302020302020302020302020302020300A2020202D302E313930382020202D302E3137323920202020302E303030302043202020302020302020302020302020302020302020302020302020302020302020302020300A2020202D302E3438363320202020302E3333383920202020302E303030302043202020302020302020302020302020302020302020302020302020302020302020302020300A2020202D312E3037373220202020302E3333383920202020302E303030302043202020302020302020302020302020302020302020302020302020302020302020302020300A2020202D312E373835372020202D302E3137323920202020302E30303030204F202020302020302020302020302020302020302020302020302020302020302020302020300A2020202D312E3432323920202020302E3638343620202020302E30303030204F202020302020302020302020302020302020302020302020302020302020302020302020300A20202020302E343834382020202D302E3137323920202020302E303030302043202020302020302020302020302020302020302020302020302020302020302020302020300A20202020312E313035342020202D302E3137323920202020302E303030302043202020302020302020302020302020302020302020302020302020302020302020302020300A20202020312E373835372020202D302E3137323920202020302E30303030204E202020302020302020302020302020302020302020302020302020302020302020302020300A2020312020322020322020302020202020200A2020322020332020312020302020202020200A2020332020342020322020302020202020200A2020342020352020312020302020202020200A2020352020362020322020302020202020200A2020362020312020312020302020202020200A2020312020372020312020302020202020200A2020362020382020312020302020202020200A2020342020392020312020302020202020200A2020392031302020312020302020202020200A2031302031312020312020302020202020200A4D2020454E44
Contributor: Tsuzimoto Y, Tsugawa H, Bamba T, Fukusaki E, engineering department, Osaka Univ.
InstType: EI
InstName: Pegasus II TOF-MS system, Leco; GC 6890, Agilent Technologies
IoniMethod: EI
IonPolarity: pos
Date: 2010-10-09 19:48:36+02:00
Num Peaks: 110
85 4 86 224 87 23 88 9 89 3 90 1 91 7 95 1 97 1 99 3 
100 96 101 16 102 30 103 11 104 14 105 8 106 1 107 1 109 1 113 2 
114 2 115 7 116 9 117 18 118 4 119 12 120 1 121 1 128 1 129 2 
130 29 131 25 132 6 133 16 134 2 135 3 136 1 137 1 143 1 144 6 
145 4 146 8 147 22 148 4 149 13 150 2 151 2 158 8 159 3 160 2 
161 3 162 2 163 3 164 1 165 1 172 9 173 3 174 999 175 174 176 77 
177 14 178 3 179 61 180 10 181 4 189 1 190 1 191 1 192 2 193 9 
194 2 195 2 205 1 207 2 209 4 210 1 218 1 219 1 220 2 221 2 
222 1 223 2 233 1 234 1 235 1 237 11 238 3 239 1 248 5 249 2 
250 6 251 3 252 2 264 6 265 6 266 2 267 9 268 4 269 1 280 1 
338 7 339 2 340 1 352 3 353 1 425 2 426 12 427 7 428 3 429 1 
