Name: b-N-Methyl-amino-L-alanine
CAS: 15920-93-1
MW: 118
Formula: C4H10N2O2
Synonym: KEGG: C08291
Synonym: CID: 105089
Synonym: MassBank: OUF00500
Synonym: b-N-Methyl-amino-L-alanine
Structure: 310A32320A4330303030313338302E6364780A20204368656D447261773132323630383139323032440A2020392020382020302020302020302020302020302020302020302020303939392056323030300A20202020302E363030332020202D302E3131393520202020302E303030302043202020302020302020302020302020302020302020302020302020302020302020302020300A20202020302E3932353920202020302E3434353020202020302E303030302043202020302020302020302020302020302020302020302020302020302020302020302020300A20202020312E3434353320202020302E3538343220202020302E30303030204F202020302020302020302020302020302020302020302020302020302020302020302020300A20202020302E3438383420202020302E3838323620202020302E30303030204F202020302020302020302020302020302020302020302020302020302020302020302020300A20202020312E303233322020202D302E3532313820202020302E303030302048202020302020302020302020302020302020302020302020302020302020302020302020300A20202020302E353137382020202D302E3838323620202020302E30303030204E202020302020302020302020302020302020302020302020302020302020302020302020300A2020202D302E3132313620202020302E3030343220202020302E303030302043202020302020302020302020302020302020302020302020302020302020302020302020300A2020202D302E393236302020202D302E3131393520202020302E30303030204E202020302020302020302020302020302020302020302020302020302020302020302020300A2020202D312E343435332020202D302E3131393520202020302E303030302043202020302020302020302020302020302020302020302020302020302020302020302020300A2020312020322020312020302020202020200A2020322020332020312020302020202020200A2020322020342020322020302020202020200A2020312020352020312020362020202020200A2020312020362020312020312020202020200A2020312020372020312020302020202020200A2020372020382020312020302020202020200A2020382020392020312020302020202020200A4D2020454E44
Contributor: Tsuzimoto Y, Tsugawa H, Bamba T, Fukusaki E, engineering department, Osaka Univ.
InstType: EI
InstName: Pegasus II TOF-MS system, Leco; GC 6890, Agilent Technologies
IoniMethod: EI
IonPolarity: pos
Date: 2010-10-09 19:48:36+02:00
Num Peaks: 81
85 5 86 45 87 8 88 17 89 6 90 1 92 1 93 1 97 1 98 4 
99 7 100 64 101 117 102 28 103 12 104 3 105 2 112 2 113 6 114 13 
115 19 116 999 117 122 118 45 119 7 120 1 127 3 128 9 129 56 130 18 
131 18 132 30 133 21 134 5 135 1 141 1 142 1 143 2 144 6 145 2 
146 6 147 57 148 11 149 6 155 1 156 4 157 1 158 2 159 5 160 6 
161 1 171 1 172 3 173 1 174 26 175 6 176 3 186 3 187 1 188 1 
191 1 201 3 202 1 203 7 204 3 205 1 216 3 217 5 218 5 219 8 
220 2 221 2 248 11 249 4 250 1 276 6 277 1 291 86 292 26 293 13 
294 2 
