Name: MassBank: OUF00016
CAS: 499-83-2
MW: 167
Formula: C7H5NO4
Synonym: CID: 10367
Synonym: MassBank: OUF00016
Synonym: 2,6-Pyridinedicarboxylic acid
Structure: 322C362D5059524944494E45204449434152424F58594C494320414349442E6D6F6C0A20204368656D447261773132323130393034353332440A2031322031322020302020302020302020302020302020302020302020303939392056323030300A2020202D302E3731343520202020302E3030303020202020302E303030302043202020302020302020302020302020302020302020302020302020302020302020302020300A2020202D302E373134352020202D302E3832353020202020302E303030302043202020302020302020302020302020302020302020302020302020302020302020302020300A20202020302E303030302020202D312E3233373520202020302E303030302043202020302020302020302020302020302020302020302020302020302020302020302020300A20202020302E373134352020202D302E3832353020202020302E303030302043202020302020302020302020302020302020302020302020302020302020302020302020300A20202020302E3731343520202020302E3030303020202020302E303030302043202020302020302020302020302020302020302020302020302020302020302020302020300A2020202D302E3030303020202020302E3431323520202020302E30303030204E202020302020302020302020302020302020302020302020302020302020302020302020300A2020202D312E3432383920202020302E3431323520202020302E303030302043202020302020302020302020302020302020302020302020302020302020302020302020300A2020202D312E3432383920202020312E3233373520202020302E30303030204F202020302020302020302020302020302020302020302020302020302020302020302020300A2020202D322E3134333420202020302E3030303020202020302E30303030204F202020302020302020302020302020302020302020302020302020302020302020302020300A20202020312E3432383920202020302E3431323520202020302E303030302043202020302020302020302020302020302020302020302020302020302020302020302020300A20202020312E3432383920202020312E3233373520202020302E30303030204F202020302020302020302020302020302020302020302020302020302020302020302020300A20202020322E3134333420202020302E3030303020202020302E30303030204F202020302020302020302020302020302020302020302020302020302020302020302020300A2020312020322020312020302020202020200A2020322020332020322020302020202020200A2020332020342020312020302020202020200A2020342020352020322020302020202020200A2020352020362020312020302020202020200A2020312020362020322020302020202020200A2020372020382020322020302020202020200A2020372020392020312020302020202020200A2020312020372020312020302020202020200A2031302031312020322020302020202020200A2031302031322020312020302020202020200A2020352031302020312020302020202020200A4D2020454E44
Contributor: Tsuzimoto Y, Tsugawa H, Bamba T, Fukusaki E, engineering department, Osaka Univ.
InstType: EI
InstName: Pegasus II TOF-MS system, Leco; GC 6890, Agilent Technologies
IoniMethod: EI
IonPolarity: pos
Date: 2010-10-09 19:48:36+02:00
Num Peaks: 174
85 43 86 41 87 32 88 8 89 31 90 27 91 309 92 235 93 97 94 41 
95 37 96 15 97 24 98 12 99 11 100 10 101 14 102 22 103 73 104 113 
105 83 106 126 107 60 108 61 109 36 110 16 111 4 112 5 113 16 114 3 
115 48 116 12 117 53 118 24 119 168 120 273 121 39 122 37 123 16 124 8 
125 4 126 2 127 49 128 17 129 7 130 5 131 88 132 39 133 253 134 79 
135 60 136 355 137 50 138 22 139 2 140 2 141 47 142 6 143 5 144 15 
145 5 146 8 147 863 148 180 149 226 150 304 151 60 152 37 153 7 154 2 
155 2 156 2 157 7 158 10 159 3 160 9 161 5 162 11 163 32 164 165 
165 56 166 110 167 21 168 14 169 4 170 1 173 1 174 1 176 7 177 14 
178 50 179 25 180 29 181 9 182 8 183 4 184 1 189 1 190 1 191 3 
192 15 193 130 194 71 195 18 196 20 197 5 198 3 206 8 207 5 208 272 
209 91 210 56 211 13 212 5 217 1 218 3 220 3 221 25 222 17 223 10 
224 51 225 14 226 5 227 1 232 2 233 1 234 4 235 2 236 19 237 20 
238 65 239 22 240 196 241 54 242 24 243 4 248 1 250 13 251 11 252 375 
253 116 254 79 255 23 256 7 257 3 264 1 265 10 266 23 267 68 268 30 
269 12 270 3 271 1 272 1 276 1 278 1 279 2 280 2 281 2 282 14 
283 20 284 9 285 3 294 2 295 20 296 999 297 256 298 106 299 20 300 3 
310 3 311 13 312 3 313 1 
