Name: MassBank: OUF00088
CAS: 1218-98-0
MW: 255
Formula: C9H13N5O4
Synonym: CID: 65074
Synonym: MassBank: OUF00088
Synonym: 7,8-Dihydroneopterin
Structure: 4330303030373331322E6364780A20204368656D447261773132323930383037313032440A2031382031392020302020302020302020302020302020302020302020303939392056323030300A20202020302E333539352020202D302E3830393420202020302E303030302043202020302020302020302020302020302020302020302020302020302020302020302020300A20202020302E3335303520202020302E3031353620202020302E303030302043202020302020302020302020302020302020302020302020302020302020302020302020300A2020202D302E3336383420202020302E3432303320202020302E30303030204E202020302020302020302020302020302020302020302020302020302020302020302020300A2020202D312E3037383420202020302E3030303020202020302E303030302043202020302020302020302020302020302020302020302020302020302020302020302020300A2020202D312E303639342020202D302E3832353020202020302E303030302043202020302020302020302020302020302020302020302020302020302020302020302020300A2020202D302E333530352020202D312E3232393620202020302E30303030204E202020302020302020302020302020302020302020302020302020302020302020302020300A2020202D312E3739373320202020302E3430343720202020302E303030302043202020302020302020302020302020302020302020302020302020302020302020302020300A2020202D322E353037322020202D302E3031353620202020302E30303030204E202020302020302020302020302020302020302020302020302020302020302020302020300A2020202D322E343938332020202D302E3834303520202020302E303030302043202020302020302020302020302020302020302020302020302020302020302020302020300A2020202D312E373739332020202D312E3234353220202020302E30303030204E202020302020302020302020302020302020302020302020302020302020302020302020300A20202020312E3036303420202020302E3433353820202020302E303030302043202020302020302020302020302020302020302020302020302020302020302020302020300A20202020312E3737393320202020302E3033313120202020302E303030302043202020302020302020302020302020302020302020302020302020302020302020302020300A2020202D332E323038322020202D312E3236303820202020302E30303030204E202020302020302020302020302020302020302020302020302020302020302020302020300A2020202D312E3830363320202020312E3232393720202020302E30303030204F202020302020302020302020302020302020302020302020302020302020302020302020300A20202020312E3035313420202020312E3236303820202020302E30303030204F202020302020302020302020302020302020302020302020302020302020302020302020300A20202020322E3438393320202020302E3435313420202020302E303030302043202020302020302020302020302020302020302020302020302020302020302020302020300A20202020332E3230383220202020302E3034363720202020302E30303030204F202020302020302020302020302020302020302020302020302020302020302020302020300A20202020312E373838332020202D302E3739333820202020302E30303030204F202020302020302020302020302020302020302020302020302020302020302020302020300A2020312020322020312020302020202020200A2020322020332020322020302020202020200A2020332020342020312020302020202020200A2020342020352020322020302020202020200A2020352020362020312020302020202020200A2020362020312020312020302020202020200A2020342020372020312020302020202020200A2020372020382020312020302020202020200A2020382020392020322020302020202020200A2020392031302020312020302020202020200A2031302020352020312020302020202020200A2031312020322020312020302020202020200A2031322031312020312020302020202020200A2020392031332020312020302020202020200A2020372031342020322020302020202020200A2031312031352020312020362020202020200A2031322031362020312020302020202020200A2031362031372020312020302020202020200A2031322031382020312020312020202020200A4D2020454E44
Contributor: Tsuzimoto Y, Tsugawa H, Bamba T, Fukusaki E, engineering department, Osaka Univ.
InstType: EI
InstName: Pegasus II TOF-MS system, Leco; GC 6890, Agilent Technologies
IoniMethod: EI
IonPolarity: pos
Date: 2010-10-09 19:48:36+02:00
Num Peaks: 333
85 100 86 130 87 86 88 39 89 999 90 90 91 81 92 26 93 28 94 22 
95 23 96 14 97 38 98 241 99 492 100 315 101 145 102 78 103 433 104 60 
105 59 106 10 107 9 108 12 109 6 110 46 111 61 112 26 113 54 114 86 
115 77 116 50 117 80 118 36 119 114 120 26 121 14 122 22 123 52 124 78 
125 53 126 127 127 68 128 100 129 26 130 165 131 263 132 126 133 314 134 64 
135 33 136 21 137 29 138 22 139 44 140 86 141 96 142 53 143 31 144 16 
145 30 146 37 147 666 148 169 149 91 150 69 151 75 152 48 153 33 154 36 
155 44 156 47 157 121 158 136 159 29 160 12 162 16 163 19 164 34 165 105 
166 70 167 47 168 37 169 26 170 26 171 470 172 134 173 95 174 28 175 19 
176 29 177 55 178 34 179 26 180 53 181 49 182 45 183 29 184 22 185 17 
186 4 187 57 188 23 189 18 190 20 191 64 192 57 193 28 194 50 195 25 
196 27 197 24 198 35 199 16 200 15 201 3 202 46 203 35 204 32 205 42 
206 28 207 14 208 30 209 22 210 12 211 22 212 29 213 7 214 6 216 22 
217 21 218 43 219 80 220 49 221 43 222 36 223 21 224 17 225 9 227 8 
228 2 229 8 230 12 231 29 232 10 233 14 234 18 235 44 236 32 237 29 
238 18 239 6 240 1 241 7 242 2 243 27 244 24 245 26 246 15 247 22 
248 8 249 26 250 17 251 42 252 22 253 9 254 11 255 4 256 10 257 3 
259 1 260 4 261 12 262 19 263 20 264 10 265 32 266 18 267 7 268 1 
269 5 271 19 273 19 274 10 275 18 276 46 277 20 278 27 279 27 280 11 
281 13 282 10 284 3 286 8 287 4 288 6 289 12 290 77 291 69 292 124 
293 58 294 24 295 3 300 1 302 13 303 24 304 18 305 18 306 39 307 21 
308 25 309 11 310 1 311 3 312 10 315 32 316 16 317 114 318 52 319 23 
320 9 322 1 324 9 325 4 327 14 329 30 330 24 331 50 332 41 333 16 
334 17 335 8 336 4 337 13 338 6 339 11 340 3 343 16 344 20 345 68 
346 18 347 29 348 16 349 13 350 33 351 15 352 15 353 4 354 1 357 2 
358 2 359 8 361 44 362 15 363 7 364 54 365 47 366 28 367 16 368 6 
370 2 371 6 375 5 376 10 377 2 378 30 379 81 380 111 381 105 382 64 
383 17 384 3 389 12 390 19 391 51 392 23 393 12 395 5 396 4 399 5 
402 3 403 13 404 29 405 157 406 102 407 66 408 11 410 6 413 2 416 6 
417 24 418 28 419 45 420 31 421 41 422 21 423 10 424 2 426 3 427 2 
431 4 432 41 433 208 434 130 435 104 436 45 437 16 438 7 439 2 440 1 
442 2 446 5 448 6 449 15 450 8 451 7 454 3 464 12 465 7 466 4 
467 4 474 2 476 1 477 4 480 13 484 1 488 1 492 2 493 7 494 2 
496 6 498 10 499 1 
