Name: 2-Picolinate
CAS: 98-98-6
MW: 123
Formula: C6H5NO2
Synonym: KEGG: C10164
Synonym: CID: 1018
Synonym: MassBank: OUF00042
Synonym: 2-Picolinate
Structure: 310A32330A4330303030323036332E6364780A20204368656D447261773132323630383230353632440A2020392020392020302020302020302020302020302020302020302020303939392056323030300A2020202D312E3036383120202020302E3530353220202020302E303030302043202020302020302020302020302020302020302020302020302020302020302020302020300A2020202D312E303638312020202D302E3131333920202020302E303030302043202020302020302020302020302020302020302020302020302020302020302020302020300A2020202D302E353331392020202D302E3432333420202020302E30303030204E202020302020302020302020302020302020302020302020302020302020302020302020300A20202020302E303034322020202D302E3131333920202020302E303030302043202020302020302020302020302020302020302020302020302020302020302020302020300A20202020302E3030343220202020302E3530353220202020302E303030302043202020302020302020302020302020302020302020302020302020302020302020302020300A2020202D302E3533313920202020302E3831343820202020302E303030302043202020302020302020302020302020302020302020302020302020302020302020302020300A20202020302E353430312020202D302E3432333220202020302E303030302043202020302020302020302020302020302020302020302020302020302020302020302020300A20202020302E353430312020202D302E3831343820202020302E30303030204F202020302020302020302020302020302020302020302020302020302020302020302020300A20202020312E303638312020202D302E3131383420202020302E30303030204F202020302020302020302020302020302020302020302020302020302020302020302020300A2020312020322020322020302020202020200A2020322020332020312020302020202020200A2020332020342020322020302020202020200A2020342020352020312020302020202020200A2020352020362020322020302020202020200A2020362020312020312020302020202020200A2020342020372020312020302020202020200A2020372020382020322020302020202020200A2020372020392020312020302020202020200A4D2020454E44
Contributor: Tsuzimoto Y, Tsugawa H, Bamba T, Fukusaki E, engineering department, Osaka Univ.
InstType: EI
InstName: Pegasus II TOF-MS system, Leco; GC 6890, Agilent Technologies
IoniMethod: EI
IonPolarity: pos
Date: 2010-10-09 19:48:36+02:00
Num Peaks: 58
85 6 86 4 87 1 90 3 91 2 92 23 93 85 94 20 95 14 96 6 
97 7 98 3 99 4 100 2 103 1 104 3 105 1 106 157 107 34 108 29 
109 29 110 10 111 1 119 1 120 21 121 3 122 38 123 4 124 2 132 2 
134 6 135 4 136 636 137 88 138 27 139 2 147 1 148 2 149 13 150 91 
151 61 152 132 153 20 154 6 155 1 164 1 165 1 166 21 167 64 168 11 
169 3 179 1 180 999 181 144 182 47 183 4 194 2 195 1 
