Name: Creatinine
CAS: 60-27-5
MW: 113
Formula: C4H7N3O
Synonym: KEGG: C00791
Synonym: CID: 588
Synonym: MassBank: OUF00145
Synonym: Creatinine
Structure: 310A32310A3C4341535F49443E2036302D32372D35093C4B4547475F49443E20433030373931093C4E414D453E204372656174696E696E65093C464F524D554C413E20433448374E334F093C45584143544D4153533E203131332E303538393131383631093C415645524147454D4153533E203131332E313138093C534D494C45533E20434E2843312943283D4E294E43283D4F2931093C434F505952494748543E2041524D2050524F4A45435420687474703A2F2F7777772E6D657461626F6C6F6D652E6A702F0A2020382020382020302020302020302020302020302020302020302020303939392056323030300A20202020332E3236303120202020302E3336343920202020302E30303030204E202020302020302020302020302020302020302020302020302020302020302020302020300A20202020322E393531312020202D302E3538363120202020302E303030302043202020302020302020302020302020302020302020302020302020302020302020302020300A20202020332E373630312020202D312E3137333920202020302E30303030204E202020302020302020302020312020302020302020302020302020302020302020302020300A20202020342E353639312020202D302E3538363120202020302E303030302043202020302020302020302020302020302020302020302020302020302020302020302020300A20202020342E3236303120202020302E3336343920202020302E303030302043202020302020302020302020322020302020302020302020302020302020302020302020300A20202020322E3637323320202020312E3137333920202020302E303030302043202020302020302020302020332020302020302020302020302020302020302020302020300A20202020322E303030302020202D302E3839353220202020302E30303030204E202020302020302020302020312020302020302020302020302020302020302020302020300A20202020352E353230312020202D302E3839353220202020302E30303030204F202020302020302020302020302020302020302020302020302020302020302020302020300A2020352020342020312020302020302020302020300A2020332020322020312020302020302020302020300A2020322020312020312020302020302020302020300A2020312020352020312020302020302020302020300A2020342020332020312020302020302020302020300A2020342020382020322020302020302020302020300A2020322020372020322020302020302020302020300A2020312020362020312020302020302020302020300A4D2020454E44
Contributor: Tsuzimoto Y, Tsugawa H, Bamba T, Fukusaki E, engineering department, Osaka Univ.
InstType: EI
InstName: Pegasus II TOF-MS system, Leco; GC 6890, Agilent Technologies
IoniMethod: EI
IonPolarity: pos
Date: 2010-10-09 19:48:36+02:00
Num Peaks: 126
85 7 86 21 87 11 88 3 89 1 95 3 98 8 99 49 100 326 101 45 
102 17 103 4 105 4 106 3 109 1 110 1 111 6 112 9 113 15 114 79 
115 999 116 120 117 53 118 5 121 4 122 1 124 1 126 14 127 2 128 29 
129 8 130 39 131 38 132 13 133 9 134 2 139 2 141 16 142 18 143 464 
144 59 145 24 146 6 147 63 148 11 149 4 155 8 156 5 157 18 158 14 
159 8 160 1 161 3 163 3 171 134 172 35 173 14 174 1 177 2 187 29 
188 8 190 2 199 6 200 1 201 5 204 5 205 1 214 3 215 11 216 4 
223 2 224 2 226 5 228 1 234 1 240 3 241 18 242 3 243 1 254 2 
256 5 257 3 259 1 267 1 269 1 270 1 276 3 277 2 287 4 295 1 
302 4 311 1 313 3 314 51 315 17 316 6 317 4 329 83 330 33 331 13 
332 3 342 1 365 1 370 2 372 2 379 2 381 4 384 4 395 1 405 1 
418 1 419 1 421 2 434 1 435 1 439 1 441 2 445 2 469 1 474 1 
476 3 478 1 479 1 481 2 483 1 492 1 
