Name: Adenine
CAS: 73-24-5
MW: 135
Formula: C5H5N5
Synonym: KEGG: C00147
Synonym: CID: 190
Synonym: MassBank: OUF00096
Synonym: Adenine
Structure: 4330303030313439302E6364780A20204368656D447261773132323630383139323332440A2031302031312020302020302020302020302020302020302020302020303939392056323030300A2020202D302E3934393920202020302E3036323820202020302E30303030204E202020302020302020302020302020302020302020302020302020302020302020302020300A2020202D302E393439392020202D302E3531383120202020302E303030302043202020302020302020302020302020302020302020302020302020302020302020302020300A2020202D302E343436392020202D302E3830383520202020302E30303030204E202020302020302020302020302020302020302020302020302020302020302020302020300A20202020302E303536312020202D302E3531383120202020302E303030302043202020302020302020302020302020302020302020302020302020302020302020302020300A20202020302E3035363120202020302E3036323820202020302E303030302043202020302020302020302020302020302020302020302020302020302020302020302020300A2020202D302E3434363920202020302E3335333220202020302E303030302043202020302020302020302020302020302020302020302020302020302020302020302020300A20202020302E363038352020202D302E3639373520202020302E30303030204E202020302020302020302020302020302020302020302020302020302020302020302020300A20202020302E393439392020202D302E3232373620202020302E303030302043202020302020302020302020302020302020302020302020302020302020302020302020300A20202020302E3630383520202020302E3234323220202020302E30303030204E202020302020302020302020302020302020302020302020302020302020302020302020300A2020202D302E3434363920202020302E3830383520202020302E30303030204E202020302020302020302020302020302020302020302020302020302020302020302020300A2020312020322020322020302020202020200A2020322020332020312020302020202020200A2020332020342020322020302020202020200A2020342020352020312020302020202020200A2020352020362020322020302020202020200A2020362020312020312020302020202020200A2020342020372020312020302020202020200A2020372020382020312020302020202020200A2020382020392020322020302020202020200A2020392020352020312020302020202020200A2020362031302020312020302020202020200A4D2020454E44
Contributor: Tsuzimoto Y, Tsugawa H, Bamba T, Fukusaki E, engineering department, Osaka Univ.
InstType: EI
InstName: Pegasus II TOF-MS system, Leco; GC 6890, Agilent Technologies
IoniMethod: EI
IonPolarity: pos
Date: 2010-10-09 19:48:36+02:00
Num Peaks: 152
85 143 86 43 87 11 88 8 89 13 90 2 91 1 92 10 93 15 94 8 
95 30 96 20 97 20 98 30 99 133 100 95 101 37 102 9 103 4 104 4 
107 9 108 9 109 12 110 19 111 93 112 17 113 15 114 7 115 2 116 9 
117 1 119 11 120 5 121 5 122 14 123 30 124 16 125 27 126 11 127 4 
128 1 129 1 130 26 131 4 132 6 133 1 134 4 135 25 136 11 137 28 
138 30 139 12 140 8 141 10 142 2 143 1 144 1 147 2 148 1 149 17 
150 14 151 15 152 17 153 6 154 5 155 6 156 3 157 10 158 2 161 1 
162 13 163 3 164 34 165 97 166 24 167 14 168 11 169 2 170 2 171 6 
172 1 173 1 175 2 176 33 177 10 178 8 179 23 180 29 181 7 182 7 
183 10 184 3 185 1 186 1 190 4 191 33 192 237 193 40 194 21 195 4 
196 5 197 2 204 3 205 2 206 57 207 27 208 9 209 3 210 5 211 3 
213 9 214 20 215 2 221 13 222 13 223 6 224 2 234 8 235 5 236 5 
237 31 238 20 239 5 240 1 241 1 248 19 249 7 250 4 251 4 252 1 
262 4 263 20 264 999 265 260 266 99 267 18 268 3 270 1 271 1 273 1 
274 1 275 1 278 29 279 208 280 57 281 23 282 3 286 1 290 1 337 1 
452 1 477 1 
