Name: Xanthine
CAS: 69-89-6
MW: 152
Formula: C5H4N4O2
Synonym: KEGG: C00385
Synonym: CID: 1188
Synonym: MassBank: OUF00489
Synonym: Xanthine
Structure: 4330303031393636302E6364780A20204368656D447261773132323930383230303532440A2031312031322020302020302020302020302020302020302020302020303939392056323030300A2020202D312E3037323220202020302E3030303720202020302E30303030204E202020302020302020302020302020302020302020302020302020302020302020302020300A2020202D312E303732322020202D302E3832343320202020302E303030302043202020302020302020302020302020302020302020302020302020302020302020302020300A2020202D302E333537372020202D312E3233363820202020302E30303030204E202020302020302020302020302020302020302020302020302020302020302020302020300A2020202D302E3335373720202020302E3431333220202020302E303030302043202020302020302020302020302020302020302020302020302020302020302020302020300A20202020302E333536382020202D302E3832343320202020302E303030302043202020302020302020302020302020302020302020302020302020302020302020302020300A20202020302E3335363820202020302E3030303720202020302E303030302043202020302020302020302020302020302020302020302020302020302020302020302020300A20202020312E3037313020202020302E3431343620202020302E30303030204E202020302020302020302020302020302020302020302020302020302020302020302020300A20202020312E3738363720202020302E3030303720202020302E303030302043202020302020302020302020302020302020302020302020302020302020302020302020300A20202020312E373836372020202D302E3832343320202020302E30303030204E202020302020302020302020302020302020302020302020302020302020302020302020300A2020202D302E3335373720202020312E3233363820202020302E30303030204F202020302020302020302020302020302020302020302020302020302020302020302020300A2020202D312E373836372020202D312E3233363820202020302E30303030204F202020302020302020302020302020302020302020302020302020302020302020302020300A2020312020322020312020302020202020200A2020322020332020312020302020202020200A2020332020352020312020302020202020200A2020362020342020312020302020202020200A2020342020312020312020302020202020200A2020352020362020322020302020202020200A2020362020372020312020302020202020200A2020372020382020312020302020202020200A2020382020392020322020302020202020200A2020352020392020312020302020202020200A2020342031302020322020302020202020200A2020322031312020322020302020202020200A4D2020454E44
Contributor: Tsuzimoto Y, Tsugawa H, Bamba T, Fukusaki E, engineering department, Osaka Univ.
InstType: EI
InstName: Pegasus II TOF-MS system, Leco; GC 6890, Agilent Technologies
IoniMethod: EI
IonPolarity: pos
Date: 2010-10-09 19:48:36+02:00
Num Peaks: 117
85 35 86 63 87 18 89 2 95 6 97 2 98 33 99 48 100 297 101 38 
102 21 103 30 105 13 111 28 112 5 113 10 114 1 115 31 116 6 117 47 
118 1 119 7 125 14 126 7 127 3 128 14 129 3 130 27 131 221 132 64 
133 115 134 16 139 6 140 10 141 5 142 18 143 5 144 20 145 4 147 999 
148 161 149 92 150 9 151 3 152 3 156 6 157 28 158 159 159 29 160 10 
164 6 166 5 169 15 170 8 171 14 172 16 173 7 174 18 177 3 181 3 
182 3 196 4 197 9 198 3 205 9 206 3 207 1 208 5 212 7 219 1 
221 5 222 15 224 2 228 5 236 18 237 10 238 39 239 2 246 1 251 5 
252 8 256 2 264 5 265 91 266 10 278 44 279 155 280 61 281 45 282 2 
293 8 294 195 295 92 296 27 297 4 312 3 337 7 338 1 339 2 352 42 
353 589 354 243 355 112 356 32 357 2 358 1 367 33 368 232 369 100 370 33 
371 6 399 2 418 2 427 2 462 1 464 2 498 1 
