Name: Prephenate
CAS: 126-49-8
MW: 226
Formula: C10H10O6
Synonym: KEGG: C00254
Synonym: CID: 1028
Synonym: MassBank: OUF00427
Synonym: Prephenate
Structure: 4330303031393633322E6364780A20204368656D447261773132323930383230303432440A2031362031362020302020302020302020302020302020302020302020303939392056323030300A2020202D312E3537353920202020302E3231343920202020302E303030302043202020302020302020302020302020302020302020302020302020302020302020302020300A2020202D312E353735392020202D302E3631303120202020302E303030302043202020302020302020302020302020302020302020302020302020302020302020302020300A2020202D302E383631352020202D312E3032323620202020302E303030302043202020302020302020302020302020302020302020302020302020302020302020302020300A2020202D302E313437302020202D302E3631303120202020302E303030302043202020302020302020302020302020302020302020302020302020302020302020302020300A2020202D302E3134373020202020302E3231343920202020302E303030302043202020302020302020302020302020302020302020302020302020302020302020302020300A2020202D302E3836313520202020302E3632373420202020302E303030302043202020302020302020302020302020302020302020302020302020302020302020302020300A2020202D322E323930342020202D312E3032323620202020302E30303030204F202020302020302020302020302020302020302020302020302020302020302020302020300A20202020302E3133353220202020302E3939303120202020302E303030302043202020302020302020302020302020302020302020302020302020302020302020302020300A20202020302E3934373620202020312E3133333420202020302E30303030204F202020302020302020302020302020302020302020302020302020302020302020302020300A2020202D302E3339353120202020312E3632323120202020302E30303030204F202020302020302020302020302020302020302020302020302020302020302020302020300A20202020302E3636353520202020302E3037313620202020302E303030302043202020302020302020302020302020302020302020302020302020302020302020302020300A20202020302E393437362020202D302E3730333620202020302E303030302043202020302020302020302020302020302020302020302020302020302020302020302020300A20202020302E343137332020202D312E3333353620202020302E30303030204F202020302020302020302020302020302020302020302020302020302020302020302020300A20202020312E373630312020202D302E3834363920202020302E303030302043202020302020302020302020302020302020302020302020302020302020302020302020300A20202020322E303432332020202D312E3632323120202020302E30303030204F202020302020302020302020302020302020302020302020302020302020302020302020300A20202020322E323930342020202D302E3231343920202020302E30303030204F202020302020302020302020302020302020302020302020302020302020302020302020300A2020312020322020312020302020202020200A2020322020332020312020302020202020200A2020332020342020322020302020202020200A2020342020352020312020302020202020200A2020352020362020312020302020202020200A2020362020312020322020302020202020200A2020322020372020312020302020202020200A2020352020382020312020302020202020200A2020382020392020312020302020202020200A2020382031302020322020302020202020200A2020352031312020312020302020202020200A2031312031322020312020302020202020200A2031322031332020322020302020202020200A2031322031342020312020302020202020200A2031342031352020322020302020202020200A2031342031362020312020302020202020200A4D2020454E44
Contributor: Tsuzimoto Y, Tsugawa H, Bamba T, Fukusaki E, engineering department, Osaka Univ.
InstType: EI
InstName: Pegasus II TOF-MS system, Leco; GC 6890, Agilent Technologies
IoniMethod: EI
IonPolarity: pos
Date: 2010-10-09 19:48:36+02:00
Num Peaks: 92
85 24 86 21 87 40 88 26 89 819 90 357 91 924 92 81 93 12 94 1 
95 4 96 2 98 7 99 5 100 11 101 4 102 18 103 29 104 17 105 55 
106 7 107 6 108 4 109 1 110 8 114 12 115 26 116 999 117 340 118 44 
119 11 120 3 121 30 122 19 123 2 125 10 126 1 127 1 128 4 129 4 
130 16 131 14 132 14 133 17 134 3 135 15 136 2 137 6 142 10 143 18 
144 28 145 9 146 24 147 73 148 35 149 8 150 2 151 22 152 3 158 2 
159 1 160 9 161 2 162 4 163 2 164 1 173 1 174 33 175 36 176 14 
177 3 179 4 188 2 189 230 190 51 191 60 192 12 193 4 204 1 218 2 
219 1 220 1 234 1 235 2 250 200 251 39 252 12 253 1 264 1 265 114 
266 26 267 8 
