Name: L-Norleucine
CAS: 327-57-1
MW: 131
Formula: C6H13NO2
Synonym: KEGG: C01933
Synonym: CID: 21236
Synonym: MassBank: OUF00393
Synonym: L-Norleucine
Structure: 310A32320A3C4341535F49443E203332372D35372D31093C4B4547475F49443E20433031393333093C4E414D453E204C2D4E6F726C657563696E65093C464F524D554C413E2043364831334E4F32093C45584143544D4153533E203133312E303934363238363635093C415645524147454D4153533E203133312E3137323936093C534D494C45533E20434343435B4340485D284E2943284F293D4F093C434F505952494748543E2041524D2050524F4A45435420687474703A2F2F7777772E6D657461626F6C6F6D652E6A702F0A2020392020382020302020302020312020302020302020302020302020303939392056323030300A20202020352E343634312020202D302E3530303020202020302E303030302043202020302020302020302020302020302020302020302020302020302020302020302020300A20202020352E3436343120202020302E3530303020202020302E303030302043202020302020302020322020312020302020302020302020302020302020302020302020300A20202020342E3539383120202020312E3030303020202020302E303030302043202020302020302020302020322020302020302020302020302020302020302020302020300A20202020332E3733323120202020302E3530303020202020302E303030302043202020302020302020302020322020302020302020302020302020302020302020302020300A20202020322E3836363020202020312E3030303020202020302E303030302043202020302020302020302020322020302020302020302020302020302020302020302020300A20202020322E3030303020202020302E3530303020202020302E303030302043202020302020302020302020332020302020302020302020302020302020302020302020300A20202020362E3333303120202020312E3030303020202020302E30303030204E202020302020302020302020322020302020302020302020302020302020302020302020300A20202020342E353938312020202D312E3030303020202020302E30303030204F202020302020302020302020302020302020302020302020302020302020302020302020300A20202020362E333330312020202D312E3030303020202020302E30303030204F202020302020302020302020312020302020302020302020302020302020302020302020300A2020322020332020312020302020302020302020300A2020332020342020312020302020302020302020300A2020382020312020322020302020302020302020300A2020322020312020312020302020302020302020300A2020322020372020312020362020302020302020300A2020342020352020312020302020302020302020300A2020312020392020312020302020302020302020300A2020352020362020312020302020302020302020300A4D2020454E44
Contributor: Tsuzimoto Y, Tsugawa H, Bamba T, Fukusaki E, engineering department, Osaka Univ.
InstType: EI
InstName: Pegasus II TOF-MS system, Leco; GC 6890, Agilent Technologies
IoniMethod: EI
IonPolarity: pos
Date: 2010-10-09 19:48:36+02:00
Num Peaks: 35
85 8 86 999 87 78 88 5 89 3 91 4 92 2 93 1 99 4 100 4 
101 2 102 8 103 46 104 6 105 2 114 1 116 1 117 4 128 21 129 10 
130 21 131 10 132 1 142 12 143 4 144 3 146 24 147 2 158 1 160 1 
170 25 171 11 172 2 188 29 189 3 
