Name: UDP-D-Glucuronate
CAS: 2616-64-0
MW: 580
Formula: C15H22N2O18P2
Synonym: KEGG: C00167
Synonym: CID: 17473
Synonym: MassBank: OUF00481
Synonym: UDP-D-Glucuronate
Structure: 33372033392020302020302020312020302020302020302020302020303939392056323030300A20202032382E3337313420202D31382E3231313320202020302E303030302043202020302020302020322020302020302020302020302020302020302020302020302020300A20202032392E3136303820202D31352E3938343420202020302E30303030204E202020302020302020332020302020302020302020302020302020302020302020302020300A20202032372E3235313720202D31372E3339333520202020302E30303030204F202020302020302020302020302020302020302020302020302020302020302020302020300A20202032372E3936383820202D31392E3438383320202020302E303030302043202020302020302020312020302020302020302020302020302020302020302020302020300A20202032372E3938343320202D31352E3237393920202020302E303030302043202020302020302020302020302020302020302020302020302020302020302020302020300A20202033302E3336383520202D31352E3237393920202020302E303030302043202020302020302020302020302020302020302020302020302020302020302020302020300A20202032362E3135373120202D31382E3138363120202020302E303030302043202020302020302020312020302020302020302020302020302020302020302020302020300A20202032362E3539373320202D31392E3438383320202020302E303030302043202020302020302020312020302020302020302020302020302020302020302020302020300A20202032382E3737333920202D32302E3539353420202020302E30303030204F202020302020302020302020302020302020302020302020302020302020302020302020300A20202032372E3938343320202D31332E3839363020202020302E30303030204E202020302020302020302020302020302020302020302020302020302020302020302020300A20202032362E3739353520202D31352E3935393320202020302E30303030204F202020302020302020302020302020302020302020302020302020302020302020302020300A20202033302E3336383520202D31332E3839363020202020302E303030302043202020302020302020302020302020302020302020302020302020302020302020302020300A20202032342E3835353020202D31372E3737303920202020302E303030302043202020302020302020302020302020302020302020302020302020302020302020302020300A20202032352E3739383520202D32302E3630313820202020302E30303030204F202020302020302020302020302020302020302020302020302020302020302020302020300A20202032392E3136373020202D31332E3231303320202020302E303030302043202020302020302020302020302020302020302020302020302020302020302020302020300A20202032342E3536353520202D31362E3433313220202020302E30303030204F202020302020302020302020302020302020302020302020302020302020302020302020300A20202032392E3136303820202D31322E3035353420202020302E30303030204F202020302020302020302020302020302020302020302020302020302020302020302020300A20202032332E3139343220202D31362E3433313220202020302E303030302050202020302020302020332020302020302020302020302020302020302020302020302020300A20202032312E3832323920202D31362E3433313220202020302E30303030204F202020302020302020302020302020302020302020302020302020302020302020302020300A20202032332E3139343220202D31342E3938393720202020302E30303030204F202020302020302020302020302020302020302020302020302020302020302020302020300A20202032332E3138383020202D31372E3836363120202020302E30303030204F202020302020302020302020302020302020302020302020302020302020302020302020300A20202032302E3435373820202D31362E3433313220202020302E303030302050202020302020302020332020302020302020302020302020302020302020302020302020300A20202031392E3038363520202D31362E3432343820202020302E30303030204F202020302020302020302020302020302020302020302020302020302020302020302020300A20202032302E3435373820202D31342E3938393720202020302E30303030204F202020302020302020302020302020302020302020302020302020302020302020302020300A20202032302E3435373820202D31372E3836363120202020302E30303030204F202020302020302020302020302020302020302020302020302020302020302020302020300A20202031372E3732313420202D31362E3432343820202020302E303030302043202020302020302020312020302020302020302020302020302020302020302020302020300A20202031372E3033353820202D31352E3232393620202020302E30303030204F202020302020302020302020302020302020302020302020302020302020302020302020300A20202031372E3033353820202D31372E3632363320202020302E303030302043202020302020302020312020302020302020302020302020302020302020302020302020300A20202031352E3635313820202D31352E3234323220202020302E303030302043202020302020302020312020302020302020302020302020302020302020302020302020300A20202031352E3636343420202D31372E3633323720202020302E303030302043202020302020302020322020302020302020302020302020302020302020302020302020300A20202031372E3732313420202D31382E3830383920202020302E30303030204F202020302020302020302020302020302020302020302020302020302020302020302020300A20202031342E3935393820202D31362E3434333820202020302E303030302043202020302020302020322020302020302020302020302020302020302020302020302020300A20202031342E3935393820202D31342E3035393720202020302E303030302043202020302020302020302020302020302020302020302020302020302020302020302020300A20202031342E3939313420202D31382E3832313520202020302E30303030204F202020302020302020302020302020302020302020302020302020302020302020302020300A20202031332E3539343920202D31362E3435303020202020302E30303030204F202020302020302020302020302020302020302020302020302020302020302020302020300A20202031352E3633333020202D31322E3837303620202020302E30303030204F202020302020302020302020302020302020302020302020302020302020302020302020300A20202031332E3538383520202D31342E3037323120202020302E30303030204F202020302020302020302020302020302020302020302020302020302020302020302020300A2020312020322020312020312020202020302020300A2020312020332020312020302020202020302020300A2020312020342020312020302020202020302020300A2020322020352020312020302020202020302020300A2020322020362020312020302020202020302020300A2020332020372020312020302020202020302020300A2020342020382020312020302020202020302020300A2020342020392020312020362020202020302020300A2020352031302020312020302020202020302020300A2020352031312020322020302020202020302020300A2020362031322020322020302020202020302020300A2020372031332020312020312020202020302020300A2020382031342020312020362020202020302020300A2031302031352020312020302020202020302020300A2031332031362020312020302020202020302020300A2031352031372020322020302020202020302020300A2031362031382020312020302020202020302020300A2031382031392020312020302020202020302020300A2031382032302020312020302020202020302020300A2031382032312020322020302020202020302020300A2031392032322020312020302020202020302020300A2032322032332020312020302020202020302020300A2032322032342020312020302020202020302020300A2032322032352020322020302020202020302020300A2032362032332020312020362020202020302020300A2032362032372020312020302020202020302020300A2032362032382020312020302020202020302020300A2032372032392020312020302020202020302020300A2032382033302020312020302020202020302020300A2032382033312020312020362020202020302020300A2032392033322020312020302020202020302020300A2032392033332020312020312020202020302020300A2033302033342020312020312020202020302020300A2033322033352020312020362020202020302020300A2033332033362020312020302020202020302020300A2033332033372020322020302020202020302020300A2020372020382020312020302020202020302020300A2031322031352020312020302020202020302020300A2033302033322020312020302020202020302020300A4D2020454E44
Contributor: Tsuzimoto Y, Tsugawa H, Bamba T, Fukusaki E, engineering department, Osaka Univ.
InstType: EI
InstName: Pegasus II TOF-MS system, Leco; GC 6890, Agilent Technologies
IoniMethod: EI
IonPolarity: pos
Date: 2010-10-09 19:48:36+02:00
Num Peaks: 173
85 35 86 14 87 27 88 8 89 37 90 7 91 3 92 1 94 2 95 8 
96 3 97 14 98 6 99 41 100 8 101 145 102 24 103 137 104 15 105 19 
106 1 107 1 108 1 109 1 111 33 112 5 113 67 114 11 115 37 116 121 
117 103 118 17 119 34 120 5 121 3 123 3 125 6 126 1 127 17 128 5 
129 263 130 35 131 89 132 34 133 238 134 37 135 32 136 4 137 2 139 1 
141 12 142 9 143 168 144 24 145 70 146 9 147 448 148 74 149 89 150 12 
151 10 152 1 153 2 154 1 155 2 156 6 157 42 158 9 159 16 160 3 
161 6 162 1 163 6 168 1 169 50 170 8 171 27 172 3 173 8 174 1 
175 19 176 3 177 17 178 3 179 1 183 1 184 1 185 10 186 2 187 7 
188 1 189 122 190 62 191 51 192 11 193 5 194 1 197 7 198 1 199 2 
201 3 202 1 203 16 204 197 205 50 206 22 207 6 213 6 214 1 215 21 
216 6 217 999 218 216 219 103 220 16 221 18 222 3 223 1 228 2 229 3 
230 5 231 30 232 8 233 9 234 1 243 17 244 4 245 19 246 20 247 5 
248 3 257 9 258 2 259 30 260 6 261 8 262 1 265 1 275 1 287 13 
288 2 289 1 291 15 292 4 293 2 294 1 303 1 304 2 305 69 306 82 
307 31 308 11 309 3 319 2 320 1 331 7 332 3 333 4 334 1 335 5 
336 1 346 1 347 2 348 10 349 7 350 2 377 2 378 1 391 1 392 35 
393 15 394 6 395 1 
