Name: 2-Aminoisobutyrate
CAS: 62-57-7
MW: 103
Formula: C4H9NO2
Synonym: KEGG: C03665
Synonym: CID: 5245672
Synonym: MassBank: OUF00020
Synonym: 2-Aminoisobutyrate
Structure: 310A31380A3C4341535F49443E2036322D35372D37093C4B4547475F49443E20433033363635093C4E414D453E20322D416D696E6F2D322D6D657468796C70726F70616E6F617465093C464F524D554C413E20433448394E4F32093C45584143544D4153533E203130332E3036333332383533363939393939093C415645524147454D4153533E203130332E3131393830303030303030303031093C534D494C45533E204F43283D4F29432843292843294E093C434F505952494748543E2041524D2050524F4A45435420687474703A2F2F7777772E6D657461626F6C6F6D652E6A702F0A2020372020362020302020302020302020302020302020302020302020303939392056323030300A20202031382E3034333820202D31342E3439363220202020302E303030302043202020302020302020332020302020302020302020302020302020302020302020302020300A20202031392E3136323920202D31352E3134353020202020302E303030302043202020302020302020302020302020302020302020302020302020302020302020302020300A20202031362E3834313320202D31332E3138323820202020302E303030302043202020302020302020302020332020302020302020302020302020302020302020302020300A20202031362E3932343520202D31352E3536373820202020302E303030302043202020302020302020302020332020302020302020302020302020302020302020302020300A20202031382E3830373920202D31332E3335393220202020302E30303030204E202020302020302020302020322020302020302020302020302020302020302020302020300A20202031392E3135373120202D31362E3531333020202020302E30303030204F202020302020302020302020312020302020302020302020302020302020302020302020300A20202032302E3238323220202D31342E3439363220202020302E30303030204F202020302020302020302020302020302020302020302020302020302020302020302020300A2020312020322020312020302020302020302020300A2020312020332020312020302020302020302020300A2020312020342020312020302020302020302020300A2020312020352020312020302020302020302020300A2020322020362020312020302020302020302020300A2020322020372020322020302020302020302020300A4D2020454E44
Contributor: Tsuzimoto Y, Tsugawa H, Bamba T, Fukusaki E, engineering department, Osaka Univ.
InstType: EI
InstName: Pegasus II TOF-MS system, Leco; GC 6890, Agilent Technologies
IoniMethod: EI
IonPolarity: pos
Date: 2010-10-09 19:48:36+02:00
Num Peaks: 56
85 5 86 6 87 7 88 2 89 2 94 2 95 3 96 2 97 2 98 9 
99 4 100 34 101 27 102 7 103 21 104 3 105 3 109 2 112 2 113 2 
114 85 115 23 116 16 117 11 118 3 119 2 126 6 127 1 128 3 129 8 
130 999 131 150 132 56 133 24 134 3 135 1 142 39 143 13 144 9 145 1 
146 6 147 140 148 23 149 12 150 1 160 1 174 1 175 2 188 3 189 1 
204 51 205 11 206 5 232 13 233 3 234 1 
