Name: Gluconic acid
CAS: 526-95-4
MW: 196
Formula: C6H12O7
Synonym: KEGG: C08038
Synonym: CID: 10690
Synonym: MassBank: OUF00240
Synonym: Gluconic acid
Structure: 4330303030373330332E6364780A20204368656D447261773132323930383037313032440A2031332031322020302020302020302020302020302020302020302020303939392056323030300A2020202D322E383838332020202D302E3336333720202020302E30303030204F202020302020302020302020302020302020302020302020302020302020302020302020300A2020202D322E3037393120202020302E3434353420202020302E303030302043202020302020302020302020302020302020302020302020302020302020302020302020300A2020202D312E323738382020202D302E3335343820202020302E303030302043202020302020302020302020302020302020302020302020302020302020302020302020300A2020202D302E3436383920202020302E3435353020202020302E303030302043202020302020302020302020302020302020302020302020302020302020302020302020300A20202020302E333735362020202D302E3338393520202020302E303030302043202020302020302020302020302020302020302020302020302020302020302020302020300A20202020312E3233393920202020302E3437343820202020302E303030302043202020302020302020302020302020302020302020302020302020302020302020302020300A20202020312E3233393920202020312E3230353220202020302E30303030204F202020302020302020302020302020302020302020302020302020302020302020302020300A2020202D302E3436383920202020312E3138393420202020302E30303030204F202020302020302020302020302020302020302020302020302020302020302020302020300A20202020302E333735362020202D312E3230353220202020302E30303030204F202020302020302020302020302020302020302020302020302020302020302020302020300A2020202D312E323738382020202D312E3035363820202020302E30303030204F202020302020302020302020302020302020302020302020302020302020302020302020300A20202020322E303633332020202D302E3335363520202020302E303030302043202020302020302020302020302020302020302020302020302020302020302020302020300A20202020322E383838332020202D302E3335363520202020302E30303030204F202020302020302020302020302020302020302020302020302020302020302020302020300A20202020312E363530382020202D312E3037313020202020302E30303030204F202020302020302020302020302020302020302020302020302020302020302020302020300A2020312020322020312020302020202020200A2020322020332020312020302020202020200A2020332020342020312020302020202020200A2020342020352020312020302020202020200A2020352020362020312020302020202020200A2020362020372020312020312020202020200A2020342020382020312020312020202020200A2020352020392020312020312020202020200A2020332031302020312020362020202020200A2020362031312020312020302020202020200A2031312031322020322020302020202020200A2031312031332020312020302020202020200A4D202053545920203120202031205355500A4D2020534C4220203120202031202020310A4D202053414C202020312020332020313120203132202031330A4D202053424C20202031202031202031300A4D2020534D542020203120434F4F480A4D2020534256202020312031302020202D342E3630353920202020332E393336350A4D2020454E44
Contributor: Tsuzimoto Y, Tsugawa H, Bamba T, Fukusaki E, engineering department, Osaka Univ.
InstType: EI
InstName: Pegasus II TOF-MS system, Leco; GC 6890, Agilent Technologies
IoniMethod: EI
IonPolarity: pos
Date: 2010-10-09 19:48:36+02:00
Num Peaks: 212
85 13 86 3 87 20 88 14 89 57 90 6 91 2 92 2 93 2 95 2 
97 19 98 3 99 16 100 3 101 53 102 58 103 406 104 42 105 23 106 2 
107 7 109 1 111 8 112 1 113 16 114 4 115 19 116 20 117 233 118 26 
119 28 120 4 121 2 125 3 126 1 127 9 128 2 129 187 130 51 131 94 
132 17 133 182 134 28 135 17 136 2 139 1 141 7 142 5 143 117 144 16 
145 17 146 4 147 999 148 163 149 107 150 14 151 7 153 9 154 1 155 5 
156 2 157 85 158 12 159 10 160 2 161 11 162 1 163 12 164 2 165 1 
169 23 170 3 171 26 172 4 173 6 174 1 175 20 176 3 177 9 178 1 
185 1 187 2 188 1 189 124 190 35 191 73 192 16 193 7 194 1 195 1 
197 13 198 2 199 2 200 1 201 6 202 2 203 15 204 115 205 210 206 47 
207 39 208 8 209 3 211 1 215 7 216 2 217 248 218 55 219 49 220 20 
221 56 222 15 223 8 227 4 228 1 229 30 230 9 231 16 232 5 233 2 
235 1 241 4 242 1 243 10 244 4 245 20 246 5 247 3 249 1 250 1 
257 3 258 1 259 5 261 2 263 1 265 5 266 1 269 6 270 1 271 4 
272 1 277 41 278 16 279 10 280 2 281 1 289 1 291 25 292 219 293 74 
294 37 295 8 296 2 304 5 305 101 306 37 307 34 308 10 309 3 310 1 
315 5 316 1 317 4 318 5 319 97 320 36 321 24 322 5 323 1 330 1 
331 18 332 17 333 217 334 81 335 39 336 10 337 2 343 2 344 1 345 13 
346 5 347 2 349 1 358 2 359 36 360 14 361 8 362 1 379 3 380 1 
389 1 390 1 393 4 394 2 395 1 405 4 406 5 407 3 408 1 421 3 
422 5 423 29 424 16 425 7 426 2 432 1 433 18 434 13 435 20 436 10 
437 5 438 1 
