Name: Xanthosine
CAS: 146-80-5
MW: 284
Formula: C10H12N4O6
Synonym: CID: 1189
Synonym: MassBank: OUF00490
Synonym: Xanthosine
Structure: 4330303030373232322E6364780A20204368656D447261773132323930383037303733440A2032302032322020302020302020302020302020302020302020302020303939392056323030300A2020202D302E343731302020202D302E3835313220202020302E303133352043202020302020302020302020302020302020302020302020302020302020302020302020300A2020202D302E323035352020202D312E3633323320202020302E303134352043202020302020302020302020302020302020302020302020302020302020302020302020300A20202020302E363139342020202D312E3632313220202020302E303135342043202020302020302020302020302020302020302020302020302020302020302020302020300A20202020302E383633382020202D302E3833333220202020302E303134382043202020302020302020302020302020302020302020302020302020302020302020302020300A20202020302E313839382020202D302E3335373320202020302E30313337204F202020302020302020302020302020302020302020302020302020302020302020302020300A2020202D312E323539302020202D302E3630363820202020302E303132352043202020302020302020302020302020302020302020302020302020302020302020302020300A2020202D302E363831342020202D322E3330363220202020302E30313437204F202020302020302020302020302020302020302020302020302020302020302020302020300A2020202D302E3934383220202020302E3234313720202020302E323438382043202020302020302020302020302020302020302020302020302020302020302020302020300A2020202D302E3934313620202020312E3036353020202020302E32393936204E202020302020302020302020302020302020302020302020302020302020302020302020300A2020202D302E3234303320202020312E3438313220202020302E313733322043202020302020302020302020302020302020302020302020302020302020302020302020300A20202020302E3435353820202020312E303732362020202D302E303034342043202020302020302020302020302020302020302020302020302020302020302020302020300A20202020302E3434393220202020302E323439332020202D302E303535332043202020302020302020302020302020302020302020302020302020302020302020302020300A2020202D302E323533352020202D302E3136363920202020302E30373134204E202020302020302020302020302020302020302020302020302020302020302020302020300A20202020312E3232343120202020312E333330392020202D302E31353535204E202020302020302020302020302020302020302020302020302020302020302020302020300A20202020312E3639323120202020302E363636392020202D302E323939362043202020302020302020302020302020302020302020302020302020302020302020302020300A20202020312E323133342020202D302E303032312020202D302E32333738204E202020302020302020302020302020302020302020302020302020302020302020302020300A2020202D302E3234303320202020322E3330363220202020302E30313237204F202020302020302020302020302020302020302020302020302020302020302020302020300A20202020312E323032382020202D322E3230343520202020302E30313237204F202020302020302020302020302020302020302020302020302020302020302020302020300A2020202D312E363932312020202D312E3032363720202020302E30313237204F202020302020302020302020302020302020302020302020302020302020302020302020300A2020202D312E363635392020202D302E3136353020202020302E32343838204F202020302020302020302020302020302020302020302020302020302020302020302020300A2020312020322020312020302020202020200A2020322020332020312020302020202020200A2020332020342020312020302020202020200A2020342020352020312020302020202020200A2020352020312020312020302020202020200A2020312020362020312020312020202020200A2020322020372020312020362020202020200A2020382020392020312020302020202020200A2020392031302020312020302020202020200A2031302031312020312020302020202020200A2031312031322020322020302020202020200A2031322031332020312020302020202020200A2020382031332020312020302020202020200A2031312031342020312020302020202020200A2031342031352020322020302020202020200A2031352031362020312020302020202020200A2031322031362020312020302020202020200A2020342031362020312020312020202020200A2031302031372020322020302020202020200A2020332031382020312020362020202020200A2020362031392020312020302020202020200A2020382032302020322020302020202020200A4D2020454E44
Contributor: Tsuzimoto Y, Tsugawa H, Bamba T, Fukusaki E, engineering department, Osaka Univ.
InstType: EI
InstName: Pegasus II TOF-MS system, Leco; GC 6890, Agilent Technologies
IoniMethod: EI
IonPolarity: pos
Date: 2010-10-09 19:48:36+02:00
Num Peaks: 339
85 41 86 33 87 35 88 12 89 67 90 8 91 6 92 6 93 5 94 6 
95 13 96 7 97 30 98 19 99 52 100 148 101 118 102 36 103 585 104 58 
105 36 106 5 107 5 108 3 109 8 110 8 111 42 112 14 113 57 114 16 
115 121 116 63 117 155 118 22 119 29 120 6 121 4 122 4 123 6 124 8 
125 13 126 18 127 31 128 15 129 194 130 33 131 184 132 45 133 213 134 35 
135 28 136 8 137 6 138 12 139 8 140 11 141 25 142 33 143 89 144 34 
145 38 146 19 147 999 148 161 149 114 150 16 151 10 152 8 153 21 154 7 
155 12 156 13 157 52 158 69 159 23 160 11 161 8 162 2 163 7 164 8 
165 7 166 23 167 9 168 10 169 118 170 23 171 22 172 15 173 15 174 18 
175 10 176 5 177 8 178 6 179 5 180 8 181 8 182 6 183 6 184 6 
185 7 186 4 187 6 188 6 189 40 190 13 191 25 192 10 193 9 194 9 
195 5 196 3 197 5 198 4 199 4 200 2 201 5 202 3 203 9 204 14 
205 10 206 12 207 34 208 14 209 32 210 9 211 7 212 3 213 1 214 2 
215 17 216 7 217 336 218 77 219 41 220 11 221 11 222 11 223 14 224 9 
225 6 226 2 227 2 228 2 229 14 230 569 231 141 232 64 233 15 234 9 
235 7 236 5 237 18 238 17 239 9 240 6 241 3 242 2 243 158 244 47 
245 486 246 114 247 51 248 11 249 6 250 4 251 6 252 10 253 5 254 5 
255 2 256 2 257 15 258 42 259 108 260 31 261 14 262 3 263 3 264 4 
265 46 266 20 267 10 268 4 269 3 270 1 271 1 273 1 275 1 276 1 
277 4 278 4 279 22 280 18 281 217 282 80 283 42 284 12 285 4 286 1 
287 1 288 1 289 2 291 4 292 4 293 6 294 11 295 57 296 41 297 171 
298 50 299 21 300 5 301 3 302 2 303 1 304 2 305 3 306 2 307 8 
308 5 309 12 310 8 311 4 312 2 313 1 314 1 316 1 317 1 318 2 
319 5 320 6 321 17 322 9 323 9 324 22 325 658 326 194 327 77 328 16 
329 4 330 1 331 2 332 1 333 4 334 2 335 4 336 6 337 6 338 4 
339 5 340 2 341 1 347 3 348 35 349 14 350 8 351 5 352 5 353 30 
354 19 355 11 356 4 357 2 362 1 363 1 364 1 365 2 366 2 367 16 
368 57 369 220 370 93 371 43 372 13 373 4 374 1 375 2 376 2 377 1 
380 1 381 3 382 3 383 2 384 2 385 1 393 1 394 3 395 21 396 12 
397 10 398 6 399 3 400 2 409 4 410 11 411 47 412 23 413 11 414 4 
415 1 422 2 423 12 424 8 425 6 426 14 427 9 428 4 429 1 430 1 
435 1 436 1 437 1 438 1 439 1 440 1 442 1 443 1 449 3 450 1 
451 4 452 2 459 1 464 3 465 5 466 3 467 2 468 1 481 1 482 3 
483 8 484 6 485 4 486 2 487 1 488 1 497 1 498 2 499 1 
