Name: D-Arabitol
CAS: 488-82-4
MW: 152
Formula: C5H12O5
Synonym: CID: 94154
Synonym: MassBank: OUF00160
Synonym: D-Arabitol
Structure: 4330303030313135362E6364780A20204368656D447261773132323630383139313232440A2031332031322020302020302020302020302020302020302020302020303939392056323030300A2020202D302E3839363320202020302E3332303120202020302E303030302043202020302020302020302020302020302020302020302020302020302020302020302020300A2020202D302E303732392020202D302E3135353320202020302E303030302043202020302020302020302020302020302020302020302020302020302020302020302020300A20202020302E3638373620202020302E3238333820202020302E303030302043202020302020302020302020302020302020302020302020302020302020302020302020300A20202020302E313333322020202D302E3932343520202020302E30303030204F202020302020302020302020302020302020302020302020302020302020302020302020300A2020202D302E3534373320202020302E3932343520202020302E30303030204F202020302020302020302020302020302020302020302020302020302020302020302020300A2020202D312E3136323420202020302E3738313020202020302E303030302048202020302020302020302020302020302020302020302020302020302020302020302020300A20202020302E3336323220202020302E3630393220202020302E303030302048202020302020302020302020302020302020302020302020302020302020302020302020300A20202020302E3935303120202020302E3733383420202020302E30303030204F202020302020302020302020302020302020302020302020302020302020302020302020300A2020202D302E333532362020202D302E3633393720202020302E303030302048202020302020302020302020302020302020302020302020302020302020302020302020300A20202020302E3839363320202020302E3037373520202020302E303030302043202020302020302020302020302020302020302020302020302020302020302020302020300A20202020312E363130382020202D302E3333353020202020302E30303030204F202020302020302020302020302020302020302020302020302020302020302020302020300A2020202D312E3631303820202020302E3332333620202020302E303030302043202020302020302020302020302020302020302020302020302020302020302020302020300A2020202D302E383936332020202D302E3038383920202020302E30303030204F202020302020302020302020302020302020302020302020302020302020302020302020300A2020312020322020312020302020202020200A2020322020332020312020302020202020200A2020322020342020312020312020202020200A2020312020352020312020312020202020200A2020312020362020312020362020202020200A2020332020372020312020312020202020200A2020332020382020312020362020202020200A2020322020392020312020362020202020200A2020332031302020312020302020202020200A2031302031312020312020302020202020200A2020312031322020312020302020202020200A2031322031332020312020302020202020200A4D202053545920203120202031205355500A4D2020534C4220203120202031202020310A4D202053414C2020203120203220203130202031310A4D202053424C20202031202031202020390A4D2020534D5420202031204348324F480A4D2020534256202020312020392020202D332E3537313020202020312E373834350A4D202053545920203120202032205355500A4D2020534C4220203120202032202020320A4D202053414C2020203220203220203132202031330A4D202053424C20202032202031202031310A4D2020534D5420202032204348324F480A4D2020534256202020322031312020202D342E3439343120202020312E393934320A4D2020454E44
Contributor: Tsuzimoto Y, Tsugawa H, Bamba T, Fukusaki E, engineering department, Osaka Univ.
InstType: EI
InstName: Pegasus II TOF-MS system, Leco; GC 6890, Agilent Technologies
IoniMethod: EI
IonPolarity: pos
Date: 2010-10-09 19:48:36+02:00
Num Peaks: 164
85 15 86 4 87 26 88 23 89 99 90 11 91 5 92 1 94 2 95 1 
96 1 97 6 98 3 99 17 100 3 101 102 102 17 103 998 104 96 105 48 
106 3 107 1 109 1 111 10 112 2 113 24 114 4 115 24 116 46 117 365 
118 40 119 34 120 4 121 2 125 2 126 2 127 9 128 3 129 430 130 56 
131 109 132 17 133 226 134 33 135 22 136 2 137 1 139 1 141 5 142 7 
143 37 144 6 145 16 146 5 147 999 148 159 149 106 150 13 151 7 152 1 
153 5 154 1 155 17 156 3 157 65 158 9 159 10 160 2 161 10 162 2 
163 14 164 2 165 1 167 1 168 1 169 4 170 7 171 10 172 2 173 5 
174 2 175 23 176 5 177 14 178 3 179 2 182 1 183 1 185 1 186 1 
187 2 188 1 189 118 190 30 191 92 192 18 193 9 194 1 201 3 202 3 
203 53 204 148 205 309 206 67 207 40 208 7 209 2 215 5 216 4 217 944 
218 236 219 97 220 17 221 34 222 8 223 4 224 1 229 17 230 7 231 6 
232 1 233 1 242 3 243 60 244 15 245 9 246 2 247 2 248 1 249 1 
263 1 265 2 277 33 278 15 279 7 280 2 291 14 292 5 293 3 305 8 
306 15 307 123 308 40 309 18 310 4 317 17 318 9 319 113 320 37 321 17 
322 4 323 1 331 1 332 17 333 7 334 3 335 1 395 5 396 2 397 1 
409 1 422 3 423 1 424 1 
