Name: DL-Homocysteine
CAS: 454-29-5
MW: 135
Formula: C4H9NO2S
Synonym: KEGG: C05330
Synonym: CID: 778
Synonym: MassBank: OUF00193
Synonym: DL-Homocysteine
Structure: 310A32300A200A200A200A2020382020372020302020302020302020302020302020302020302020303939392056323030300A20202033302E3330393220202D32312E3937303220202020302E303030302043202020302020302020332020302020302020302020302020302020302020302020302020300A20202033312E3836373020202D32312E3538363920202020302E303030302043202020302020302020302020302020302020302020302020302020302020302020302020300A20202032392E3334313620202D32312E3030393020202020302E303030302043202020302020302020302020302020302020302020302020302020302020302020302020300A20202032392E3633303720202D32332E3136333720202020302E30303030204E202020302020302020302020302020302020302020302020302020302020302020302020300A20202033322E3831353620202D32322E3536373020202020302E303030302043202020302020302020302020302020302020302020302020302020302020302020302020300A20202032382E3032383620202D32312E3337333320202020302E30303030204F202020302020302020302020302020302020302020302020302020302020302020302020300A20202032392E3639393820202D31392E3638393620202020302E30303030204F202020302020302020302020302020302020302020302020302020302020302020302020300A20202033342E3134313220202D32322E3234303420202020302E303030302053202020302020302020302020302020302020302020302020302020302020302020302020300A2020312020322020312020302020202020302020300A2020312020332020312020302020202020302020300A2020312020342020312020302020202020302020300A2020322020352020312020302020202020302020300A2020332020362020312020302020202020302020300A2020332020372020322020302020202020302020300A2020352020382020312020302020202020302020300A4D2020454E44
Contributor: Tsuzimoto Y, Tsugawa H, Bamba T, Fukusaki E, engineering department, Osaka Univ.
InstType: EI
InstName: Pegasus II TOF-MS system, Leco; GC 6890, Agilent Technologies
IoniMethod: EI
IonPolarity: pos
Date: 2010-10-09 19:48:36+02:00
Num Peaks: 85
85 7 86 18 87 9 88 96 89 6 90 9 91 14 92 2 98 9 99 1 
100 139 101 14 102 8 103 26 104 2 105 17 112 9 114 44 115 23 116 5 
117 10 118 13 119 15 120 1 126 7 128 999 129 144 130 64 131 21 132 24 
133 34 134 5 135 3 144 3 146 12 147 144 148 18 149 12 156 1 157 2 
158 2 159 1 160 360 161 92 162 100 163 11 164 1 165 2 172 5 173 1 
174 6 188 14 189 2 190 4 191 1 193 1 194 5 202 20 203 4 206 3 
208 1 213 1 217 1 218 117 219 21 220 6 221 1 222 4 223 2 246 2 
253 1 277 5 278 230 279 64 280 27 281 5 291 5 292 2 312 15 313 2 
322 1 338 1 346 1 374 1 437 1 
