Name: 4-Hydroxyphenylpyruvate
CAS: 156-39-8
MW: 180
Formula: C9H8O4
Synonym: KEGG: C01179
Synonym: CID: 979
Synonym: MassBank: OUF00066
Synonym: 4-Hydroxyphenylpyruvate
Structure: 310A33310A20204143442F4C6162733132303230363039303332440A2031332031332020302020302020302020302020302020302020302020302020312056323030300A20202020392E363132362020202D392E3635343520202020302E303030302043202020302020302020302020302020302020302020302020302020302020302020302020300A20202020392E3631323620202D31302E3938343520202020302E303030302043202020302020302020302020302020302020302020302020302020302020302020302020300A20202020382E343630372020202D382E3938393520202020302E303030302043202020302020302020302020302020302020302020302020302020302020302020302020300A20202020382E3436303720202D31312E3634393520202020302E303030302043202020302020302020302020302020302020302020302020302020302020302020302020300A20202020372E333038392020202D392E3635343520202020302E303030302043202020302020302020302020302020302020302020302020302020302020302020302020300A20202020372E3330383920202D31302E3938343520202020302E303030302043202020302020302020302020302020302020302020302020302020302020302020302020300A20202020382E3436303620202D31322E3937393520202020302E30303030204F202020302020302020302020302020302020302020302020302020302020302020302020300A20202020382E343630362020202D372E3635393520202020302E303030302043202020302020302020302020302020302020302020302020302020302020302020302020300A20202020392E363132342020202D362E3939343520202020302E303030302043202020302020302020302020302020302020302020302020302020302020302020302020300A20202020392E363132342020202D352E3636343520202020302E303030302043202020302020302020302020302020302020302020302020302020302020302020302020300A20202031302E373634332020202D372E3635393520202020302E30303030204F202020302020302020302020302020302020302020302020302020302020302020302020300A20202031302E373634322020202D342E3939393520202020302E30303030204F202020302020302020302020302020302020302020302020302020302020302020302020300A20202020382E343630362020202D342E3939393520202020302E30303030204F202020302020302020302020302020302020302020302020302020302020302020302020300A2020322020312020312020302020302020302020300A2020332020312020322020302020302020302020300A2020342020322020322020302020302020302020300A2020352020332020312020302020302020302020300A2020362020342020312020302020302020302020300A2020362020352020322020302020302020302020300A2020342020372020312020302020302020302020300A2020332020382020312020302020302020302020300A2020382020392020312020302020302020302020300A2020392031302020312020302020302020302020300A2020392031312020322020302020302020302020300A2031302031322020312020302020302020302020300A2031302031332020322020302020302020302020300A4D2020454E44
Contributor: Tsuzimoto Y, Tsugawa H, Bamba T, Fukusaki E, engineering department, Osaka Univ.
InstType: EI
InstName: Pegasus II TOF-MS system, Leco; GC 6890, Agilent Technologies
IoniMethod: EI
IonPolarity: pos
Date: 2010-10-09 19:48:36+02:00
Num Peaks: 156
85 28 86 14 87 8 88 9 89 277 90 54 91 64 92 8 93 9 94 3 
95 17 96 2 97 1 98 3 99 3 100 10 101 4 102 13 103 46 104 36 
105 35 106 5 107 25 108 2 109 5 110 1 111 2 112 1 114 5 115 21 
116 181 117 42 118 5 119 14 120 5 121 23 122 3 123 4 124 2 125 1 
128 5 129 5 130 26 131 24 132 24 133 26 134 14 135 102 136 18 137 7 
138 1 142 3 143 2 144 3 145 9 146 9 147 51 148 18 149 82 150 38 
151 13 152 1 156 2 158 6 159 6 160 66 161 35 162 88 163 77 164 28 
165 14 166 4 169 1 170 3 171 2 172 5 173 5 174 31 175 14 176 12 
177 51 178 10 179 154 180 30 181 11 182 3 187 1 188 22 189 40 190 999 
191 193 192 58 193 12 194 1 195 1 196 1 197 1 202 3 203 5 204 100 
205 55 206 32 207 6 209 1 216 2 218 5 219 3 220 2 221 1 223 7 
224 2 230 1 231 2 232 46 233 11 234 8 235 3 236 2 237 1 246 2 
247 1 248 1 249 1 252 1 262 6 263 5 264 5 265 7 266 2 267 7 
268 3 269 1 276 1 277 199 278 186 279 101 280 43 281 11 282 2 294 1 
295 1 307 8 308 5 309 2 322 4 323 3 324 2 337 2 338 63 339 44 
340 12 341 2 352 1 353 32 354 22 355 6 
