Name: Dopa
CAS: 59-92-7
MW: 197
Formula: C9H11NO4
Synonym: KEGG: C00355
Synonym: CID: 6047
Synonym: MassBank: OUF00206
Synonym: Dopa
Structure: 4330303030313335372E6364780A20204368656D447261773132323630383139313932440A2031352031352020302020302020302020302020302020302020302020303939392056323030300A20202020302E383034372020202D302E3134303120202020302E303030302043202020302020302020302020302020302020302020302020302020302020302020302020300A20202020312E3231323820202020302E3434353020202020302E303030302043202020302020302020302020302020302020302020302020302020302020302020302020300A20202020312E3733323220202020302E3538343220202020302E30303030204F202020302020302020302020302020302020302020302020302020302020302020302020300A20202020302E3737353320202020302E3838323620202020302E30303030204F202020302020302020302020302020302020302020302020302020302020302020302020300A20202020312E333130312020202D302E3532313820202020302E303030302048202020302020302020302020302020302020302020302020302020302020302020302020300A20202020302E383034372020202D302E3838323620202020302E30303030204E202020302020302020302020302020302020302020302020302020302020302020302020300A20202020302E303632322020202D302E3136303820202020302E303030302043202020302020302020302020302020302020302020302020302020302020302020302020300A2020202D312E343834372020202D302E3136303820202020302E303030302043202020302020302020302020302020302020302020302020302020302020302020302020300A2020202D312E323330302020202D302E3630313920202020302E303030302043202020302020302020302020302020302020302020302020302020302020302020302020300A2020202D302E373230362020202D302E3630313920202020302E303030302043202020302020302020302020302020302020302020302020302020302020302020302020300A2020202D302E343635392020202D302E3136303820202020302E303030302043202020302020302020302020302020302020302020302020302020302020302020302020300A2020202D302E3732303620202020302E3238303420202020302E303030302043202020302020302020302020302020302020302020302020302020302020302020302020300A2020202D312E3233303020202020302E3238303420202020302E303030302043202020302020302020302020302020302020302020302020302020302020302020302020300A2020202D312E3532303320202020302E3537303720202020302E30303030204F202020302020302020302020302020302020302020302020302020302020302020302020300A2020202D312E373332322020202D302E3136303820202020302E30303030204F202020302020302020302020302020302020302020302020302020302020302020302020300A2020312020322020312020302020202020200A2020322020332020312020302020202020200A2020322020342020322020302020202020200A2020312020352020312020362020202020200A2020312020362020312020312020202020200A2020312020372020312020302020202020200A2020382020392020322020302020202020200A2020392031302020312020302020202020200A2031302031312020322020302020202020200A2031312031322020312020302020202020200A2031322031332020322020302020202020200A2031332020382020312020302020202020200A2031312020372020312020302020202020200A2031332031342020312020302020202020200A2020382031352020312020302020202020200A4D2020454E44
Contributor: Tsuzimoto Y, Tsugawa H, Bamba T, Fukusaki E, engineering department, Osaka Univ.
InstType: EI
InstName: Pegasus II TOF-MS system, Leco; GC 6890, Agilent Technologies
IoniMethod: EI
IonPolarity: pos
Date: 2010-10-09 19:48:36+02:00
Num Peaks: 159
85 4 86 16 87 6 88 2 89 5 90 2 91 9 92 2 93 3 95 2 
97 1 98 1 99 4 100 232 101 43 102 17 103 21 104 12 105 15 106 2 
107 2 109 1 113 1 114 1 115 13 116 5 117 15 118 4 119 14 120 1 
121 2 128 2 129 6 130 30 131 28 132 30 133 37 134 8 135 7 136 1 
137 2 143 1 144 4 145 4 146 7 147 136 148 24 149 31 150 6 151 6 
152 1 153 1 157 1 158 3 159 6 160 6 161 7 162 3 163 13 164 3 
165 5 166 5 167 2 172 3 173 1 174 6 175 3 176 1 177 7 178 2 
179 148 180 26 181 28 182 4 183 1 184 1 188 2 189 2 190 4 191 12 
192 4 193 7 194 1 195 3 196 1 202 3 203 9 204 3 205 3 206 2 
207 6 208 2 209 4 210 1 216 1 217 4 218 999 219 199 220 90 221 14 
222 4 223 4 224 1 233 1 235 1 237 7 238 1 248 1 249 1 250 1 
251 3 252 1 253 2 264 1 265 6 266 2 267 105 268 36 269 13 270 3 
278 1 279 2 280 28 281 12 282 4 283 1 291 7 292 2 293 1 294 1 
295 3 296 1 306 2 307 2 308 1 353 2 354 2 355 1 366 1 367 7 
368 39 369 18 370 8 371 2 379 1 380 8 381 4 382 2 441 1 442 7 
443 5 444 2 445 1 469 1 470 5 471 3 472 1 485 1 486 1 
