Name: D-(+)-Turanose
CAS: 547-25-1
MW: 342
Formula: C12H22O11
Synonym: MassBank: OUF00219
Synonym: D-(+)-Turanose
Structure: 35343732342D39352D372E6D6F6C0A20204368656D447261773038303431303037343032440A2032332032342020302020302020302020302020302020302020302020303939392056323030300A20202020302E383535332020202D302E3731323020202020302E303030302043202020302020302020302020302020302020302020302020302020302020302020302020300A20202020312E343935362020202D312E3234323620202020302E303030302043202020302020302020302020302020302020302020302020302020302020302020302020300A20202020302E303738342020202D302E3938393620202020302E30303030204F202020302020302020302020302020302020302020302020302020302020302020302020300A20202020302E3939383620202020302E3038393620202020302E303030302043202020302020302020302020302020302020302020302020302020302020302020302020300A20202020322E323732362020202D302E3936373220202020302E30303030204F202020302020302020302020302020302020302020302020302020302020302020302020300A20202020312E393134332020202D312E3936353820202020302E303030302043202020302020302020302020302020302020302020302020302020302020302020302020300A20202020302E383636352020202D312E3737313020202020302E30303030204F202020302020302020302020302020302020302020302020302020302020302020302020300A2020202D302E353436332020202D302E3437303220202020302E303030302043202020302020302020302020302020302020302020302020302020302020302020302020300A20202020312E3737353520202020302E3337313720202020302E303030302043202020302020302020302020302020302020302020302020302020302020302020302020300A20202020302E3337313720202020302E3632303220202020302E30303030204F202020302020302020302020302020302020302020302020302020302020302020302020300A20202020322E343135392020202D302E3136313220202020302E303030302043202020302020302020302020302020302020302020302020302020302020302020302020300A20202020322E373338322020202D312E3937323520202020302E30303030204F202020302020302020302020302020302020302020302020302020302020302020302020300A2020202D302E3339383520202020302E3333333620202020302E30303030204F202020302020302020302020302020302020302020302020302020302020302020302020300A2020202D312E333235342020202D302E3734373820202020302E303030302043202020302020302020302020302020302020302020302020302020302020302020302020300A20202020312E3932313020202020312E3138343420202020302E30303030204F202020302020302020302020302020302020302020302020302020302020302020302020300A2020202D312E3034353620202020302E3836363520202020302E303030302043202020302020302020302020302020302020302020302020302020302020302020302020300A2020202D312E393635382020202D302E3231323720202020302E303030302043202020302020302020302020302020302020302020302020302020302020302020302020300A2020202D312E343733322020202D312E3535383320202020302E30303030204F202020302020302020302020302020302020302020302020302020302020302020302020300A2020202D312E3831353820202020302E3539313120202020302E303030302043202020302020302020302020302020302020302020302020302020302020302020302020300A2020202D302E3839353520202020312E3638353920202020302E303030302043202020302020302020302020302020302020302020302020302020302020302020302020300A2020202D322E373338322020202D302E3439343820202020302E30303030204F202020302020302020302020302020302020302020302020302020302020302020302020300A2020202D322E3435363120202020312E3132343020202020302E30303030204F202020302020302020302020302020302020302020302020302020302020302020302020300A2020202D302E3130393720202020312E3937323520202020302E30303030204F202020302020302020302020302020302020302020302020302020302020302020302020300A2020312020322020312020302020202020200A2020312020332020312020312020202020200A2020312020342020312020302020202020200A2020322020352020312020302020202020200A2020322020362020312020302020202020200A2020322020372020312020302020202020200A2020382020332020312020362020202020200A2020342020392020312020302020202020200A2020342031302020312020362020202020200A2020352031312020312020302020202020200A2020362031322020312020302020202020200A2020382031332020312020302020202020200A2020382031342020312020302020202020200A2020392031352020312020362020202020200A2020392031312020312020302020202020200A2031332031362020312020302020202020200A2031342031372020312020302020202020200A2031342031382020312020362020202020200A2031362031392020312020302020202020200A2031362032302020312020312020202020200A2031372032312020312020312020202020200A2031372031392020312020302020202020200A2031392032322020312020362020202020200A2032302032332020312020302020202020200A4D2020454E44
Contributor: Tsuzimoto Y, Tsugawa H, Bamba T, Fukusaki E, engineering department, Osaka Univ.
InstType: EI
InstName: Pegasus II TOF-MS system, Leco; GC 6890, Agilent Technologies
IoniMethod: EI
IonPolarity: pos
Date: 2010-10-09 19:48:36+02:00
Num Peaks: 280
85 30 86 14 87 27 88 20 89 201 90 21 91 11 92 1 93 1 94 6 
95 4 96 5 97 9 98 7 99 23 100 22 101 80 102 22 103 799 104 83 
105 44 106 5 107 2 108 4 109 18 110 10 111 15 112 8 113 36 114 87 
115 33 116 39 117 402 118 47 119 46 120 5 121 2 122 1 123 1 124 5 
125 4 126 33 127 23 128 16 129 321 130 51 131 90 132 21 133 215 134 34 
135 21 136 2 137 1 138 3 139 8 140 11 141 15 142 24 143 59 144 14 
145 24 146 6 147 999 148 167 149 118 150 16 151 9 152 7 153 13 154 15 
155 39 156 28 157 48 158 12 159 17 160 5 161 11 162 2 163 27 164 5 
165 3 166 6 167 5 168 18 169 136 170 30 171 21 172 20 173 41 174 11 
175 22 176 6 177 15 178 4 179 3 180 11 181 7 182 7 183 14 184 7 
185 5 186 9 187 7 188 6 189 88 190 41 191 239 192 51 193 25 194 4 
195 2 196 10 197 4 198 12 199 8 200 4 201 12 202 36 203 31 204 449 
205 456 206 120 207 51 208 9 209 3 210 1 212 4 213 2 214 77 215 31 
216 20 217 589 218 162 219 75 220 15 221 30 222 9 223 4 224 1 226 1 
227 5 228 9 229 29 230 22 231 31 232 13 233 17 234 5 235 2 238 1 
239 2 240 6 241 9 242 10 243 66 244 103 245 54 246 24 247 11 248 3 
249 1 250 1 252 1 253 1 254 5 255 5 256 22 257 17 258 10 259 10 
260 35 261 20 262 12 263 47 264 20 265 11 266 3 267 2 268 6 269 4 
270 8 271 53 272 30 273 15 274 7 275 55 276 173 277 94 278 40 279 16 
280 4 281 1 283 1 284 1 285 1 286 3 287 4 288 8 289 6 290 2 
291 16 292 10 293 4 294 1 295 1 300 4 301 2 302 3 303 2 304 4 
305 20 306 18 307 205 308 121 309 48 310 17 311 3 314 1 316 1 317 4 
318 5 319 20 320 13 321 5 322 2 328 1 329 1 330 2 331 20 332 19 
333 14 334 7 335 8 336 6 337 2 344 2 345 6 346 7 347 5 348 3 
349 2 358 2 359 5 360 15 361 194 362 140 363 58 364 28 365 10 366 2 
375 1 376 2 377 3 378 2 389 3 390 41 391 47 392 29 393 11 394 3 
395 1 407 1 434 1 435 3 436 2 449 1 450 3 451 3 452 2 464 1 
466 1 479 3 480 21 481 20 482 10 483 3 484 1 497 2 498 2 499 1 
