Name: D-Hydro-Orotate
CAS: 5988-53-4
MW: 158
Formula: C5H6N2O4
Synonym: CID: 1149667
Synonym: MassBank: OUF00180
Synonym: D-Hydro-Orotate
Structure: 353938382D33312D382E6D6F6C0A20204368656D447261773038303431303038303932440A2031312031312020302020302020302020302020302020302020302020303939392056323030300A20202020302E333739342020202D302E3430303520202020302E303030302043202020302020302020302020302020302020302020302020302020302020302020302020300A20202020302E3336393420202020302E3432343520202020302E303030302043202020302020302020302020302020302020302020302020302020302020302020302020300A2020202D302E333639342020202D302E3831363920202020302E30303030204E202020302020302020302020302020302020302020302020302020302020302020302020300A20202020312E303930322020202D302E3833353020202020302E303030302043202020302020302020302020302020302020302020302020302020302020302020302020300A2020202D302E3336393420202020302E3834313020202020302E303030302043202020302020302020302020302020302020302020302020302020302020302020302020300A2020202D312E303730322020202D302E3430303520202020302E303030302043202020302020302020302020302020302020302020302020302020302020302020302020300A20202020312E383039312020202D302E3431383520202020302E30303030204F202020302020302020302020302020302020302020302020302020302020302020302020300A20202020312E303830322020202D312E3635393920202020302E30303030204F202020302020302020302020302020302020302020302020302020302020302020302020300A2020202D312E3037303220202020302E3432343520202020302E30303030204E202020302020302020302020302020302020302020302020302020302020302020302020300A2020202D302E3336393420202020312E3635393920202020302E30303030204F202020302020302020302020302020302020302020302020302020302020302020302020300A2020202D312E383039312020202D302E3833353020202020302E30303030204F202020302020302020302020302020302020302020302020302020302020302020302020300A2020312020322020312020302020202020200A2020312020332020312020302020202020200A2020312020342020312020362020202020200A2020322020352020312020302020202020200A2020332020362020312020302020202020200A2020342020372020312020302020202020200A2020342020382020322020302020202020200A2020352020392020312020302020202020200A2020352031302020322020302020202020200A2020362031312020322020302020202020200A2020362020392020312020302020202020200A4D2020454E44
Contributor: Tsuzimoto Y, Tsugawa H, Bamba T, Fukusaki E, engineering department, Osaka Univ.
InstType: EI
InstName: Pegasus II TOF-MS system, Leco; GC 6890, Agilent Technologies
IoniMethod: EI
IonPolarity: pos
Date: 2010-10-09 19:48:36+02:00
Num Peaks: 153
85 30 86 49 87 18 88 5 89 9 91 1 92 2 93 7 94 1 95 13 
96 8 97 3 98 28 99 132 100 999 101 113 102 50 103 24 104 3 105 9 
106 1 109 1 110 1 111 4 112 6 113 21 114 13 115 32 116 16 117 43 
118 8 119 10 120 1 124 1 125 5 126 16 127 10 128 6 129 30 130 15 
131 91 132 41 133 108 134 17 135 10 136 1 139 2 140 7 141 3 142 73 
143 15 144 9 145 3 146 4 147 582 148 101 149 62 150 8 151 2 153 3 
154 13 155 4 156 6 157 16 158 137 159 23 160 13 161 7 162 1 167 2 
168 4 169 25 170 9 171 15 172 98 173 35 174 116 175 21 176 12 177 1 
183 5 184 6 185 25 186 5 187 2 188 31 189 8 190 4 191 1 197 1 
198 1 199 5 200 2 201 1 202 6 203 2 204 1 205 1 213 3 214 2 
215 3 216 4 217 2 221 1 225 2 227 3 228 5 229 2 230 10 231 5 
232 1 241 60 242 22 243 25 244 13 245 4 246 5 247 1 254 1 255 18 
256 18 257 679 258 159 259 68 260 11 261 2 262 2 269 12 270 2 271 17 
272 3 273 1 285 1 287 18 288 5 289 3 315 1 316 1 317 10 318 3 
319 2 329 2 330 2 331 34 332 18 333 8 334 2 358 5 359 125 360 50 
361 23 362 5 374 2 
