Name: Lauric acid
CAS: 143-07-7
MW: 200
Formula: C12H24O2
Synonym: KEGG: C02679
Synonym: CID: 3893
Synonym: MassBank: OUF00300
Synonym: Lauric acid
Structure: 4330303030313232312E6364780A20204368656D447261773132323630383139313532440A2031342031332020302020302020302020302020302020302020302020303939392056323030300A20202020302E353731392020202D312E3235373020202020302E303030302043202020302020302020302020302020302020302020302020302020302020302020302020300A20202020312E313131372020202D302E3731373220202020302E30303030204F202020302020302020302020302020302020302020302020302020302020302020302020300A20202020312E313139332020202D312E3830343420202020302E30303030204F202020302020302020302020302020302020302020302020302020302020302020302020300A2020202D312E323835302020202D312E3235313320202020302E303030302043202020302020302020302020302020302020302020302020302020302020302020302020300A2020202D332E3231353120202020312E3339313920202020302E303030302043202020302020302020302020302020302020302020302020302020302020302020302020300A2020202D322E3530303620202020312E3830343420202020302E303030302043202020302020302020302020302020302020302020302020302020302020302020302020300A2020202D312E3738363220202020312E3339313920202020302E303030302043202020302020302020302020302020302020302020302020302020302020302020302020300A2020202D312E3037313720202020312E3830343420202020302E303030302043202020302020302020302020302020302020302020302020302020302020302020302020300A2020202D302E3335373220202020312E3339313920202020302E303030302043202020302020302020302020302020302020302020302020302020302020302020302020300A20202020302E3335373220202020312E3830343420202020302E303030302043202020302020302020302020302020302020302020302020302020302020302020302020300A20202020312E3037313720202020312E3339313920202020302E303030302043202020302020302020302020302020302020302020302020302020302020302020302020300A20202020312E3738363220202020312E3830343420202020302E303030302043202020302020302020302020302020302020302020302020302020302020302020302020300A20202020322E3530303620202020312E3339313920202020302E303030302043202020302020302020302020302020302020302020302020302020302020302020302020300A20202020332E3231353120202020312E3830343420202020302E303030302043202020302020302020302020302020302020302020302020302020302020302020302020300A2020312020322020322020302020202020200A2020312020332020312020302020202020200A2020312031342020312020302020202020200A2020342020352020312020302020202020200A2020352020362020312020302020202020200A2020362020372020312020302020202020200A2020372020382020312020302020202020200A2020382020392020312020302020202020200A2020392031302020312020302020202020200A2031302031312020312020302020202020200A2031312031322020312020302020202020200A2031322031332020312020302020202020200A2031332031342020312020302020202020200A4D202053545920203120202031205355500A4D2020534C4220203120202031202020310A4D202053414C20202031203130202020352020203620202037202020382020203920203130202031312020313220203133202031340A4D202053424C2020203120203220202033202020340A4D2020534D542020203120284348322931300A4D20205342562020203120203320202020302E3032323420202020332E303231330A4D2020534256202020312020342020202D342E3535313020202020322E363033310A4D2020454E44
Contributor: Tsuzimoto Y, Tsugawa H, Bamba T, Fukusaki E, engineering department, Osaka Univ.
InstType: EI
InstName: Pegasus II TOF-MS system, Leco; GC 6890, Agilent Technologies
IoniMethod: EI
IonPolarity: pos
Date: 2010-10-09 19:48:36+02:00
Num Peaks: 96
85 29 86 17 87 13 88 11 89 32 90 6 91 13 92 3 93 17 94 4 
95 69 96 10 97 41 98 33 99 26 100 4 101 23 102 5 103 8 105 40 
106 4 107 7 108 1 109 21 110 3 111 17 112 9 113 3 114 2 115 13 
116 77 117 999 118 105 119 44 120 2 121 5 123 3 125 4 126 15 127 5 
128 5 129 425 130 56 131 203 132 379 133 65 134 19 135 4 139 6 140 3 
141 3 142 2 143 35 144 5 145 153 146 22 147 10 149 1 153 2 155 1 
157 16 158 2 159 21 160 3 161 1 163 2 171 18 172 2 173 12 174 2 
175 1 181 1 183 1 185 19 186 2 187 17 188 3 191 9 199 3 201 29 
202 5 213 18 214 3 215 5 216 1 227 3 229 17 230 4 243 4 256 1 
257 271 258 58 259 18 260 2 272 13 273 3 
