Name: Tyramine
CAS: 51-67-2
MW: 137
Formula: C8H11NO
Synonym: KEGG: C00483
Synonym: CID: 5610
Synonym: MassBank: OUF00480
Synonym: Tyramine
Structure: 4330303030313433352E6364780A20204368656D447261773132323630383139323232440A2031302031302020302020302020302020302020302020302020302020303939392056323030300A2020202D302E393539342020202D302E3530303420202020302E303030302043202020302020302020302020302020302020302020302020302020302020302020302020300A2020202D302E333831352020202D302E3530303420202020302E303030302043202020302020302020302020302020302020302020302020302020302020302020302020300A2020202D302E3039323620202020302E3030303020202020302E303030302043202020302020302020302020302020302020302020302020302020302020302020302020300A2020202D302E3338313520202020302E3530303420202020302E303030302043202020302020302020302020302020302020302020302020302020302020302020302020300A2020202D302E3935393420202020302E3530303420202020302E303030302043202020302020302020302020302020302020302020302020302020302020302020302020300A2020202D312E3234383320202020302E3030303020202020302E303030302043202020302020302020302020302020302020302020302020302020302020302020302020300A20202020302E3438343920202020302E3030303020202020302E303030302043202020302020302020302020302020302020302020302020302020302020302020302020300A20202020302E3934383620202020302E3436333720202020302E303030302043202020302020302020302020302020302020302020302020302020302020302020302020300A20202020312E3535383620202020302E3436333720202020302E30303030204E202020302020302020302020302020302020302020302020302020302020302020302020300A2020202D312E3535383620202020302E3030303020202020302E30303030204F202020302020302020302020302020302020302020302020302020302020302020302020300A2020312020322020322020302020202020200A2020322020332020312020302020202020200A2020332020342020322020302020202020200A2020342020352020312020302020202020200A2020352020362020322020302020202020200A2020362020312020312020302020202020200A2020332020372020312020302020202020200A2020372020382020312020302020202020200A2020382020392020312020302020202020200A2020362031302020312020302020202020200A4D2020454E44
Contributor: Tsuzimoto Y, Tsugawa H, Bamba T, Fukusaki E, engineering department, Osaka Univ.
InstType: EI
InstName: Pegasus II TOF-MS system, Leco; GC 6890, Agilent Technologies
IoniMethod: EI
IonPolarity: pos
Date: 2010-10-09 19:48:36+02:00
Num Peaks: 107
85 9 86 366 87 37 88 15 89 16 90 12 91 23 92 2 93 2 95 3 
97 1 99 4 100 163 101 27 102 44 103 15 104 7 105 11 106 2 107 5 
109 2 113 4 114 4 115 9 116 17 117 30 118 6 119 8 120 1 121 6 
122 1 123 2 125 2 128 1 129 3 130 39 131 27 132 8 133 14 134 4 
135 13 136 2 137 2 142 1 143 2 144 9 145 7 146 9 147 11 148 5 
149 30 150 6 151 6 152 1 158 10 159 4 160 5 161 6 162 7 163 16 
164 13 165 12 166 2 169 1 172 10 173 4 174 999 175 187 176 85 177 19 
178 4 179 42 180 11 181 3 190 10 191 3 192 4 193 8 194 2 195 2 
206 1 207 6 208 2 209 2 219 1 221 2 222 1 223 5 224 1 232 1 
233 1 234 1 235 1 237 2 248 5 249 2 250 14 251 4 252 1 264 12 
265 4 266 2 337 1 338 30 339 12 340 5 341 1 
