Name: Sulfanilamide
CAS: 63-74-1
MW: 172
Formula: C6H8N2O2S
Synonym: KEGG: C07458
Synonym: CID: 5333
Synonym: MassBank: OUF00469
Synonym: Sulfanilamide
Structure: 310A32370A3C4341535F49443E2036332D37342D31093C4B4547475F49443E20433037343538093C4E414D453E2053756C66616E696C616D696465093C464F524D554C413E20433648384E324F3253093C45584143544D4153533E203137322E30333036343832093C415645524147454D4153533E203137322E323036093C534D494C45533E204E63286331296363632863312953284E29283D4F293D4F093C434F505952494748543E2041524D2050524F4A45435420687474703A2F2F7777772E6D657461626F6C6F6D652E6A702F0A2031312031312020302020302020302020302020302020302020302020303939392056323030300A20202032372E3938313420202D31352E3837393020202020302E303030302053202020302020302020332020302020302020302020302020302020302020302020302020300A20202032362E3830333820202D31362E3536363920202020302E303030302043202020302020302020302020302020302020302020302020302020302020302020302020300A20202032392E3232333020202D31352E3033333820202020302E30303030204E202020302020302020302020322020302020302020302020302020302020302020302020300A20202032392E3131383120202D31362E3838373420202020302E30303030204F202020302020302020302020302020302020302020302020302020302020302020302020300A20202032362E3839313420202D31342E3834373220202020302E30303030204F202020302020302020302020302020302020302020302020302020302020302020302020300A20202032352E3632363420202D31352E3839303720202020302E303030302043202020302020302020302020312020302020302020302020302020302020302020302020300A20202032362E3830393720202D31372E3933303920202020302E303030302043202020302020302020302020312020302020302020302020302020302020302020302020300A20202032342E3434383820202D31362E3537383520202020302E303030302043202020302020302020302020312020302020302020302020302020302020302020302020300A20202032352E3633383120202D31382E3631323820202020302E303030302043202020302020302020302020312020302020302020302020302020302020302020302020300A20202032342E3436303520202D31372E3934323620202020302E303030302043202020302020302020302020302020302020302020302020302020302020302020302020300A20202032332E3239343820202D31382E3633303420202020302E30303030204E202020302020302020302020322020302020302020302020302020302020302020302020300A2020312020322020312020302020302020302020300A2020312020332020312020302020302020302020300A2020312020342020322020302020302020302020300A2020312020352020322020302020302020302020300A2020322020362020322020302020302020302020300A2020322020372020312020302020302020302020300A2020362020382020312020302020302020302020300A2020372020392020322020302020302020302020300A2020382031302020322020302020302020302020300A2031302031312020312020302020302020302020300A2020392031302020312020302020302020302020300A4D2020454E44
Contributor: Tsuzimoto Y, Tsugawa H, Bamba T, Fukusaki E, engineering department, Osaka Univ.
InstType: EI
InstName: Pegasus II TOF-MS system, Leco; GC 6890, Agilent Technologies
IoniMethod: EI
IonPolarity: pos
Date: 2010-10-09 19:48:36+02:00
Num Peaks: 172
85 31 86 28 87 14 88 7 89 36 90 51 91 155 92 70 93 84 94 52 
95 61 96 45 97 24 98 23 99 7 100 17 101 7 102 14 103 38 104 62 
105 89 106 131 107 66 108 71 109 28 110 44 111 17 112 10 113 6 114 5 
115 20 116 9 117 23 118 47 119 102 120 196 121 111 122 80 123 28 124 12 
125 3 126 2 127 3 128 16 129 5 130 27 131 36 132 199 133 116 134 458 
135 113 136 88 137 62 138 274 139 33 140 32 141 6 142 11 143 435 144 67 
145 11 146 84 147 328 148 379 149 337 150 129 151 40 152 15 153 7 154 6 
155 1 156 2 157 1 158 3 159 1 160 13 161 23 162 97 163 343 164 196 
165 77 166 92 167 20 168 9 169 1 170 2 172 1 176 8 177 17 178 258 
179 315 180 226 181 60 182 18 183 3 184 1 190 1 191 6 192 6 193 8 
194 14 195 8 196 11 197 6 198 2 204 3 205 3 206 10 207 5 208 10 
209 5 210 6 211 65 212 49 213 16 214 5 215 1 219 4 220 9 221 14 
222 227 223 57 224 27 225 4 226 1 227 15 228 57 229 40 230 9 231 3 
234 1 235 25 236 34 237 39 238 108 239 29 240 13 241 2 242 1 244 8 
245 1 249 1 251 11 252 12 253 55 254 14 255 9 256 1 283 1 285 12 
286 3 299 1 300 25 301 999 302 299 303 157 304 37 305 7 306 1 307 1 
308 1 309 2 310 2 312 2 315 17 316 475 317 138 318 74 319 15 320 4 
380 2 449 1 
