Name: DL-Glyceraldehyde
CAS: 56-82-6
MW: 90
Formula: C3H6O3
Synonym: KEGG: C02154
Synonym: CID: 751
Synonym: MassBank: OUF00251
Synonym: DL-Glyceraldehyde
Structure: 310A32380A4330303030373431332E6364780A20204368656D447261773132323930383037313432440A2020392020382020302020302020302020302020302020302020302020303939392056323030300A2020202D302E3236303220202020302E3337343220202020302E303030302043202020302020302020302020302020302020302020302020302020302020302020302020300A2020202D302E323630322020202D302E3338383920202020302E303030302043202020302020302020302020302020302020302020302020302020302020302020302020300A2020202D302E373331352020202D302E3338383920202020302E303030302048202020302020302020302020302020302020302020302020302020302020302020302020300A20202020302E323239332020202D302E3338383920202020302E30303030204F202020302020302020302020302020302020302020302020302020302020302020302020300A2020202D302E3735323720202020302E3337343220202020302E303030302048202020302020302020302020302020302020302020302020302020302020302020302020300A20202020302E3231313220202020302E3337343220202020302E30303030204F202020302020302020302020302020302020302020302020302020302020302020302020300A2020202D302E323630322020202D302E3935393020202020302E303030302048202020302020302020302020302020302020302020302020302020302020302020302020300A20202020302E3033383220202020302E3935393020202020302E303030302043202020302020302020302020302020302020302020302020302020302020302020302020300A20202020302E3735323720202020302E3534363520202020302E30303030204F202020302020302020302020302020302020302020302020302020302020302020302020300A2020312020322020312020302020202020200A2020322020332020312020302020202020200A2020322020342020312020302020202020200A2020312020352020312020302020202020200A2020312020362020312020302020202020200A2020322020372020312020302020202020200A2020312020382020312020302020202020200A2020382020392020322020302020202020200A4D202053545920203120202031205355500A4D2020534C4220203120202031202020310A4D202053414C2020203120203220202038202020390A4D202053424C20202031202031202020370A4D2020534D54202020312043484F0A4D2020534256202020312020372020202D342E3437323720202020332E383735360A4D2020454E44
Contributor: Tsuzimoto Y, Tsugawa H, Bamba T, Fukusaki E, engineering department, Osaka Univ.
InstType: EI
InstName: Pegasus II TOF-MS system, Leco; GC 6890, Agilent Technologies
IoniMethod: EI
IonPolarity: pos
Date: 2010-10-09 19:48:36+02:00
Num Peaks: 117
85 59 86 81 87 60 88 82 89 613 90 60 91 43 97 1 98 20 99 43 
100 571 101 312 102 263 103 999 104 109 105 291 106 27 107 12 111 2 112 22 
113 12 114 80 115 79 116 65 117 369 118 47 119 66 120 9 121 4 122 1 
124 1 126 16 127 18 128 56 129 35 130 23 131 115 132 22 133 663 134 84 
135 56 136 6 139 4 142 25 143 18 144 12 145 9 146 9 147 978 148 166 
149 121 150 15 158 29 159 5 160 451 161 59 162 18 163 295 164 54 165 29 
172 14 173 18 174 35 175 32 176 5 186 12 187 6 188 2 189 48 190 24 
191 90 192 10 193 4 197 1 201 15 202 61 203 8 204 18 205 15 206 4 
208 1 216 48 217 129 218 32 219 11 232 41 233 15 235 1 238 1 248 20 
250 3 263 46 264 8 265 1 269 1 274 4 276 2 279 1 284 3 301 2 
314 1 328 4 339 1 344 4 360 1 386 4 390 1 391 1 415 1 430 2 
433 2 446 1 452 1 471 1 483 1 489 2 492 1 
