Name: a-MethylBenzylamine
CAS: 618-36-0
MW: 121
Formula: C8H11N
Synonym: KEGG: C02455
Synonym: CID: 7408
Synonym: MassBank: OUF00495
Synonym: a-MethylBenzylamine
Structure: 310A32330A2020392020392020302020302020302020302020302020302020302020302020312056323030300A20202D31372E3030303020202035302E3030303020202020302E303030302043202020302020302020302020302020302020302020302020302020302020300A20202020302E3030303020202034302E3030303020202020302E303030302043202020302020302020302020302020302020302020302020302020302020300A20202031382E3030303020202035302E3030303020202020302E30303030204E202020302020302020302020302020302020302020302020302020302020300A20202020302E3030303020202032302E3030303020202020302E303030302043202020302020302020302020302020302020302020302020302020302020300A20202D31372E3030303020202031302E3030303020202020302E303030302043202020302020302020302020302020302020302020302020302020302020300A20202031382E3030303020202031302E3030303020202020302E303030302043202020302020302020302020302020302020302020302020302020302020300A20202D31372E3030303020202D31312E3030303020202020302E303030302043202020302020302020302020302020302020302020302020302020302020300A20202031382E3030303020202D31312E3030303020202020302E303030302043202020302020302020302020302020302020302020302020302020302020300A20202020302E3030303020202D32312E3030303020202020302E303030302043202020302020302020302020302020302020302020302020302020302020300A2020312020322020312020302020302020302020300A2020322020332020312020302020302020302020300A2020322020342020312020302020302020302020300A2020342020352020322020302020302020302020300A2020342020362020312020302020302020302020300A2020352020372020312020302020302020302020300A2020362020382020322020302020302020302020300A2020372020392020322020302020302020302020300A2020382020392020312020302020302020302020300A4D2020454E44
Contributor: Tsuzimoto Y, Tsugawa H, Bamba T, Fukusaki E, engineering department, Osaka Univ.
InstType: EI
InstName: Pegasus II TOF-MS system, Leco; GC 6890, Agilent Technologies
IoniMethod: EI
IonPolarity: pos
Date: 2010-10-09 19:48:36+02:00
Num Peaks: 26
85 3 86 3 87 3 88 1 89 13 90 5 91 34 92 6 93 5 94 1 
100 1 102 13 103 50 104 96 105 41 106 999 107 83 108 2 117 2 118 5 
119 4 120 45 121 13 147 3 221 3 389 1 
