Name: Ketoisoleucine
CAS: 1460-34-0
MW: 130
Formula: C6H10O3
Synonym: KEGG: C03465
Synonym: CID: 47
Synonym: MassBank: OUF00287
Synonym: Ketoisoleucine
Structure: 310A32320A20204143442F4C6162733037313430393130333833440A2020392020382020302020302020302020302020302020302020302020302020312056323030300A20202031352E3738313420202D31332E3938313120202020302E303030302043202020302020302020302020302020302020302020302020302020302020302020302020300A20202031362E3933323720202D31342E3634363820202020302E303030302043202020302020302020302020302020302020302020302020302020302020302020302020300A20202031382E3039323820202D31332E3938353520202020302E303030302043202020302020302020302020302020302020302020302020302020302020302020302020300A20202031382E3039333620202D31322E3635353520202020302E303030302043202020302020302020302020302020302020302020302020302020302020302020302020300A20202031392E3234343420202D31342E3635313220202020302E303030302043202020302020302020302020302020302020302020302020302020302020302020302020300A20202032302E3339353720202D31332E3938373020202020302E303030302043202020302020302020302020302020302020302020302020302020302020302020302020300A20202032312E3534373620202D31342E3635323020202020302E30303030204F202020302020302020302020302020302020302020302020302020302020302020302020300A20202032302E3339353820202D31322E3635363920202020302E30303030204F202020302020302020302020302020302020302020302020302020302020302020302020300A20202031392E3234333620202D31352E3938313120202020302E30303030204F202020302020302020302020302020302020302020302020302020302020302020302020300A2020312020322020312020302020302020302020300A2020322020332020312020302020302020302020300A2020332020342020312020302020302020302020300A2020332020352020312020302020302020302020300A2020352020362020312020302020302020302020300A2020352020392020322020302020302020302020300A2020362020372020312020302020302020302020300A2020362020382020322020302020302020302020300A4D2020454E44
Contributor: Tsuzimoto Y, Tsugawa H, Bamba T, Fukusaki E, engineering department, Osaka Univ.
InstType: EI
InstName: Pegasus II TOF-MS system, Leco; GC 6890, Agilent Technologies
IoniMethod: EI
IonPolarity: pos
Date: 2010-10-09 19:48:36+02:00
Num Peaks: 90
85 207 86 178 87 31 88 15 89 999 90 89 91 60 92 5 93 4 94 5 
95 3 96 7 97 21 98 52 99 80 100 77 101 16 102 9 103 16 104 2 
105 17 106 1 108 2 109 3 110 196 111 17 112 39 113 297 114 204 115 151 
116 24 117 51 118 7 119 1 124 2 125 1 126 37 127 19 128 59 129 154 
130 22 131 9 140 57 141 41 142 26 143 16 144 8 145 2 150 1 151 1 
154 9 155 4 156 55 157 18 158 15 159 3 160 12 161 1 162 1 166 1 
167 1 170 2 171 2 172 139 173 26 174 15 175 2 177 1 181 1 183 1 
184 7 185 3 186 1 187 7 189 301 190 42 191 14 200 317 201 56 202 15 
203 128 204 17 205 3 216 290 217 52 218 14 231 1 295 1 361 1 418 1 
