Name: b-N-Methyl-amino-L-alanine
CAS: 15920-93-1
MW: 118
Formula: C4H10N2O2
Synonym: KEGG: C08291
Synonym: CID: 105089
Synonym: MassBank: OUF00501
Synonym: b-N-Methyl-amino-L-alanine
Structure: 310A32320A4330303030313338302E6364780A20204368656D447261773132323630383139323032440A2020392020382020302020302020302020302020302020302020302020303939392056323030300A20202020302E363030332020202D302E3131393520202020302E303030302043202020302020302020302020302020302020302020302020302020302020302020302020300A20202020302E3932353920202020302E3434353020202020302E303030302043202020302020302020302020302020302020302020302020302020302020302020302020300A20202020312E3434353320202020302E3538343220202020302E30303030204F202020302020302020302020302020302020302020302020302020302020302020302020300A20202020302E3438383420202020302E3838323620202020302E30303030204F202020302020302020302020302020302020302020302020302020302020302020302020300A20202020312E303233322020202D302E3532313820202020302E303030302048202020302020302020302020302020302020302020302020302020302020302020302020300A20202020302E353137382020202D302E3838323620202020302E30303030204E202020302020302020302020302020302020302020302020302020302020302020302020300A2020202D302E3132313620202020302E3030343220202020302E303030302043202020302020302020302020302020302020302020302020302020302020302020302020300A2020202D302E393236302020202D302E3131393520202020302E30303030204E202020302020302020302020302020302020302020302020302020302020302020302020300A2020202D312E343435332020202D302E3131393520202020302E303030302043202020302020302020302020302020302020302020302020302020302020302020302020300A2020312020322020312020302020202020200A2020322020332020312020302020202020200A2020322020342020322020302020202020200A2020312020352020312020362020202020200A2020312020362020312020312020202020200A2020312020372020312020302020202020200A2020372020382020312020302020202020200A2020382020392020312020302020202020200A4D2020454E44
Contributor: Tsuzimoto Y, Tsugawa H, Bamba T, Fukusaki E, engineering department, Osaka Univ.
InstType: EI
InstName: Pegasus II TOF-MS system, Leco; GC 6890, Agilent Technologies
IoniMethod: EI
IonPolarity: pos
Date: 2010-10-09 19:48:36+02:00
Num Peaks: 104
85 35 86 267 87 132 88 83 89 24 90 9 91 1 92 5 93 4 95 2 
96 2 97 1 98 19 99 60 100 475 101 851 102 234 103 96 104 18 105 18 
110 3 112 1 113 22 114 139 115 83 116 84 117 60 118 25 119 26 120 5 
121 2 122 3 123 1 125 5 126 1 127 10 128 33 129 427 130 102 131 181 
132 374 133 179 134 52 135 17 136 3 137 1 138 2 139 1 140 2 141 2 
142 4 143 12 144 72 145 93 146 33 147 772 148 220 149 91 150 17 151 5 
152 1 155 2 156 3 157 7 158 39 159 114 160 73 161 16 162 5 163 13 
166 1 170 1 171 1 172 5 173 1 174 34 175 7 176 135 177 38 178 11 
179 2 188 6 190 3 192 1 200 1 202 2 203 110 204 291 205 61 206 26 
216 3 217 1 218 49 219 999 220 202 221 92 222 9 223 2 232 4 290 1 
367 1 406 1 459 1 498 1 
