Name: Maltitol
CAS: 585-88-6
MW: 344
Formula: C12H24O11
Synonym: CID: 493591
Synonym: MassBank: OUF00339
Synonym: Maltitol
Structure: 310A35330A20204143442F4C6162733034323730393039303632440A2032342032342020302020302020312020302020302020302020302020302020312056323030300A20202020372E343635392020202D382E3130313520202020302E303030302043202020302020302020302020302020302020302020302020302020302020302020302020300A20202020362E363333332020202D382E3538323220202020302E303030302043202020302020302020302020302020302020302020302020302020302020302020302020300A20202020362E363333332020202D392E3534333720202020302E303030302043202020302020302020302020302020302020302020302020302020302020302020302020300A20202020372E3436353920202D31302E3032343420202020302E303030302043202020302020302020302020302020302020302020302020302020302020302020302020300A20202020382E323938352020202D392E3534333720202020302E303030302043202020302020302020302020302020302020302020302020302020302020302020302020300A20202020382E323938352020202D382E3538323220202020302E30303030204F202020302020302020302020302020302020302020302020302020302020302020302020300A20202020372E343635392020202D372E3134303120202020302E30303030204F202020302020302020302020302020302020302020302020302020302020302020302020300A20202020352E383030362020202D382E3130313520202020302E30303030204F202020302020302020302020302020302020302020302020302020302020302020302020300A20202020372E3436353920202D31302E3938353920202020302E30303030204F202020302020302020302020302020302020302020302020302020302020302020302020300A20202020352E3830303620202D31302E3032343420202020302E30303030204F202020302020302020302020302020302020302020302020302020302020302020302020300A20202020392E3133313220202D31302E3032343420202020302E303030302043202020302020302020302020302020302020302020302020302020302020302020302020300A20202020392E393633382020202D392E3534333720202020302E30303030204F202020302020302020302020302020302020302020302020302020302020302020302020300A20202020382E323938352020202D362E3635393320202020302E303030302043202020302020302020302020302020302020302020302020302020302020302020302020300A20202020392E313331322020202D372E3134303120202020302E303030302043202020302020302020302020302020302020302020302020302020302020302020302020300A20202031302E323634332020202D362E3635393320202020302E303030302043202020302020302020302020302020302020302020302020302020302020302020302020300A20202031312E303936392020202D372E3134303120202020302E303030302043202020302020302020302020302020302020302020302020302020302020302020302020300A20202031312E393239352020202D362E3635393320202020302E30303030204F202020302020302020302020302020302020302020302020302020302020302020302020300A20202020382E323938352020202D352E3639373920202020302E303030302043202020302020302020302020302020302020302020302020302020302020302020302020300A20202020372E343635392020202D352E3231373220202020302E303030302043202020302020302020302020302020302020302020302020302020302020302020302020300A20202020362E363333332020202D352E3639373920202020302E30303030204F202020302020302020302020302020302020302020302020302020302020302020302020300A20202020392E313331322020202D352E3231373220202020302E30303030204F202020302020302020302020302020302020302020302020302020302020302020302020300A20202020372E343635392020202D362E3137383620202020302E303030302048202020302020302020302020302020302020302020302020302020302020302020302020300A20202020392E313331322020202D382E3130313520202020302E30303030204F202020302020302020302020302020302020302020302020302020302020302020302020300A20202031302E323634332020202D352E3639373920202020302E30303030204F202020302020302020302020302020302020302020302020302020302020302020302020300A2020312020322020312020302020302020302020300A2020322020332020312020302020302020302020300A2020332020342020312020302020302020302020300A2020342020352020312020302020302020302020300A2020352020362020312020302020302020302020300A2020362020312020312020302020302020302020300A2020312020372020312020312020302020302020300A2020322020382020312020312020302020302020300A2020342020392020312020312020302020302020300A2020332031302020312020362020302020302020300A2020352031312020312020362020302020302020300A2031312031322020312020302020302020302020300A2020372031332020312020302020302020302020300A2031332031342020312020302020302020302020300A2031342031352020312020302020302020302020300A2031352031362020312020302020302020302020300A2031362031372020312020302020302020302020300A2031332031382020312020302020302020302020300A2031382031392020312020302020302020302020300A2031392032302020312020302020302020302020300A2031382032312020312020312020302020302020300A2031332032322020312020312020302020302020300A2031342032332020312020312020302020302020300A2031352032342020312020312020302020302020300A4D2020454E44
Contributor: Tsuzimoto Y, Tsugawa H, Bamba T, Fukusaki E, engineering department, Osaka Univ.
InstType: EI
InstName: Pegasus II TOF-MS system, Leco; GC 6890, Agilent Technologies
IoniMethod: EI
IonPolarity: pos
Date: 2010-10-09 19:48:36+02:00
Num Peaks: 248
85 5 86 21 87 14 88 63 89 7 90 5 91 1 92 3 93 3 94 6 
95 2 96 23 97 3 98 18 99 3 100 67 101 14 102 658 103 64 104 31 
105 2 106 2 107 1 108 17 109 2 110 17 111 3 112 25 113 6 114 21 
115 29 116 385 117 40 118 28 119 3 120 2 122 1 124 4 125 2 126 15 
127 4 128 351 129 45 130 82 131 13 132 144 133 22 134 15 135 2 136 1 
138 7 139 2 140 12 141 14 142 71 143 11 144 21 145 5 146 999 147 161 
148 114 149 14 150 9 151 2 152 11 153 4 154 51 155 11 156 53 157 8 
158 12 159 2 160 11 161 2 162 17 163 3 164 2 165 2 166 10 167 3 
168 165 169 27 170 17 171 3 172 10 173 3 174 16 175 4 176 12 177 3 
178 3 179 1 180 4 181 2 182 44 183 8 184 6 185 1 186 6 187 2 
188 90 189 27 190 186 191 34 192 17 193 2 194 2 195 1 196 1 198 5 
199 1 200 6 201 5 202 31 203 670 204 335 205 99 206 37 207 6 208 2 
210 1 212 1 214 14 215 6 216 653 217 153 218 71 219 12 220 33 221 8 
222 5 223 1 224 1 226 4 227 2 228 22 229 14 230 93 231 22 232 16 
233 4 234 2 236 1 238 3 239 1 240 7 241 4 242 73 243 21 244 20 
245 5 246 9 247 2 248 2 254 26 255 8 256 17 257 5 258 17 259 4 
260 3 261 1 262 2 264 8 265 2 266 2 268 1 269 1 270 72 271 19 
272 19 273 4 274 3 276 6 277 4 278 3 279 1 282 1 284 1 286 1 
287 1 288 2 289 1 290 16 291 6 292 4 293 1 296 1 302 1 303 3 
304 21 305 15 306 42 307 15 308 6 309 2 316 8 317 6 318 69 319 26 
320 13 321 3 322 1 328 1 329 1 330 31 331 17 332 10 333 4 334 1 
343 1 344 51 345 21 346 11 347 3 348 1 358 2 359 9 360 437 361 154 
362 77 363 19 364 5 365 1 372 2 373 1 408 3 409 1 418 6 419 4 
420 9 421 5 422 2 433 1 434 4 435 2 436 1 449 2 450 19 451 10 
452 5 453 2 462 2 463 3 464 2 465 1 474 1 475 1 
