Name: 5-Methylthioadenosine
CAS: 2457-80-9
MW: 297
Formula: C11H15N5O3S
Synonym: KEGG: C00170
Synonym: CID: 439176
Synonym: MassBank: OUF00082
Synonym: 5-Methylthioadenosine
Structure: 310A34370A3C4341535F49443E20323435372D38302D39093C4B4547475F49443E20433030313730093C4E414D453E2035272D4D657468796C7468696F6164656E6F73696E65093C464F524D554C413E204331314831354E354F3353093C45584143544D4153533E203239372E3038393536303036313030303034093C415645524147454D4153533E203239372E33333437093C534D494C45533E204353435B434040485D284F31295B434040485D284F295B434040485D284F295B434040485D316E2863332963286E322963286E332963284E296E6332093C434F505952494748543E2041524D2050524F4A45435420687474703A2F2F7777772E6D657461626F6C6F6D652E6A702F0A2032302032322020302020302020312020302020302020302020302020303939392056323030300A20202020332E3733323120202020332E3039373020202020302E30303030204E202020302020302020302020302020302020302020302020302020302020302020302020300A20202020342E3539383120202020322E3539373020202020302E303030302043202020302020302020302020312020302020302020302020302020302020302020302020300A20202020342E3539383120202020312E3539373020202020302E30303030204E202020302020302020302020302020302020302020302020302020302020302020302020300A20202020332E3733323120202020312E3039373020202020302E303030302043202020302020302020302020302020302020302020302020302020302020302020302020300A20202020322E3836363020202020312E3539373020202020302E303030302043202020302020302020302020302020302020302020302020302020302020302020302020300A20202020322E3836363020202020322E3539373020202020302E303030302043202020302020302020302020302020302020302020302020302020302020302020302020300A20202020322E3132323920202020302E3932373920202020302E30303030204E202020302020302020302020302020302020302020302020302020302020302020302020300A20202020322E3532393620202020302E3031343320202020302E303030302043202020302020302020302020312020302020302020302020302020302020302020302020300A20202020332E3532343120202020302E3131383820202020302E30303030204E202020302020302020302020302020302020302020302020302020302020302020302020300A20202020322E3030303020202020332E3039373020202020302E30303030204E202020302020302020302020322020302020302020302020302020302020302020302020300A20202020342E313933332020202D302E3632343320202020302E303030302043202020302020302020312020312020302020302020302020302020302020302020302020300A20202020332E393835342020202D312E3630323520202020302E303030302043202020302020302020312020312020302020302020302020302020302020302020302020300A20202020342E383531342020202D322E3130323520202020302E303030302043202020302020302020312020312020302020302020302020302020302020302020302020300A20202020352E353934352020202D312E3433333320202020302E303030302043202020302020302020312020312020302020302020302020302020302020302020302020300A20202020362E353732372020202D312E3634313220202020302E303030302043202020302020302020302020322020302020302020302020302020302020302020302020300A20202020332E303731382020202D322E3030393220202020302E30303030204F202020302020302020302020312020302020302020302020302020302020302020302020300A20202020342E393535392020202D332E3039373020202020302E30303030204F202020302020302020302020312020302020302020302020302020302020302020302020300A20202020352E313837382020202D302E3531393820202020302E30303030204F202020302020302020302020302020302020302020302020302020302020302020302020300A20202020372E323431382020202D302E3839383120202020302E303030302053202020302020302020302020302020302020302020302020302020302020302020302020300A20202020382E323230302020202D312E3130363020202020302E303030302043202020302020302020302020332020302020302020302020302020302020302020302020300A2031342031382020312020362020302020302020300A2031342031332020312020302020302020302020300A2031312031382020312020362020302020302020300A2031332031322020312020302020302020302020300A2031312031322020312020302020302020302020300A2031342031352020312020302020302020302020300A2031352031392020312020302020302020302020300A2031332031372020312020312020302020302020300A2031322031362020312020312020302020302020300A2031312020392020312020302020302020302020300A2020392020382020312020302020302020302020300A2020382020372020322020302020302020302020300A2020372020352020312020302020302020302020300A2020342020392020312020302020302020302020300A2020352020342020322020302020302020302020300A2020352020362020312020302020302020302020300A2020362020312020322020302020302020302020300A2020312020322020312020302020302020302020300A2020322020332020322020302020302020302020300A2020332020342020312020302020302020302020300A2020362031302020312020302020302020302020300A2031392032302020312020302020302020302020300A4D2020454E44
Contributor: Tsuzimoto Y, Tsugawa H, Bamba T, Fukusaki E, engineering department, Osaka Univ.
InstType: EI
InstName: Pegasus II TOF-MS system, Leco; GC 6890, Agilent Technologies
IoniMethod: EI
IonPolarity: pos
Date: 2010-10-09 19:48:36+02:00
Num Peaks: 233
85 76 86 25 87 74 88 10 89 20 90 8 91 14 92 7 93 9 94 6 
95 14 96 10 97 35 98 14 99 76 100 24 101 76 102 15 103 98 104 9 
105 52 106 9 107 10 108 12 109 32 110 11 111 69 112 11 113 22 114 8 
115 48 116 38 117 33 118 8 119 28 120 7 121 8 122 7 123 14 124 9 
125 12 126 9 127 37 128 7 129 166 130 25 131 52 132 15 133 77 134 14 
135 26 136 15 137 15 138 26 139 7 140 7 141 19 142 42 143 78 144 14 
145 24 146 7 147 225 148 40 149 48 150 14 151 14 152 7 153 12 154 5 
155 10 156 6 157 19 158 8 159 8 160 4 161 7 162 20 163 12 164 21 
165 103 166 25 167 9 168 3 169 353 170 56 171 38 172 8 173 22 174 8 
175 516 176 96 177 57 178 13 179 12 180 26 181 11 182 4 183 2 184 2 
185 4 186 2 187 4 188 771 189 134 190 85 191 40 192 330 193 59 194 18 
195 3 196 2 198 1 199 2 200 1 201 13 202 4 203 4 204 21 205 13 
206 71 207 106 208 169 209 44 210 13 211 2 212 1 215 9 216 7 217 53 
218 18 219 16 220 17 221 7 222 4 223 3 224 2 225 1 227 1 228 1 
229 2 230 9 231 9 232 7 233 5 234 18 235 11 236 999 237 186 238 56 
239 9 240 1 241 1 242 2 243 21 244 7 245 89 246 25 247 11 248 7 
249 4 250 3 251 2 252 1 253 1 254 1 257 1 258 8 259 8 260 5 
261 2 262 9 263 4 264 25 265 8 266 7 267 1 274 2 275 1 276 1 
277 2 278 16 279 11 280 36 281 10 282 4 283 1 286 1 288 1 289 14 
290 6 291 8 292 3 293 2 294 4 295 1 304 1 305 1 306 21 307 7 
308 6 309 1 320 1 321 1 322 10 323 3 324 1 332 1 333 1 334 15 
335 6 336 4 337 2 338 13 339 4 340 1 350 1 362 1 376 9 377 4 
378 2 379 1 408 2 410 1 423 1 440 1 466 6 467 4 468 2 497 5 
498 31 499 20 500 10 
