Name: Allantoic acid
CAS: 99-16-1
MW: 176
Formula: C4H8N4O4
Synonym: KEGG: C00499
Synonym: CID: 203
Synonym: MassBank: OUF00108
Synonym: Allantoic acid
Structure: 4330303030373437302E6364780A20204368656D447261773132323930383037313632440A2031322031312020302020302020302020302020302020302020302020303939392056323030300A2020202D312E3432383920202020302E3431323520202020302E30303030204F202020302020302020302020302020302020302020302020302020302020302020302020300A2020202D312E343238392020202D302E3431323520202020302E303030302043202020302020302020302020302020302020302020302020302020302020302020302020300A2020202D302E373134352020202D302E3832353020202020302E30303030204E202020302020302020302020302020302020302020302020302020302020302020302020300A20202020302E303030302020202D302E3431323520202020302E303030302043202020302020302020302020302020302020302020302020302020302020302020302020300A20202020302E3030303020202020302E3431323520202020302E303030302043202020302020302020302020302020302020302020302020302020302020302020302020300A2020202D302E3731343520202020302E3832353020202020302E30303030204F202020302020302020302020302020302020302020302020302020302020302020302020300A20202020302E373134352020202D302E3832353020202020302E30303030204E202020302020302020302020302020302020302020302020302020302020302020302020300A20202020312E343238392020202D302E3431323520202020302E303030302043202020302020302020302020302020302020302020302020302020302020302020302020300A20202020312E3432383920202020302E3431323520202020302E30303030204F202020302020302020302020302020302020302020302020302020302020302020302020300A20202020302E3731343520202020302E3832353020202020302E30303030204F202020302020302020302020302020302020302020302020302020302020302020302020300A20202020322E313433342020202D302E3832353020202020302E30303030204E202020302020302020302020302020302020302020302020302020302020302020302020300A2020202D322E313433342020202D302E3832353020202020302E30303030204E202020302020302020302020302020302020302020302020302020302020302020302020300A2020312020322020322020302020202020200A2020322020332020312020302020202020200A2020332020342020312020302020202020200A2020342020352020312020302020202020200A2020352020362020322020302020202020200A2020342020372020312020302020202020200A2020372020382020312020302020202020200A2020382020392020322020302020202020200A2031302020352020312020302020202020200A2020382031312020312020302020202020200A2020322031322020312020302020202020200A4D2020454E44
Contributor: Tsuzimoto Y, Tsugawa H, Bamba T, Fukusaki E, engineering department, Osaka Univ.
InstType: EI
InstName: Pegasus II TOF-MS system, Leco; GC 6890, Agilent Technologies
IoniMethod: EI
IonPolarity: pos
Date: 2010-10-09 19:48:36+02:00
Num Peaks: 71
85 33 86 30 87 90 88 13 89 5 90 7 93 1 96 3 97 4 98 5 
99 181 100 151 101 39 102 24 103 15 104 1 105 6 106 1 111 11 112 1 
113 17 114 22 115 34 116 21 117 28 118 6 119 4 125 1 126 1 127 2 
129 3 130 80 131 71 132 56 133 36 134 7 135 1 139 3 141 9 143 3 
146 69 147 999 148 169 149 81 150 6 151 1 155 19 156 3 157 25 158 4 
159 3 170 1 171 447 172 80 173 83 174 15 175 4 181 1 185 1 186 28 
187 5 188 2 189 425 190 78 191 37 192 2 204 24 205 2 206 1 391 1 
450 1 
