Name: Phenoxyacetic acid
CAS: 122-59-8
MW: 152
Formula: C8H8O3
Synonym: KEGG: C02181
Synonym: CID: 19188
Synonym: MassBank: OUF00418
Synonym: Phenoxyacetic acid
Structure: 310A32370A3C4341535F49443E203132322D35392D38093C4B4547475F49443E20433032313831093C4E414D453E205068656E6F787961636574617465093C464F524D554C413E20433848384F33093C45584143544D4153533E203135322E303437333434313232093C415645524147454D4153533E203135322E3134373331393939393939393938093C534D494C45533E204F43283D4F29434F63286331296363636331093C434F505952494748543E2041524D2050524F4A45435420687474703A2F2F7777772E6D657461626F6C6F6D652E6A702F0A2031312031312020302020302020302020302020302020302020302020303939392056323030300A20202020322E3836363020202020322E3030303020202020302E303030302043202020302020302020302020302020302020302020302020302020302020302020302020300A20202020322E3836363020202020312E3030303020202020302E303030302043202020302020302020302020322020302020302020302020302020302020302020302020300A20202020332E373332312020202D302E3530303020202020302E303030302043202020302020302020302020302020302020302020302020302020302020302020302020300A20202020322E383636302020202D312E3030303020202020302E303030302043202020302020302020302020312020302020302020302020302020302020302020302020300A20202020322E383636302020202D322E3030303020202020302E303030302043202020302020302020302020312020302020302020302020302020302020302020302020300A20202020332E373332312020202D322E3530303020202020302E303030302043202020302020302020302020312020302020302020302020302020302020302020302020300A20202020342E353938312020202D322E3030303020202020302E303030302043202020302020302020302020312020302020302020302020302020302020302020302020300A20202020342E353938312020202D312E3030303020202020302E303030302043202020302020302020302020312020302020302020302020302020302020302020302020300A20202020332E3733323120202020322E3530303020202020302E30303030204F202020302020302020302020312020302020302020302020302020302020302020302020300A20202020322E3030303020202020322E3530303020202020302E30303030204F202020302020302020302020302020302020302020302020302020302020302020302020300A20202020332E3733323120202020302E3530303020202020302E30303030204F202020302020302020302020302020302020302020302020302020302020302020302020300A2020382020332020322020302020302020302020300A2020382020372020312020302020302020302020300A2020372020362020322020302020302020302020300A2020362020352020312020302020302020302020300A2020352020342020322020302020302020302020300A2020342020332020312020302020302020302020300A2020332031312020312020302020302020302020300A2031312020322020312020302020302020302020300A2020312020392020312020302020302020302020300A2020312031302020322020302020302020302020300A2020322020312020312020302020302020302020300A4D2020454E44
Contributor: Tsuzimoto Y, Tsugawa H, Bamba T, Fukusaki E, engineering department, Osaka Univ.
InstType: EI
InstName: Pegasus II TOF-MS system, Leco; GC 6890, Agilent Technologies
IoniMethod: EI
IonPolarity: pos
Date: 2010-10-09 19:48:36+02:00
Num Peaks: 90
85 16 86 2 87 12 88 73 89 138 90 29 91 946 92 91 93 107 94 60 
95 129 96 12 97 13 98 3 99 4 100 3 101 105 102 14 103 31 104 11 
105 133 106 26 107 100 108 14 109 20 110 2 111 3 115 9 116 74 117 143 
118 20 119 18 120 8 121 59 122 8 123 23 124 3 125 2 129 8 130 14 
131 15 132 2 133 17 134 14 135 999 136 164 137 105 138 13 139 3 145 4 
146 2 147 39 148 17 149 77 150 14 151 198 152 38 153 34 154 5 155 2 
161 45 162 10 163 463 164 84 165 846 166 136 167 44 168 5 170 1 171 1 
172 1 175 1 177 2 179 39 180 7 181 258 182 55 183 16 184 2 191 1 
193 1 196 1 207 1 209 64 210 13 211 4 224 545 225 95 226 29 227 3 
