Name: DL-Pipecolic acid
CAS: 535-75-1
MW: 129
Formula: C6H11NO2
Synonym: KEGG: C00408
Synonym: CID: 439227
Synonym: MassBank: OUF00200
Synonym: DL-Pipecolic acid
Structure: 4330303030313338372E6364780A20204368656D447261773132323630383139323032440A2031302031302020302020302020302020302020302020302020302020303939392056323030300A2020202D302E3936363220202020302E3339373020202020302E303030302043202020302020302020302020302020302020302020302020302020302020302020302020300A2020202D302E393636322020202D302E3131393120202020302E303030302043202020302020302020302020302020302020302020302020302020302020302020302020300A2020202D302E353139332020202D302E3337373120202020302E30303030204E202020302020302020302020302020302020302020302020302020302020302020302020300A2020202D302E303732342020202D302E3131393120202020302E303030302043202020302020302020302020302020302020302020302020302020302020302020302020300A2020202D302E3037323420202020302E3339373020202020302E303030302043202020302020302020302020302020302020302020302020302020302020302020302020300A2020202D302E3531393320202020302E3635353020202020302E303030302043202020302020302020302020302020302020302020302020302020302020302020302020300A20202020302E303536392020202D302E3630313720202020302E303030302048202020302020302020302020302020302020302020302020302020302020302020302020300A20202020302E353636322020202D302E3239303220202020302E303030302043202020302020302020302020302020302020302020302020302020302020302020302020300A20202020302E353636322020202D302E3635353020202020302E30303030204F202020302020302020302020302020302020302020302020302020302020302020302020300A20202020302E393636322020202D302E3035393320202020302E30303030204F202020302020302020302020302020302020302020302020302020302020302020302020300A2020312020322020312020302020202020200A2020322020332020312020302020202020200A2020332020342020312020302020202020200A2020342020352020312020302020202020200A2020352020362020312020302020202020200A2020362020312020312020302020202020200A2020342020372020312020362020202020200A2020342020382020312020312020202020200A2020382020392020322020302020202020200A2020382031302020312020302020202020200A4D2020454E44
Contributor: Tsuzimoto Y, Tsugawa H, Bamba T, Fukusaki E, engineering department, Osaka Univ.
InstType: EI
InstName: Pegasus II TOF-MS system, Leco; GC 6890, Agilent Technologies
IoniMethod: EI
IonPolarity: pos
Date: 2010-10-09 19:48:36+02:00
Num Peaks: 69
85 11 86 17 87 6 88 2 89 1 94 4 95 1 96 1 97 2 98 5 
99 6 100 12 101 4 102 4 103 8 104 1 105 2 108 2 110 2 111 1 
112 14 113 7 114 6 115 4 116 1 117 8 118 1 119 3 122 2 124 1 
126 9 127 1 128 15 129 9 130 3 131 13 132 3 133 24 134 4 135 2 
138 1 140 8 141 2 142 3 143 1 147 62 148 10 149 4 152 3 154 13 
155 7 156 999 157 149 158 49 159 4 168 7 170 1 175 3 184 7 185 1 
186 1 230 44 231 16 232 6 233 1 244 1 258 3 259 1 273 1 
