Name: Succinic anhydride
CAS: 108-30-5
MW: 115
Formula: C4H5NO3
Synonym: CID: 80170
Synonym: MassBank: OUF00466
Synonym: Succinic anhydride
Structure: 310A32310A2020382020382020302020302020302020302020302020302020302020302020312056323030300A20202D31362E3030303020202031302E3030303020202020302E303030302043202020302020302020302020302020302020302020302020302020302020300A20202020302E3030303020202031392E3030303020202020302E30303030204E202020302020302020302020302020302020302020302020302020302020300A20202D31362E303030302020202D382E3030303020202020302E303030302043202020302020302020302020302020302020302020302020302020302020300A20202D33322E3030303020202031392E3030303020202020302E30303030204F202020302020302020302020302020302020302020302020302020302020300A20202031362E3030303020202031302E3030303020202020302E303030302043202020302020302020302020302020302020302020302020302020302020300A20202020302E3030303020202033382E3030303020202020302E30303030204F202020302020302020302020302020302020302020302020302020302020300A20202031362E303030302020202D382E3030303020202020302E303030302043202020302020302020302020302020302020302020302020302020302020300A20202033322E3030303020202031392E3030303020202020302E30303030204F202020302020302020302020302020302020302020302020302020302020300A2020312020322020312020302020302020302020300A2020312020332020312020302020302020302020300A2020312020342020322020302020302020302020300A2020322020352020312020302020302020302020300A2020322020362020312020302020302020302020300A2020332020372020312020302020302020302020300A2020352020382020322020302020302020302020300A2020352020372020312020302020302020302020300A4D2020454E44
Contributor: Tsuzimoto Y, Tsugawa H, Bamba T, Fukusaki E, engineering department, Osaka Univ.
InstType: EI
InstName: Pegasus II TOF-MS system, Leco; GC 6890, Agilent Technologies
IoniMethod: EI
IonPolarity: pos
Date: 2010-10-09 19:48:36+02:00
Num Peaks: 55
85 11 86 14 87 10 88 4 89 8 90 1 92 1 93 2 99 6 100 1 
101 9 102 3 103 9 104 1 105 4 113 10 114 2 115 14 116 23 117 16 
118 2 119 4 128 4 129 73 130 12 131 22 132 4 133 40 134 6 135 4 
143 5 145 6 146 1 147 999 148 155 149 85 150 9 151 2 156 2 157 5 
163 2 172 41 173 21 174 4 175 3 190 1 203 3 217 2 218 7 219 1 
247 73 248 15 249 6 250 1 262 3 
