Name: L-Saccharopine
CAS: 997-68-2
MW: 276
Formula: C11H20N2O6
Synonym: KEGG: C00449
Synonym: CID: 160556
Synonym: MassBank: OUF00324
Synonym: L-Saccharopine
Structure: 4330303030373232372E6364780A20204368656D447261773132323930383037303732440A2031392031382020302020302020302020302020302020302020302020303939392056323030300A2020202D332E3231353120202020302E3431323520202020302E30303030204F202020302020302020302020302020302020302020302020302020302020302020302020300A2020202D322E3530303620202020302E3832353020202020302E303030302043202020302020302020302020302020302020302020302020302020302020302020302020300A2020202D312E3738363220202020302E3431323520202020302E303030302043202020302020302020302020302020302020302020302020302020302020302020302020300A2020202D312E3037313720202020302E3832353020202020302E303030302043202020302020302020302020302020302020302020302020302020302020302020302020300A2020202D302E3335373220202020302E3431323520202020302E303030302043202020302020302020302020302020302020302020302020302020302020302020302020300A20202020302E3335373220202020302E3832353020202020302E303030302043202020302020302020302020302020302020302020302020302020302020302020302020300A2020202D322E3530303620202020312E3635303020202020302E30303030204F202020302020302020302020302020302020302020302020302020302020302020302020300A20202020312E3037313720202020302E3431323520202020302E30303030204F202020302020302020302020302020302020302020302020302020302020302020302020300A20202020302E3335373220202020312E3635303020202020302E30303030204F202020302020302020302020302020302020302020302020302020302020302020302020300A2020202D312E373836322020202D302E3431323520202020302E30303030204E202020302020302020302020302020302020302020302020302020302020302020302020300A2020202D312E303731372020202D302E3832353020202020302E303030302043202020302020302020302020302020302020302020302020302020302020302020302020300A2020202D302E333537322020202D302E3431323520202020302E303030302043202020302020302020302020302020302020302020302020302020302020302020302020300A20202020302E333537322020202D302E3832353020202020302E303030302043202020302020302020302020302020302020302020302020302020302020302020302020300A20202020312E303731372020202D302E3431323520202020302E303030302043202020302020302020302020302020302020302020302020302020302020302020302020300A20202020312E373836322020202D302E3832353020202020302E303030302043202020302020302020302020302020302020302020302020302020302020302020302020300A20202020322E353030362020202D302E3431323520202020302E303030302043202020302020302020302020302020302020302020302020302020302020302020302020300A20202020332E323135312020202D302E3832353020202020302E30303030204F202020302020302020302020302020302020302020302020302020302020302020302020300A20202020312E373836322020202D312E3635303020202020302E30303030204E202020302020302020302020302020302020302020302020302020302020302020302020300A20202020322E3530303620202020302E3431323520202020302E30303030204F202020302020302020302020302020302020302020302020302020302020302020302020300A2020322020312020312020302020202020200A2020332020322020312020302020202020200A2020342020332020312020302020202020200A2020352020342020312020302020202020200A2020362020352020312020302020202020200A2020322020372020322020302020202020200A2020362020382020322020302020202020200A2020362020392020312020302020202020200A2020332031302020312020362020202020200A2031312031302020312020302020202020200A2031322031312020312020302020202020200A2031332031322020312020302020202020200A2031342031332020312020302020202020200A2031352031342020312020302020202020200A2031362031352020312020302020202020200A2031372031362020312020302020202020200A2031352031382020312020312020202020200A2031362031392020322020302020202020200A4D2020454E44
Contributor: Tsuzimoto Y, Tsugawa H, Bamba T, Fukusaki E, engineering department, Osaka Univ.
InstType: EI
InstName: Pegasus II TOF-MS system, Leco; GC 6890, Agilent Technologies
IoniMethod: EI
IonPolarity: pos
Date: 2010-10-09 19:48:36+02:00
Num Peaks: 56
86 57 96 92 98 69 102 135 103 206 112 34 114 75 115 94 117 36 118 18 
122 186 128 61 130 184 131 133 132 184 133 88 142 112 147 999 148 229 149 210 
154 69 155 176 156 603 157 153 158 165 168 165 184 42 208 12 230 75 240 135 
241 45 243 14 250 24 253 8 259 22 274 194 285 16 286 4 321 2 357 859 
358 505 359 239 366 24 367 16 383 12 389 10 409 16 413 24 414 22 432 30 
439 12 459 63 473 4 481 18 482 2 491 2 
