Name: D-(+)-Galactosamine
CAS: 7535-00-4
MW: 179
Formula: C6H13NO5
Synonym: CID: 2794221
Synonym: MassBank: OUF00150
Synonym: D-(+)-Galactosamine
Structure: 373533342D39342D332E6D6F6C0A20204368656D447261773038303431303230353732440A2031322031312020302020302020302020302020302020302020302020303939392056323030300A2020202D302E3136393920202020302E3037313120202020302E303030302043202020302020302020302020302020302020302020302020302020302020302020302020300A20202020302E313736362020202D302E3637373520202020302E303030302043202020302020302020302020302020302020302020302020302020302020302020302020300A20202020302E3239343320202020302E3735333020202020302E303030302043202020302020302020302020302020302020302020302020302020302020302020302020300A2020202D302E3937383620202020302E3038383820202020302E30303030204F202020302020302020302020302020302020302020302020302020302020302020302020300A2020202D302E323936352020202D312E3336313720202020302E303030302043202020302020302020302020302020302020302020302020302020302020302020302020300A20202020312E303037342020202D302E3639393720202020302E30303030204F202020302020302020302020302020302020302020302020302020302020302020302020300A2020202D302E3035303020202020312E3531353020202020302E303030302043202020302020302020302020302020302020302020302020302020302020302020302020300A20202020312E3131363320202020302E3735333020202020302E30303030204E202020302020302020302020302020302020302020302020302020302020302020302020300A20202020302E303530302020202D322E3132313420202020302E303030302043202020302020302020302020302020302020302020302020302020302020302020302020300A2020202D312E313136332020202D312E3337303620202020302E30303030204F202020302020302020302020302020302020302020302020302020302020302020302020300A20202020302E3432353420202020322E3139303320202020302E30303030204F202020302020302020302020302020302020302020302020302020302020302020302020300A20202020302E383639372020202D322E3139303320202020302E30303030204F202020302020302020302020302020302020302020302020302020302020302020302020300A2020312020322020312020302020202020200A2020312020332020312020302020202020200A2020312020342020312020362020202020200A2020322020352020312020302020202020200A2020322020362020312020312020202020200A2020332020372020312020302020202020200A2020332020382020312020362020202020200A2020352020392020312020302020202020200A2020352031302020312020312020202020200A2020372031312020322020302020202020200A2020392031322020312020302020202020200A4D2020454E44
Contributor: Tsuzimoto Y, Tsugawa H, Bamba T, Fukusaki E, engineering department, Osaka Univ.
InstType: EI
InstName: Pegasus II TOF-MS system, Leco; GC 6890, Agilent Technologies
IoniMethod: EI
IonPolarity: pos
Date: 2010-10-09 19:48:36+02:00
Num Peaks: 228
85 16 86 37 87 31 88 20 89 166 90 19 91 9 93 4 94 1 95 2 
96 6 97 6 98 13 99 20 100 111 101 97 102 81 103 345 104 39 105 84 
106 9 107 3 109 1 110 9 111 10 112 9 113 26 114 12 115 23 116 28 
117 227 118 33 119 26 120 4 121 2 123 1 124 2 125 5 126 12 127 27 
128 41 129 307 130 65 131 73 132 29 133 136 134 23 135 13 137 6 138 1 
139 1 140 5 141 25 142 27 143 39 144 23 145 14 146 19 147 654 148 109 
149 63 150 9 151 5 152 3 153 5 154 3 155 4 156 6 157 158 158 32 
159 999 160 141 161 51 162 9 163 20 164 2 165 5 167 2 168 18 169 7 
170 6 171 7 172 19 173 12 174 7 175 11 176 5 177 9 178 3 179 3 
180 2 181 2 182 3 183 1 184 2 185 6 186 6 187 6 188 12 189 49 
190 28 191 21 192 4 193 3 194 1 195 4 196 2 197 3 198 1 199 3 
200 13 201 63 202 23 203 41 204 62 205 388 206 81 207 42 208 8 209 2 
211 1 212 2 213 9 214 10 215 15 216 40 217 157 218 38 219 22 220 6 
221 10 222 2 223 1 227 7 228 4 229 52 230 20 231 24 232 30 233 19 
234 10 235 2 237 1 238 1 239 2 240 16 241 11 242 9 243 11 244 7 
245 3 246 1 247 3 249 1 253 2 254 1 255 1 256 4 257 1 258 4 
259 2 260 1 261 3 263 1 267 6 268 3 269 2 270 1 271 1 272 2 
273 46 274 16 275 6 276 2 277 11 278 7 279 3 280 1 282 1 285 2 
289 1 290 5 291 15 292 6 293 3 294 1 301 1 302 1 303 14 304 14 
305 11 306 6 307 12 308 3 309 2 315 1 316 2 317 2 318 8 319 194 
320 82 321 39 322 11 323 2 330 5 331 3 332 3 333 2 334 1 357 4 
358 2 359 1 360 1 364 1 373 1 375 2 406 1 409 1 412 1 420 2 
421 1 432 1 446 2 447 6 448 5 449 2 450 1 452 1 
