Name: Glyceric acid
CAS: 473-81-4
MW: 106
Formula: C3H6O4
Synonym: KEGG: C00258
Synonym: CID: 439194
Synonym: MassBank: OUF00253
Synonym: Glyceric acid
Structure: 310A32360A4330303030313138352E6364780A20204368656D447261773132323630383139313332440A2020382020372020302020302020302020302020302020302020302020303939392056323030300A20202020302E3333393120202020302E3732313920202020302E30303030204F202020302020302020302020302020302020302020302020302020302020302020302020300A2020202D302E3137323720202020302E3432363420202020302E303030302043202020302020302020302020302020302020302020302020302020302020302020302020300A2020202D302E3632363120202020302E3638383120202020302E30303030204F202020302020302020302020302020302020302020302020302020302020302020302020300A2020202D302E313732372020202D302E3130333120202020302E303030302043202020302020302020302020302020302020302020302020302020302020302020302020300A2020202D302E363936332020202D302E3430353420202020302E30303030204F202020302020302020302020302020302020302020302020302020302020302020302020300A2020202D302E3735373020202020302E3035333420202020302E303030302048202020302020302020302020302020302020302020302020302020302020302020302020300A20202020302E303432352020202D302E3330393420202020302E303030302043202020302020302020302020302020302020302020302020302020302020302020302020300A20202020302E373537302020202D302E3732313920202020302E30303030204F202020302020302020302020302020302020302020302020302020302020302020302020300A2020312020322020312020302020202020200A2020322020332020322020302020202020200A2020322020342020312020302020202020200A2020342020352020312020312020202020200A2020342020362020312020362020202020200A2020342020372020312020302020202020200A2020372020382020312020302020202020200A4D202053545920203120202031205355500A4D2020534C4220203120202031202020310A4D202053414C2020203120203220202037202020380A4D202053424C20202031202031202020360A4D2020534D5420202031204348324F480A4D2020534256202020312020362020202D332E3033303320202020312E343835300A4D2020454E44
Contributor: Tsuzimoto Y, Tsugawa H, Bamba T, Fukusaki E, engineering department, Osaka Univ.
InstType: EI
InstName: Pegasus II TOF-MS system, Leco; GC 6890, Agilent Technologies
IoniMethod: EI
IonPolarity: pos
Date: 2010-10-09 19:48:36+02:00
Num Peaks: 104
85 17 86 5 87 23 88 18 89 69 90 7 91 4 92 2 93 3 95 2 
97 1 98 1 99 13 100 4 101 147 102 433 103 442 104 56 105 34 106 3 
107 2 113 5 114 1 115 37 116 49 117 260 118 29 119 47 120 6 121 4 
127 1 129 21 130 130 131 101 132 21 133 442 134 63 135 47 136 5 137 2 
142 6 143 12 144 4 145 6 146 3 147 999 148 157 149 98 150 11 151 7 
152 1 157 1 159 4 160 1 161 4 162 1 163 12 164 2 165 1 173 6 
174 1 175 45 176 8 177 25 178 4 179 2 189 563 190 119 191 63 192 9 
193 3 203 2 204 18 205 121 206 25 207 16 208 3 209 1 217 42 218 8 
219 16 220 3 221 19 222 4 223 2 231 1 232 3 233 1 265 2 266 1 
279 2 291 2 292 187 293 58 294 28 295 6 296 1 306 1 307 46 308 14 
309 7 310 1 322 6 323 2 
