Name: Maleic acid
CAS: 110-16-7
MW: 160
Formula: C8H16O3
Synonym: CID: 61293
Synonym: MassBank: OUF00336
Synonym: Maleic acid
Structure: 31312031302020302020302020302020302020302020302020302020302020312056323030300A20202020302E3030303020202033302E3030303020202020302E303030302043202020302020302020302020302020302020302020302020302020302020300A20202D31372E3030303020202032302E3030303020202020302E303030302043202020302020302020302020302020302020302020302020302020302020300A20202031372E3030303020202032302E3030303020202020302E303030302043202020302020302020302020302020302020302020302020302020302020300A20202D33352E3030303020202033302E3030303020202020302E303030302043202020302020302020302020302020302020302020302020302020302020300A20202D31372E3030303020202020302E3030303020202020302E30303030204F202020302020302020302020302020302020302020302020302020302020300A20202D35322E3030303020202032302E3030303020202020302E303030302043202020302020302020302020302020302020302020302020302020302020300A20202033352E3030303020202033302E3030303020202020302E30303030204F202020302020302020302020302020302020302020302020302020302020300A20202031372E3030303020202020302E3030303020202020302E30303030204F202020302020302020302020302020302020302020302020302020302020300A20202D36392E3030303020202033302E3030303020202020302E303030302043202020302020302020302020302020302020302020302020302020302020300A20202035322E3030303020202032302E3030303020202020302E303030302043202020302020302020302020302020302020302020302020302020302020300A20202036392E3030303020202033302E3030303020202020302E303030302043202020302020302020302020302020302020302020302020302020302020300A2020312020322020312020302020302020302020300A2020312020332020312020302020302020302020300A2020322020342020312020302020302020302020300A2020322020352020312020302020302020302020300A2020332020372020312020302020302020302020300A2020332020382020322020302020302020302020300A2020342020362020312020302020302020302020300A2020362020392020312020302020302020302020300A2020372031302020312020302020302020302020300A2031302031312020312020302020302020302020300A4D2020454E44
Contributor: Tsuzimoto Y, Tsugawa H, Bamba T, Fukusaki E, engineering department, Osaka Univ.
InstType: EI
InstName: Pegasus II TOF-MS system, Leco; GC 6890, Agilent Technologies
IoniMethod: EI
IonPolarity: pos
Date: 2010-10-09 19:48:36+02:00
Num Peaks: 66
85 21 86 4 87 7 88 1 89 5 92 2 93 7 94 1 95 3 97 2 
98 23 99 11 100 3 101 5 102 3 103 14 104 2 105 6 107 1 111 4 
113 16 114 2 115 47 116 6 117 17 118 3 119 6 126 24 127 7 128 7 
129 5 131 20 132 7 133 58 134 9 135 6 141 1 142 6 143 35 144 4 
145 2 146 1 147 999 148 159 149 86 150 9 151 3 155 15 156 3 157 10 
158 1 159 3 170 25 171 8 172 2 173 4 201 1 215 9 216 3 217 2 
242 6 243 1 245 74 246 15 247 7 248 1 
