Name: MassBank: OUF00245
CAS: 90-80-2
MW: 178
Formula: C6H10O6
Synonym: KEGG: C00198
Synonym: CID: 7027
Synonym: MassBank: OUF00245
Synonym: D-(+)-Glucono-1,5-lactone
Structure: 310A32390A20204143442F4C6162733039333031303039323832440A2031322031322020302020302020312020302020302020302020302020302020312056323030300A20202032312E333038342020202D372E3536303020202020302E303030302043202020302020302020302020302020302020302020302020302020302020302020302020300A20202032322E343630362020202D362E3839353320202020302E303030302043202020302020302020302020302020302020302020302020302020302020302020302020300A20202032312E333038342020202D382E3838303420202020302E303030302043202020302020302020302020302020302020302020302020302020302020302020302020300A20202032342E373436392020202D392E3534353120202020302E303030302043202020302020302020302020302020302020302020302020302020302020302020302020300A20202032332E353934382020202D382E3837313620202020302E303030302043202020302020302020302020302020302020302020302020302020302020302020302020300A20202032322E343630362020202D392E3533363320202020302E303030302043202020302020302020302020302020302020302020302020302020302020302020302020300A20202032302E313536342020202D392E3534353120202020302E30303030204F202020302020302020302020302020302020302020302020302020302020302020302020300A20202032332E353934382020202D372E3535313320202020302E30303030204F202020302020302020302020302020302020302020302020302020302020302020302020300A20202032322E3436303620202D31302E3836353620202020302E30303030204F202020302020302020302020302020302020302020302020302020302020302020302020300A20202032302E313536342020202D362E3839353320202020302E30303030204F202020302020302020302020302020302020302020302020302020302020302020302020300A20202032322E343630362020202D352E3536363020202020302E30303030204F202020302020302020302020302020302020302020302020302020302020302020302020300A20202032352E383938392020202D382E3838303420202020302E30303030204F202020302020302020302020302020302020302020302020302020302020302020302020300A2020352020362020312020302020302020302020300A2020382020352020312020302020302020302020300A2020322020312020312020302020302020302020300A2020312020332020312020302020302020302020300A2020332020362020312020302020302020302020300A2020352020342020312020362020302020302020300A2020362020392020312020312020302020302020300A2020332020372020312020362020302020302020300A2020312031302020312020312020302020302020300A2020382020322020312020302020302020302020300A2020322031312020322020302020302020302020300A2020342031322020312020302020302020302020300A4D2020454E44
Contributor: Tsuzimoto Y, Tsugawa H, Bamba T, Fukusaki E, engineering department, Osaka Univ.
InstType: EI
InstName: Pegasus II TOF-MS system, Leco; GC 6890, Agilent Technologies
IoniMethod: EI
IonPolarity: pos
Date: 2010-10-09 19:48:36+02:00
Num Peaks: 156
85 25 86 7 87 35 88 18 89 88 90 10 91 19 93 1 97 76 98 5 
99 34 101 99 102 46 103 412 104 37 105 19 107 2 108 1 110 3 111 19 
112 10 113 20 115 29 116 25 117 292 118 29 119 48 124 2 125 3 127 12 
128 8 129 328 130 60 131 132 132 12 133 304 134 34 135 44 140 5 141 3 
142 30 143 126 144 17 145 28 146 2 147 962 148 163 149 153 150 14 151 8 
153 16 154 2 155 27 156 6 157 41 158 8 159 12 160 5 162 6 163 8 
165 1 168 1 169 48 170 12 171 15 172 12 173 1 174 3 175 16 177 14 
178 2 189 198 190 40 191 83 193 21 197 14 198 4 199 3 201 7 203 20 
204 290 205 218 206 56 207 20 212 1 215 21 216 12 217 999 218 223 219 122 
220 28 221 30 222 3 223 2 227 5 228 3 229 10 230 52 231 19 232 3 
233 1 242 3 243 85 244 110 245 51 246 18 247 6 249 1 257 5 260 2 
265 3 271 26 286 3 291 5 292 19 293 5 298 3 299 2 305 45 306 24 
307 7 308 3 313 1 317 12 318 14 319 9 323 5 331 3 332 42 333 37 
334 29 335 20 336 6 337 1 348 15 350 4 361 20 363 6 364 5 365 2 
371 1 373 1 388 1 393 3 394 1 435 5 440 3 449 1 453 1 466 6 
472 2 473 3 474 3 476 1 485 3 486 1 
