Name: Kaempferol
CAS: 520-18-3
MW: 286
Formula: C15H10O6
Synonym: KEGG: C05903
Synonym: CID: 5280863
Synonym: MassBank: OUF00285
Synonym: Kaempferol
Structure: 4330303030343536352E6364780A20204368656D447261773132323830383233343132440A2032312032332020302020302020302020302020302020302020302020303939392056323030300A2020202D312E3936333020202020302E3135313320202020302E303030302043202020302020302020302020302020302020302020302020302020302020302020302020300A2020202D312E393633302020202D302E3439313120202020302E303030302043202020302020302020302020302020302020302020302020302020302020302020302020300A2020202D312E343036372020202D302E3831323320202020302E303030302043202020302020302020302020302020302020302020302020302020302020302020302020300A2020202D302E383530342020202D302E3439313120202020302E303030302043202020302020302020302020302020302020302020302020302020302020302020302020300A2020202D302E3835303420202020302E3135313320202020302E303030302043202020302020302020302020302020302020302020302020302020302020302020302020300A2020202D312E3430363720202020302E3437323520202020302E303030302043202020302020302020302020302020302020302020302020302020302020302020302020300A2020202D302E323934312020202D302E3831323320202020302E303030302043202020302020302020302020302020302020302020302020302020302020302020302020300A20202020302E323632322020202D302E3439313120202020302E303030302043202020302020302020302020302020302020302020302020302020302020302020302020300A20202020302E3236323220202020302E3135313320202020302E303030302043202020302020302020302020302020302020302020302020302020302020302020302020300A2020202D302E3239343120202020302E3437323520202020302E30303030204F202020302020302020302020302020302020302020302020302020302020302020302020300A2020202D302E323934312020202D312E3331333120202020302E30303030204F202020302020302020302020302020302020302020302020302020302020302020302020300A20202020302E3831383320202020302E3437323320202020302E303030302043202020302020302020302020302020302020302020302020302020302020302020302020300A20202020312E3338353320202020302E3134353020202020302E303030302043202020302020302020302020302020302020302020302020302020302020302020302020300A20202020312E3935323320202020302E3437323320202020302E303030302043202020302020302020302020302020302020302020302020302020302020302020302020300A20202020312E3935323320202020312E3132373020202020302E303030302043202020302020302020302020302020302020302020302020302020302020302020302020300A20202020312E3338353320202020312E3435343420202020302E303030302043202020302020302020302020302020302020302020302020302020302020302020302020300A20202020302E3831383320202020312E3132373020202020302E303030302043202020302020302020302020302020302020302020302020302020302020302020302020300A20202020302E383138332020202D302E3831323120202020302E30303030204F202020302020302020302020302020302020302020302020302020302020302020302020300A2020202D322E3531393120202020302E3437323320202020302E30303030204F202020302020302020302020302020302020302020302020302020302020302020302020300A2020202D312E343036372020202D312E3435343420202020302E30303030204F202020302020302020302020302020302020302020302020302020302020302020302020300A20202020322E3531393120202020312E3435343320202020302E30303030204F202020302020302020302020302020302020302020302020302020302020302020302020300A2020312020322020312020302020202020200A2020322020332020322020302020202020200A2020332020342020312020302020202020200A2020342020352020322020302020202020200A2020352020362020312020302020202020200A2020362020312020322020302020202020200A2020342020372020312020302020202020200A2020372020382020312020302020202020200A2020382020392020322020302020202020200A2020392031302020312020302020202020200A2031302020352020312020302020202020200A2020372031312020322020302020202020200A2020392031322020312020302020202020200A2031322031332020322020302020202020200A2031332031342020312020302020202020200A2031342031352020322020302020202020200A2031352031362020312020302020202020200A2031362031372020322020302020202020200A2031372031322020312020302020202020200A2020382031382020312020302020202020200A2020312031392020312020302020202020200A2020332032302020312020302020202020200A2031352032312020312020302020202020200A4D2020454E44
Contributor: Tsuzimoto Y, Tsugawa H, Bamba T, Fukusaki E, engineering department, Osaka Univ.
InstType: EI
InstName: Pegasus II TOF-MS system, Leco; GC 6890, Agilent Technologies
IoniMethod: EI
IonPolarity: pos
Date: 2010-10-09 19:48:36+02:00
Num Peaks: 413
85 81 86 36 87 56 88 47 89 104 90 43 91 189 92 29 93 68 94 16 
95 47 96 20 97 41 98 23 99 153 100 23 101 46 102 32 103 149 104 67 
105 167 106 31 107 71 108 13 109 48 110 22 111 32 112 18 113 28 114 24 
115 171 116 40 117 77 118 33 119 156 120 46 121 155 122 20 123 36 124 9 
125 15 126 22 127 49 128 44 129 61 130 7 131 126 132 33 133 589 134 109 
135 254 136 35 137 50 138 38 139 60 140 22 141 57 142 23 143 70 144 14 
145 58 146 32 147 417 148 90 149 161 150 74 151 86 152 61 153 60 154 22 
155 48 156 20 157 41 158 15 159 31 160 13 161 60 162 36 163 136 164 63 
165 185 166 54 167 61 168 36 169 47 170 20 171 38 172 11 173 24 174 16 
175 51 176 68 177 159 178 109 179 140 180 43 181 58 182 23 183 43 184 41 
185 29 186 18 187 36 188 24 189 119 190 53 191 228 192 78 193 568 194 117 
195 105 196 24 197 37 198 25 199 35 200 18 201 26 202 52 203 60 204 24 
205 72 206 48 207 176 208 37 209 85 210 35 211 40 212 19 213 24 214 45 
215 41 216 18 217 38 218 27 219 55 220 45 221 82 222 29 223 83 224 35 
225 37 226 9 227 49 228 74 229 34 230 8 231 16 232 14 233 42 234 25 
235 87 236 106 237 95 238 26 239 58 240 33 241 31 242 16 243 25 244 11 
245 16 246 9 247 32 248 23 249 50 250 25 251 58 252 38 253 66 254 22 
255 31 256 19 257 44 258 26 259 16 260 11 261 19 262 13 263 33 264 57 
265 94 266 53 267 79 268 40 269 57 270 32 271 63 272 999 273 388 274 61 
275 28 276 8 277 36 278 22 279 91 280 83 281 56 282 25 283 38 284 13 
285 34 286 24 287 49 288 20 289 26 290 6 291 23 292 11 293 46 294 28 
295 88 296 41 297 48 298 15 299 19 300 3 301 19 302 9 303 12 304 10 
305 22 306 21 307 42 308 31 309 51 310 31 311 60 312 30 313 45 314 24 
315 17 316 6 317 7 318 10 319 9 320 7 321 32 322 34 323 51 324 37 
325 82 326 41 327 41 328 21 329 15 330 2 331 19 332 15 333 7 334 9 
335 15 336 22 337 48 338 27 339 62 340 49 341 110 342 60 343 104 344 37 
345 23 346 13 347 19 348 12 349 19 350 18 351 24 352 21 353 58 354 39 
355 73 356 28 357 55 358 21 359 18 360 4 361 9 362 9 363 15 364 13 
365 24 366 32 367 49 368 42 369 74 370 53 371 55 372 26 373 18 374 1 
375 11 376 5 377 17 378 19 379 24 380 22 381 45 382 35 383 94 384 65 
385 95 386 69 387 40 388 25 389 7 390 4 391 4 392 13 393 41 394 40 
395 38 396 44 397 93 398 59 399 70 400 34 401 27 402 12 403 8 404 7 
405 3 406 3 407 3 408 4 409 22 410 25 411 45 412 71 413 101 414 99 
415 276 416 144 417 117 418 49 419 27 420 2 421 6 422 2 423 4 424 10 
425 20 426 23 427 59 428 60 429 90 430 64 431 40 432 16 433 4 434 8 
436 8 437 12 438 5 439 21 440 18 441 46 442 76 443 215 444 164 445 72 
446 35 447 15 448 9 450 9 451 1 452 3 453 16 454 18 455 54 456 76 
457 162 458 260 459 209 460 118 461 40 462 16 463 7 464 6 465 4 466 10 
467 15 468 21 469 64 470 85 471 150 472 102 473 104 474 60 475 35 476 11 
477 4 478 7 479 1 480 1 481 4 482 5 483 45 484 107 485 215 486 383 
487 598 488 381 489 270 490 171 491 81 492 31 493 10 494 3 495 3 496 7 
498 8 499 14 500 20 
