Name: Oxamic acid
CAS: 471-47-6
MW: 89
Formula: C2H3NO3
Synonym: KEGG: C01444
Synonym: CID: 974
Synonym: MassBank: OUF00408
Synonym: Oxamic acid
Structure: 310A31360A3437313436392D38392D332E6D6F6C0A20204368656D447261773038303331303139323332440A2020362020352020302020302020302020302020302020302020302020303939392056323030300A2020202D302E343133352020202D302E3030383020202020302E303030302043202020302020302020302020302020302020302020302020302020302020302020302020300A20202020302E343131352020202D302E3030383020202020302E303030302043202020302020302020302020302020302020302020302020302020302020302020302020300A2020202D302E383239302020202D302E3731393220202020302E30303030204E202020302020302020302020302020302020302020302020302020302020302020302020300A2020202D302E3832393020202020302E3731393220202020302E30303030204F202020302020302020302020302020302020302020302020302020302020302020302020300A20202020302E383239302020202D302E3731393220202020302E30303030204F202020302020302020302020302020302020302020302020302020302020302020302020300A20202020302E3832393020202020302E3731393220202020302E30303030204F202020302020302020302020302020302020302020302020302020302020302020302020300A2020312020322020312020302020202020200A2020312020332020312020302020202020200A2020312020342020322020302020202020200A2020322020352020312020302020202020200A2020322020362020322020302020202020200A4D2020454E44
Contributor: Tsuzimoto Y, Tsugawa H, Bamba T, Fukusaki E, engineering department, Osaka Univ.
InstType: EI
InstName: Pegasus II TOF-MS system, Leco; GC 6890, Agilent Technologies
IoniMethod: EI
IonPolarity: pos
Date: 2010-10-09 19:48:36+02:00
Num Peaks: 65
85 11 86 21 87 14 88 4 89 8 90 2 91 2 92 3 93 12 94 1 
95 4 98 2 99 7 100 179 101 27 102 38 103 82 104 10 105 9 106 1 
107 1 113 4 114 2 115 22 116 279 117 56 118 21 119 6 120 1 128 2 
130 9 131 54 132 23 133 52 134 8 135 3 142 1 144 1 145 1 146 13 
147 999 148 160 149 84 150 10 151 3 158 13 159 2 160 1 161 1 173 1 
174 8 175 18 176 5 177 2 185 1 188 15 189 25 190 221 191 42 192 19 
193 3 218 94 219 18 220 9 221 1 
