Name: Acetyl CoA
CAS: 72-89-9
MW: 809
Formula: C23H38N7O17P3S
Synonym: CID: 181
Synonym: MassBank: OUF00094
Synonym: Acetyl CoA
Structure: 4330303030373235392E6364780A20204368656D447261773132323930383037303932440A2035312035332020302020302020302020302020302020302020302020303939392056323030300A2020202D322E303332352020202D312E3930353820202020302E30303030204E202020302020302020302020302020302020302020302020302020302020302020302020300A2020202D312E363039312020202D312E3231383420202020302E303030302043202020302020302020302020302020302020302020302020302020302020302020302020300A2020202D322E303039362020202D302E3439363620202020302E30303030204E202020302020302020302020302020302020302020302020302020302020302020302020300A2020202D322E383336332020202D302E3438343520202020302E303030302043202020302020302020302020302020302020302020302020302020302020302020302020300A2020202D332E323539372020202D312E3139323620202020302E303030302043202020302020302020302020302020302020302020302020302020302020302020302020300A2020202D322E383537322020202D312E3931333920202020302E303030302043202020302020302020302020302020302020302020302020302020302020302020302020300A2020202D332E3337383420202020302E3133363820202020302E30303030204E202020302020302020302020302020302020302020302020302020302020302020302020300A2020202D342E313336342020202D302E3138373820202020302E303030302043202020302020302020302020302020302020302020302020302020302020302020302020300A2020202D342E313235352020202D312E3035303320202020302E30303030204E202020302020302020302020302020302020302020302020302020302020302020302020300A2020202D332E3135303420202020302E3932393720202020302E303030302043202020302020302020302020302020302020302020302020302020302020302020302020300A2020202D322E3333383120202020302E3738353720202020302E30303030204F202020302020302020302020302020302020302020302020302020302020302020302020300A2020202D312E3935303120202020312E3531333820202020302E303030302043202020302020302020302020302020302020302020302020302020302020302020302020300A2020202D322E3532323720202020322E3130373820202020302E303030302043202020302020302020302020302020302020302020302020302020302020302020302020300A2020202D332E3236343520202020312E3734363820202020302E303030302043202020302020302020302020302020302020302020302020302020302020302020302020300A2020202D332E3833373120202020322E3334303720202020302E30303030204F202020302020302020302020302020302020302020302020302020302020302020302020300A2020202D322E3331363520202020322E3937303220202020302E30303030204F202020302020302020302020302020302020302020302020302020302020302020302020300A2020202D312E3132353320202020312E3531393420202020302E303030302043202020302020302020302020302020302020302020302020302020302020302020302020300A2020202D302E3734363720202020302E3837323920202020302E30303030204F202020302020302020302020302020302020302020302020302020302020302020302020300A2020202D332E323830332020202D322E3632323220202020302E30303030204E202020302020302020302020302020302020302020302020302020302020302020302020300A20202020322E363931312020202D312E3533373820202020302E303030302043202020302020302020302020302020302020302020302020302020302020302020302020300A20202020322E363936362020202D302E3731323820202020302E30303030204E202020302020302020302020302020302020302020302020302020302020302020302020300A20202020332E343133382020202D302E3330353020202020302E303030302043202020302020302020302020302020302020302020302020302020302020302020302020300A20202020332E3431393220202020302E3531393920202020302E303030302043202020302020302020302020302020302020302020302020302020302020302020302020300A20202020342E3133363420202020302E3932373720202020302E30303030204F202020302020302020302020302020302020302020302020302020302020302020302020300A20202020302E393237342020202D302E3438393420202020302E303030302050202020302020302020302020302020302020302020302020302020302020302020302020300A20202020302E343435362020202D312E3135393120202020302E30303030204F202020302020302020302020302020302020302020302020302020302020302020302020300A20202020312E3430393320202020302E3138303220202020302E30303030204F202020302020302020302020302020302020302020302020302020302020302020302020300A2020202D322E3636393920202020332E3430383520202020302E303030302050202020302020302020302020302020302020302020302020302020302020302020302020300A2020202D332E3339313720202020332E3030393120202020302E30303030204F202020302020302020302020302020302020302020302020302020302020302020302020300A2020202D312E3934383020202020332E3830373920202020302E30303030204F202020302020302020302020302020302020302020302020302020302020302020302020300A2020202D332E3234323520202020342E3030323420202020302E30303030204F202020302020302020302020302020302020302020302020302020302020302020302020300A20202020342E313235352020202D302E3732323220202020302E30303030204F202020302020302020302020302020302020302020302020302020302020302020302020300A20202020312E353937382020202D302E3937303320202020302E30303030204F202020302020302020302020302020302020302020302020302020302020302020302020300A20202020302E3037383320202020302E3837323920202020302E303030302050202020302020302020302020302020302020302020302020302020302020302020302020300A20202020302E3037383320202020312E3639373920202020302E30303030204F202020302020302020302020302020302020302020302020302020302020302020302020300A20202020302E3037383320202020302E3034373920202020302E30303030204F202020302020302020302020302020302020302020302020302020302020302020302020300A20202020322E3233343320202020302E3138303220202020302E303030302043202020302020302020302020302020302020302020302020302020302020302020302020300A20202020322E3634363820202020302E3839343720202020302E303030302043202020302020302020302020302020302020302020302020302020302020302020302020300A20202020332E3035393320202020312E3630393220202020302E303030302043202020302020302020302020302020302020302020302020302020302020302020302020300A20202020312E3933323320202020312E3330373220202020302E303030302043202020302020302020302020302020302020302020302020302020302020302020302020300A20202020312E393733372020202D312E3934353120202020302E303030302043202020302020302020302020302020302020302020302020302020302020302020302020300A20202020312E393637372020202D322E3737303120202020302E303030302043202020302020302020302020302020302020302020302020302020302020302020302020300A20202020322E363739322020202D332E3138373820202020302E30303030204F202020302020302020302020302020302020302020302020302020302020302020302020300A20202020312E323530332020202D332E3137373420202020302E30303030204E202020302020302020302020302020302020302020302020302020302020302020302020300A20202020302E353335382020202D322E3736343920202020302E303030302043202020302020302020302020302020302020302020302020302020302020302020302020300A2020202D302E313738362020202D332E3137373420202020302E303030302043202020302020302020302020302020302020302020302020302020302020302020302020300A2020202D302E383933312020202D322E3736343920202020302E303030302053202020302020302020302020302020302020302020302020302020302020302020302020300A2020202D312E363037362020202D332E3137373420202020302E303030302043202020302020302020302020302020302020302020302020302020302020302020302020300A2020202D322E333232302020202D322E3736343920202020302E303030302043202020302020302020302020302020302020302020302020302020302020302020302020300A2020202D312E363037362020202D342E3030323420202020302E30303030204F202020302020302020302020302020302020302020302020302020302020302020302020300A20202020302E3930333320202020302E3837323920202020302E30303030204F202020302020302020302020302020302020302020302020302020302020302020302020300A2020312020322020312020302020202020200A2020322020332020322020302020202020200A2020332020342020312020302020202020200A2020342020352020322020302020202020200A2020352020362020312020302020202020200A2020312020362020322020302020202020200A2020342020372020312020302020202020200A2020372020382020312020302020202020200A2020382020392020322020302020202020200A2020352020392020312020302020202020200A2020372031302020312020302020202020200A2031302031312020312020302020202020200A2031312031322020312020302020202020200A2031322031332020312020302020202020200A2031332031342020312020302020202020200A2031342031302020312020302020202020200A2031342031352020312020302020202020200A2031332031362020312020302020202020200A2031322031372020312020302020202020200A2020362031392020312020302020202020200A2032302032312020312020302020202020200A2032312032322020312020302020202020200A2032322032332020312020302020202020200A2032332032342020312020302020202020200A2032352032362020322020302020202020200A2032352032372020312020302020202020200A2031362032382020312020302020202020200A2032382032392020322020302020202020200A2032382033302020312020302020202020200A2032382033312020312020302020202020200A2032322033322020322020302020202020200A2032352033332020312020302020202020200A2031372031382020312020302020202020200A2031382033342020312020302020202020200A2033342033352020322020302020202020200A2033342033362020312020302020202020200A2033362032352020312020302020202020200A2032372033372020312020302020202020200A2033372033382020312020302020202020200A2033382033392020312020302020202020200A2032332033382020312020302020202020200A2033382034302020312020302020202020200A2032302034312020312020302020202020200A2034312034322020312020302020202020200A2034322034332020322020302020202020200A2034322034342020312020302020202020200A2034352034342020312020302020202020200A2034362034352020312020302020202020200A2034372034362020312020302020202020200A2034382034372020312020302020202020200A2034392034382020312020302020202020200A2034382035302020322020302020202020200A2033342035312020312020302020202020200A4D2020454E44
Contributor: Tsuzimoto Y, Tsugawa H, Bamba T, Fukusaki E, engineering department, Osaka Univ.
InstType: EI
InstName: Pegasus II TOF-MS system, Leco; GC 6890, Agilent Technologies
IoniMethod: EI
IonPolarity: pos
Date: 2010-10-09 19:48:36+02:00
Num Peaks: 108
85 8 87 21 88 4 89 74 90 11 96 4 97 1 99 14 100 2 101 114 
102 30 103 519 104 70 105 53 106 5 107 9 108 2 113 7 115 42 116 50 
117 581 118 61 119 53 120 18 121 1 125 1 127 2 129 104 130 4 131 103 
132 10 133 306 134 60 135 29 137 7 143 11 144 2 147 999 148 167 149 87 
150 21 158 1 163 29 165 5 167 2 170 3 171 2 174 3 175 39 176 7 
177 37 178 5 180 1 189 9 191 42 192 19 193 11 194 7 195 9 197 4 
200 3 202 1 203 42 204 71 205 418 206 92 207 31 208 13 212 3 214 5 
217 17 218 166 219 44 220 19 221 10 223 3 225 3 226 6 227 8 229 1 
235 2 238 3 255 1 261 3 267 6 290 1 293 1 294 4 298 3 303 3 
311 2 316 2 327 3 329 4 335 1 347 3 352 1 371 1 379 2 380 2 
388 1 392 1 410 2 428 5 433 1 448 2 461 2 498 2 
