Name: Adenylosuccinic acid
CAS: 19046-78-7
MW: 463
Formula: C14H18N5O11P
Synonym: CID: 195
Synonym: MassBank: OUF00098
Synonym: Adenylosuccinic acid
Structure: 4330303030373232392E6364780A20204368656D447261773132323930383037303833440A2033312033332020302020302020302020302020302020302020302020303939392056323030300A20202020302E333433372020202D312E3838323420202020302E303133352043202020302020302020302020302020302020302020302020302020302020302020302020300A20202020302E363039322020202D322E3636333520202020302E303134352043202020302020302020302020302020302020302020302020302020302020302020302020300A20202020312E343334312020202D322E3635323420202020302E303135342043202020302020302020302020302020302020302020302020302020302020302020302020300A20202020312E363738342020202D312E3836343420202020302E303134382043202020302020302020302020302020302020302020302020302020302020302020302020300A20202020312E303034352020202D312E3338383520202020302E30313337204F202020302020302020302020302020302020302020302020302020302020302020302020300A2020202D302E343434332020202D312E3633383120202020302E303132352043202020302020302020302020302020302020302020302020302020302020302020302020300A20202020302E313333332020202D332E3333373420202020302E30313437204F202020302020302020302020302020302020302020302020302020302020302020302020300A2020202D302E313333352020202D302E3738393520202020302E323438382043202020302020302020302020302020302020302020302020302020302020302020302020300A2020202D302E3132363920202020302E3033333820202020302E32393936204E202020302020302020302020302020302020302020302020302020302020302020302020300A20202020302E3537343420202020302E3434393920202020302E313733322043202020302020302020302020302020302020302020302020302020302020302020302020300A20202020312E3237303520202020302E303431332020202D302E303034342043202020302020302020302020302020302020302020302020302020302020302020302020300A20202020312E323633392020202D302E373832302020202D302E303535332043202020302020302020302020302020302020302020302020302020302020302020302020300A20202020302E353631322020202D312E3139383120202020302E30373134204E202020302020302020302020302020302020302020302020302020302020302020302020300A20202020322E3033383820202020302E323939362020202D302E31353535204E202020302020302020302020302020302020302020302020302020302020302020302020300A20202020322E353036382020202D302E333634332020202D302E323939362043202020302020302020302020302020302020302020302020302020302020302020302020300A20202020322E303238312020202D312E303333342020202D302E32333738204E202020302020302020302020302020302020302020302020302020302020302020302020300A20202020302E3537343420202020312E3237343920202020302E30313237204E202020302020302020302020302020302020302020302020302020302020302020302020300A20202020302E3537343420202020322E3039393920202020302E303132372043202020302020302020302020302020302020302020302020302020302020302020302020300A20202020312E3238383920202020322E3531323420202020302E303132372043202020302020302020302020302020302020302020302020302020302020302020302020300A20202020322E3030333420202020322E3039393920202020302E30313237204F202020302020302020302020302020302020302020302020302020302020302020302020300A2020202D302E3134303120202020322E3531323420202020302E303132372043202020302020302020302020302020302020302020302020302020302020302020302020300A2020202D302E3835343520202020322E3039393920202020302E303132372043202020302020302020302020302020302020302020302020302020302020302020302020300A2020202D312E3536393020202020322E3531323420202020302E30313237204F202020302020302020302020302020302020302020302020302020302020302020302020300A2020202D302E3835343520202020312E3237343920202020302E30313237204F202020302020302020302020302020302020302020302020302020302020302020302020300A20202020312E3238383920202020332E3333373420202020302E30313237204F202020302020302020302020302020302020302020302020302020302020302020302020300A20202020322E303137352020202D332E3233353820202020302E30313237204F202020302020302020302020302020302020302020302020302020302020302020302020300A2020202D302E383536382020202D302E3932333620202020302E30313237204F202020302020302020302020302020302020302020302020302020302020302020302020300A2020202D312E363831382020202D302E3932333620202020302E303132372050202020302020302020302020302020302020302020302020302020302020302020302020300A2020202D322E353036382020202D302E3932333620202020302E30313237204F202020302020302020302020302020302020302020302020302020302020302020302020300A2020202D312E363831382020202D312E3734383620202020302E30313237204F202020302020302020302020302020302020302020302020302020302020302020302020300A2020202D312E363831382020202D302E3039383620202020302E30313237204F202020302020302020302020302020302020302020302020302020302020302020302020300A2020312020322020312020302020202020200A2020322020332020312020302020202020200A2020332020342020312020302020202020200A2020342020352020312020302020202020200A2020352020312020312020302020202020200A2020312020362020312020312020202020200A2020322020372020312020362020202020200A2020382020392020312020302020202020200A2020392031302020322020302020202020200A2031302031312020312020302020202020200A2031312031322020322020302020202020200A2031322031332020312020302020202020200A2020382031332020322020302020202020200A2031312031342020312020302020202020200A2031342031352020322020302020202020200A2031352031362020312020302020202020200A2031322031362020312020302020202020200A2020342031362020312020312020202020200A2031302031372020312020302020202020200A2031372031382020312020302020202020200A2031392031382020312020302020202020200A2032302031392020312020302020202020200A2032312031382020312020302020202020200A2032322032312020312020302020202020200A2032332032322020312020302020202020200A2032322032342020322020302020202020200A2031392032352020322020302020202020200A2020332032362020312020362020202020200A2020362032372020312020302020202020200A2032372032382020312020302020202020200A2032382032392020312020302020202020200A2032382033302020312020302020202020200A2032382033312020322020302020202020200A4D2020454E44
Contributor: Tsuzimoto Y, Tsugawa H, Bamba T, Fukusaki E, engineering department, Osaka Univ.
InstType: EI
InstName: Pegasus II TOF-MS system, Leco; GC 6890, Agilent Technologies
IoniMethod: EI
IonPolarity: pos
Date: 2010-10-09 19:48:36+02:00
Num Peaks: 257
85 63 86 41 87 39 88 17 89 330 90 29 91 23 92 1 94 20 96 7 
97 3 98 32 99 51 100 56 101 353 102 69 103 151 104 11 105 112 106 16 
107 17 109 5 110 7 111 19 112 15 113 57 114 47 115 99 116 118 117 134 
118 16 119 55 120 6 121 29 122 2 123 6 125 9 126 79 127 40 128 28 
129 674 130 176 131 167 132 22 133 455 134 63 135 113 136 10 137 34 140 9 
141 11 142 28 143 56 144 10 145 30 146 1 147 902 148 156 149 141 150 21 
151 37 152 12 153 6 154 4 156 16 157 42 158 224 159 47 160 183 161 45 
162 4 163 46 164 3 165 11 166 5 167 15 168 62 169 16 170 10 171 2 
172 9 173 39 174 39 175 8 176 2 177 10 178 1 179 12 180 2 181 38 
182 17 183 23 184 22 185 8 186 4 187 5 189 55 190 14 191 75 192 11 
193 59 194 11 195 50 196 11 197 14 198 45 199 13 200 38 201 8 202 10 
203 12 204 36 205 58 206 9 207 97 208 12 209 17 211 298 212 46 213 24 
214 9 215 25 216 30 217 863 218 220 219 80 220 18 221 13 224 4 225 75 
226 17 227 71 228 12 229 4 230 12 231 12 232 2 234 2 235 1 238 4 
239 1 240 2 241 5 242 11 243 15 244 7 246 2 249 3 253 9 254 3 
255 1 256 33 257 15 258 9 259 4 260 4 261 2 262 4 264 3 269 11 
270 3 271 2 272 44 273 6 274 14 276 4 283 20 284 4 285 23 286 9 
288 9 289 7 291 4 297 1 298 19 299 610 300 290 301 118 302 37 303 3 
304 5 305 1 306 2 309 3 311 8 313 11 314 49 315 999 316 324 317 175 
318 32 319 6 328 12 329 4 330 6 331 9 332 6 334 1 338 3 340 1 
341 19 342 11 343 2 344 1 345 4 346 1 356 3 357 84 358 25 359 8 
360 1 362 6 368 1 369 19 370 2 372 2 373 17 374 2 375 3 376 3 
377 1 382 1 386 8 387 24 388 13 389 10 402 4 403 66 404 33 405 13 
406 8 407 4 414 1 415 1 420 2 421 1 422 1 424 2 425 2 427 2 
428 4 432 2 433 3 440 1 441 2 445 2 458 8 459 52 460 27 461 14 
462 4 463 2 477 4 479 1 486 5 492 1 500 1 
