Name: Pyridoxal
CAS: 66-72-8
MW: 167
Formula: C8H9NO3
Synonym: KEGG: C00250
Synonym: CID: 1050
Synonym: MassBank: OUF00434
Synonym: Pyridoxal
Structure: 4330303030373530392E6364780A20204368656D447261773132323930383037313732440A2031322031322020302020302020302020302020302020302020302020303939392056323030300A2020202D312E303731372020202D302E3230363220202020302E303030302043202020302020302020302020302020302020302020302020302020302020302020302020300A2020202D312E303731372020202D312E3033313320202020302E303030302043202020302020302020302020302020302020302020302020302020302020302020302020300A2020202D302E333537322020202D312E3434333820202020302E30303030204E202020302020302020302020302020302020302020302020302020302020302020302020300A20202020302E333537322020202D312E3033313320202020302E303030302043202020302020302020302020302020302020302020302020302020302020302020302020300A20202020302E333537322020202D302E3230363220202020302E303030302043202020302020302020302020302020302020302020302020302020302020302020302020300A2020202D302E3335373220202020302E3230363220202020302E303030302043202020302020302020302020302020302020302020302020302020302020302020302020300A2020202D302E3335373220202020312E3033313320202020302E303030302043202020302020302020302020302020302020302020302020302020302020302020302020300A20202020302E3335373220202020312E3434333820202020302E30303030204F202020302020302020302020302020302020302020302020302020302020302020302020300A2020202D312E3738363220202020302E3230363220202020302E30303030204F202020302020302020302020302020302020302020302020302020302020302020302020300A2020202D312E373836322020202D312E3434333820202020302E303030302043202020302020302020302020302020302020302020302020302020302020302020302020300A20202020312E3037313720202020302E3230363220202020302E303030302043202020302020302020302020302020302020302020302020302020302020302020302020300A20202020312E373836322020202D302E3230363220202020302E30303030204F202020302020302020302020302020302020302020302020302020302020302020302020300A2020312020322020322020302020202020200A2020322020332020312020302020202020200A2020332020342020322020302020202020200A2020342020352020312020302020202020200A2020352020362020322020302020202020200A2020362020312020312020302020202020200A2020362020372020312020302020202020200A2020372020382020322020302020202020200A2020312020392020312020302020202020200A2020322031302020312020302020202020200A2031312020352020312020302020202020200A2031322031312020312020302020202020200A4D2020454E44
Contributor: Tsuzimoto Y, Tsugawa H, Bamba T, Fukusaki E, engineering department, Osaka Univ.
InstType: EI
InstName: Pegasus II TOF-MS system, Leco; GC 6890, Agilent Technologies
IoniMethod: EI
IonPolarity: pos
Date: 2010-10-09 19:48:36+02:00
Num Peaks: 238
85 13 86 24 87 10 88 10 89 11 90 3 91 18 92 19 93 15 94 17 
95 13 96 18 97 19 98 3 99 9 100 29 102 38 103 22 104 31 105 11 
106 43 107 8 108 11 109 14 110 7 111 11 112 2 113 11 114 7 115 25 
116 21 117 26 118 14 119 28 120 19 121 17 122 13 123 24 124 15 125 2 
126 3 127 2 128 4 130 82 131 85 132 55 133 104 134 23 135 16 136 14 
137 12 138 10 139 6 142 3 143 4 144 6 145 10 146 107 147 268 148 63 
149 67 150 24 151 9 152 9 153 2 157 4 158 5 159 6 160 12 161 7 
162 28 163 12 164 43 165 20 166 12 167 2 168 1 170 1 171 1 172 3 
173 6 174 12 175 11 176 13 177 9 178 55 179 38 180 42 181 11 182 8 
183 6 185 1 188 4 189 14 190 24 191 26 192 57 193 39 194 46 195 8 
196 13 198 1 201 3 203 7 204 26 205 249 206 111 207 105 208 36 209 12 
210 2 211 6 212 2 213 4 214 2 215 1 217 4 218 1 219 6 220 14 
221 158 222 36 223 17 224 13 225 1 226 5 229 9 231 5 233 4 234 8 
235 4 236 8 242 4 245 9 246 3 248 2 249 5 250 19 251 16 252 42 
253 16 254 12 255 2 257 2 260 1 261 1 263 2 264 11 265 15 266 12 
267 6 268 6 269 3 270 6 272 1 274 2 275 6 278 8 279 91 280 999 
281 406 282 134 283 27 284 6 285 4 286 2 287 1 289 2 291 3 292 4 
293 28 294 102 295 370 296 118 297 34 298 4 299 1 300 2 305 1 309 3 
311 2 321 2 327 1 332 6 335 1 337 4 338 5 339 4 341 2 342 1 
344 4 352 2 353 7 354 2 356 4 358 8 362 1 364 2 368 1 369 30 
370 10 372 5 374 5 377 5 382 1 387 1 388 6 391 3 394 1 399 5 
401 1 403 1 411 4 413 4 415 4 418 4 421 4 424 9 425 4 426 2 
430 3 435 1 438 5 440 7 441 6 443 2 444 2 449 1 462 2 463 4 
467 5 473 2 475 4 477 2 479 3 480 4 497 1 498 3 
