Name: L-2-Aminobutyric acid
CAS: 1492-24-6
MW: 103
Formula: C4H9NO2
Synonym: KEGG: C02356
Synonym: CID: 6971252
Synonym: MassBank: OUF00294
Synonym: L-2-Aminobutyric acid
Structure: 310A31390A202049534953484F53543033323430343233303632442031202020312E30303030302020202020302E30303030302020323132380A2020372020362020302020202020312020302020202020202020202020203939392056323030300A2020202D302E303933312020202D302E3136323120202020302E303030302043202020302020302020322020302020302020302020202020202020202020302020302020300A20202020302E3535353220202020302E3231333820202020302E303030302043202020302020302020302020302020302020302020202020202020202020302020302020300A2020202D302E3734313420202020302E3231333820202020302E303030302043202020302020302020302020302020302020302020202020202020202020302020302020300A2020202D302E303933312020202D302E3931303320202020302E30303030204E202020302020302020302020302020302020302020202020202020202020302020302020300A20202020312E323036392020202D302E3136323120202020302E30303030204F202020302020302020302020302020302020302020202020202020202020302020302020300A20202020302E3535353220202020302E3936353520202020302E30303030204F202020302020302020302020302020302020302020202020202020202020302020302020300A2020202D312E333933312020202D302E3136323120202020302E303030302043202020302020302020302020302020302020302020202020202020202020302020302020300A2020312020322020312020302020202020302020300A2020312020332020312020302020202020302020300A2020312020342020312020312020202020302020300A2020322020352020312020302020202020302020300A2020322020362020322020302020202020302020300A2020332020372020312020302020202020302020300A4D2020454E44
Contributor: Tsuzimoto Y, Tsugawa H, Bamba T, Fukusaki E, engineering department, Osaka Univ.
InstType: EI
InstName: Pegasus II TOF-MS system, Leco; GC 6890, Agilent Technologies
IoniMethod: EI
IonPolarity: pos
Date: 2010-10-09 19:48:36+02:00
Num Peaks: 62
85 9 86 22 87 10 88 4 89 3 90 1 92 1 93 1 94 1 95 3 
96 3 97 1 98 18 99 5 100 68 101 21 102 11 103 34 104 4 105 1 
109 2 112 2 113 2 114 27 115 16 116 7 117 14 118 3 119 4 126 1 
127 1 128 10 129 11 130 999 131 141 132 54 133 34 134 5 135 4 142 27 
143 6 144 3 145 1 146 6 147 152 148 26 149 14 150 1 158 4 159 1 
160 3 163 1 174 3 175 1 204 37 205 12 206 5 218 18 219 4 220 1 
232 9 233 1 
