Name: MassBank: OUF00442
CAS: 155-54-4
MW: 158
Formula: C5H6N2O4
Synonym: KEGG: C00337
Synonym: CID: 439216
Synonym: MassBank: OUF00442
Synonym: R,S-Hydroorotate
Structure: 3135353534332D30322D352E6D6F6C0A20204368656D447261773037333131303138323632440A2031312031312020302020302020302020302020302020302020302020303939392056323030300A20202020302E333536382020202D302E3431323520202020302E303030302043202020302020302020302020302020302020302020302020302020302020302020302020300A20202020302E3335363820202020302E3431323520202020302E303030302043202020302020302020302020302020302020302020302020302020302020302020302020300A2020202D302E333536382020202D302E3832363020202020302E30303030204E202020302020302020302020302020302020302020302020302020302020302020302020300A20202020312E303732352020202D302E3832363020202020302E303030302043202020302020302020302020302020302020302020302020302020302020302020302020300A2020202D302E3335363820202020302E3832363020202020302E303030302043202020302020302020302020302020302020302020302020302020302020302020302020300A2020202D312E303732352020202D302E3431323520202020302E303030302043202020302020302020302020302020302020302020302020302020302020302020302020300A20202020312E303732352020202D312E3635303920202020302E30303030204F202020302020302020302020302020302020302020302020302020302020302020302020300A20202020312E373838312020202D302E3431323520202020302E30303030204F202020302020302020302020302020302020302020302020302020302020302020302020300A2020202D312E3037323520202020302E3431323520202020302E30303030204E202020302020302020302020302020302020302020302020302020302020302020302020300A2020202D302E3335363820202020312E3635303920202020302E30303030204F202020302020302020302020302020302020302020302020302020302020302020302020300A2020202D312E373838312020202D302E3832363020202020302E30303030204F202020302020302020302020302020302020302020302020302020302020302020302020300A2020312020322020312020302020202020200A2020312020332020312020302020202020200A2020312020342020312020312020202020200A2020322020352020312020302020202020200A2020332020362020312020302020202020200A2020342020372020312020302020202020200A2020342020382020322020302020202020200A2020352020392020312020302020202020200A2020352031302020322020302020202020200A2020362031312020322020302020202020200A2020362020392020312020302020202020200A4D2020454E44
Contributor: Tsuzimoto Y, Tsugawa H, Bamba T, Fukusaki E, engineering department, Osaka Univ.
InstType: EI
InstName: Pegasus II TOF-MS system, Leco; GC 6890, Agilent Technologies
IoniMethod: EI
IonPolarity: pos
Date: 2010-10-09 19:48:36+02:00
Num Peaks: 65
85 32 86 26 87 26 88 2 92 1 93 3 95 7 96 18 98 16 99 143 
100 240 101 41 102 18 103 5 105 2 113 4 115 7 116 17 117 15 122 1 
125 1 126 7 128 11 129 12 131 34 133 42 134 1 142 43 143 6 144 16 
147 448 148 76 149 30 158 1 168 3 169 48 170 10 172 3 173 1 174 16 
184 28 185 999 186 158 187 38 191 3 234 1 241 4 252 2 257 11 258 6 
259 89 260 26 261 8 287 58 288 12 304 2 315 1 325 1 367 2 370 1 
383 1 414 2 436 3 443 1 453 1 
