Name: MassBank: OUF00443
CAS: 155-54-4
MW: 158
Formula: C5H6N2O4
Synonym: KEGG: C00337
Synonym: CID: 439216
Synonym: MassBank: OUF00443
Synonym: R,S-Hydroorotate
Structure: 3135353534332D30322D352E6D6F6C0A20204368656D447261773037333131303138323632440A2031312031312020302020302020302020302020302020302020302020303939392056323030300A20202020302E333536382020202D302E3431323520202020302E303030302043202020302020302020302020302020302020302020302020302020302020302020302020300A20202020302E3335363820202020302E3431323520202020302E303030302043202020302020302020302020302020302020302020302020302020302020302020302020300A2020202D302E333536382020202D302E3832363020202020302E30303030204E202020302020302020302020302020302020302020302020302020302020302020302020300A20202020312E303732352020202D302E3832363020202020302E303030302043202020302020302020302020302020302020302020302020302020302020302020302020300A2020202D302E3335363820202020302E3832363020202020302E303030302043202020302020302020302020302020302020302020302020302020302020302020302020300A2020202D312E303732352020202D302E3431323520202020302E303030302043202020302020302020302020302020302020302020302020302020302020302020302020300A20202020312E303732352020202D312E3635303920202020302E30303030204F202020302020302020302020302020302020302020302020302020302020302020302020300A20202020312E373838312020202D302E3431323520202020302E30303030204F202020302020302020302020302020302020302020302020302020302020302020302020300A2020202D312E3037323520202020302E3431323520202020302E30303030204E202020302020302020302020302020302020302020302020302020302020302020302020300A2020202D302E3335363820202020312E3635303920202020302E30303030204F202020302020302020302020302020302020302020302020302020302020302020302020300A2020202D312E373838312020202D302E3832363020202020302E30303030204F202020302020302020302020302020302020302020302020302020302020302020302020300A2020312020322020312020302020202020200A2020312020332020312020302020202020200A2020312020342020312020312020202020200A2020322020352020312020302020202020200A2020332020362020312020302020202020200A2020342020372020312020302020202020200A2020342020382020322020302020202020200A2020352020392020312020302020202020200A2020352031302020322020302020202020200A2020362031312020322020302020202020200A2020362020392020312020302020202020200A4D2020454E44
Contributor: Tsuzimoto Y, Tsugawa H, Bamba T, Fukusaki E, engineering department, Osaka Univ.
InstType: EI
InstName: Pegasus II TOF-MS system, Leco; GC 6890, Agilent Technologies
IoniMethod: EI
IonPolarity: pos
Date: 2010-10-09 19:48:36+02:00
Num Peaks: 159
85 29 86 47 87 17 88 6 89 9 90 1 91 1 92 4 93 9 94 1 
95 13 96 8 97 3 98 29 99 133 100 999 101 113 102 49 103 24 104 4 
105 9 106 1 109 1 110 1 111 5 112 6 113 20 114 13 115 30 116 16 
117 40 118 8 119 9 120 1 124 1 125 5 126 15 127 9 128 7 129 28 
130 15 131 85 132 38 133 100 134 17 135 9 136 1 139 2 140 7 141 4 
142 68 143 14 144 9 145 3 146 4 147 547 148 96 149 58 150 8 151 2 
153 3 154 12 155 5 156 6 157 14 158 126 159 21 160 13 161 6 162 1 
163 1 167 2 168 4 169 24 170 9 171 14 172 91 173 33 174 107 175 20 
176 11 177 1 183 6 184 6 185 27 186 6 187 2 188 28 189 8 190 4 
191 2 197 1 198 1 199 5 200 2 201 1 202 6 203 2 204 1 205 1 
213 3 214 2 215 3 216 5 217 2 221 1 225 2 226 1 227 4 228 5 
229 2 230 10 231 5 232 1 239 1 240 1 241 53 242 20 243 23 244 12 
245 5 246 6 247 1 254 1 255 17 256 18 257 638 258 148 259 65 260 11 
261 3 262 2 269 11 270 2 271 15 272 3 273 1 285 1 287 16 288 5 
289 3 315 1 316 2 317 9 318 4 319 2 329 3 330 2 331 30 332 16 
333 8 334 2 358 5 359 112 360 45 361 20 362 5 363 1 374 2 
