Name: Maltose
CAS: 69-79-4
MW: 342
Formula: C12H22O11
Synonym: MassBank: OUF00341
Synonym: Maltose
Structure: 4330303030313134302E6364780A20204368656D447261773132323630383139313232440A2032332032342020302020302020302020302020302020302020302020303939392056323030300A2020202D322E3133343920202020302E3638353320202020302E303030302043202020302020302020302020302020302020302020302020302020302020302020302020300A2020202D312E373633372020202D302E3033363620202020302E303030302043202020302020302020302020302020302020302020302020302020302020302020302020300A2020202D312E3032313220202020302E3139303320202020302E303030302043202020302020302020302020302020302020302020302020302020302020302020302020300A2020202D302E3432333120202020302E3130373820202020302E303030302043202020302020302020302020302020302020302020302020302020302020302020302020300A2020202D312E3531363220202020302E3532303320202020302E303030302043202020302020302020302020302020302020302020302020302020302020302020302020300A2020202D302E3835363220202020302E3736373820202020302E30303030204F202020302020302020302020302020302020302020302020302020302020302020302020300A2020202D322E3339393320202020302E3031393220202020302E30303030204F202020302020302020302020302020302020302020302020302020302020302020302020300A2020202D312E303231322020202D302E3535323520202020302E30303030204F202020302020302020302020302020302020302020302020302020302020302020302020300A20202020302E303932362020202D302E3037373920202020302E303030302043202020302020302020302020302020302020302020302020302020302020302020302020300A20202020302E343633382020202D302E3836313620202020302E303030302043202020302020302020302020302020302020302020302020302020302020302020302020300A20202020312E323036332020202D302E3633343720202020302E303030302043202020302020302020302020302020302020302020302020302020302020302020302020300A20202020312E393639342020202D302E3639363620202020302E303030302043202020302020302020302020302020302020302020302020302020302020302020302020300A20202020302E373131332020202D302E3330343720202020302E303030302043202020302020302020302020302020302020302020302020302020302020302020302020300A20202020312E333731332020202D302E3035373220202020302E30303030204F202020302020302020302020302020302020302020302020302020302020302020302020300A2020202D302E313731382020202D302E3830353820202020302E30303030204F202020302020302020302020302020302020302020302020302020302020302020302020300A20202020312E343735322020202D312E3130303520202020302E30303030204F202020302020302020302020302020302020302020302020302020302020302020302020300A20202020322E353139372020202D302E3337383920202020302E30303030204F202020302020302020302020302020302020302020302020302020302020302020302020300A2020202D302E343532342020202D302E3330373720202020302E30303030204F202020302020302020302020302020302020302020302020302020302020302020302020300A2020202D322E3531393720202020302E3538323220202020302E30303030204F202020302020302020302020302020302020302020302020302020302020302020302020300A2020202D312E3230353120202020312E3130303520202020302E303030302043202020302020302020302020302020302020302020302020302020302020302020302020300A2020202D302E3439303620202020302E3638383020202020302E30303030204F202020302020302020302020302020302020302020302020302020302020302020302020300A20202020302E3931313120202020302E3035353120202020302E303030302043202020302020302020302020302020302020302020302020302020302020302020302020300A20202020302E3131343220202020302E3236383620202020302E30303030204F202020302020302020302020302020302020302020302020302020302020302020302020300A2020312020322020312020312020202020200A2020322020332020312020312020202020200A2020342020332020312020312020202020200A2020312020352020312020302020202020200A2020352020362020312020302020202020200A2020362020342020312020302020202020200A2020322020372020312020302020202020200A2020332020382020312020302020202020200A2020392031302020312020312020202020200A2031302031312020312020312020202020200A2031322031312020312020312020202020200A2020392031332020312020302020202020200A2031332031342020312020302020202020200A2031342031322020312020302020202020200A2031302031352020312020302020202020200A2031312031362020312020302020202020200A2031322031372020312020302020202020200A2031382020342020312020302020202020200A2020312031392020312020302020202020200A2031382020392020312020302020202020200A2020352032302020312020302020202020200A2032302032312020312020302020202020200A2031332032322020312020302020202020200A2032322032332020312020302020202020200A4D202053545920203120202031205355500A4D2020534C4220203120202031202020310A4D202053414C2020203120203220203230202032310A4D202053424C20202031202031202032310A4D2020534D5420202031204348324F480A4D2020534256202020312032312020202D322E3932333120202020322E373239390A4D202053545920203120202032205355500A4D2020534C4220203120202032202020320A4D202053414C2020203220203220203232202032330A4D202053424C20202032202031202032330A4D2020534D5420202032204348324F480A4D2020534256202020322032332020202D332E3033343520202020322E353039350A4D2020454E44
Contributor: Tsuzimoto Y, Tsugawa H, Bamba T, Fukusaki E, engineering department, Osaka Univ.
InstType: EI
InstName: Pegasus II TOF-MS system, Leco; GC 6890, Agilent Technologies
IoniMethod: EI
IonPolarity: pos
Date: 2010-10-09 19:48:36+02:00
Num Peaks: 281
85 24 86 9 87 23 88 13 89 231 90 23 91 14 92 4 93 4 94 4 
95 8 96 2 97 40 98 7 99 26 100 60 101 77 102 39 103 812 104 83 
105 66 106 12 107 4 108 1 109 29 110 6 111 23 112 5 113 33 114 18 
115 32 116 39 117 421 118 46 119 40 120 6 121 1 122 1 123 2 124 1 
125 5 126 6 127 26 128 12 129 472 130 70 131 110 132 19 133 230 134 33 
135 24 136 3 137 1 138 4 139 12 140 6 141 19 142 22 143 95 144 17 
145 34 146 7 147 999 148 167 149 118 150 16 151 12 152 5 153 16 154 11 
155 61 156 17 157 95 158 23 159 24 160 139 161 41 162 12 163 42 164 9 
165 3 166 2 167 7 168 8 169 299 170 47 171 32 172 14 173 33 174 12 
175 20 176 4 177 22 178 9 179 3 180 5 181 5 182 4 183 21 184 4 
185 10 186 11 187 10 188 7 189 119 190 31 191 173 192 34 193 18 194 4 
195 6 196 8 197 3 198 5 199 13 200 5 201 18 202 8 203 43 204 801 
205 329 206 106 207 36 208 6 209 2 210 8 211 5 213 2 214 4 215 20 
216 11 217 528 218 126 219 61 220 15 221 36 222 9 223 6 225 1 227 8 
228 7 229 42 230 27 231 57 232 17 233 52 234 15 235 22 236 4 237 2 
239 1 240 6 241 11 242 8 243 112 244 34 245 36 246 16 247 24 248 6 
249 3 254 2 255 7 256 7 257 14 258 3 259 22 260 6 261 6 262 6 
263 2 264 3 265 9 266 2 267 1 268 14 269 9 270 9 271 108 272 29 
273 29 274 11 275 10 276 6 277 3 278 3 279 3 281 1 282 2 284 1 
286 3 287 1 288 2 289 1 290 2 291 18 292 6 293 4 295 1 296 1 
297 1 300 26 301 8 302 1 303 1 304 7 305 24 306 9 307 10 308 3 
309 3 312 1 316 1 317 11 318 11 319 113 320 41 321 22 322 5 323 1 
325 2 327 1 328 1 331 31 332 23 333 14 334 7 335 1 337 1 342 1 
343 3 344 3 345 11 346 5 347 5 348 4 358 1 359 3 360 29 361 538 
362 209 363 101 364 30 365 11 366 2 367 1 373 4 374 3 376 4 377 1 
378 1 379 1 389 2 390 15 391 6 392 6 393 2 403 1 406 1 408 2 
409 3 418 1 421 1 422 1 425 1 432 1 433 1 435 1 436 2 440 1 
448 1 449 1 450 3 451 12 452 7 453 2 454 1 463 2 464 1 467 2 
479 2 
