Name: b-Cyano-L-Alanine
CAS: 6232-19-5
MW: 114
Formula: C4H6N2O2
Synonym: KEGG: C02512
Synonym: CID: 439742
Synonym: MassBank: OUF00498
Synonym: b-Cyano-L-Alanine
Structure: 310A32320A4330303030313335302E6364780A20204368656D447261773132323630383139313932440A2020392020382020302020302020302020302020302020302020302020303939392056323030300A20202020302E363933342020202D302E3134303120202020302E303030302043202020302020302020302020302020302020302020302020302020302020302020302020300A20202020312E3130313520202020302E3434353020202020302E303030302043202020302020302020302020302020302020302020302020302020302020302020302020300A20202020312E3632303820202020302E3538343220202020302E30303030204F202020302020302020302020302020302020302020302020302020302020302020302020300A20202020302E3636333920202020302E3838323620202020302E30303030204F202020302020302020302020302020302020302020302020302020302020302020302020300A20202020312E313938382020202D302E3532313820202020302E303030302048202020302020302020302020302020302020302020302020302020302020302020302020300A20202020302E363933342020202D302E3838323620202020302E30303030204E202020302020302020302020302020302020302020302020302020302020302020302020300A2020202D302E363930302020202D302E3132353220202020302E303030302043202020302020302020302020302020302020302020302020302020302020302020302020300A2020202D312E363230382020202D302E3132353220202020302E30303030204E202020302020302020302020302020302020302020302020302020302020302020302020300A2020202D302E3133353320202020302E3038313920202020302E303030302043202020302020302020302020302020302020302020302020302020302020302020302020300A2020312020322020312020302020202020200A2020322020332020312020302020202020200A2020322020342020322020302020202020200A2020312020352020312020362020202020200A2020312020362020312020312020202020200A2020372020382020332020302020202020200A2020312020392020312020302020202020200A2020392020372020312020302020202020200A4D2020454E44
Contributor: Tsuzimoto Y, Tsugawa H, Bamba T, Fukusaki E, engineering department, Osaka Univ.
InstType: EI
InstName: Pegasus II TOF-MS system, Leco; GC 6890, Agilent Technologies
IoniMethod: EI
IonPolarity: pos
Date: 2010-10-09 19:48:36+02:00
Num Peaks: 77
85 10 86 30 87 12 88 5 89 5 92 2 93 2 95 3 96 2 97 3 
98 75 99 15 100 104 101 16 102 13 103 66 104 6 105 6 106 1 110 1 
111 11 112 3 113 4 114 23 115 22 116 10 117 16 118 3 119 3 125 9 
126 5 127 2 128 2 129 2 130 76 131 32 132 19 133 18 134 3 135 1 
139 1 140 5 141 999 142 124 143 43 144 9 145 1 146 2 147 302 148 48 
149 24 150 2 153 7 154 3 156 1 158 4 159 1 160 3 172 3 173 1 
174 3 175 1 190 1 199 1 202 52 203 13 204 5 205 1 215 36 216 9 
217 4 218 12 219 2 220 1 243 22 244 5 245 2 
