Name: N-Acetyl-D-Glucosamine-6-Phosphate
CAS: 18191-20-3
MW: 301
Formula: C8H16NO9P
Synonym: KEGG: C06376
Synonym: CID: 440996
Synonym: MassBank: OUF00365
Synonym: N-Acetyl-D-Glucosamine-6-Phosphate
Structure: 310A34330A20204143442F4C6162733039323931303135343832440A2031392031392020302020302020312020302020302020302020302020302020312056323030300A20202031352E363530352020202D382E3631323220202020302E30303030204F202020302020302020302020302020302020302020302020302020302020302020302020300A20202031352E363530352020202D392E3934323220202020302E303030302043202020302020302020302020302020302020302020302020302020302020302020302020300A20202031342E343938362020202D372E3934373220202020302E303030302043202020302020302020302020302020302020302020302020302020302020302020302020300A20202031342E3439383620202D31302E3630373220202020302E303030302043202020302020302020302020302020302020302020302020302020302020302020302020300A20202031332E333436382020202D382E3631323220202020302E303030302043202020302020302020302020302020302020302020302020302020302020302020302020300A20202031332E333436382020202D392E3934323220202020302E303030302043202020302020302020302020302020302020302020302020302020302020302020302020300A20202031342E343938352020202D362E3631373220202020302E30303030204F202020302020302020302020302020302020302020302020302020302020302020302020300A20202031322E313935302020202D372E3934373220202020302E30303030204E202020302020302020302020302020302020302020302020302020302020302020302020300A20202031322E3139353020202D31302E3630373220202020302E30303030204F202020302020302020302020302020302020302020302020302020302020302020302020300A20202031342E3439383520202D31312E3933373220202020302E30303030204F202020302020302020302020302020302020302020302020302020302020302020302020300A20202031362E3739393420202D31302E3631323120202020302E303030302043202020302020302020302020302020302020302020302020302020302020302020302020300A20202031372E393534312020202D392E3935323120202020302E30303030204F202020302020302020302020302020302020302020302020302020302020302020302020300A20202031392E323834312020202D392E3935323120202020302E303030302050202020302020302020302020302020302020302020302020302020302020302020302020300A20202032302E363134312020202D392E3935323120202020302E30303030204F202020302020302020302020302020302020302020302020302020302020302020302020300A20202031392E3238343120202D31312E3238323120202020302E30303030204F202020302020302020302020302020302020302020302020302020302020302020302020300A20202031392E323834312020202D382E3632323120202020302E30303030204F202020302020302020302020302020302020302020302020302020302020302020302020300A20202031312E303433322020202D382E3631323220202020302E303030302043202020302020302020302020302020302020302020302020302020302020302020302020300A20202020392E383931342020202D372E3934373220202020302E303030302043202020302020302020302020302020302020302020302020302020302020302020302020300A20202031312E303433322020202D392E3934323220202020302E30303030204F202020302020302020302020302020302020302020302020302020302020302020302020300A2020322020312020312020302020302020302020300A2020332020312020312020302020302020302020300A2020342020322020312020302020302020302020300A2020352020332020312020302020302020302020300A2020362020342020312020302020302020302020300A2020362020352020312020302020302020302020300A2020332020372020312020302020302020302020300A2020352020382020312020312020302020302020300A2020362020392020312020362020302020302020300A2020342031302020312020312020302020302020300A2020322031312020312020362020302020302020300A2031322031312020312020302020302020302020300A2031322031332020312020302020302020302020300A2031332031342020322020302020302020302020300A2031332031352020312020302020302020302020300A2031332031362020312020302020302020302020300A2020382031372020312020302020302020302020300A2031372031382020312020302020302020302020300A2031372031392020322020302020302020302020300A4D2020454E44
Contributor: Tsuzimoto Y, Tsugawa H, Bamba T, Fukusaki E, engineering department, Osaka Univ.
InstType: EI
InstName: Pegasus II TOF-MS system, Leco; GC 6890, Agilent Technologies
IoniMethod: EI
IonPolarity: pos
Date: 2010-10-09 19:48:36+02:00
Num Peaks: 283
85 54 86 22 87 999 88 59 89 187 90 27 91 30 92 2 93 10 94 12 
95 10 96 51 97 55 98 27 99 101 100 96 101 337 102 60 103 140 104 14 
105 43 106 13 107 18 108 6 109 24 110 28 111 45 112 57 113 146 114 52 
115 79 116 282 117 117 118 28 119 49 120 13 121 21 122 11 123 25 124 8 
125 11 126 20 127 47 128 64 129 758 130 126 131 185 132 67 133 386 134 58 
135 102 136 10 137 96 138 23 139 18 140 13 141 73 142 55 143 137 144 74 
145 27 146 9 147 758 148 141 149 114 150 17 151 53 152 14 153 69 154 30 
155 53 156 45 157 253 158 136 159 43 160 8 161 5 162 4 163 19 164 7 
165 20 166 7 167 21 168 49 169 44 170 44 171 73 172 24 173 55 174 19 
175 8 177 7 178 8 179 43 180 13 181 73 182 26 183 43 184 15 185 28 
186 38 187 11 188 7 189 88 190 26 191 52 192 4 193 50 194 11 195 99 
196 38 197 42 198 12 199 11 200 45 201 39 202 68 203 34 204 69 205 22 
206 9 207 95 208 21 209 26 210 42 211 398 212 100 213 83 214 19 215 38 
216 17 217 194 218 57 219 16 220 8 221 28 222 5 223 8 224 7 225 119 
226 20 227 123 228 37 229 37 230 38 231 133 232 19 233 6 234 3 237 39 
238 18 239 14 240 5 241 19 242 10 243 177 244 39 245 15 246 10 247 7 
250 2 251 3 252 1 253 48 254 11 255 16 256 4 257 4 258 6 260 2 
266 3 267 1 268 10 269 65 270 15 271 10 274 86 275 18 276 8 277 1 
283 27 284 9 285 43 286 17 287 5 288 2 289 1 291 1 297 3 298 18 
299 484 300 165 301 97 302 18 303 12 304 1 305 4 306 1 308 2 310 4 
311 10 312 9 313 21 314 21 315 315 316 96 317 59 318 13 319 6 323 2 
325 2 326 1 327 16 328 21 329 7 330 4 331 2 332 4 333 52 334 13 
335 3 341 43 342 14 343 16 344 5 345 2 346 4 348 6 355 1 356 21 
357 317 358 116 359 73 360 21 361 23 362 6 363 3 367 1 370 10 371 4 
372 5 373 12 374 7 375 1 380 2 383 4 384 2 385 4 386 93 387 622 
388 279 389 178 390 55 391 18 396 2 400 1 403 1 404 1 405 1 406 2 
419 2 428 1 430 1 433 8 434 3 435 1 437 2 441 1 447 1 448 1 
449 2 451 1 457 1 459 4 465 2 470 5 471 58 472 32 473 16 474 6 
475 4 479 1 490 1 
