Name: Agmatine
CAS: 306-60-5
MW: 130
Formula: C5H14N4
Synonym: KEGG: C00179
Synonym: CID: 199
Synonym: MassBank: OUF00102
Synonym: Agmatine
Structure: 310A32390A4330303030313430302E6364780A20204368656D447261773132323630383139323132440A2020392020382020302020302020302020302020302020302020302020303939392056323030300A2020202D312E3734373520202020302E3737343020202020302E30303030204E202020302020302020302020302020302020302020302020302020302020302020302020300A2020202D312E3331323520202020302E3333383920202020302E303030302043202020302020302020302020302020302020302020302020302020302020302020302020300A2020202D312E373236382020202D302E3037353520202020302E30303030204E202020302020302020302020302020302020302020302020302020302020302020302020300A2020202D302E3833383420202020302E3333383920202020302E30303030204E202020302020302020302020302020302020302020302020302020302020302020302020300A20202020312E3230353820202020302E3333383920202020302E30303030204E202020302020302020302020302020302020302020302020302020302020302020302020300A2020202D302E333935392020202D302E3336313520202020302E303030302043202020302020302020302020302020302020302020302020302020302020302020302020300A20202020302E333138362020202D302E3737343020202020302E303030302043202020302020302020302020302020302020302020302020302020302020302020302020300A20202020312E303333312020202D302E3336313520202020302E303030302043202020302020302020302020302020302020302020302020302020302020302020302020300A20202020312E373437352020202D302E3737343020202020302E303030302043202020302020302020302020302020302020302020302020302020302020302020302020300A2020312020322020312020302020202020200A2020322020332020322020302020202020200A2020322020342020312020302020202020200A2020342020362020312020302020202020200A2020352020392020312020302020202020200A2020362020372020312020302020202020200A2020372020382020312020302020202020200A2020382020392020312020302020202020200A4D202053545920203120202031205355500A4D2020534C4220203120202031202020310A4D202053414C20202031202034202020362020203720202038202020390A4D202053424C2020203120203220202034202020350A4D2020534D5420202031202843483229340A4D2020534256202020312020342020202D322E3937313520202020312E313235350A4D2020534256202020312020352020202D322E3837323320202020302E373133300A4D2020454E44
Contributor: Tsuzimoto Y, Tsugawa H, Bamba T, Fukusaki E, engineering department, Osaka Univ.
InstType: EI
InstName: Pegasus II TOF-MS system, Leco; GC 6890, Agilent Technologies
IoniMethod: EI
IonPolarity: pos
Date: 2010-10-09 19:48:36+02:00
Num Peaks: 59
86 1 87 17 88 4 89 13 90 1 91 3 92 3 93 9 95 3 101 4 
102 12 103 30 104 3 105 12 106 9 107 2 108 1 110 1 113 1 114 1 
115 26 116 6 117 11 118 3 119 3 122 1 123 4 125 1 131 50 132 9 
133 29 134 5 138 1 139 14 147 999 148 159 149 78 150 9 152 8 153 3 
167 5 186 1 227 117 228 24 229 17 257 1 262 1 274 1 289 1 304 1 
312 1 332 1 341 1 376 1 378 2 385 1 399 1 426 1 432 1 
