Name: Hypotaurine
CAS: 300-84-5
MW: 109
Formula: C2H7NO2S
Synonym: KEGG: C00519
Synonym: CID: 107812
Synonym: MassBank: OUF00272
Synonym: Hypotaurine
Structure: 310A31360A3C4341535F49443E203330302D38342D35093C4B4547475F49443E20433030353139093C4E414D453E204879706F74617572696E65093C464F524D554C413E20433248374E4F3253093C45584143544D4153533E203130392E3031393734393136323939393939093C415645524147454D4153533E203130392E3134383532093C534D494C45533E204E434353284F293D4F093C434F505952494748543E2041524D2050524F4A45435420687474703A2F2F7777772E6D657461626F6C6F6D652E6A702F0A2020362020352020302020302020302020302020302020302020302020303939392056323030300A20202020332E373332312020202D302E3030303020202020302E303030302043202020302020302020302020322020302020302020302020302020302020302020302020300A20202020332E3733323120202020312E3030303020202020302E303030302043202020302020302020302020322020302020302020302020302020302020302020302020300A20202020342E3539383120202020312E3530303020202020302E30303030204E202020302020302020302020322020302020302020302020302020302020302020302020300A20202020322E383636302020202D302E3530303020202020302E303030302053202020302020302020302020302020302020302020302020302020302020302020302020300A20202020322E3030303020202020302E3030303020202020302E30303030204F202020302020302020302020312020302020302020302020302020302020302020302020300A20202020322E383636302020202D312E3530303020202020302E30303030204F202020302020302020302020302020302020302020302020302020302020302020302020300A2020332020322020312020302020302020302020300A2020322020312020312020302020302020302020300A2020312020342020312020302020302020302020300A2020342020352020312020302020302020302020300A2020342020362020322020302020302020302020300A4D2020454E44
Contributor: Tsuzimoto Y, Tsugawa H, Bamba T, Fukusaki E, engineering department, Osaka Univ.
InstType: EI
InstName: Pegasus II TOF-MS system, Leco; GC 6890, Agilent Technologies
IoniMethod: EI
IonPolarity: pos
Date: 2010-10-09 19:48:36+02:00
Num Peaks: 100
85 14 86 163 87 24 88 11 89 5 90 3 91 7 92 3 93 2 95 1 
97 1 98 9 99 11 100 999 101 115 102 57 103 13 104 5 105 6 106 3 
107 1 108 1 112 1 113 18 114 165 115 39 116 66 117 26 118 8 119 16 
120 4 121 3 122 21 123 2 124 2 128 1 129 9 130 160 131 52 132 31 
133 94 134 16 135 19 136 3 137 10 138 2 139 1 142 2 143 1 144 3 
145 2 146 32 147 248 148 52 149 28 150 5 151 2 156 2 157 1 158 6 
159 2 160 6 161 3 162 1 163 1 164 1 165 1 170 1 172 112 173 22 
174 181 175 33 176 50 177 9 178 4 179 1 186 2 187 18 188 832 189 165 
190 70 191 9 192 2 194 7 195 1 204 1 205 1 206 1 209 6 210 1 
211 1 220 2 221 1 222 4 248 15 249 4 250 2 310 20 311 6 312 4 
