Name: 3-Hydroxyisovaleric acid
CAS: 625-08-1
MW: 118
Formula: C5H10O3
Synonym: CID: 69362
Synonym: MassBank: OUF00053
Synonym: 3-Hydroxyisovaleric acid
Structure: 310A32300A2020382020372020302020302020302020302020302020302020302020302020312056323030300A20202D31372E3030303020202033302E3030303020202020302E30303030204F202020302020302020302020302020302020302020302020302020302020300A20202D31372E3030303020202031302E3030303020202020302E303030302043202020302020302020302020302020302020302020302020302020302020300A20202031382E3030303020202033302E3030303020202020302E30303030204F202020302020302020302020302020302020302020302020302020302020300A20202031382E3030303020202031302E3030303020202020302E303030302043202020302020302020302020302020302020302020302020302020302020300A20202D33342E3030303020202032302E3030303020202020302E303030302043202020302020302020302020302020302020302020302020302020302020300A20202020302E3030303020202020302E3030303020202020302E303030302043202020302020302020302020302020302020302020302020302020302020300A20202D33342E3030303020202020302E3030303020202020302E303030302043202020302020302020302020302020302020302020302020302020302020300A20202033352E3030303020202020302E3030303020202020302E30303030204F202020302020302020302020302020302020302020302020302020302020300A2020312020322020312020302020302020302020300A2020322020352020312020302020302020302020300A2020322020362020312020302020302020302020300A2020322020372020312020302020302020302020300A2020332020342020322020302020302020302020300A2020342020382020312020302020302020302020300A2020342020362020312020302020302020302020300A4D2020454E44
Contributor: Tsuzimoto Y, Tsugawa H, Bamba T, Fukusaki E, engineering department, Osaka Univ.
InstType: EI
InstName: Pegasus II TOF-MS system, Leco; GC 6890, Agilent Technologies
IoniMethod: EI
IonPolarity: pos
Date: 2010-10-09 19:48:36+02:00
Num Peaks: 70
85 56 86 5 87 15 88 7 89 7 90 1 91 1 95 131 96 12 97 6 
98 1 99 18 100 3 101 21 102 5 103 13 104 2 105 7 106 1 111 2 
112 2 113 33 114 6 115 178 116 34 117 52 118 6 119 8 128 1 129 8 
130 10 131 802 132 98 133 102 134 12 135 6 143 7 144 1 145 1 146 1 
147 999 148 160 149 93 150 10 151 3 156 3 157 21 158 3 159 3 162 1 
163 16 164 2 165 1 172 2 173 1 189 16 190 3 191 9 192 1 203 21 
204 40 205 48 206 11 207 4 231 7 232 1 247 89 248 19 249 8 250 1 
