Name: Sakuranetin
CAS: 2957-21-3
MW: 286
Formula: C16H14O5
Synonym: KEGG: C09833
Synonym: CID: 73571
Synonym: MassBank: OUF00450
Synonym: Sakuranetin
Structure: 4330303030303939392E6364780A20204368656D447261773132323630383139303832440A2032312032332020302020302020302020302020302020302020302020303939392056323030300A2020202D322E3232363520202020302E3136363920202020302E303030302043202020302020302020302020302020302020302020302020302020302020302020302020300A2020202D322E323236362020202D302E3635383120202020302E303030302043202020302020302020302020302020302020302020302020302020302020302020302020300A2020202D312E353132322020202D312E3037303720202020302E303030302043202020302020302020302020302020302020302020302020302020302020302020302020300A2020202D302E373937372020202D302E3635383320202020302E303030302043202020302020302020302020302020302020302020302020302020302020302020302020300A2020202D302E3739373620202020302E3136363720202020302E303030302043202020302020302020302020302020302020302020302020302020302020302020302020300A2020202D312E3531323020202020302E3537393320202020302E303030302043202020302020302020302020302020302020302020302020302020302020302020302020300A2020202D302E303833332020202D312E3037313020202020302E303030302043202020302020302020302020302020302020302020302020302020302020302020302020300A20202020302E363331322020202D302E3635383620202020302E303030302043202020302020302020302020302020302020302020302020302020302020302020302020300A20202020302E3633313420202020302E3136363420202020302E303030302043202020302020302020302020302020302020302020302020302020302020302020302020300A2020202D302E3038333020202020302E3537393020202020302E30303030204F202020302020302020302020302020302020302020302020302020302020302020302020300A20202020312E3530343820202020302E3636323720202020302E303030302043202020302020302020302020302020302020302020302020302020302020302020302020300A20202020322E3231363820202020302E3234363020202020302E303030302043202020302020302020302020302020302020302020302020302020302020302020302020300A20202020322E3933333720202020302E3635343320202020302E303030302043202020302020302020302020302020302020302020302020302020302020302020302020300A20202020322E3933383520202020312E3437393320202020302E303030302043202020302020302020302020302020302020302020302020302020302020302020302020300A20202020322E3232363520202020312E3839363020202020302E303030302043202020302020302020302020302020302020302020302020302020302020302020302020300A20202020312E3530393620202020312E3438373720202020302E303030302043202020302020302020302020302020302020302020302020302020302020302020302020300A2020202D312E353132342020202D312E3839353720202020302E30303030204F202020302020302020302020302020302020302020302020302020302020302020302020300A2020202D302E303833342020202D312E3839363020202020302E30303030204F202020302020302020302020302020302020302020302020302020302020302020302020300A20202020332E3635353420202020312E3838373520202020302E30303030204F202020302020302020302020302020302020302020302020302020302020302020302020300A2020202D322E3934303920202020302E3537393520202020302E30303030204F202020302020302020302020302020302020302020302020302020302020302020302020300A2020202D332E3635353420202020302E3136373220202020302E303030302043202020302020302020302020302020302020302020302020302020302020302020302020300A2020312020322020322020302020202020200A2020322020332020312020302020202020200A2020332020342020322020302020202020200A2020342020352020312020302020202020200A2020352020362020322020302020202020200A2020362020312020312020302020202020200A2020342020372020312020302020202020200A2020372020382020312020302020202020200A2020382020392020312020302020202020200A2020392031302020312020302020202020200A2031302020352020312020302020202020200A2020392031312020312020362020202020200A2031312031322020322020302020202020200A2031322031332020312020302020202020200A2031332031342020322020302020202020200A2031342031352020312020302020202020200A2031352031362020322020302020202020200A2031362031312020312020302020202020200A2020332031372020312020302020202020200A2020312032302020312020302020202020200A2020372031382020322020302020202020200A2031342031392020312020302020202020200A2032302032312020312020302020202020200A4D2020454E44
Contributor: Tsuzimoto Y, Tsugawa H, Bamba T, Fukusaki E, engineering department, Osaka Univ.
InstType: EI
InstName: Pegasus II TOF-MS system, Leco; GC 6890, Agilent Technologies
IoniMethod: EI
IonPolarity: pos
Date: 2010-10-09 19:48:36+02:00
Num Peaks: 302
85 41 86 10 87 14 88 29 89 507 90 72 91 172 92 29 93 24 94 18 
95 57 96 19 97 40 98 11 99 68 100 15 101 27 102 46 103 64 104 41 
105 54 106 10 107 27 108 12 109 42 110 16 111 16 112 2 113 15 114 4 
115 95 116 26 117 50 118 17 119 74 120 39 121 54 122 7 123 69 124 23 
125 20 126 6 127 21 128 17 129 8 130 8 131 28 133 45 134 31 135 133 
136 31 137 56 138 19 139 15 140 24 141 3 142 8 143 16 144 7 145 23 
146 21 147 45 148 30 149 114 150 42 151 166 152 45 153 18 154 10 155 1 
156 11 157 5 159 5 160 5 161 111 162 38 163 56 164 30 165 47 166 27 
167 33 168 9 169 13 170 15 171 8 172 23 173 10 174 5 175 70 176 38 
177 269 178 106 179 286 180 73 181 75 182 11 183 13 184 19 185 22 186 20 
187 7 188 4 189 16 190 67 191 165 192 320 193 114 194 55 195 33 196 13 
197 18 199 43 200 26 202 33 203 48 204 20 205 50 206 36 207 61 208 27 
209 999 210 201 211 66 212 15 214 26 215 65 216 13 217 16 218 21 219 27 
220 40 221 39 222 88 223 61 224 24 225 5 226 8 227 6 230 5 232 54 
233 21 234 13 235 22 236 23 238 17 239 10 241 2 242 8 243 6 244 6 
245 2 246 5 247 10 248 53 249 13 250 4 251 9 252 2 253 15 254 1 
255 10 256 6 257 6 258 6 260 2 261 6 262 49 263 14 264 27 266 25 
267 2 268 18 269 8 272 5 275 6 277 5 278 9 279 7 280 10 281 9 
282 9 283 6 284 10 286 6 288 4 289 6 294 71 295 23 296 26 297 12 
298 8 299 1 300 6 305 1 306 6 307 8 308 1 309 10 310 20 311 7 
312 9 313 9 314 1 315 4 316 3 318 1 319 2 322 18 323 8 324 29 
325 11 326 19 327 11 328 13 333 2 336 7 338 13 339 11 340 32 341 15 
342 3 350 3 353 9 354 24 355 26 356 14 357 9 358 13 359 9 367 7 
368 18 369 27 370 32 371 20 372 8 373 11 374 9 375 8 376 1 377 1 
379 6 380 9 381 9 382 5 383 4 384 17 385 11 386 17 387 16 389 3 
395 7 396 11 397 31 398 16 399 6 400 11 401 14 402 5 403 9 404 4 
408 3 410 19 411 44 412 144 413 97 414 53 415 28 416 2 418 2 425 18 
426 81 427 140 428 387 429 249 430 97 431 34 432 2 435 1 436 2 438 2 
439 3 442 4 443 9 444 51 445 32 446 13 447 6 448 5 457 19 458 128 
459 181 460 95 461 34 464 1 475 4 479 6 483 2 485 3 489 2 493 6 
495 1 496 5 
