Name: Adenylosuccinic acid
CAS: 19046-78-7
MW: 463
Formula: C14H18N5O11P
Synonym: CID: 195
Synonym: MassBank: OUF00100
Synonym: Adenylosuccinic acid
Structure: 4330303030373232392E6364780A20204368656D447261773132323930383037303833440A2033312033332020302020302020302020302020302020302020302020303939392056323030300A20202020302E333433372020202D312E3838323420202020302E303133352043202020302020302020302020302020302020302020302020302020302020302020302020300A20202020302E363039322020202D322E3636333520202020302E303134352043202020302020302020302020302020302020302020302020302020302020302020302020300A20202020312E343334312020202D322E3635323420202020302E303135342043202020302020302020302020302020302020302020302020302020302020302020302020300A20202020312E363738342020202D312E3836343420202020302E303134382043202020302020302020302020302020302020302020302020302020302020302020302020300A20202020312E303034352020202D312E3338383520202020302E30313337204F202020302020302020302020302020302020302020302020302020302020302020302020300A2020202D302E343434332020202D312E3633383120202020302E303132352043202020302020302020302020302020302020302020302020302020302020302020302020300A20202020302E313333332020202D332E3333373420202020302E30313437204F202020302020302020302020302020302020302020302020302020302020302020302020300A2020202D302E313333352020202D302E3738393520202020302E323438382043202020302020302020302020302020302020302020302020302020302020302020302020300A2020202D302E3132363920202020302E3033333820202020302E32393936204E202020302020302020302020302020302020302020302020302020302020302020302020300A20202020302E3537343420202020302E3434393920202020302E313733322043202020302020302020302020302020302020302020302020302020302020302020302020300A20202020312E3237303520202020302E303431332020202D302E303034342043202020302020302020302020302020302020302020302020302020302020302020302020300A20202020312E323633392020202D302E373832302020202D302E303535332043202020302020302020302020302020302020302020302020302020302020302020302020300A20202020302E353631322020202D312E3139383120202020302E30373134204E202020302020302020302020302020302020302020302020302020302020302020302020300A20202020322E3033383820202020302E323939362020202D302E31353535204E202020302020302020302020302020302020302020302020302020302020302020302020300A20202020322E353036382020202D302E333634332020202D302E323939362043202020302020302020302020302020302020302020302020302020302020302020302020300A20202020322E303238312020202D312E303333342020202D302E32333738204E202020302020302020302020302020302020302020302020302020302020302020302020300A20202020302E3537343420202020312E3237343920202020302E30313237204E202020302020302020302020302020302020302020302020302020302020302020302020300A20202020302E3537343420202020322E3039393920202020302E303132372043202020302020302020302020302020302020302020302020302020302020302020302020300A20202020312E3238383920202020322E3531323420202020302E303132372043202020302020302020302020302020302020302020302020302020302020302020302020300A20202020322E3030333420202020322E3039393920202020302E30313237204F202020302020302020302020302020302020302020302020302020302020302020302020300A2020202D302E3134303120202020322E3531323420202020302E303132372043202020302020302020302020302020302020302020302020302020302020302020302020300A2020202D302E3835343520202020322E3039393920202020302E303132372043202020302020302020302020302020302020302020302020302020302020302020302020300A2020202D312E3536393020202020322E3531323420202020302E30313237204F202020302020302020302020302020302020302020302020302020302020302020302020300A2020202D302E3835343520202020312E3237343920202020302E30313237204F202020302020302020302020302020302020302020302020302020302020302020302020300A20202020312E3238383920202020332E3333373420202020302E30313237204F202020302020302020302020302020302020302020302020302020302020302020302020300A20202020322E303137352020202D332E3233353820202020302E30313237204F202020302020302020302020302020302020302020302020302020302020302020302020300A2020202D302E383536382020202D302E3932333620202020302E30313237204F202020302020302020302020302020302020302020302020302020302020302020302020300A2020202D312E363831382020202D302E3932333620202020302E303132372050202020302020302020302020302020302020302020302020302020302020302020302020300A2020202D322E353036382020202D302E3932333620202020302E30313237204F202020302020302020302020302020302020302020302020302020302020302020302020300A2020202D312E363831382020202D312E3734383620202020302E30313237204F202020302020302020302020302020302020302020302020302020302020302020302020300A2020202D312E363831382020202D302E3039383620202020302E30313237204F202020302020302020302020302020302020302020302020302020302020302020302020300A2020312020322020312020302020202020200A2020322020332020312020302020202020200A2020332020342020312020302020202020200A2020342020352020312020302020202020200A2020352020312020312020302020202020200A2020312020362020312020312020202020200A2020322020372020312020362020202020200A2020382020392020312020302020202020200A2020392031302020322020302020202020200A2031302031312020312020302020202020200A2031312031322020322020302020202020200A2031322031332020312020302020202020200A2020382031332020322020302020202020200A2031312031342020312020302020202020200A2031342031352020322020302020202020200A2031352031362020312020302020202020200A2031322031362020312020302020202020200A2020342031362020312020312020202020200A2031302031372020312020302020202020200A2031372031382020312020302020202020200A2031392031382020312020302020202020200A2032302031392020312020302020202020200A2032312031382020312020302020202020200A2032322032312020312020302020202020200A2032332032322020312020302020202020200A2032322032342020322020302020202020200A2031392032352020322020302020202020200A2020332032362020312020362020202020200A2020362032372020312020302020202020200A2032372032382020312020302020202020200A2032382032392020312020302020202020200A2032382033302020312020302020202020200A2032382033312020322020302020202020200A4D2020454E44
Contributor: Tsuzimoto Y, Tsugawa H, Bamba T, Fukusaki E, engineering department, Osaka Univ.
InstType: EI
InstName: Pegasus II TOF-MS system, Leco; GC 6890, Agilent Technologies
IoniMethod: EI
IonPolarity: pos
Date: 2010-10-09 19:48:36+02:00
Num Peaks: 160
85 47 86 20 87 1 88 9 89 3 90 1 92 11 93 20 94 7 95 21 
96 6 97 3 98 29 99 40 100 32 101 38 102 2 103 6 105 4 107 5 
108 7 109 8 110 6 111 21 113 1 115 11 116 7 117 23 118 9 119 58 
120 11 121 3 122 8 123 31 124 3 125 3 126 1 128 5 129 44 131 16 
132 12 133 50 134 4 135 10 136 3 137 9 138 17 139 2 142 4 143 5 
145 2 147 162 148 24 149 27 150 14 151 6 157 2 159 22 160 33 161 8 
162 3 164 20 165 28 166 5 167 4 168 4 176 11 177 11 178 5 179 2 
181 1 188 21 189 2 190 9 191 113 192 170 193 128 194 19 195 5 198 5 
200 1 202 1 203 1 204 7 205 4 206 12 207 30 208 7 216 9 217 4 
218 41 219 8 220 6 221 1 231 25 232 188 233 31 234 29 236 4 243 4 
244 2 245 73 246 14 247 2 248 5 258 11 259 25 260 999 261 233 262 64 
263 12 264 76 265 24 266 26 267 3 276 8 278 3 280 21 281 1 286 2 
287 4 290 19 291 4 292 14 297 3 303 5 305 4 306 104 307 33 308 15 
309 2 310 2 320 7 321 1 326 3 330 1 333 1 334 6 335 6 336 4 
349 11 350 252 351 90 352 24 356 1 369 1 377 11 378 10 379 5 380 9 
394 2 400 3 421 1 452 17 453 6 460 1 467 33 468 17 469 5 472 1 
