Name: D-Glutamine
CAS: 5959-95-5
MW: 146
Formula: C5H10N2O3
Synonym: KEGG: C00819
Synonym: CID: 145815
Synonym: MassBank: OUF00306
Synonym: D-Glutamine
Structure: 353935392D35362D382E6D6F6C0A20204368656D447261773038303431303038303732440A2031302020392020302020302020302020302020302020302020302020303939392056323030300A20202020302E363734362020202D302E3338313920202020302E303030302043202020302020302020302020302020302020302020302020302020302020302020302020300A2020202D302E3030393120202020302E3037353220202020302E303030302043202020302020302020302020302020302020302020302020302020302020302020302020300A20202020312E343534362020202D302E3131333320202020302E303030302043202020302020302020302020302020302020302020302020302020302020302020302020300A20202020302E373034372020202D312E3234343120202020302E30303030204E202020302020302020302020302020302020302020302020302020302020302020302020300A2020202D302E373837302020202D302E3139393520202020302E303030302043202020302020302020302020302020302020302020302020302020302020302020302020300A20202020322E313236332020202D302E3539303520202020302E30303030204F202020302020302020302020302020302020302020302020302020302020302020302020300A20202020312E3435343620202020302E3731323820202020302E30303030204F202020302020302020302020302020302020302020302020302020302020302020302020300A2020202D312E3331303320202020302E3433363120202020302E303030302043202020302020302020302020302020302020302020302020302020302020302020302020300A2020202D322E3132363320202020302E3239353820202020302E30303030204E202020302020302020302020302020302020302020302020302020302020302020302020300A2020202D312E3031373520202020312E3234343120202020302E30303030204F202020302020302020302020302020302020302020302020302020302020302020302020300A2020312020322020312020302020202020200A2020312020332020312020302020202020200A2020312020342020312020362020202020200A2020322020352020312020302020202020200A2020332020362020312020302020202020200A2020332020372020322020302020202020200A2020352020382020312020302020202020200A2020382020392020312020302020202020200A2020382031302020322020302020202020200A4D2020454E44
Contributor: Tsuzimoto Y, Tsugawa H, Bamba T, Fukusaki E, engineering department, Osaka Univ.
InstType: EI
InstName: Pegasus II TOF-MS system, Leco; GC 6890, Agilent Technologies
IoniMethod: EI
IonPolarity: pos
Date: 2010-10-09 19:48:36+02:00
Num Peaks: 128
85 10 86 7 87 2 89 7 90 11 92 9 93 4 98 20 99 10 100 111 
101 23 102 10 103 15 105 5 112 18 113 19 114 79 115 56 116 62 117 23 
121 1 124 4 126 17 127 3 128 120 129 32 130 50 131 113 132 45 133 68 
134 18 135 6 139 73 140 27 141 1 142 32 144 13 145 55 146 15 147 225 
148 48 149 46 150 2 151 1 152 3 155 351 156 999 157 164 158 59 159 7 
164 5 167 10 170 3 172 4 173 8 174 6 175 3 177 2 178 2 181 3 
183 3 187 1 188 19 189 3 198 2 203 87 204 14 210 1 216 12 218 19 
219 4 222 3 224 4 225 4 227 2 229 27 230 16 232 7 233 2 245 117 
246 25 247 4 257 3 258 3 259 4 261 2 265 3 273 4 276 2 277 3 
281 1 282 1 284 5 285 2 292 2 296 3 297 5 303 5 317 1 319 6 
327 5 333 4 334 2 347 2 370 9 371 6 377 4 379 1 380 4 390 1 
394 5 398 1 400 1 405 7 409 3 419 1 425 3 443 1 446 1 455 5 
465 2 469 2 473 3 475 1 482 2 488 3 490 5 492 1 
