Name: Cadaverine
CAS: 462-94-2
MW: 102
Formula: C5H14N2
Synonym: MassBank: OUF00131
Synonym: Cadaverine
Structure: 310A32350A4330303030313430332E6364780A20204368656D447261773132323630383139323132440A2020372020362020302020302020302020302020302020302020302020303939392056323030300A2020202D302E3231303120202020312E3031373120202020302E30303030204E202020302020302020302020302020302020302020302020302020302020302020302020300A20202020312E3630343920202020312E3031373120202020302E30303030204E202020302020302020302020302020302020302020302020302020302020302020302020300A2020202D312E363034392020202D312E3031373120202020302E303030302043202020302020302020302020302020302020302020302020302020302020302020302020300A2020202D302E383930352020202D302E3630343620202020302E303030302043202020302020302020302020302020302020302020302020302020302020302020302020300A2020202D302E313736302020202D312E3031373120202020302E303030302043202020302020302020302020302020302020302020302020302020302020302020302020300A20202020302E353338352020202D302E3630343620202020302E303030302043202020302020302020302020302020302020302020302020302020302020302020302020300A20202020312E323533302020202D312E3031373120202020302E303030302043202020302020302020302020302020302020302020302020302020302020302020302020300A2020312020332020312020302020202020200A2020322020372020312020302020202020200A2020332020342020312020302020202020200A2020342020352020312020302020202020200A2020352020362020312020302020202020200A2020362020372020312020302020202020200A4D202053545920203120202031205355500A4D2020534C4220203120202031202020310A4D202053414C2020203120203520202033202020342020203520202036202020370A4D202053424C2020203120203220202031202020320A4D2020534D5420202031202843483229350A4D2020534256202020312020312020202D332E3830373720202020312E303836360A4D2020534256202020312020322020202D322E3736343820202020312E303836360A4D2020454E44
Contributor: Tsuzimoto Y, Tsugawa H, Bamba T, Fukusaki E, engineering department, Osaka Univ.
InstType: EI
InstName: Pegasus II TOF-MS system, Leco; GC 6890, Agilent Technologies
IoniMethod: EI
IonPolarity: pos
Date: 2010-10-09 19:48:36+02:00
Num Peaks: 96
85 13 86 218 87 24 88 28 89 2 97 2 98 9 99 11 100 101 101 17 
102 23 103 4 104 1 106 1 110 1 111 1 112 31 113 10 114 15 115 10 
116 18 117 17 118 4 119 1 124 2 126 8 127 2 128 10 129 5 130 62 
131 30 132 14 133 3 134 1 138 2 139 1 140 13 141 2 142 9 143 5 
144 6 145 2 146 21 147 3 148 1 154 8 155 2 156 8 157 2 158 21 
159 4 160 15 161 3 162 1 170 3 171 1 172 24 173 6 174 999 175 176 
176 78 177 9 178 2 180 2 184 3 185 1 186 31 187 6 188 7 189 1 
198 2 199 1 200 14 201 4 202 2 212 2 213 2 214 5 215 1 216 6 
217 1 218 1 227 3 228 2 229 14 230 4 231 1 374 1 375 24 376 12 
377 6 378 2 389 1 390 3 391 2 392 1 
