Name: Glutaric acid
CAS: 110-94-1
MW: 132
Formula: C5H8O4
Synonym: KEGG: C00489
Synonym: CID: 743
Synonym: MassBank: OUF00249
Synonym: Glutaric acid
Structure: 310A32320A4330303030313138342E6364780A20204368656D447261773132323630383139313332440A2020392020382020302020302020302020302020302020302020302020303939392056323030300A2020202D312E353036322020202D302E3332303320202020302E30303030204F202020302020302020302020302020302020302020302020302020302020302020302020300A2020202D302E353030322020202D302E3332303320202020302E303030302043202020302020302020302020302020302020302020302020302020302020302020302020300A2020202D312E303033322020202D302E3032393920202020302E303030302043202020302020302020302020302020302020302020302020302020302020302020302020300A2020202D312E3030333220202020302E3332303320202020302E30303030204F202020302020302020302020302020302020302020302020302020302020302020302020300A20202020302E303032332020202D302E3033303120202020302E303030302043202020302020302020302020302020302020302020302020302020302020302020302020300A20202020302E353033362020202D302E3331393620202020302E303030302043202020302020302020302020302020302020302020302020302020302020302020302020300A20202020312E303034392020202D302E3033303120202020302E303030302043202020302020302020302020302020302020302020302020302020302020302020302020300A20202020312E353036322020202D302E3331393620202020302E30303030204F202020302020302020302020302020302020302020302020302020302020302020302020300A20202020312E3030343920202020302E3239383820202020302E30303030204F202020302020302020302020302020302020302020302020302020302020302020302020300A2020322020332020312020302020202020200A2020332020312020312020302020202020200A2020332020342020322020302020202020200A2020322020352020312020302020202020200A2020352020362020312020302020202020200A2020362020372020312020302020202020200A2020372020382020312020302020202020200A2020372020392020322020302020202020200A4D2020454E44
Contributor: Tsuzimoto Y, Tsugawa H, Bamba T, Fukusaki E, engineering department, Osaka Univ.
InstType: EI
InstName: Pegasus II TOF-MS system, Leco; GC 6890, Agilent Technologies
IoniMethod: EI
IonPolarity: pos
Date: 2010-10-09 19:48:36+02:00
Num Peaks: 110
85 62 86 10 87 14 88 24 89 15 90 1 95 4 96 2 97 202 98 14 
99 19 100 6 101 54 102 12 103 11 104 4 105 5 107 1 109 1 111 3 
112 3 113 12 114 2 115 20 116 134 117 63 118 13 119 5 120 2 123 15 
124 4 127 10 128 6 129 198 130 78 131 45 132 13 133 77 134 11 135 6 
136 2 137 1 139 2 141 1 142 4 143 19 145 21 146 2 147 999 148 172 
149 135 150 21 151 7 158 213 159 57 160 15 161 5 162 10 163 4 169 1 
171 10 172 4 173 2 175 1 176 1 179 1 180 1 186 68 187 31 188 9 
189 20 190 5 191 3 202 2 203 50 204 56 205 17 206 8 207 1 210 1 
217 6 219 4 225 1 232 2 233 47 234 15 235 10 236 1 245 2 246 1 
249 1 250 1 252 1 254 1 259 1 260 1 261 145 262 35 263 16 264 1 
269 1 286 1 290 1 317 1 334 1 390 1 398 1 481 1 489 1 493 1 
