Name: Cyanine
CAS: 67879-79-2
MW: 411
Formula: C29H35N2
Synonym: CID: 68228
Synonym: MassBank: OUF00146
Synonym: Cyanine
Structure: 310A37310A20204143442F4C6162733039323931303136343233440A2033312033342020302020302020302020302020302020302020302020302020322056323030300A20202031392E323935372020202D382E3631323220202020302E303030302043202020302020302020302020302020302020302020302020302020302020302020302020300A20202031392E323935372020202D392E3934323220202020302E303030302043202020302020302020302020302020302020302020302020302020302020302020302020300A20202031382E313433382020202D372E3934373220202020302E30303030204E202020302020332020302020302020302020302020302020302020302020302020302020300A20202031382E3134333820202D31302E3630373220202020302E303030302043202020302020302020302020302020302020302020302020302020302020302020302020300A20202031362E393932302020202D382E3631323220202020302E303030302043202020302020302020302020302020302020302020302020302020302020302020302020300A20202031362E393932302020202D392E3934323220202020302E303030302043202020302020302020302020302020302020302020302020302020302020302020302020300A20202031352E383430322020202D372E3934373220202020302E303030302043202020302020302020302020302020302020302020302020302020302020302020302020300A20202031342E363838352020202D382E3631323320202020302E303030302043202020302020302020302020302020302020302020302020302020302020302020302020300A20202031352E3834303320202D31302E3630373120202020302E303030302043202020302020302020302020302020302020302020302020302020302020302020302020300A20202031342E363838352020202D392E3934323220202020302E303030302043202020302020302020302020302020302020302020302020302020302020302020302020300A20202031382E3134333720202D31312E3933373220202020302E303030302043202020302020302020302020302020302020302020302020302020302020302020302020300A20202031392E3239353520202D31322E3630323220202020302E303030302043202020302020302020302020302020302020302020302020302020302020302020302020300A20202032312E3539393220202D31322E3630323220202020302E303030302043202020302020302020302020302020302020302020302020302020302020302020302020300A20202032312E3539393220202D31332E3933323220202020302E30303030204E202020302020302020302020302020302020302020302020302020302020302020302020300A20202032302E3434373320202D31312E3933373220202020302E303030302043202020302020302020302020302020302020302020302020302020302020302020302020300A20202032302E3434373320202D31342E3539373220202020302E303030302043202020302020302020302020302020302020302020302020302020302020302020302020300A20202031392E3239353520202D31332E3933323220202020302E303030302043202020302020302020302020302020302020302020302020302020302020302020302020300A20202032322E3735313120202D31302E3630373220202020302E303030302043202020302020302020302020302020302020302020302020302020302020302020302020300A20202032322E3735313120202D31312E3933373220202020302E303030302043202020302020302020302020302020302020302020302020302020302020302020302020300A20202032312E353939322020202D392E3934323220202020302E303030302043202020302020302020302020302020302020302020302020302020302020302020302020300A20202032302E3434373420202D31302E3630373220202020302E303030302043202020302020302020302020302020302020302020302020302020302020302020302020300A20202031382E313433372020202D362E3631373220202020302E303030302043202020302020302020302020302020302020302020302020302020302020302020302020300A20202032322E3735313020202D31342E3539373220202020302E303030302043202020302020302020302020302020302020302020302020302020302020302020302020300A20202032332E3930323820202D31332E3933323220202020302E303030302043202020302020302020302020302020302020302020302020302020302020302020302020300A20202032352E3035343620202D31342E3539373320202020302E303030302043202020302020302020302020302020302020302020302020302020302020302020302020300A20202032362E3230363520202D31332E3933323320202020302E303030302043202020302020302020302020302020302020302020302020302020302020302020302020300A20202032352E3035343620202D31352E3932373320202020302E303030302043202020302020302020302020302020302020302020302020302020302020302020302020300A20202031392E323935352020202D352E3935323120202020302E303030302043202020302020302020302020302020302020302020302020302020302020302020302020300A20202032302E343437342020202D362E3631373120202020302E303030302043202020302020302020302020302020302020302020302020302020302020302020302020300A20202032302E343437342020202D372E3934373120202020302E303030302043202020302020302020302020302020302020302020302020302020302020302020302020300A20202032312E353939322020202D352E3935323120202020302E303030302043202020302020302020302020302020302020302020302020302020302020302020302020300A2020322020312020312020302020302020302020300A2020332020312020322020302020302020302020300A2020342020322020322020302020302020302020300A2020352020332020312020302020302020302020300A2020362020342020312020302020302020302020300A2020372020352020312020302020302020302020300A2020362020352020322020302020302020302020300A2020382020372020322020302020302020302020300A2020392020362020312020302020302020302020300A2031302020382020312020302020302020302020300A2031302020392020322020302020302020302020300A2020342031312020312020302020302020302020300A2031312031322020322020302020302020302020300A2031342031332020312020302020302020302020300A2031362031342020312020302020302020302020300A2031322031352020312020302020302020302020300A2031372031362020322020302020302020302020300A2031372031322020312020302020302020302020300A2031392031382020322020302020302020302020300A2032302031382020312020302020302020302020300A2031332031392020312020302020302020302020300A2032312032302020322020302020302020302020300A2031352031332020322020302020302020302020300A2031352032312020312020302020302020302020300A2020332032322020312020302020302020302020300A2031342032332020312020302020302020302020300A2032332032342020312020302020302020302020300A2032342032352020312020302020302020302020300A2032352032362020312020302020302020302020300A2032352032372020312020302020302020302020300A2032322032382020312020302020302020302020300A2032382032392020312020302020302020302020300A2032392033302020312020302020302020302020300A2032392033312020312020302020302020302020300A4D202043484720203120202033202020310A4D2020454E44
Contributor: Tsuzimoto Y, Tsugawa H, Bamba T, Fukusaki E, engineering department, Osaka Univ.
InstType: EI
InstName: Pegasus II TOF-MS system, Leco; GC 6890, Agilent Technologies
IoniMethod: EI
IonPolarity: pos
Date: 2010-10-09 19:48:36+02:00
Num Peaks: 244
85 6 86 2 87 3 88 2 89 71 90 10 91 31 92 1 93 4 95 3 
96 2 97 7 99 11 100 2 101 1 102 4 103 23 104 5 105 17 106 4 
107 7 109 3 110 1 111 4 112 5 113 1 114 3 115 13 116 6 117 20 
118 2 119 21 120 1 121 8 122 1 124 1 126 1 127 2 129 2 130 2 
131 17 132 1 133 78 134 9 135 17 136 1 137 5 138 1 139 1 143 5 
144 1 145 5 147 112 148 17 149 31 150 5 151 3 153 2 157 2 158 3 
159 3 160 1 161 28 162 4 163 6 164 1 165 10 166 3 167 7 168 1 
169 1 170 2 171 4 172 2 174 2 175 3 176 30 177 22 178 6 179 16 
180 2 181 4 182 1 183 1 185 2 186 2 188 1 189 2 190 2 191 39 
192 17 193 35 194 5 195 5 196 1 198 1 200 2 204 1 205 7 206 2 
207 20 208 3 209 3 210 1 211 1 213 2 214 2 215 3 216 2 217 1 
220 3 221 8 222 1 223 8 225 2 226 5 229 2 233 4 234 4 235 7 
236 3 237 5 238 6 239 14 240 6 241 3 242 1 243 1 246 1 247 1 
248 1 249 19 250 6 251 23 252 6 253 24 254 11 255 5 256 2 258 1 
261 2 262 4 263 8 264 89 265 66 266 24 267 58 268 13 269 4 271 1 
272 1 279 44 280 13 281 26 282 14 283 10 284 4 288 2 290 1 291 1 
293 4 294 1 295 1 296 1 298 1 299 2 303 1 305 2 306 2 308 2 
309 5 310 5 311 3 312 2 313 3 314 3 319 1 320 7 321 5 322 1 
323 5 324 4 325 10 326 4 327 3 328 3 329 3 330 1 331 2 333 1 
336 1 337 8 338 12 339 59 340 37 341 18 342 8 343 2 346 3 347 5 
348 2 350 3 352 6 353 52 354 99 355 999 356 429 357 190 358 63 359 14 
360 2 361 1 363 1 364 1 369 1 370 2 371 6 372 3 373 2 374 1 
382 4 383 6 384 3 385 2 392 1 393 1 402 1 405 1 406 1 415 3 
417 2 419 1 420 1 427 1 429 1 430 1 434 1 438 1 446 1 458 1 
461 1 463 3 467 1 494 1 
