Name: Sulfanilamide
CAS: 63-74-1
MW: 172
Formula: C6H8N2O2S
Synonym: KEGG: C07458
Synonym: CID: 5333
Synonym: MassBank: OUF00468
Synonym: Sulfanilamide
Structure: 310A32370A3C4341535F49443E2036332D37342D31093C4B4547475F49443E20433037343538093C4E414D453E2053756C66616E696C616D696465093C464F524D554C413E20433648384E324F3253093C45584143544D4153533E203137322E30333036343832093C415645524147454D4153533E203137322E323036093C534D494C45533E204E63286331296363632863312953284E29283D4F293D4F093C434F505952494748543E2041524D2050524F4A45435420687474703A2F2F7777772E6D657461626F6C6F6D652E6A702F0A2031312031312020302020302020302020302020302020302020302020303939392056323030300A20202032372E3938313420202D31352E3837393020202020302E303030302053202020302020302020332020302020302020302020302020302020302020302020302020300A20202032362E3830333820202D31362E3536363920202020302E303030302043202020302020302020302020302020302020302020302020302020302020302020302020300A20202032392E3232333020202D31352E3033333820202020302E30303030204E202020302020302020302020322020302020302020302020302020302020302020302020300A20202032392E3131383120202D31362E3838373420202020302E30303030204F202020302020302020302020302020302020302020302020302020302020302020302020300A20202032362E3839313420202D31342E3834373220202020302E30303030204F202020302020302020302020302020302020302020302020302020302020302020302020300A20202032352E3632363420202D31352E3839303720202020302E303030302043202020302020302020302020312020302020302020302020302020302020302020302020300A20202032362E3830393720202D31372E3933303920202020302E303030302043202020302020302020302020312020302020302020302020302020302020302020302020300A20202032342E3434383820202D31362E3537383520202020302E303030302043202020302020302020302020312020302020302020302020302020302020302020302020300A20202032352E3633383120202D31382E3631323820202020302E303030302043202020302020302020302020312020302020302020302020302020302020302020302020300A20202032342E3436303520202D31372E3934323620202020302E303030302043202020302020302020302020302020302020302020302020302020302020302020302020300A20202032332E3239343820202D31382E3633303420202020302E30303030204E202020302020302020302020322020302020302020302020302020302020302020302020300A2020312020322020312020302020302020302020300A2020312020332020312020302020302020302020300A2020312020342020322020302020302020302020300A2020312020352020322020302020302020302020300A2020322020362020322020302020302020302020300A2020322020372020312020302020302020302020300A2020362020382020312020302020302020302020300A2020372020392020322020302020302020302020300A2020382031302020322020302020302020302020300A2031302031312020312020302020302020302020300A2020392031302020312020302020302020302020300A4D2020454E44
Contributor: Tsuzimoto Y, Tsugawa H, Bamba T, Fukusaki E, engineering department, Osaka Univ.
InstType: EI
InstName: Pegasus II TOF-MS system, Leco; GC 6890, Agilent Technologies
IoniMethod: EI
IonPolarity: pos
Date: 2010-10-09 19:48:36+02:00
Num Peaks: 141
85 6 86 8 87 9 88 4 89 8 90 10 91 26 92 14 93 19 94 9 
95 12 96 7 97 3 98 3 99 2 100 13 101 4 102 6 103 14 104 10 
105 19 106 16 107 12 108 12 109 5 110 9 111 4 113 3 114 2 115 14 
116 5 117 11 118 9 119 25 120 48 121 19 122 13 123 3 124 1 125 1 
130 19 131 33 132 43 133 67 134 80 135 22 136 13 137 32 138 10 139 2 
140 2 141 1 143 8 144 2 145 2 146 19 147 999 148 217 149 132 150 30 
151 12 152 2 153 1 154 1 158 2 160 3 161 3 162 15 163 59 164 41 
165 11 166 7 167 2 168 1 176 2 177 5 178 24 179 21 180 56 181 10 
182 5 183 1 190 1 191 1 192 2 193 2 194 14 195 4 196 8 197 2 
198 1 205 2 206 2 207 1 208 6 209 2 210 117 211 72 212 35 213 8 
214 2 219 1 220 2 221 2 222 10 223 4 224 2 225 1 226 1 228 1 
229 3 230 1 235 6 236 11 237 9 238 5 239 1 251 15 252 4 253 2 
285 6 286 1 299 4 300 4 301 19 302 6 303 3 310 1 316 8 317 2 
372 6 373 82 374 34 375 19 376 5 377 1 387 2 388 16 389 8 390 4 
391 1 
