Name: 3-Hydroxy-Butyrate
CAS: 300-85-6
MW: 104
Formula: C4H8O3
Synonym: CID: 441
Synonym: MassBank: OUF00051
Synonym: 3-Hydroxy-Butyrate
Structure: 310A31380A20204143442F4C6162733132303230363134353832440A2020372020362020302020302020302020302020302020302020302020302020312056323030300A20202031322E343232352020202D372E3437313320202020302E30303030204F202020302020302020302020302020302020302020302020302020302020302020302020300A20202031332E353734342020202D382E3133363220202020302E303030302043202020302020302020302020302020302020302020302020302020302020302020302020300A20202031342E373236312020202D372E3437313320202020302E303030302043202020302020302020302020302020302020302020302020302020302020302020302020300A20202031352E383737392020202D382E3133363220202020302E303030302043202020302020302020302020302020302020302020302020302020302020302020302020300A20202031372E303239382020202D372E3437313320202020302E30303030204F202020302020302020302020302020302020302020302020302020302020302020302020300A20202031352E383737392020202D392E3436363220202020302E30303030204F202020302020302020302020302020302020302020302020302020302020302020302020300A20202031332E353734342020202D392E3436363220202020302E303030302043202020302020302020302020302020302020302020302020302020302020302020302020300A2020322020312020312020302020302020302020300A2020332020322020312020302020302020302020300A2020342020332020312020302020302020302020300A2020352020342020312020302020302020302020300A2020342020362020322020302020302020302020300A2020322020372020312020302020302020302020300A4D2020454E44
Contributor: Tsuzimoto Y, Tsugawa H, Bamba T, Fukusaki E, engineering department, Osaka Univ.
InstType: EI
InstName: Pegasus II TOF-MS system, Leco; GC 6890, Agilent Technologies
IoniMethod: EI
IonPolarity: pos
Date: 2010-10-09 19:48:36+02:00
Num Peaks: 66
85 9 86 2 87 18 88 147 89 20 90 1 91 2 92 1 97 1 98 1 
99 25 100 3 101 53 102 10 103 20 104 3 105 9 106 1 109 6 113 2 
114 1 115 70 116 19 117 484 118 53 119 30 120 2 129 4 130 79 131 52 
132 11 133 101 134 15 135 8 142 1 143 22 144 3 145 3 146 1 147 999 
148 164 149 90 150 9 151 2 157 2 158 2 159 1 161 1 162 1 163 2 
175 1 189 27 190 6 191 239 192 44 193 21 194 2 204 18 205 3 206 1 
217 5 218 1 231 1 233 84 234 17 235 7 
