Name: L-Isoleucine
CAS: 73-32-5
MW: 131
Formula: C6H13NO2
Synonym: KEGG: C00407
Synonym: CID: 6306
Synonym: MassBank: OUF00312
Synonym: L-Isoleucine
Structure: 4330303030313337342E6364780A20204368656D447261773132323630383139323032440A2031312031302020302020302020302020302020302020302020302020303939392056323030300A20202020302E343935382020202D302E3134303120202020302E303030302043202020302020302020302020302020302020302020302020302020302020302020302020300A20202020302E3930333920202020302E3434353020202020302E303030302043202020302020302020302020302020302020302020302020302020302020302020302020300A20202020312E3432333320202020302E3538343220202020302E30303030204F202020302020302020302020302020302020302020302020302020302020302020302020300A20202020302E3436363420202020302E3838323620202020302E30303030204F202020302020302020302020302020302020302020302020302020302020302020302020300A20202020312E303031322020202D302E3532313820202020302E303030302048202020302020302020302020302020302020302020302020302020302020302020302020300A20202020302E343935382020202D302E3838323620202020302E30303030204E202020302020302020302020302020302020302020302020302020302020302020302020300A2020202D302E333439382020202D302E3134303120202020302E303030302043202020302020302020302020302020302020302020302020302020302020302020302020300A2020202D302E3831363720202020302E3332363820202020302E303030302043202020302020302020302020302020302020302020302020302020302020302020302020300A2020202D312E3432333320202020302E3332363820202020302E303030302043202020302020302020302020302020302020302020302020302020302020302020302020300A2020202D312E303238382020202D302E3533323120202020302E303030302048202020302020302020302020302020302020302020302020302020302020302020302020300A2020202D302E313736392020202D302E3738353420202020302E303030302043202020302020302020302020302020302020302020302020302020302020302020302020300A2020312020322020312020302020202020200A2020322020332020312020302020202020200A2020322020342020322020302020202020200A2020312020352020312020362020202020200A2020312020362020312020312020202020200A2020312020372020312020302020202020200A2020372020382020312020302020202020200A2020382020392020312020302020202020200A2020372031302020312020362020202020200A2020372031312020312020312020202020200A4D2020454E44
Contributor: Tsuzimoto Y, Tsugawa H, Bamba T, Fukusaki E, engineering department, Osaka Univ.
InstType: EI
InstName: Pegasus II TOF-MS system, Leco; GC 6890, Agilent Technologies
IoniMethod: EI
IonPolarity: pos
Date: 2010-10-09 19:48:36+02:00
Num Peaks: 81
85 13 86 99 87 13 88 5 89 3 90 10 91 1 92 1 94 1 95 1 
96 7 97 6 98 13 99 10 100 165 101 25 102 48 103 31 104 5 105 6 
110 2 111 1 112 7 113 4 114 24 115 13 116 10 117 8 118 5 119 7 
120 1 124 1 126 3 127 2 128 26 129 18 130 18 131 22 132 32 133 41 
134 9 135 3 142 22 143 14 144 7 145 2 146 9 147 150 148 25 149 16 
150 2 156 7 157 5 158 999 159 151 160 51 161 7 162 1 163 5 170 19 
171 4 172 2 173 1 174 6 175 1 176 1 188 2 202 1 203 9 204 1 
216 2 218 162 219 30 220 14 221 1 232 40 233 13 234 5 235 1 260 9 
261 2 
