Name: Phenyl pyruvate
CAS: 156-06-9
MW: 164
Formula: C9H8O3
Synonym: KEGG: C00166
Synonym: CID: 997
Synonym: MassBank: OUF00420
Synonym: Phenyl pyruvate
Structure: 4330303030303735312E6364780A20204368656D447261773132323630383139303032440A2031322031322020302020302020302020302020302020302020302020303939392056323030300A2020202D322E3134333020202020302E3030323320202020302E303030302043202020302020302020302020302020302020302020302020302020302020302020302020300A2020202D322E313433302020202D302E3832313220202020302E303030302043202020302020302020302020302020302020302020302020302020302020302020302020300A2020202D312E343331342020202D312E3233323020202020302E303030302043202020302020302020302020302020302020302020302020302020302020302020302020300A2020202D302E373232362020202D302E3832323820202020302E303030302043202020302020302020302020302020302020302020302020302020302020302020302020300A2020202D302E373232362020202D302E3030353520202020302E303030302043202020302020302020302020302020302020302020302020302020302020302020302020300A2020202D312E3432393920202020302E3430323920202020302E303030302043202020302020302020302020302020302020302020302020302020302020302020302020300A2020202D302E3030323520202020302E3431303320202020302E303030302043202020302020302020302020302020302020302020302020302020302020302020302020300A20202020302E373134372020202D302E3030333920202020302E303030302043202020302020302020302020302020302020302020302020302020302020302020302020300A20202020302E373134372020202D302E3833303520202020302E30303030204F202020302020302020302020302020302020302020302020302020302020302020302020300A20202020312E3432373820202020302E3430373820202020302E303030302043202020302020302020302020302020302020302020302020302020302020302020302020300A20202020312E3432373820202020312E3233323020202020302E30303030204F202020302020302020302020302020302020302020302020302020302020302020302020300A20202020322E313433302020202D302E3030353120202020302E30303030204F202020302020302020302020302020302020302020302020302020302020302020302020300A2020312020322020322020302020202020200A2020322020332020312020302020202020200A2020332020342020322020302020202020200A2020342020352020312020302020202020200A2020352020362020322020302020202020200A2020362020312020312020302020202020200A2020352020372020312020302020202020200A2020372020382020312020302020202020200A2020382031302020312020302020202020200A2020382020392020322020302020202020200A2031302031312020322020302020202020200A2031302031322020312020302020202020200A4D2020454E44
Contributor: Tsuzimoto Y, Tsugawa H, Bamba T, Fukusaki E, engineering department, Osaka Univ.
InstType: EI
InstName: Pegasus II TOF-MS system, Leco; GC 6890, Agilent Technologies
IoniMethod: EI
IonPolarity: pos
Date: 2010-10-09 19:48:36+02:00
Num Peaks: 46
85 3 86 1 90 49 91 4 92 1 93 7 94 5 95 3 96 2 97 1 
99 1 105 9 106 533 107 41 108 6 109 8 110 7 111 1 119 2 120 10 
121 2 122 9 123 5 132 1 134 2 135 3 136 492 137 68 138 20 150 4 
151 2 152 1 162 1 164 3 165 1 166 1 179 4 180 999 181 136 182 43 
183 4 186 2 194 4 195 36 196 5 197 1 
