Name: Urocanate
CAS: 104-98-3
MW: 138
Formula: C6H6N2O2
Synonym: KEGG: C00785
Synonym: CID: 736715
Synonym: MassBank: OUF00488
Synonym: Urocanate
Structure: 310A32350A20204143442F4C6162733039333031303039333432440A2031302031302020302020302020302020302020302020302020302020302020312056323030300A20202032312E383432352020202D372E3336373120202020302E303030302043202020302020302020302020302020302020302020302020302020302020302020302020300A20202032312E383432352020202D362E3033323320202020302E303030302043202020302020302020302020302020302020302020302020302020302020302020302020300A20202032332E313130372020202D372E3736373920202020302E30303030204E202020302020302020302020302020302020302020302020302020302020302020302020300A20202032332E313130372020202D352E3633323420202020302E30303030204E202020302020302020302020302020302020302020302020302020302020302020302020300A20202032302E383431332020202D352E3233313620202020302E303030302043202020302020302020302020302020302020302020302020302020302020302020302020300A20202031392E353036372020202D352E3639383920202020302E303030302043202020302020302020302020302020302020302020302020302020302020302020302020300A20202031382E353035332020202D342E3736343320202020302E303030302043202020302020302020302020302020302020302020302020302020302020302020302020300A20202032332E393131362020202D362E3633323820202020302E303030302043202020302020302020302020302020302020302020302020302020302020302020302020300A20202031382E373732332020202D332E3439363120202020302E30303030204F202020302020302020302020302020302020302020302020302020302020302020302020300A20202031372E313730372020202D352E3039383520202020302E30303030204F202020302020302020302020302020302020302020302020302020302020302020302020300A2020312020322020322020302020302020302020300A2020312020332020312020302020302020302020300A2020322020342020312020302020302020302020300A2020322020352020312020302020302020302020300A2020332020382020312020302020302020302020300A2020342020382020322020302020302020302020300A2020352020362020322020302020302020302020300A2020362020372020312020302020302020302020300A2020372020392020322020302020302020302020300A2020372031302020312020302020302020302020300A4D2020454E44
Contributor: Tsuzimoto Y, Tsugawa H, Bamba T, Fukusaki E, engineering department, Osaka Univ.
InstType: EI
InstName: Pegasus II TOF-MS system, Leco; GC 6890, Agilent Technologies
IoniMethod: EI
IonPolarity: pos
Date: 2010-10-09 19:48:36+02:00
Num Peaks: 100
85 41 86 65 87 7 88 4 89 39 92 56 93 91 94 81 95 20 96 21 
97 44 98 50 100 21 102 35 103 12 106 27 108 26 111 22 112 19 115 13 
120 46 123 18 124 50 126 63 131 52 132 47 133 56 134 26 135 101 136 87 
137 16 139 52 140 3 141 21 147 999 148 176 149 72 150 47 151 122 152 145 
153 27 154 42 155 9 158 14 165 351 166 125 167 128 180 375 181 103 182 4 
193 457 194 150 195 55 198 6 199 2 204 3 207 3 211 1 223 2 224 22 
226 18 229 9 232 12 237 12 238 57 239 140 241 3 242 5 243 3 250 2 
253 14 267 777 268 99 269 10 271 18 273 7 279 5 281 33 282 223 283 171 
284 86 285 12 292 6 295 2 299 17 301 13 323 6 329 6 332 10 354 5 
355 3 368 7 370 6 383 10 419 3 424 3 442 5 460 2 472 2 483 16 
