Name: 3-Pyridylacetic acid
CAS: 501-81-5
MW: 137
Formula: C7H7NO2
Synonym: CID: 108
Synonym: MassBank: OUF00059
Synonym: 3-Pyridylacetic acid
Structure: 3439393737302D39312D312E6D6F6C0A20204368656D447261773038303831303139303332440A2031302031302020302020302020302020302020302020302020302020303939392056323030300A2020202D302E333632352020202D302E3430353020202020302E303030302043202020302020302020302020302020302020302020302020302020302020302020302020300A2020202D302E3336323520202020302E3430373020202020302E303030302043202020302020302020302020302020302020302020302020302020302020302020302020300A2020202D312E303737352020202D302E3832333020202020302E303030302043202020302020302020302020302020302020302020302020302020302020302020302020300A20202020302E333636342020202D302E3830313220202020302E303030302043202020302020302020302020302020302020302020302020302020302020302020302020300A2020202D312E3037373520202020302E3832333020202020302E303030302043202020302020302020302020302020302020302020302020302020302020302020302020300A2020202D312E373836362020202D302E3431313020202020302E30303030204E202020302020302020302020302020302020302020302020302020302020302020302020300A20202020312E303539372020202D302E3336373420202020302E303030302043202020302020302020302020302020302020302020302020302020302020302020302020300A2020202D312E3738363620202020302E3431313020202020302E303030302043202020302020302020302020302020302020302020302020302020302020302020302020300A20202020312E3035333820202020302E3436303520202020302E30303030204F202020302020302020302020302020302020302020302020302020302020302020302020300A20202020312E373836362020202D302E3735373620202020302E30303030204F202020302020302020302020302020302020302020302020302020302020302020302020300A2020312020322020322020302020202020200A2020312020332020312020302020202020200A2020312020342020312020302020202020200A2020322020352020312020302020202020200A2020332020362020322020302020202020200A2020342020372020312020302020202020200A2020352020382020322020302020202020200A2020362020382020312020302020202020200A2020372020392020312020302020202020200A2020372031302020322020302020202020200A4D2020454E44
Contributor: Tsuzimoto Y, Tsugawa H, Bamba T, Fukusaki E, engineering department, Osaka Univ.
InstType: EI
InstName: Pegasus II TOF-MS system, Leco; GC 6890, Agilent Technologies
IoniMethod: EI
IonPolarity: pos
Date: 2010-10-09 19:48:36+02:00
Num Peaks: 67
85 9 86 3 87 5 88 6 89 16 90 21 91 318 92 403 93 67 94 7 
95 13 96 2 97 93 98 6 99 1 100 1 101 8 103 1 104 2 105 1 
106 17 107 6 108 6 109 4 110 2 111 1 116 12 117 116 118 14 119 106 
120 649 121 60 122 12 123 6 124 2 130 1 131 1 132 5 133 1 134 16 
135 7 136 12 137 5 138 17 139 1 146 2 147 1 148 7 149 12 150 13 
151 5 152 2 163 1 164 6 165 999 166 168 167 49 168 3 178 3 193 2 
194 685 195 115 196 37 197 3 209 159 210 30 211 6 
