Name: D-Glucosamine
CAS: 3416-24-8
MW: 179
Formula: C6H13NO5
Synonym: MassBank: OUF00172
Synonym: D-Glucosamine
Structure: 310A32390A3C4341535F49443E20333431362D32342D38093C4B4547475F49443E20433030333239093C4E414D453E20442D476C75636F73616D696E65093C464F524D554C413E2043364831334E4F35093C45584143544D4153533E203137392E303739333732353331093C415645524147454D4153533E203137392E3137313136093C534D494C45533E204F435B434040485D284F31295B434040485D284F295B4340485D284F295B434040485D284E2943284F2931093C434F505952494748543E2041524D2050524F4A45435420687474703A2F2F7777772E6D657461626F6C6F6D652E6A702F0A2031322031322020302020302020312020302020302020302020302020303939392056323030300A20202020332E3733323120202020312E3030303020202020302E303030302043202020302020302020332020312020302020302020302020302020302020302020302020300A20202020322E3836363020202020302E3530303020202020302E303030302043202020302020302020312020312020302020302020302020302020302020302020302020300A20202020322E383636302020202D302E3530303020202020302E303030302043202020302020302020322020312020302020302020302020302020302020302020302020300A20202020332E373332312020202D312E3030303020202020302E303030302043202020302020302020312020312020302020302020302020302020302020302020302020300A20202020342E353938312020202D302E3530303020202020302E303030302043202020302020302020312020312020302020302020302020302020302020302020302020300A20202020352E343634312020202D312E3030303020202020302E303030302043202020302020302020302020322020302020302020302020302020302020302020302020300A20202020322E3030303020202020312E3030303020202020302E30303030204E202020302020302020302020322020302020302020302020302020302020302020302020300A20202020332E3733323120202020322E3030303020202020302E30303030204F202020302020302020302020312020302020302020302020302020302020302020302020300A20202020322E303030302020202D312E3030303020202020302E30303030204F202020302020302020302020312020302020302020302020302020302020302020302020300A20202020332E373332312020202D322E3030303020202020302E30303030204F202020302020302020302020312020302020302020302020302020302020302020302020300A20202020342E3539383120202020302E3530303020202020302E30303030204F202020302020302020302020302020302020302020302020302020302020302020302020300A20202020362E333330312020202D302E3530303020202020302E30303030204F202020302020302020302020312020302020302020302020302020302020302020302020300A2031322020362020312020302020302020302020300A2020352031312020312020362020302020302020300A2031312020312020312020302020302020302020300A2020312020322020312020302020302020302020300A2020322020332020312020302020302020302020300A2020332020342020312020302020302020302020300A2020342020352020312020302020302020302020300A2020352020362020312020302020302020302020300A2020312020382020312020342020302020302020300A2020322020372020312020312020302020302020300A2020332020392020312020362020302020302020300A2020342031302020312020312020302020302020300A4D2020454E44
Contributor: Tsuzimoto Y, Tsugawa H, Bamba T, Fukusaki E, engineering department, Osaka Univ.
InstType: EI
InstName: Pegasus II TOF-MS system, Leco; GC 6890, Agilent Technologies
IoniMethod: EI
IonPolarity: pos
Date: 2010-10-09 19:48:36+02:00
Num Peaks: 154
85 9 86 9 87 10 88 5 89 23 90 5 91 1 94 2 95 1 96 2 
97 3 98 6 99 10 100 110 101 35 102 29 103 108 104 13 105 7 106 1 
108 6 109 1 110 2 111 5 112 5 113 11 114 10 115 33 116 24 117 75 
118 12 119 12 120 1 124 1 125 1 126 5 127 6 128 35 129 60 130 29 
131 170 132 33 133 68 134 12 135 7 136 1 138 1 140 5 141 3 142 20 
143 16 144 19 145 11 146 15 147 248 148 43 149 28 150 4 151 2 152 9 
153 2 154 4 155 2 156 9 157 5 158 7 159 3 160 2 161 2 162 10 
163 5 164 1 168 7 169 6 170 4 171 3 172 13 173 7 174 7 175 4 
176 3 177 5 178 1 180 4 181 1 182 2 184 1 186 1 187 3 188 22 
189 25 190 12 191 24 192 5 193 3 196 1 197 1 198 2 199 1 200 5 
201 3 202 12 203 999 204 231 205 93 206 15 207 5 214 6 215 4 216 113 
217 129 218 49 219 17 220 5 221 5 222 1 226 1 228 4 229 3 230 4 
231 9 232 2 233 3 240 4 241 1 242 3 243 3 244 1 245 2 246 1 
254 2 256 1 258 1 259 1 270 1 272 1 290 5 291 5 292 1 302 1 
303 2 304 35 305 14 306 6 307 1 316 1 331 5 332 1 344 2 345 1 
346 1 434 4 435 2 436 1 
