Name: Phenyl pyruvate
CAS: 156-06-9
MW: 164
Formula: C9H8O3
Synonym: KEGG: C00166
Synonym: CID: 997
Synonym: MassBank: OUF00421
Synonym: Phenyl pyruvate
Structure: 4330303030303735312E6364780A20204368656D447261773132323630383139303032440A2031322031322020302020302020302020302020302020302020302020303939392056323030300A2020202D322E3134333020202020302E3030323320202020302E303030302043202020302020302020302020302020302020302020302020302020302020302020302020300A2020202D322E313433302020202D302E3832313220202020302E303030302043202020302020302020302020302020302020302020302020302020302020302020302020300A2020202D312E343331342020202D312E3233323020202020302E303030302043202020302020302020302020302020302020302020302020302020302020302020302020300A2020202D302E373232362020202D302E3832323820202020302E303030302043202020302020302020302020302020302020302020302020302020302020302020302020300A2020202D302E373232362020202D302E3030353520202020302E303030302043202020302020302020302020302020302020302020302020302020302020302020302020300A2020202D312E3432393920202020302E3430323920202020302E303030302043202020302020302020302020302020302020302020302020302020302020302020302020300A2020202D302E3030323520202020302E3431303320202020302E303030302043202020302020302020302020302020302020302020302020302020302020302020302020300A20202020302E373134372020202D302E3030333920202020302E303030302043202020302020302020302020302020302020302020302020302020302020302020302020300A20202020302E373134372020202D302E3833303520202020302E30303030204F202020302020302020302020302020302020302020302020302020302020302020302020300A20202020312E3432373820202020302E3430373820202020302E303030302043202020302020302020302020302020302020302020302020302020302020302020302020300A20202020312E3432373820202020312E3233323020202020302E30303030204F202020302020302020302020302020302020302020302020302020302020302020302020300A20202020322E313433302020202D302E3030353120202020302E30303030204F202020302020302020302020302020302020302020302020302020302020302020302020300A2020312020322020322020302020202020200A2020322020332020312020302020202020200A2020332020342020322020302020202020200A2020342020352020312020302020202020200A2020352020362020322020302020202020200A2020362020312020312020302020202020200A2020352020372020312020302020202020200A2020372020382020312020302020202020200A2020382031302020312020302020202020200A2020382020392020322020302020202020200A2031302031312020322020302020202020200A2031302031322020312020302020202020200A4D2020454E44
Contributor: Tsuzimoto Y, Tsugawa H, Bamba T, Fukusaki E, engineering department, Osaka Univ.
InstType: EI
InstName: Pegasus II TOF-MS system, Leco; GC 6890, Agilent Technologies
IoniMethod: EI
IonPolarity: pos
Date: 2010-10-09 19:48:36+02:00
Num Peaks: 19
92 2 93 3 94 2 95 1 97 3 105 1 106 999 107 72 108 5 109 1 
110 1 122 1 124 1 125 4 152 2 153 231 154 21 155 12 156 1 
