Name: Ketoleucine
CAS: 816-66-0
MW: 130
Formula: C6H10O3
Synonym: KEGG: C00233
Synonym: CID: 70
Synonym: MassBank: OUF00288
Synonym: Ketoleucine
Structure: 310A32320A4330303031393637372E6364780A20204368656D447261773132323930383230303632440A2020392020382020302020302020302020302020302020302020302020303939392056323030300A2020202D312E373834342020202D302E3230363920202020302E303030302043202020302020302020302020302020302020302020302020302020302020302020302020300A2020202D312E3036393920202020302E3230353620202020302E303030302043202020302020302020302020302020302020302020302020302020302020302020302020300A2020202D312E3036393920202020312E3033303620202020302E303030302043202020302020302020302020302020302020302020302020302020302020302020302020300A2020202D302E333535342020202D302E3230363920202020302E303030302043202020302020302020302020302020302020302020302020302020302020302020302020300A20202020302E3335373820202020302E3230343920202020302E303030302043202020302020302020302020302020302020302020302020302020302020302020302020300A20202020312E303731312020202D302E3230363920202020302E303030302043202020302020302020302020302020302020302020302020302020302020302020302020300A20202020302E3335373820202020312E3032383520202020302E30303030204F202020302020302020302020302020302020302020302020302020302020302020302020300A20202020312E3738343420202020302E3230343920202020302E30303030204F202020302020302020302020302020302020302020302020302020302020302020302020300A20202020312E303731312020202D312E3033303620202020302E30303030204F202020302020302020302020302020302020302020302020302020302020302020302020300A2020312020322020312020302020202020200A2020322020332020312020302020202020200A2020322020342020312020302020202020200A2020342020352020312020302020202020200A2020352020362020312020302020202020200A2020352020372020322020302020202020200A2020362020382020312020302020202020200A2020362020392020322020302020202020200A4D2020454E44
Contributor: Tsuzimoto Y, Tsugawa H, Bamba T, Fukusaki E, engineering department, Osaka Univ.
InstType: EI
InstName: Pegasus II TOF-MS system, Leco; GC 6890, Agilent Technologies
IoniMethod: EI
IonPolarity: pos
Date: 2010-10-09 19:48:36+02:00
Num Peaks: 160
85 70 86 67 87 17 88 23 89 502 90 21 91 25 93 1 97 36 98 15 
100 55 101 22 102 29 103 35 104 16 105 31 108 4 109 1 111 4 112 115 
113 21 114 168 115 63 116 1 117 32 121 30 122 5 123 1 124 12 125 4 
126 16 127 2 128 7 129 170 130 25 131 89 132 5 133 183 134 21 139 3 
140 21 141 15 142 63 143 21 144 9 145 854 146 122 147 999 148 122 149 80 
157 23 158 24 159 11 163 48 164 8 169 5 170 9 172 26 173 2 182 23 
183 12 186 11 189 5 190 4 191 25 192 16 194 1 198 33 199 5 200 5 
202 26 204 2 208 4 209 5 210 1 212 9 214 26 216 10 218 1 227 28 
228 8 229 9 230 15 234 4 239 1 241 3 242 63 243 10 246 5 248 10 
253 11 254 12 257 2 258 18 260 4 261 19 262 17 268 8 270 15 276 186 
277 41 278 34 279 8 281 8 283 3 288 49 289 14 290 1 291 5 294 3 
295 4 296 3 298 1 299 1 301 16 304 55 305 5 308 3 310 12 312 12 
324 7 326 1 328 10 333 5 334 8 337 2 339 1 340 9 342 9 343 10 
347 7 351 16 356 16 368 10 374 14 377 8 378 1 381 10 389 2 393 9 
397 8 403 2 412 16 415 4 417 4 419 3 421 2 429 18 432 1 436 3 
445 4 448 11 450 2 454 12 456 15 458 2 460 17 465 2 488 5 494 1 
