Name: p-Aminohippuric acid
CAS: 61-78-9
MW: 194
Formula: C9H10N2O3
Synonym: KEGG: D01421
Synonym: CID: 2148
Synonym: MassBank: OUF00413
Synonym: p-Aminohippuric acid
Structure: 342D414D494E4F484950505552494320414349442E6D6F6C0A20204368656D447261773033323531303035303032440A2031342031342020302020302020302020302020302020302020302020303939392056323030300A2020202D322E3134333420202020302E3030303020202020302E303030302043202020302020302020302020302020302020302020302020302020302020302020302020300A2020202D312E3432383920202020302E3431323520202020302E303030302043202020302020302020302020302020302020302020302020302020302020302020302020300A2020202D302E3731343520202020302E3030303020202020302E30303030204E202020302020302020302020302020302020302020302020302020302020302020302020300A20202020302E3030303020202020302E3431323520202020302E303030302043202020302020302020302020302020302020302020302020302020302020302020302020300A20202020302E3030303020202020312E3233373520202020302E30303030204F202020302020302020302020302020302020302020302020302020302020302020302020300A20202020302E3731343520202020302E3030303020202020302E303030302043202020302020302020302020302020302020302020302020302020302020302020302020300A20202020312E3432383920202020302E3431323520202020302E303030302043202020302020302020302020302020302020302020302020302020302020302020302020300A20202020322E3134333420202020302E3030303020202020302E303030302043202020302020302020302020302020302020302020302020302020302020302020302020300A20202020322E313433342020202D302E3832353020202020302E303030302043202020302020302020302020302020302020302020302020302020302020302020302020300A20202020312E343238392020202D312E3233373520202020302E303030302043202020302020302020302020302020302020302020302020302020302020302020302020300A20202020302E373134352020202D302E3832353020202020302E303030302043202020302020302020302020302020302020302020302020302020302020302020302020300A2020202D322E313433342020202D302E3832353020202020302E30303030204F202020302020302020302020302020302020302020302020302020302020302020302020300A2020202D322E3835373920202020302E3431323520202020302E30303030204F202020302020302020302020302020302020302020302020302020302020302020302020300A20202020322E383537392020202D312E3233373520202020302E30303030204E202020302020302020302020302020302020302020302020302020302020302020302020300A2020312020322020312020302020202020200A2020322020332020312020302020202020200A2020332020342020312020302020202020200A2020342020352020322020302020202020200A2020342020362020312020302020202020200A2020362020372020312020302020202020200A2020372020382020322020302020202020200A2020382020392020312020302020202020200A2020392031302020322020302020202020200A2031302031312020312020302020202020200A2020362031312020322020302020202020200A2020312031322020322020302020202020200A2020312031332020312020302020202020200A2020392031342020312020302020202020200A4D2020454E44
Contributor: Tsuzimoto Y, Tsugawa H, Bamba T, Fukusaki E, engineering department, Osaka Univ.
InstType: EI
InstName: Pegasus II TOF-MS system, Leco; GC 6890, Agilent Technologies
IoniMethod: EI
IonPolarity: pos
Date: 2010-10-09 19:48:36+02:00
Num Peaks: 123
85 4 86 9 87 5 88 7 89 11 90 10 91 40 92 31 93 17 94 9 
95 13 96 4 97 2 98 3 99 1 100 9 101 6 102 10 103 10 104 11 
105 17 106 15 107 10 108 11 109 3 110 2 115 1 116 15 117 15 118 25 
119 62 120 132 121 32 122 9 123 3 124 1 125 2 126 3 127 1 129 1 
130 5 131 8 132 42 133 19 134 83 135 18 136 7 139 1 144 1 145 3 
146 22 147 18 148 62 149 47 150 22 151 4 154 18 155 1 159 2 160 5 
161 4 162 25 163 9 164 27 165 8 166 2 173 1 174 1 175 10 176 57 
177 15 178 15 179 5 180 1 188 1 189 2 190 19 191 13 192 999 193 178 
194 54 195 6 203 1 204 5 205 18 206 11 207 1 208 2 217 1 219 1 
220 32 221 18 222 9 223 2 233 2 235 2 236 1 237 1 248 18 249 3 
250 5 264 2 265 1 266 2 277 5 278 3 279 8 280 1 291 1 292 1 
293 75 294 27 295 11 296 2 323 19 324 6 325 2 326 1 337 4 338 103 
339 35 340 15 341 2 
