Name: DL-Hexanoylcarnitine
CAS: 10331-23-4
MW: 260
Formula: C13H26NO4
Synonym: CID: 3082079
Synonym: MassBank: OUF00188
Synonym: DL-Hexanoylcarnitine
Structure: 310A34310A20204143442F4C6162733039323931303135353032440A2031382031372020302020302020302020302020302020302020302020302020322056323030300A20202020392E3635343820202D31352E3030333720202020302E30303030204F202020302020302020302020302020302020302020302020302020302020302020302020300A20202020382E3530333020202D31352E3636383720202020302E303030302043202020302020302020302020302020302020302020302020302020302020302020302020300A20202020382E3530333020202D31362E3939383720202020302E303030302043202020302020302020302020302020302020302020302020302020302020302020302020300A20202020392E3636323120202D31372E3635393420202020302E303030302043202020302020302020302020302020302020302020302020302020302020302020302020300A20202031302E3831333920202D31362E3939343420202020302E30303030204F202020302020302020302020302020302020302020302020302020302020302020302020300A20202031312E3936353720202D31372E3635393420202020302E303030302043202020302020302020302020302020302020302020302020302020302020302020302020300A20202031332E3131373520202D31362E3939343420202020302E303030302043202020302020302020302020302020302020302020302020302020302020302020302020300A20202031342E3236393420202D31372E3635393420202020302E303030302043202020302020302020302020302020302020302020302020302020302020302020302020300A20202031352E3432313220202D31362E3939343420202020302E303030302043202020302020302020302020302020302020302020302020302020302020302020302020300A20202031362E3537333020202D31372E3635393420202020302E303030302043202020302020302020302020302020302020302020302020302020302020302020302020300A20202031372E3732343820202D31362E3939343420202020302E303030302043202020302020302020302020302020302020302020302020302020302020302020302020300A20202020372E3335313220202D31352E3030333620202020302E30303030204F202020302020302020302020302020302020302020302020302020302020302020302020300A20202020392E3636323120202D31382E3938393420202020302E303030302043202020302020302020302020302020302020302020302020302020302020302020302020300A20202031312E3936353720202D31382E3938393420202020302E30303030204F202020302020302020302020302020302020302020302020302020302020302020302020300A20202020382E3530393620202D31392E3635363920202020302E30303030204E202020302020332020302020302020302020302020302020302020302020302020302020300A20202020372E3834343620202D32302E3830383720202020302E303030302043202020302020302020302020302020302020302020302020302020302020302020302020300A20202020372E3335383520202D31382E3938393420202020302E303030302043202020302020302020302020302020302020302020302020302020302020302020302020300A20202020392E3137343620202D32302E3830383720202020302E303030302043202020302020302020302020302020302020302020302020302020302020302020302020300A2020322020312020312020302020302020302020300A2020332020322020312020302020302020302020300A2020342020332020312020302020302020302020300A2020352020342020312020302020302020302020300A2020362020352020312020302020302020302020300A2020372020362020312020302020302020302020300A2020382020372020312020302020302020302020300A2020392020382020312020302020302020302020300A2031302020392020312020302020302020302020300A2031312031302020312020302020302020302020300A2020322031322020322020302020302020302020300A2020342031332020312020302020302020302020300A2020362031342020322020302020302020302020300A2031332031352020312020302020302020302020300A2031352031362020312020302020302020302020300A2031352031372020312020302020302020302020300A2031352031382020312020302020302020302020300A4D202043484720203120203135202020310A4D2020454E44
Contributor: Tsuzimoto Y, Tsugawa H, Bamba T, Fukusaki E, engineering department, Osaka Univ.
InstType: EI
InstName: Pegasus II TOF-MS system, Leco; GC 6890, Agilent Technologies
IoniMethod: EI
IonPolarity: pos
Date: 2010-10-09 19:48:36+02:00
Num Peaks: 65
85 18 86 23 87 22 88 38 89 22 90 8 91 7 92 1 93 4 94 1 
95 2 96 2 97 18 98 20 99 43 100 7 101 86 102 10 103 10 104 1 
105 22 106 2 107 1 111 3 113 5 114 1 115 13 116 187 117 885 118 95 
119 41 120 3 125 1 126 1 127 3 128 2 129 195 130 32 131 381 132 281 
133 43 134 11 135 1 137 1 142 1 143 29 144 6 145 94 146 14 147 5 
155 15 156 5 157 2 159 25 160 5 161 2 171 2 172 1 173 999 174 140 
175 46 176 4 187 1 188 9 189 1 
