Name: L-Mandelic acid
CAS: 611-71-2
MW: 152
Formula: C8H8O3
Synonym: KEGG: C01983
Synonym: CID: 11914
Synonym: MassBank: OUF00316
Synonym: L-Mandelic acid
Structure: 310A32370A3C4341535F49443E206E756C6C093C4B4547475F49443E20433031393833093C4E414D453E202852292D4D616E64656C617465093C464F524D554C413E20433848384F33093C45584143544D4153533E203135322E303437333434313232093C415645524147454D4153533E203135322E3134373331393939393939393938093C534D494C45533E204F43283D4F295B4340485D284F2963286331296363636331093C434F505952494748543E2041524D2050524F4A45435420687474703A2F2F7777772E6D657461626F6C6F6D652E6A702F0A2031312031312020302020302020312020302020302020302020302020303939392056323030300A20202020352E3436343120202020302E3030303020202020302E303030302043202020302020302020302020302020302020302020302020302020302020302020302020300A20202020342E3539383120202020302E3530303020202020302E303030302043202020302020302020312020312020302020302020302020302020302020302020302020300A20202020332E3733323120202020302E3030303020202020302E303030302043202020302020302020302020302020302020302020302020302020302020302020302020300A20202020332E373332312020202D312E3030303020202020302E303030302043202020302020302020302020312020302020302020302020302020302020302020302020300A20202020322E383636302020202D312E3530303020202020302E303030302043202020302020302020302020312020302020302020302020302020302020302020302020300A20202020322E303030302020202D312E3030303020202020302E303030302043202020302020302020302020312020302020302020302020302020302020302020302020300A20202020322E303030302020202D302E3030303020202020302E303030302043202020302020302020302020312020302020302020302020302020302020302020302020300A20202020322E3836363020202020302E3530303020202020302E303030302043202020302020302020302020312020302020302020302020302020302020302020302020300A20202020342E3539383120202020312E3530303020202020302E30303030204F202020302020302020302020312020302020302020302020302020302020302020302020300A20202020352E343634312020202D312E3030303020202020302E30303030204F202020302020302020302020312020302020302020302020302020302020302020302020300A20202020362E3333303120202020302E3530303020202020302E30303030204F202020302020302020302020302020302020302020302020302020302020302020302020300A2020382020332020322020302020302020302020300A2020382020372020312020302020302020302020300A2020372020362020322020302020302020302020300A2020362020352020312020302020302020302020300A2020352020342020322020302020302020302020300A2020342020332020312020302020302020302020300A2020332020322020312020302020302020302020300A2020322020312020312020302020302020302020300A2020322020392020312020312020302020302020300A2020312031302020312020302020302020302020300A2020312031312020322020302020302020302020300A4D2020454E44
Contributor: Tsuzimoto Y, Tsugawa H, Bamba T, Fukusaki E, engineering department, Osaka Univ.
InstType: EI
InstName: Pegasus II TOF-MS system, Leco; GC 6890, Agilent Technologies
IoniMethod: EI
IonPolarity: pos
Date: 2010-10-09 19:48:36+02:00
Num Peaks: 75
85 2 86 1 87 7 88 2 89 50 90 54 91 32 92 3 93 4 95 2 
97 1 99 1 101 2 102 4 103 22 104 23 105 81 106 17 107 9 108 1 
109 1 111 3 112 1 113 1 115 10 116 2 117 19 118 21 119 34 120 5 
121 9 122 1 123 2 129 1 131 32 132 6 133 54 134 9 135 21 136 3 
137 6 138 1 143 1 145 9 146 3 147 382 148 68 149 100 150 14 151 4 
159 1 161 4 162 1 163 55 164 17 165 12 166 2 177 7 178 3 179 999 
180 176 181 53 182 5 191 1 193 2 195 1 209 2 237 1 252 2 253 71 
254 20 255 8 256 1 281 9 282 2 
