Name: N-Acetyl-L-Aspartic acid
CAS: 997-55-7
MW: 175
Formula: C6H9NO5
Synonym: KEGG: C01042
Synonym: CID: 65065
Synonym: MassBank: OUF00368
Synonym: N-Acetyl-L-Aspartic acid
Structure: 310A32380A3C4341535F49443E206E756C6C093C4B4547475F49443E20433031303432093C4E414D453E204E2D41636574796C2D4C2D6173706172746174093C464F524D554C413E20433648394E4F35093C45584143544D4153533E203137352E303438303732343033093C415645524147454D4153533E203137352E3133393430303030303030303032093C534D494C45533E204343283D4F294E5B434040485D284343284F293D4F2943284F293D4F093C434F505952494748543E2041524D2050524F4A45435420687474703A2F2F7777772E6D657461626F6C6F6D652E6A702F0A2031322031312020302020302020312020302020302020302020302020303939392056323030300A20202020362E3438363020202020312E3030303020202020302E303030302043202020302020302020302020302020302020302020302020302020302020302020302020300A20202020352E3632303020202020302E3530303020202020302E303030302043202020302020302020322020312020302020302020302020302020302020302020302020300A20202020332E3733323120202020312E3539303020202020302E303030302043202020302020302020302020322020302020302020302020302020302020302020302020300A20202020322E3836363020202020312E3039303020202020302E303030302043202020302020302020302020302020302020302020302020302020302020302020302020300A20202020352E363230302020202D302E3530303020202020302E30303030204E202020302020302020302020312020302020302020302020302020302020302020302020300A20202020342E373534302020202D312E3030303020202020302E303030302043202020302020302020302020302020302020302020302020302020302020302020302020300A20202020332E383837392020202D302E3530303020202020302E303030302043202020302020302020302020332020302020302020302020302020302020302020302020300A20202020372E3335323020202020302E3530303020202020302E30303030204F202020302020302020302020302020302020302020302020302020302020302020302020300A20202020362E3438363020202020322E3030303020202020302E30303030204F202020302020302020302020312020302020302020302020302020302020302020302020300A20202020322E3836363020202020302E3039303020202020302E30303030204F202020302020302020302020302020302020302020302020302020302020302020302020300A20202020322E3030303020202020312E3539303020202020302E30303030204F202020302020302020302020312020302020302020302020302020302020302020302020300A20202020342E373534302020202D322E3030303020202020302E30303030204F202020302020302020302020302020302020302020302020302020302020302020302020300A2020322020352020312020312020302020302020300A2020322020312020312020302020302020302020300A2020312020382020322020302020302020302020300A2020322020332020312020302020302020302020300A2020342031302020322020302020302020302020300A2020342031312020312020302020302020302020300A2020332020342020312020302020302020302020300A2020312020392020312020302020302020302020300A2020352020362020312020302020302020302020300A2020362031322020322020302020302020302020300A2020362020372020312020302020302020302020300A4D2020454E44
Contributor: Tsuzimoto Y, Tsugawa H, Bamba T, Fukusaki E, engineering department, Osaka Univ.
InstType: EI
InstName: Pegasus II TOF-MS system, Leco; GC 6890, Agilent Technologies
IoniMethod: EI
IonPolarity: pos
Date: 2010-10-09 19:48:36+02:00
Num Peaks: 193
85 66 86 46 87 38 88 21 89 44 90 7 91 6 92 11 93 14 94 12 
95 7 96 23 97 9 98 57 99 64 100 320 101 141 102 62 103 54 104 8 
105 20 106 2 107 1 108 2 110 3 111 21 112 777 113 72 114 110 115 90 
116 434 117 177 118 41 119 42 120 5 121 3 124 4 125 1 126 13 127 25 
128 48 129 199 130 122 131 183 132 50 133 371 134 59 135 47 136 6 137 2 
139 9 140 32 141 9 142 226 143 59 144 135 145 37 146 18 147 999 148 171 
149 214 150 34 151 16 152 1 153 1 154 7 155 37 156 280 157 70 158 209 
159 43 160 78 161 19 162 4 163 18 164 2 165 1 166 1 167 1 168 8 
169 11 170 11 171 27 172 39 173 20 174 27 175 31 176 14 177 13 178 2 
179 2 182 2 183 27 184 960 185 154 186 93 187 14 188 31 189 26 190 22 
191 25 192 6 193 3 198 2 200 6 201 9 202 53 203 31 204 37 205 17 
206 6 207 7 208 1 209 1 211 14 212 3 213 5 214 32 215 9 216 31 
217 35 218 100 219 30 220 11 221 10 222 2 223 2 226 1 227 1 228 2 
229 4 230 324 231 76 232 200 233 50 234 23 235 3 236 1 237 1 240 2 
242 2 243 1 244 6 245 268 246 61 247 30 248 4 249 2 256 1 258 84 
259 30 260 53 261 11 262 5 263 2 265 1 272 6 273 44 274 874 275 223 
276 93 277 16 278 4 286 36 287 8 288 6 289 2 300 1 301 75 302 23 
303 8 304 17 305 3 306 20 307 5 308 2 309 1 317 7 318 2 319 2 
348 38 349 23 350 9 351 3 375 4 376 104 377 43 378 17 379 3 391 27 
392 9 393 3 394 1 
