Name: D-(+)-Xylose
CAS: 58-86-6
MW: 150
Formula: C5H10O5
Synonym: KEGG: C01394
Synonym: CID: 6027
Synonym: MassBank: OUF00494
Synonym: D-(+)-Xylose
Structure: 4330303030373239302E6364780A20204368656D447261773132323930383037313032440A2031302031302020302020302020302020302020302020302020302020303939392056323030300A2020202D302E3731343520202020302E3832353020202020302E303030302043202020302020302020302020302020302020302020302020302020302020302020302020300A2020202D302E3731343520202020302E3030303020202020302E303030302043202020302020302020302020302020302020302020302020302020302020302020302020300A20202020302E303030302020202D302E3431323520202020302E303030302043202020302020302020302020302020302020302020302020302020302020302020302020300A20202020302E3731343520202020302E3030303020202020302E303030302043202020302020302020302020302020302020302020302020302020302020302020302020300A20202020302E3731343520202020302E3832353020202020302E303030302043202020302020302020302020302020302020302020302020302020302020302020302020300A20202020302E3030303020202020312E3233373520202020302E30303030204F202020302020302020302020302020302020302020302020302020302020302020302020300A2020202D312E343238392020202D302E3431323520202020302E30303030204F202020302020302020302020302020302020302020302020302020302020302020302020300A20202020312E343238392020202D302E3431323520202020302E30303030204F202020302020302020302020302020302020302020302020302020302020302020302020300A20202020312E3432383920202020312E3233373520202020302E30303030204F202020302020302020302020302020302020302020302020302020302020302020302020300A20202020302E303030302020202D312E3233373520202020302E30303030204F202020302020302020302020302020302020302020302020302020302020302020302020300A2020312020322020312020302020202020200A2020322020332020312020302020202020200A2020332020342020312020302020202020200A2020342020352020312020302020202020200A2020352020362020312020302020202020200A2020362020312020312020302020202020200A2020322020372020312020362020202020200A2020342020382020312020362020202020200A2020352020392020312020362020202020200A2020332031302020312020312020202020200A4D2020454E44
Contributor: Tsuzimoto Y, Tsugawa H, Bamba T, Fukusaki E, engineering department, Osaka Univ.
InstType: EI
InstName: Pegasus II TOF-MS system, Leco; GC 6890, Agilent Technologies
IoniMethod: EI
IonPolarity: pos
Date: 2010-10-09 19:48:36+02:00
Num Peaks: 133
85 7 86 6 87 12 88 9 89 162 90 15 91 8 94 2 97 1 98 3 
99 11 100 53 101 43 102 25 103 999 104 98 105 61 106 6 107 1 111 4 
112 3 113 11 114 13 115 14 116 15 117 113 118 12 119 20 120 2 121 2 
123 1 126 6 127 6 128 4 129 108 130 24 131 51 132 10 133 124 134 18 
135 11 140 3 141 1 142 7 143 25 144 3 145 12 147 337 148 52 149 39 
150 4 151 2 152 1 157 11 158 8 159 6 160 70 161 25 162 5 163 17 
164 3 166 1 168 3 172 3 173 8 174 12 175 14 176 2 177 7 179 1 
181 1 188 2 189 108 190 23 191 35 192 8 193 2 198 2 200 5 201 5 
202 1 203 8 204 35 205 46 206 11 207 8 208 1 214 4 215 2 216 3 
217 395 218 82 219 39 220 6 221 10 222 3 223 1 229 1 230 3 231 6 
232 6 233 38 234 13 235 7 236 1 240 1 242 1 246 1 248 2 256 3 
261 2 262 11 263 3 274 2 275 1 277 30 278 14 279 5 280 1 288 1 
291 3 292 1 293 1 303 1 305 1 306 2 307 125 308 38 309 21 310 5 
312 1 320 1 467 1 
