Name: N-Acetyl-L-Aspartic acid
CAS: 997-55-7
MW: 175
Formula: C6H9NO5
Synonym: KEGG: C01042
Synonym: CID: 65065
Synonym: MassBank: OUF00367
Synonym: N-Acetyl-L-Aspartic acid
Structure: 310A32380A3C4341535F49443E206E756C6C093C4B4547475F49443E20433031303432093C4E414D453E204E2D41636574796C2D4C2D6173706172746174093C464F524D554C413E20433648394E4F35093C45584143544D4153533E203137352E303438303732343033093C415645524147454D4153533E203137352E3133393430303030303030303032093C534D494C45533E204343283D4F294E5B434040485D284343284F293D4F2943284F293D4F093C434F505952494748543E2041524D2050524F4A45435420687474703A2F2F7777772E6D657461626F6C6F6D652E6A702F0A2031322031312020302020302020312020302020302020302020302020303939392056323030300A20202020362E3438363020202020312E3030303020202020302E303030302043202020302020302020302020302020302020302020302020302020302020302020302020300A20202020352E3632303020202020302E3530303020202020302E303030302043202020302020302020322020312020302020302020302020302020302020302020302020300A20202020332E3733323120202020312E3539303020202020302E303030302043202020302020302020302020322020302020302020302020302020302020302020302020300A20202020322E3836363020202020312E3039303020202020302E303030302043202020302020302020302020302020302020302020302020302020302020302020302020300A20202020352E363230302020202D302E3530303020202020302E30303030204E202020302020302020302020312020302020302020302020302020302020302020302020300A20202020342E373534302020202D312E3030303020202020302E303030302043202020302020302020302020302020302020302020302020302020302020302020302020300A20202020332E383837392020202D302E3530303020202020302E303030302043202020302020302020302020332020302020302020302020302020302020302020302020300A20202020372E3335323020202020302E3530303020202020302E30303030204F202020302020302020302020302020302020302020302020302020302020302020302020300A20202020362E3438363020202020322E3030303020202020302E30303030204F202020302020302020302020312020302020302020302020302020302020302020302020300A20202020322E3836363020202020302E3039303020202020302E30303030204F202020302020302020302020302020302020302020302020302020302020302020302020300A20202020322E3030303020202020312E3539303020202020302E30303030204F202020302020302020302020312020302020302020302020302020302020302020302020300A20202020342E373534302020202D322E3030303020202020302E30303030204F202020302020302020302020302020302020302020302020302020302020302020302020300A2020322020352020312020312020302020302020300A2020322020312020312020302020302020302020300A2020312020382020322020302020302020302020300A2020322020332020312020302020302020302020300A2020342031302020322020302020302020302020300A2020342031312020312020302020302020302020300A2020332020342020312020302020302020302020300A2020312020392020312020302020302020302020300A2020352020362020312020302020302020302020300A2020362031322020322020302020302020302020300A2020362020372020312020302020302020302020300A4D2020454E44
Contributor: Tsuzimoto Y, Tsugawa H, Bamba T, Fukusaki E, engineering department, Osaka Univ.
InstType: EI
InstName: Pegasus II TOF-MS system, Leco; GC 6890, Agilent Technologies
IoniMethod: EI
IonPolarity: pos
Date: 2010-10-09 19:48:36+02:00
Num Peaks: 168
85 48 86 35 87 32 88 22 89 28 90 1 91 10 92 4 93 5 96 3 
97 1 98 27 99 30 100 172 101 60 102 52 103 36 104 4 105 6 108 1 
111 33 112 82 113 10 114 34 115 41 116 397 117 159 118 52 119 20 120 2 
121 2 123 1 125 1 126 5 127 3 128 16 129 116 130 168 131 69 132 31 
133 95 134 15 135 10 136 2 139 6 140 3 141 7 142 155 143 41 144 300 
145 53 146 41 147 441 148 77 149 63 150 3 151 2 155 8 156 11 157 15 
158 999 159 147 160 502 161 64 162 22 163 3 170 4 171 13 172 56 173 28 
174 12 175 5 182 1 183 1 184 24 185 13 186 104 187 18 188 7 190 2 
191 6 192 2 193 4 198 2 200 3 201 24 202 316 203 57 204 16 205 3 
206 1 209 1 214 114 215 15 216 7 217 46 218 7 219 3 220 2 228 1 
229 12 231 2 232 5 234 10 235 2 240 2 245 97 246 19 247 9 248 1 
257 1 259 1 262 1 263 2 273 1 275 48 276 32 277 11 278 5 296 2 
303 4 304 126 305 27 306 7 307 1 309 1 312 1 317 1 319 1 324 1 
328 1 333 1 340 1 341 1 344 1 354 1 360 1 369 1 381 2 387 1 
388 1 399 1 400 1 402 1 403 2 404 1 416 1 418 1 426 1 430 1 
432 1 437 1 439 1 444 1 448 1 452 2 453 2 463 1 465 2 468 2 
473 1 474 1 477 1 484 1 486 1 490 2 497 1 499 1 
