Name: L-Norleucine
CAS: 327-57-1
MW: 131
Formula: C6H13NO2
Synonym: KEGG: C01933
Synonym: CID: 21236
Synonym: MassBank: OUF00394
Synonym: L-Norleucine
Structure: 310A32320A3C4341535F49443E203332372D35372D31093C4B4547475F49443E20433031393333093C4E414D453E204C2D4E6F726C657563696E65093C464F524D554C413E2043364831334E4F32093C45584143544D4153533E203133312E303934363238363635093C415645524147454D4153533E203133312E3137323936093C534D494C45533E20434343435B4340485D284E2943284F293D4F093C434F505952494748543E2041524D2050524F4A45435420687474703A2F2F7777772E6D657461626F6C6F6D652E6A702F0A2020392020382020302020302020312020302020302020302020302020303939392056323030300A20202020352E343634312020202D302E3530303020202020302E303030302043202020302020302020302020302020302020302020302020302020302020302020302020300A20202020352E3436343120202020302E3530303020202020302E303030302043202020302020302020322020312020302020302020302020302020302020302020302020300A20202020342E3539383120202020312E3030303020202020302E303030302043202020302020302020302020322020302020302020302020302020302020302020302020300A20202020332E3733323120202020302E3530303020202020302E303030302043202020302020302020302020322020302020302020302020302020302020302020302020300A20202020322E3836363020202020312E3030303020202020302E303030302043202020302020302020302020322020302020302020302020302020302020302020302020300A20202020322E3030303020202020302E3530303020202020302E303030302043202020302020302020302020332020302020302020302020302020302020302020302020300A20202020362E3333303120202020312E3030303020202020302E30303030204E202020302020302020302020322020302020302020302020302020302020302020302020300A20202020342E353938312020202D312E3030303020202020302E30303030204F202020302020302020302020302020302020302020302020302020302020302020302020300A20202020362E333330312020202D312E3030303020202020302E30303030204F202020302020302020302020312020302020302020302020302020302020302020302020300A2020322020332020312020302020302020302020300A2020332020342020312020302020302020302020300A2020382020312020322020302020302020302020300A2020322020312020312020302020302020302020300A2020322020372020312020362020302020302020300A2020342020352020312020302020302020302020300A2020312020392020312020302020302020302020300A2020352020362020312020302020302020302020300A4D2020454E44
Contributor: Tsuzimoto Y, Tsugawa H, Bamba T, Fukusaki E, engineering department, Osaka Univ.
InstType: EI
InstName: Pegasus II TOF-MS system, Leco; GC 6890, Agilent Technologies
IoniMethod: EI
IonPolarity: pos
Date: 2010-10-09 19:48:36+02:00
Num Peaks: 64
85 7 86 76 87 9 88 4 89 2 94 2 95 2 96 4 97 2 98 10 
99 4 100 82 101 12 102 32 103 26 104 3 105 5 110 1 112 4 113 2 
114 28 115 22 116 5 117 13 118 4 119 6 126 2 128 20 129 6 130 18 
131 15 132 16 133 24 134 5 135 2 142 9 143 3 144 4 146 5 147 49 
148 7 149 5 156 5 157 2 158 999 159 145 160 46 161 5 170 17 171 4 
174 4 186 4 188 2 202 3 203 1 216 1 218 23 219 5 220 1 232 33 
233 11 234 4 260 10 261 2 
