Name: Serotonin
CAS: 50-67-9
MW: 176
Formula: C10H12N2O
Synonym: KEGG: C00780
Synonym: CID: 5202
Synonym: MassBank: OUF00457
Synonym: Serotonin
Structure: 4330303030313432392E6364780A20204368656D447261773132323630383139323132440A2031332031342020302020302020302020302020302020302020302020303939392056323030300A2020202D312E3135343620202020302E3038343520202020302E303030302043202020302020302020302020302020302020302020302020302020302020302020302020300A2020202D312E313534362020202D302E3437323420202020302E303030302043202020302020302020302020302020302020302020302020302020302020302020302020300A2020202D302E363732332020202D302E3735303820202020302E303030302043202020302020302020302020302020302020302020302020302020302020302020302020300A2020202D302E313930302020202D302E3437323420202020302E303030302043202020302020302020302020302020302020302020302020302020302020302020302020300A2020202D302E3139303020202020302E3038343520202020302E303030302043202020302020302020302020302020302020302020302020302020302020302020302020300A2020202D302E3637323320202020302E3336323920202020302E303030302043202020302020302020302020302020302020302020302020302020302020302020302020300A20202020302E333339362020202D302E3634343520202020302E30303030204E202020302020302020302020302020302020302020302020302020302020302020302020300A20202020302E363636392020202D302E3139333920202020302E303030302043202020302020302020302020302020302020302020302020302020302020302020302020300A20202020302E3333393620202020302E3235363620202020302E303030302043202020302020302020302020302020302020302020302020302020302020302020302020300A20202020302E3632343920202020302E3735303820202020302E303030302043202020302020302020302020302020302020302020302020302020302020302020302020300A20202020312E3137363720202020302E3735303820202020302E303030302043202020302020302020302020302020302020302020302020302020302020302020302020300A20202020312E3633353520202020302E3239323020202020302E30303030204E202020302020302020302020302020302020302020302020302020302020302020302020300A2020202D312E3633353520202020302E3336323220202020302E30303030204F202020302020302020302020302020302020302020302020302020302020302020302020300A2020312020322020322020302020202020200A2020322020332020312020302020202020200A2020332020342020322020302020202020200A2020342020352020312020302020202020200A2020352020362020322020302020202020200A2020362020312020312020302020202020200A2020342020372020312020302020202020200A2020372020382020312020302020202020200A2020382020392020322020302020202020200A2020392020352020312020302020202020200A2020392031302020312020302020202020200A2031302031312020312020302020202020200A2031312031322020312020302020202020200A2020312031332020312020302020202020200A4D2020454E44
Contributor: Tsuzimoto Y, Tsugawa H, Bamba T, Fukusaki E, engineering department, Osaka Univ.
InstType: EI
InstName: Pegasus II TOF-MS system, Leco; GC 6890, Agilent Technologies
IoniMethod: EI
IonPolarity: pos
Date: 2010-10-09 19:48:36+02:00
Num Peaks: 121
85 4 86 211 87 24 88 7 98 1 100 91 101 17 102 19 103 4 104 1 
106 1 113 1 114 3 115 7 116 7 117 18 118 2 119 3 121 2 127 1 
128 3 129 2 130 39 131 20 132 5 133 4 138 1 142 5 143 3 144 8 
145 5 146 17 147 10 148 1 154 2 156 3 157 1 158 10 160 3 168 1 
169 2 170 2 172 18 173 5 174 999 175 184 176 83 177 10 178 1 185 2 
186 9 187 1 188 2 190 1 194 1 200 2 201 2 202 23 203 5 204 3 
209 1 213 1 214 2 215 1 216 4 217 6 218 7 219 3 226 2 230 5 
231 2 232 2 233 4 234 1 235 2 236 2 243 1 245 1 246 2 248 2 
256 1 258 1 260 13 261 4 268 1 272 3 273 1 274 5 276 1 286 1 
287 2 288 5 289 5 290 37 291 19 292 6 293 2 296 1 299 1 300 1 
302 3 303 1 314 2 349 1 354 1 361 7 362 2 363 1 393 1 395 1 
404 1 447 1 448 1 449 6 450 6 464 4 465 3 466 1 488 1 496 1 
499 3 
