Name: Maleamic acid
CAS: 557-24-4
MW: 115
Formula: C4H5NO3
Synonym: KEGG: C01596
Synonym: CID: 5280451
Synonym: MassBank: OUF00335
Synonym: Maleamic acid
Structure: 310A32300A35353732342D30382D382E6D6F6C0A20204368656D447261773038303431303037343532440A2020382020372020302020302020302020302020302020302020302020303939392056323030300A20202020302E303032302020202D302E3832343020202020302E303030302043202020302020302020302020302020302020302020302020302020302020302020302020300A2020202D302E373135362020202D302E3431323520202020302E303030302043202020302020302020302020302020302020302020302020302020302020302020302020300A20202020302E373135362020202D302E3431323520202020302E30303030204E202020302020302020302020302020302020302020302020302020302020302020302020300A20202020302E303032302020202D312E3635303920202020302E30303030204F202020302020302020302020302020302020302020302020302020302020302020302020300A2020202D302E3731353620202020302E3431323520202020302E303030302043202020302020302020302020302020302020302020302020302020302020302020302020300A20202020302E3030323020202020302E3832363020202020302E303030302043202020302020302020302020302020302020302020302020302020302020302020302020300A20202020302E3731353620202020302E3431323520202020302E30303030204F202020302020302020302020302020302020302020302020302020302020302020302020300A20202020302E3030323020202020312E3635303920202020302E30303030204F202020302020302020302020302020302020302020302020302020302020302020302020300A2020312020322020312020302020202020200A2020312020332020312020302020202020200A2020312020342020322020302020202020200A2020322020352020322020302020202020200A2020352020362020312020302020202020200A2020362020372020312020302020202020200A2020362020382020322020302020202020200A4D2020454E44
Contributor: Tsuzimoto Y, Tsugawa H, Bamba T, Fukusaki E, engineering department, Osaka Univ.
InstType: EI
InstName: Pegasus II TOF-MS system, Leco; GC 6890, Agilent Technologies
IoniMethod: EI
IonPolarity: pos
Date: 2010-10-09 19:48:36+02:00
Num Peaks: 89
85 36 86 28 87 14 88 6 89 10 90 2 91 2 92 1 93 1 94 1 
95 1 96 5 97 9 98 31 99 22 100 80 101 23 102 15 103 14 104 2 
105 4 106 1 110 16 111 8 112 29 113 25 114 4 115 32 116 10 117 23 
118 3 119 6 120 1 124 6 125 3 126 40 127 31 128 12 129 37 130 9 
131 26 132 25 133 87 134 13 135 6 140 4 141 52 142 274 143 51 144 17 
145 3 146 7 147 999 148 164 149 144 150 19 151 4 154 171 155 21 156 11 
157 5 158 3 159 2 168 2 169 102 170 30 171 7 172 4 173 2 174 1 
200 1 201 2 213 1 214 13 215 4 216 4 217 1 228 105 229 27 230 10 
242 3 243 1 244 170 245 37 246 14 247 1 259 12 260 1 261 1 
