Name: Sinigrin
CAS: 534-69-0
MW: 359
Formula: C10H17NO9S2
Synonym: KEGG: C08427
Synonym: CID: 2723733
Synonym: MassBank: OUF00461
Synonym: Sinigrin
Structure: 310A34390A20204143442F4C6162733038303730393134353132440A2032322032322020302020302020312020302020302020302020302020302020312056323030300A20202031392E353234332020202D372E3137373020202020302E303030302043202020302020302020302020302020302020302020302020302020302020302020302020300A20202031382E383334362020202D372E3537303120202020302E30303030204F202020302020302020302020302020302020302020302020302020302020302020302020300A20202032302E323033362020202D372E3537333520202020302E303030302043202020302020302020302020302020302020302020302020302020302020302020302020300A20202031392E353130352020202D362E3331383320202020302E303030302053202020302020302020302020302020302020302020302020302020302020302020302020300A20202031382E383334362020202D382E3335393720202020302E303030302043202020302020302020302020302020302020302020302020302020302020302020302020300A20202032302E323030312020202D382E3336333220202020302E303030302043202020302020302020302020302020302020302020302020302020302020302020302020300A20202032302E383832392020202D372E3138333920202020302E30303030204F202020302020302020302020302020302020302020302020302020302020302020302020300A20202031392E353230382020202D342E3939303820202020302E303030302043202020302020302020302020302020302020302020302020302020302020302020302020300A20202031392E353230382020202D382E3735363320202020302E303030302043202020302020302020302020302020302020302020302020302020302020302020302020300A20202031382E313531392020202D382E3736363620202020302E303030302043202020302020302020302020302020302020302020302020302020302020302020302020300A20202032302E383739352020202D382E3736333220202020302E30303030204F202020302020302020302020302020302020302020302020302020302020302020302020300A20202032302E333430392020202D342E3337393020202020302E30303030204E202020302020302020302020302020302020302020302020302020302020302020302020300A20202031382E373635372020202D342E3535393720202020302E303030302043202020302020302020302020302020302020302020302020302020302020302020302020300A20202031392E353130352020202D392E3534353920202020302E30303030204F202020302020302020302020302020302020302020302020302020302020302020302020300A20202031372E343635372020202D382E3337373020202020302E30303030204F202020302020302020302020302020302020302020302020302020302020302020302020300A20202032312E343336382020202D332E3539343420202020302E30303030204F202020302020302020302020302020302020302020302020302020302020302020302020300A20202031382E303137342020202D342E3938333920202020302E303030302043202020302020302020302020302020302020302020302020302020302020302020302020300A20202032322E313738322020202D342E3135333020202020302E303030302053202020302020302020302020302020302020302020302020302020302020302020302020300A20202031372E303733342020202D342E3434393720202020302E303030302043202020302020302020302020302020302020302020302020302020302020302020302020300A20202032322E383139362020202D332E3432383920202020302E30303030204F202020302020302020302020302020302020302020302020302020302020302020302020300A20202032312E353139362020202D342E3833353820202020302E30303030204F202020302020302020302020302020302020302020302020302020302020302020302020300A20202032322E393437322020202D342E3633353820202020302E30303030204F202020302020302020302020302020302020302020302020302020302020302020302020300A2020312020322020312020302020302020302020300A2020312020332020312020302020302020302020300A2020312020342020312020312020302020302020300A2020322020352020312020302020302020302020300A2020332020362020312020302020302020302020300A2020332020372020312020362020302020302020300A2020342020382020312020302020302020302020300A2020352020392020312020302020302020302020300A2020352031302020312020312020302020302020300A2020362031312020312020312020302020302020300A2020382031322020322020302020302020302020300A2020382031332020312020302020302020302020300A2020392031342020312020362020302020302020300A2031302031352020312020302020302020302020300A2031322031362020312020302020302020302020300A2031332031372020312020302020302020302020300A2031362031382020312020302020302020302020300A2031372031392020322020302020302020302020300A2031382032302020322020302020302020302020300A2031382032312020322020302020302020302020300A2031382032322020312020302020302020302020300A2020362020392020312020302020302020302020300A4D2020454E44
Contributor: Tsuzimoto Y, Tsugawa H, Bamba T, Fukusaki E, engineering department, Osaka Univ.
InstType: EI
InstName: Pegasus II TOF-MS system, Leco; GC 6890, Agilent Technologies
IoniMethod: EI
IonPolarity: pos
Date: 2010-10-09 19:48:36+02:00
Num Peaks: 270
85 83 86 20 87 41 88 15 89 306 90 36 91 43 92 7 93 7 94 5 
95 10 96 5 97 24 98 23 99 98 100 23 101 97 102 28 103 574 104 59 
105 43 106 11 107 10 108 4 109 52 110 8 111 31 112 8 113 41 114 12 
115 44 116 46 117 278 118 34 119 63 120 8 121 7 122 1 123 2 124 3 
125 10 126 6 127 24 128 15 129 536 130 74 131 159 132 34 133 255 134 38 
135 37 136 6 137 4 138 2 139 22 140 15 141 23 142 18 143 93 144 16 
145 44 146 16 147 999 148 163 149 134 150 19 151 14 152 4 153 24 154 9 
155 88 156 233 157 132 158 28 159 23 160 6 161 23 162 5 163 23 164 5 
165 5 166 2 167 7 168 3 169 493 170 75 171 44 172 14 173 17 174 14 
175 17 176 7 177 15 178 4 179 3 180 1 181 11 182 3 183 27 184 5 
185 16 186 4 187 11 188 9 189 136 190 32 191 172 192 33 193 17 194 3 
195 2 196 1 197 2 198 2 199 16 200 4 201 11 202 6 203 36 204 89 
205 90 206 23 207 20 208 5 209 3 210 1 211 2 212 1 213 6 214 8 
215 17 216 7 217 475 218 118 219 54 220 16 221 24 222 7 223 4 224 1 
225 1 226 1 227 15 228 6 229 61 230 32 231 71 232 21 233 18 234 5 
235 3 236 6 237 2 238 1 239 3 240 2 241 22 242 10 243 200 244 59 
245 59 246 16 247 18 248 5 249 8 250 2 251 1 252 1 253 1 254 1 
255 9 256 6 257 19 258 7 259 15 260 7 261 7 262 4 263 3 264 1 
265 5 266 1 267 1 268 1 269 1 270 4 271 169 272 45 273 29 274 9 
275 6 276 2 277 3 278 3 279 5 280 2 281 1 282 1 285 1 286 1 
287 3 288 2 289 5 290 3 291 13 292 5 293 4 294 1 295 1 298 1 
300 1 302 1 303 8 304 7 305 18 306 8 307 5 308 2 309 1 312 1 
314 1 316 1 317 7 318 6 319 48 320 19 321 11 322 4 323 2 329 1 
330 2 331 37 332 21 333 14 334 6 335 3 336 1 337 1 343 1 345 9 
346 4 347 5 348 1 349 1 350 1 351 1 359 1 360 25 361 605 362 226 
363 106 364 27 365 7 366 2 370 2 371 1 377 3 378 2 379 2 393 1 
405 1 434 1 435 5 436 3 437 1 438 1 450 4 451 5 452 2 453 1 
