Name: 2-MethylHippurate
CAS: 42013-20-7
MW: 193
Formula: C10H11NO3
Synonym: CID: 91637
Synonym: MassBank: OUF00038
Synonym: 2-MethylHippurate
Structure: 310A33330A20204143442F4C6162733039333031303039313332440A2031342031342020302020302020302020302020302020302020302020302020312056323030300A20202031362E303131372020202D392E3834333620202020302E303030302043202020302020302020302020302020302020302020302020302020302020302020302020300A20202031362E3031313720202D31312E3137333620202020302E303030302043202020302020302020302020302020302020302020302020302020302020302020302020300A20202031342E383539382020202D392E3137383620202020302E303030302043202020302020302020302020302020302020302020302020302020302020302020302020300A20202031342E3835393820202D31312E3833383620202020302E303030302043202020302020302020302020302020302020302020302020302020302020302020302020300A20202031332E373038302020202D392E3834333620202020302E303030302043202020302020302020302020302020302020302020302020302020302020302020302020300A20202031332E3730383020202D31312E3137333620202020302E303030302043202020302020302020302020302020302020302020302020302020302020302020302020300A20202031372E313633352020202D392E3137383620202020302E303030302043202020302020302020302020302020302020302020302020302020302020302020302020300A20202031372E3136333520202D31312E3833383720202020302E303030302043202020302020302020302020302020302020302020302020302020302020302020302020300A20202031382E333135332020202D392E3834333620202020302E30303030204E202020302020302020302020302020302020302020302020302020302020302020302020300A20202031392E343637312020202D392E3137383620202020302E303030302043202020302020302020302020302020302020302020302020302020302020302020302020300A20202032302E363139302020202D392E3834333620202020302E303030302043202020302020302020302020302020302020302020302020302020302020302020302020300A20202032312E373730382020202D392E3137383620202020302E30303030204F202020302020302020302020302020302020302020302020302020302020302020302020300A20202032302E3631383920202D31312E3137333620202020302E30303030204F202020302020302020302020302020302020302020302020302020302020302020302020300A20202031372E313633352020202D372E3834383620202020302E30303030204F202020302020302020302020302020302020302020302020302020302020302020302020300A2020322020312020312020302020302020302020300A2020332020312020322020302020302020302020300A2020342020322020322020302020302020302020300A2020352020332020312020302020302020302020300A2020362020342020312020302020302020302020300A2020362020352020322020302020302020302020300A2020312020372020312020302020302020302020300A2020322020382020312020302020302020302020300A2020392020372020312020302020302020302020300A2031302020392020312020302020302020302020300A2031312031302020312020302020302020302020300A2031322031312020312020302020302020302020300A2031312031332020322020302020302020302020300A2020372031342020322020302020302020302020300A4D2020454E44
Contributor: Tsuzimoto Y, Tsugawa H, Bamba T, Fukusaki E, engineering department, Osaka Univ.
InstType: EI
InstName: Pegasus II TOF-MS system, Leco; GC 6890, Agilent Technologies
IoniMethod: EI
IonPolarity: pos
Date: 2010-10-09 19:48:36+02:00
Num Peaks: 131
85 4 86 16 87 19 88 14 89 97 90 112 91 437 92 43 93 5 94 1 
95 2 96 9 97 1 98 2 99 2 100 8 101 9 102 12 103 21 104 14 
105 16 106 3 107 1 108 1 109 1 113 1 114 2 115 2 116 24 117 20 
118 417 119 999 120 96 121 12 122 1 125 2 126 1 127 1 128 4 129 1 
130 19 131 8 132 17 133 5 134 2 135 2 136 2 138 1 144 1 145 3 
146 20 147 27 148 8 149 9 150 1 155 1 156 1 159 2 160 2 161 1 
162 5 163 2 166 1 167 1 169 1 174 2 175 84 176 11 177 25 178 5 
179 2 180 1 181 1 187 1 189 2 190 20 191 10 192 4 193 2 194 1 
195 1 197 1 198 1 203 1 204 21 205 8 206 149 207 35 208 10 209 1 
214 1 216 2 218 1 220 56 221 17 222 4 230 1 247 1 248 2 249 1 
250 42 251 13 252 3 255 1 256 1 265 69 266 27 267 5 268 1 276 1 
286 1 299 1 300 1 323 1 329 1 333 1 338 2 339 1 346 1 362 1 
378 1 394 1 401 1 402 1 412 1 424 1 436 1 445 1 456 1 479 1 
500 1 
