Name: 4-Hydroxyphenethyl alcohol
CAS: 501-94-0
MW: 138
Formula: C8H10O2
Synonym: KEGG: C06044
Synonym: CID: 10393
Synonym: MassBank: OUF00065
Synonym: 4-Hydroxyphenethyl alcohol
Structure: 31302031302020302020302020302020302020302020302020302020302020312056323030300A20202031372E3030303020202034392E3030303020202020302E303030302043202020302020302020302020302020302020302020302020302020302020300A20202020302E3030303020202033392E3030303020202020302E303030302043202020302020302020302020302020302020302020302020302020302020300A20202031372E3030303020202037302E3030303020202020302E30303030204F202020302020302020302020302020302020302020302020302020302020300A20202020302E3030303020202031392E3030303020202020302E303030302043202020302020302020302020302020302020302020302020302020302020300A20202D31372E3030303020202020392E3030303020202020302E303030302043202020302020302020302020302020302020302020302020302020302020300A20202031372E3030303020202020392E3030303020202020302E303030302043202020302020302020302020302020302020302020302020302020302020300A20202D31372E3030303020202D31312E3030303020202020302E303030302043202020302020302020302020302020302020302020302020302020302020300A20202031372E3030303020202D31312E3030303020202020302E303030302043202020302020302020302020302020302020302020302020302020302020300A20202020302E3030303020202D32312E3030303020202020302E303030302043202020302020302020302020302020302020302020302020302020302020300A20202020302E3030303020202D34312E3030303020202020302E30303030204F202020302020302020302020302020302020302020302020302020302020300A2020312020322020312020302020302020302020300A2020312020332020312020302020302020302020300A2020322020342020312020302020302020302020300A2020342020352020322020302020302020302020300A2020342020362020312020302020302020302020300A2020352020372020312020302020302020302020300A2020362020382020322020302020302020302020300A2020372020392020322020302020302020302020300A2020382020392020312020302020302020302020300A2020392031302020312020302020302020302020300A4D2020454E44
Contributor: Tsuzimoto Y, Tsugawa H, Bamba T, Fukusaki E, engineering department, Osaka Univ.
InstType: EI
InstName: Pegasus II TOF-MS system, Leco; GC 6890, Agilent Technologies
IoniMethod: EI
IonPolarity: pos
Date: 2010-10-09 19:48:36+02:00
Num Peaks: 96
85 8 86 1 87 6 88 8 89 28 90 16 91 49 92 5 93 4 95 9 
96 2 97 2 98 1 99 2 101 3 102 7 103 168 104 25 105 25 106 3 
107 7 108 1 109 5 110 1 111 3 115 22 116 5 117 31 118 4 119 12 
120 3 121 12 122 1 123 4 124 1 126 34 127 4 128 1 129 1 131 9 
132 2 133 17 134 5 135 27 136 4 137 5 138 1 143 2 145 6 146 2 
147 45 148 10 149 53 150 11 151 25 152 5 153 1 159 1 161 21 162 5 
163 32 164 17 165 5 166 2 175 6 176 2 177 36 178 8 179 999 180 152 
181 43 182 4 189 1 191 5 192 17 193 95 194 17 195 5 207 1 209 1 
221 1 235 1 249 4 250 2 251 1 252 2 267 57 268 17 269 6 270 1 
280 1 281 1 282 76 283 21 284 8 285 1 
