Name: Melibiose
CAS: 585-99-9
MW: 342
Formula: C12H22O11
Synonym: CID: 872
Synonym: MassBank: OUF00351
Synonym: Melibiose
Structure: 4330303030313134322E6364780A20204368656D447261773132323630383139313232440A2032332032342020302020302020302020302020302020302020302020303939392056323030300A2020202D312E3637323720202020312E3432303820202020302E303030302043202020302020302020302020302020302020302020302020302020302020302020302020300A2020202D312E3330313520202020302E3639383920202020302E303030302043202020302020302020302020302020302020302020302020302020302020302020302020300A2020202D302E3535393020202020302E3932353820202020302E303030302043202020302020302020302020302020302020302020302020302020302020302020302020300A20202020302E3236363020202020302E3637383320202020302E303030302043202020302020302020302020302020302020302020302020302020302020302020302020300A2020202D312E3035343020202020312E3235353820202020302E303030302043202020302020302020302020302020302020302020302020302020302020302020302020300A2020202D302E3339343020202020312E3530333320202020302E30303030204F202020302020302020302020302020302020302020302020302020302020302020302020300A2020202D312E3933373120202020302E3735343720202020302E30303030204F202020302020302020302020302020302020302020302020302020302020302020302020300A2020202D302E3234353320202020302E3338323520202020302E30303030204F202020302020302020302020302020302020302020302020302020302020302020302020300A2020202D312E3537383120202020312E3737333820202020302E30303030204F202020302020302020302020302020302020302020302020302020302020302020302020300A2020202D302E333131352020202D302E3634313720202020302E303030302043202020302020302020302020302020302020302020302020302020302020302020302020300A20202020302E303539382020202D312E3336333620202020302E303030302043202020302020302020302020302020302020302020302020302020302020302020302020300A20202020302E383032332020202D312E3133363720202020302E303030302043202020302020302020302020302020302020302020302020302020302020302020302020300A20202020312E353033352020202D312E3131363120202020302E303030302043202020302020302020302020302020302020302020302020302020302020302020302020300A20202020302E333037332020202D302E3830363720202020302E303030302043202020302020302020302020302020302020302020302020302020302020302020302020300A20202020302E393637332020202D302E3535393220202020302E30303030204F202020302020302020302020302020302020302020302020302020302020302020302020300A2020202D302E353735392020202D312E3330373820202020302E30303030204F202020302020302020302020302020302020302020302020302020302020302020302020300A20202020302E393834392020202D312E3831383220202020302E30303030204F202020302020302020302020302020302020302020302020302020302020302020302020300A20202020302E333037332020202D302E3335333020202020302E303030302043202020302020302020302020302020302020302020302020302020302020302020302020300A20202020312E393337312020202D302E3638323520202020302E30303030204F202020302020302020302020302020302020302020302020302020302020302020302020300A2020202D302E363936332020202D302E3734343820202020302E30303030204F202020302020302020302020302020302020302020302020302020302020302020302020300A20202020302E3238363620202020302E3038303220202020302E30303030204F202020302020302020302020302020302020302020302020302020302020302020302020300A2020202D302E3739343420202020312E3831383220202020302E303030302043202020302020302020302020302020302020302020302020302020302020302020302020300A2020202D302E3037393920202020312E3430353720202020302E30303030204F202020302020302020302020302020302020302020302020302020302020302020302020300A2020312020322020312020312020202020200A2020322020332020312020312020202020200A2020342020332020312020312020202020200A2020312020352020312020302020202020200A2020352020362020312020302020202020200A2020362020342020312020302020202020200A2020322020372020312020302020202020200A2020332020382020312020302020202020200A2020312020392020312020302020202020200A2031302031312020312020312020202020200A2031312031322020312020312020202020200A2031332031322020312020312020202020200A2031302031342020312020302020202020200A2031342031352020312020302020202020200A2031352031332020312020302020202020200A2031312031362020312020302020202020200A2031322031372020312020302020202020200A2031392031332020312020302020202020200A2031382031342020312020302020202020200A2031302032302020312020302020202020200A2020342032312020312020302020202020200A2032312031382020312020302020202020200A2020352032322020312020302020202020200A2032322032332020312020302020202020200A4D202053545920203120202031205355500A4D2020534C4220203120202031202020310A4D202053414C2020203120203220203232202032330A4D202053424C20202031202031202032330A4D2020534D5420202031204348324F480A4D2020534256202020312032332020202D322E3531323420202020332E343437350A4D2020454E44
Contributor: Tsuzimoto Y, Tsugawa H, Bamba T, Fukusaki E, engineering department, Osaka Univ.
InstType: EI
InstName: Pegasus II TOF-MS system, Leco; GC 6890, Agilent Technologies
IoniMethod: EI
IonPolarity: pos
Date: 2010-10-09 19:48:36+02:00
Num Peaks: 273
85 26 86 15 87 21 88 12 89 175 90 17 91 10 92 2 93 1 94 3 
95 6 96 5 97 18 98 6 99 24 100 64 101 131 102 48 103 512 104 51 
105 94 106 11 107 5 108 1 109 22 110 4 111 16 112 5 113 29 114 26 
115 34 116 71 117 240 118 28 119 24 120 3 121 3 123 2 124 2 125 5 
126 7 127 21 128 16 129 519 130 85 131 110 132 21 133 186 134 27 135 18 
136 2 137 1 138 2 139 10 140 5 141 18 142 30 143 87 144 17 145 33 
146 9 147 761 148 127 149 101 150 13 151 9 152 4 153 12 154 7 155 83 
156 19 157 82 158 22 159 19 160 345 161 162 162 32 163 33 164 6 165 3 
166 2 167 5 168 6 169 336 170 55 171 36 172 12 173 24 174 12 175 17 
176 3 177 16 178 4 179 3 180 2 181 5 182 3 183 14 184 3 185 7 
186 8 187 11 188 5 189 103 190 34 191 198 192 38 193 20 194 2 195 3 
196 4 197 4 198 3 199 12 200 5 201 10 202 5 203 42 204 999 205 253 
206 99 207 28 208 6 209 2 210 5 211 2 212 2 213 1 214 3 215 18 
216 25 217 544 218 141 219 64 220 13 221 30 222 8 223 5 225 1 226 1 
227 11 228 23 229 32 230 24 231 48 232 18 233 31 234 10 235 6 236 1 
239 1 240 3 241 12 242 8 243 112 244 37 245 33 246 23 247 23 248 7 
249 2 250 1 252 1 254 2 255 4 256 5 257 10 258 5 259 26 260 7 
261 5 262 11 263 6 264 2 265 6 266 2 267 1 268 5 269 9 270 7 
271 100 272 28 273 17 274 14 275 12 276 8 277 8 278 5 279 4 280 1 
281 1 283 1 285 1 286 1 287 1 288 2 289 4 290 2 291 29 292 10 
293 6 294 1 295 1 297 1 300 15 301 5 302 3 303 3 304 5 305 37 
306 18 307 24 308 8 309 3 313 1 315 1 316 1 317 13 318 11 319 79 
320 30 321 15 322 3 323 1 330 2 331 28 332 18 333 11 334 5 335 4 
336 1 337 1 343 1 345 5 346 3 347 2 348 1 349 3 358 1 359 3 
360 22 361 421 362 166 363 80 364 32 365 10 366 3 376 1 377 2 389 1 
390 19 391 8 392 4 393 3 394 1 408 1 409 3 410 2 411 1 435 1 
436 1 448 1 450 3 451 18 452 9 453 5 454 1 479 3 480 22 481 15 
482 7 483 3 484 1 
