Name: Fumaric acid
CAS: 110-17-8
MW: 116
Formula: C4H4O4
Synonym: MassBank: OUF00233
Synonym: Fumaric acid
Structure: 310A32300A4330303030313138332E6364780A20204368656D447261773132323630383139313332440A2020382020372020302020302020302020302020302020302020302020303939392056323030300A2020202D302E3831303320202020302E3136353420202020302E303030302043202020302020302020302020302020302020302020302020302020302020302020302020300A2020202D302E333130312020202D302E3132333420202020302E303030302043202020302020302020302020302020302020302020302020302020302020302020302020300A20202020302E3138383820202020302E3136343720202020302E303030302043202020302020302020302020302020302020302020302020302020302020302020302020300A20202020302E383236392020202D302E3230333720202020302E303030302043202020302020302020302020302020302020302020302020302020302020302020302020300A20202020312E3235363420202020302E3034343220202020302E30303030204F202020302020302020302020302020302020302020302020302020302020302020302020300A20202020302E383236392020202D302E3730313620202020302E30303030204F202020302020302020302020302020302020302020302020302020302020302020302020300A2020202D312E323536342020202D302E3039323220202020302E30303030204F202020302020302020302020302020302020302020302020302020302020302020302020300A2020202D302E3831303320202020302E3730313620202020302E30303030204F202020302020302020302020302020302020302020302020302020302020302020302020300A2020312020322020312020302020202020200A2020322020332020322020302020202020200A2020332020342020312020302020202020200A2020342020352020322020302020202020200A2020342020362020312020302020202020200A2020372020312020322020302020202020200A2020312020382020312020302020202020200A4D2020454E44
Contributor: Tsuzimoto Y, Tsugawa H, Bamba T, Fukusaki E, engineering department, Osaka Univ.
InstType: EI
InstName: Pegasus II TOF-MS system, Leco; GC 6890, Agilent Technologies
IoniMethod: EI
IonPolarity: pos
Date: 2010-10-09 19:48:36+02:00
Num Peaks: 94
85 50 86 9 87 12 88 2 89 16 90 1 91 2 92 2 93 7 94 1 
95 3 96 2 97 13 98 27 99 26 100 6 101 8 102 4 103 23 104 4 
105 10 107 1 108 1 111 6 112 2 113 34 114 5 115 132 116 15 117 31 
118 6 119 15 120 2 121 1 125 1 126 21 127 53 128 26 129 13 130 3 
131 30 132 12 133 176 134 25 135 18 136 1 141 5 142 12 143 288 144 35 
145 17 146 3 147 794 148 128 149 114 150 14 151 8 152 1 155 90 156 17 
157 47 158 8 159 11 160 2 161 2 170 18 171 19 172 4 173 15 174 3 
175 2 176 1 185 1 187 1 199 1 201 9 202 3 203 1 215 8 216 2 
217 48 218 15 219 7 220 2 230 2 231 1 242 4 243 1 244 6 245 999 
246 206 247 96 248 14 249 3 
