Name: Chlorogenic acid
CAS: 327-97-9
MW: 354
Formula: C16H18O9
Synonym: KEGG: C00852
Synonym: CID: 1794427
Synonym: MassBank: OUF00136
Synonym: Chlorogenic acid
Structure: 4330303030323732342E6364780A20204368656D447261773132323630383231313832440A2032382032392020302020302020302020302020302020302020302020303939392056323030300A2020202D322E3031383920202020302E3837333720202020302E30303030204F202020302020302020302020302020302020302020302020302020302020302020302020300A2020202D312E3537363520202020302E3438313820202020302E303030302043202020302020302020302020302020302020302020302020302020302020302020302020300A2020202D322E3034323320202020302E3231323920202020302E303030302043202020302020302020302020302020302020302020302020302020302020302020302020300A2020202D322E303432332020202D302E3332343920202020302E303030302043202020302020302020302020302020302020302020302020302020302020302020302020300A2020202D312E353736352020202D302E3539333820202020302E303030302043202020302020302020302020302020302020302020302020302020302020302020302020300A2020202D312E313130372020202D302E3332343920202020302E303030302043202020302020302020302020302020302020302020302020302020302020302020302020300A2020202D312E3131303720202020302E3231323920202020302E303030302043202020302020302020302020302020302020302020302020302020302020302020302020300A2020202D312E3331383120202020302E3932393420202020302E303030302043202020302020302020302020302020302020302020302020302020302020302020302020300A2020202D312E3439333920202020312E3233343020202020302E30303030204F202020302020302020302020302020302020302020302020302020302020302020302020300A2020202D302E3831323720202020302E3932393420202020302E30303030204F202020302020302020302020302020302020302020302020302020302020302020302020300A2020202D322E363037382020202D302E3332343920202020302E303030302048202020302020302020302020302020302020302020302020302020302020302020302020300A2020202D302E353938352020202D302E3436323220202020302E30303030204F202020302020302020302020302020302020302020302020302020302020302020302020300A2020202D322E333937382020202D302E3638303520202020302E30303030204F202020302020302020302020302020302020302020302020302020302020302020302020300A2020202D302E393536382020202D302E3839393320202020302E303030302048202020302020302020302020302020302020302020302020302020302020302020302020300A2020202D312E373438302020202D312E3233343020202020302E303030302048202020302020302020302020302020302020302020302020302020302020302020302020300A2020202D312E323638332020202D312E3132373620202020302E30303030204F202020302020302020302020302020302020302020302020302020302020302020302020300A2020202D302E313033372020202D302E3137363520202020302E303030302043202020302020302020302020302020302020302020302020302020302020302020302020300A20202020302E333936342020202D302E3436353320202020302E303030302043202020302020302020302020302020302020302020302020302020302020302020302020300A20202020302E383536372020202D302E3139393520202020302E303030302043202020302020302020302020302020302020302020302020302020302020302020302020300A20202020312E333230322020202D302E3436373120202020302E303030302043202020302020302020302020302020302020302020302020302020302020302020302020300A20202020312E333230322020202D302E3936333020202020302E303030302043202020302020302020302020302020302020302020302020302020302020302020302020300A20202020312E373439362020202D312E3231303920202020302E303030302043202020302020302020302020302020302020302020302020302020302020302020302020300A20202020322E313739312020202D302E3936333020202020302E303030302043202020302020302020302020302020302020302020302020302020302020302020302020300A20202020322E313739312020202D302E3436373120202020302E303030302043202020302020302020302020302020302020302020302020302020302020302020302020300A20202020312E373439362020202D302E3231393220202020302E303030302043202020302020302020302020302020302020302020302020302020302020302020302020300A20202020322E363037382020202D302E3231393620202020302E30303030204F202020302020302020302020302020302020302020302020302020302020302020302020300A20202020322E363037382020202D312E3231303520202020302E30303030204F202020302020302020302020302020302020302020302020302020302020302020302020300A2020202D302E3130333720202020302E3137333720202020302E30303030204F202020302020302020302020302020302020302020302020302020302020302020302020300A2020322020332020312020302020202020200A2020332020342020312020302020202020200A2020342020352020312020302020202020200A2020352020362020312020302020202020200A2020362020372020312020302020202020200A2020372020322020312020302020202020200A2020322020312020312020362020202020200A2020322020382020312020312020202020200A2020382020392020322020302020202020200A2020382031302020312020302020202020200A2020342031312020312020312020202020200A2020362031322020312020312020202020200A2020342031332020312020362020202020200A2020362031342020312020362020202020200A2020352031352020312020312020202020200A2020352031362020312020362020202020200A2031322031372020312020302020202020200A2031372031382020312020302020202020200A2031382031392020322020302020202020200A2031392032302020312020302020202020200A2032302032312020322020302020202020200A2032312032322020312020302020202020200A2032322032332020322020302020202020200A2032332032342020312020302020202020200A2032342032352020322020302020202020200A2032352032302020312020302020202020200A2032342032362020312020302020202020200A2032332032372020312020302020202020200A2031372032382020322020302020202020200A4D2020454E44
Contributor: Tsuzimoto Y, Tsugawa H, Bamba T, Fukusaki E, engineering department, Osaka Univ.
InstType: EI
InstName: Pegasus II TOF-MS system, Leco; GC 6890, Agilent Technologies
IoniMethod: EI
IonPolarity: pos
Date: 2010-10-09 19:48:36+02:00
Num Peaks: 286
85 16 87 18 88 17 89 36 91 72 92 14 93 72 94 5 95 26 96 7 
97 10 98 10 99 12 100 2 101 47 102 13 103 164 104 19 105 61 106 4 
109 6 110 6 111 11 113 8 114 3 115 85 116 27 117 85 118 6 119 56 
120 10 121 22 122 3 123 15 126 10 127 28 128 19 129 163 130 29 131 109 
132 24 133 237 134 34 135 61 137 22 139 24 140 6 141 40 142 30 143 121 
144 3 145 31 146 2 147 999 148 163 149 145 150 18 151 84 152 6 153 14 
154 6 155 33 156 21 157 24 159 10 160 13 161 27 162 5 163 39 164 11 
165 14 166 35 167 149 168 24 169 22 171 5 172 5 173 2 174 11 175 24 
176 9 177 22 179 13 180 3 181 29 182 36 183 84 184 18 185 9 187 7 
188 9 189 34 190 25 191 444 192 95 193 109 194 22 195 20 196 7 197 3 
199 3 201 14 202 9 203 25 204 52 205 25 207 30 208 7 209 11 210 1 
211 15 212 5 213 1 215 33 216 33 217 69 218 28 219 552 220 110 221 73 
222 11 223 30 224 11 225 20 226 6 227 2 229 4 230 59 231 18 232 5 
233 30 234 4 235 10 236 15 237 13 238 8 239 282 240 103 241 48 242 11 
243 35 244 16 245 4 246 8 247 9 249 33 250 5 251 10 252 1 253 3 
254 26 255 833 256 250 257 146 258 38 259 10 260 3 261 7 263 3 265 6 
266 3 267 47 268 10 269 17 271 3 274 6 275 8 276 6 277 20 279 18 
280 32 281 18 282 10 283 59 284 19 285 21 286 4 287 6 289 6 291 46 
292 68 293 57 294 10 296 7 297 13 298 1 299 23 300 7 301 1 302 4 
304 12 305 26 306 20 307 460 308 157 309 59 310 7 311 3 312 1 313 17 
314 9 315 11 317 3 319 2 320 5 321 6 323 9 324 212 325 69 326 22 
327 3 328 5 329 15 330 8 331 14 332 10 333 30 334 35 335 20 336 18 
338 15 341 2 344 36 345 674 346 299 347 129 348 45 349 12 350 4 352 6 
356 3 359 1 360 9 361 6 363 3 365 3 369 4 370 6 371 8 372 70 
373 24 374 15 378 6 381 26 382 12 384 2 385 9 386 1 388 1 389 3 
391 1 392 6 395 1 396 25 397 69 398 31 399 16 400 1 405 1 414 4 
418 2 419 7 424 7 425 2 428 3 429 7 434 7 438 2 440 10 443 6 
445 7 447 11 448 3 449 2 450 5 453 6 457 3 463 4 471 11 473 3 
485 5 488 8 494 1 496 5 497 2 500 2 
