Name: (+-)-Naringenin
CAS: 67604-48-2
MW: 272
Formula: C15H12O5
Synonym: KEGG: C00509
Synonym: CID: 439246
Synonym: MassBank: OUF00380
Synonym: (+-)-Naringenin
Structure: 310A34370A3C49443E20464C324641414E5330303031093C4B4E41705341634B5F49443E20433030303030393832093C4E414D453E204E6172696E67656E696E093C464F524D554C41284B4E41705341634B293E204331354831324F35093C4341535F49443E203438302D34312D31093C464F524D554C413E20433135483131484F35093C45584143544D4153533E203237322E303638343733343934093C415645524147454D4153533E203237322E3235323738303030303030303033093C534D494C45533E204F63286333296363632863332943285B485D29284331294F6328633229632863284F296363284F29322943283D4F2931093C434F505952494748543E204D455441424F4C4F4D455F4A5020687474703A2F2F7777772E6D657461626F6C6F6D652E6A702F0A2032302032322020302020302020302020302020302020302020302020303939392056323030300A2020202D332E3036363620202020302E3232393020202020302E303030302043202020302020302020302020302020302020302020302020302020302020302020302020300A2020202D332E303636362020202D302E3737313020202020302E303030302043202020302020302020302020312020302020302020302020302020302020302020302020300A2020202D322E323030342020202D312E3237313220202020302E303030302043202020302020302020302020302020302020302020302020302020302020302020302020300A2020202D312E333334342020202D302E3737313020202020302E303030302043202020302020302020302020302020302020302020302020302020302020302020302020300A2020202D312E3333343420202020302E3232393020202020302E303030302043202020302020302020302020302020302020302020302020302020302020302020302020300A2020202D322E3230303420202020302E3732393120202020302E303030302043202020302020302020302020312020302020302020302020302020302020302020302020300A2020202D302E343638322020202D312E3237313220202020302E303030302043202020302020302020302020302020302020302020302020302020302020302020302020300A20202020302E333937392020202D302E3737313020202020302E303030302043202020302020302020302020322020302020302020302020302020302020302020302020300A20202020302E3339373920202020302E3232393020202020302E303030302043202020302020302020322020312020302020302020302020302020302020302020302020300A2020202D302E3436383220202020302E3732393120202020302E30303030204F202020302020302020302020302020302020302020302020302020302020302020302020300A20202020312E3236333620202020302E3732383820202020302E303030302043202020302020302020302020302020302020302020302020302020302020302020302020300A20202020322E3135333720202020302E3231343820202020302E303030302043202020302020302020302020312020302020302020302020302020302020302020302020300A20202020332E3034343020202020302E3732383820202020302E303030302043202020302020302020302020312020302020302020302020302020302020302020302020300A20202020332E3034343020202020312E3735363720202020302E303030302043202020302020302020302020302020302020302020302020302020302020302020302020300A20202020322E3135333720202020322E3237303720202020302E303030302043202020302020302020302020312020302020302020302020302020302020302020302020300A20202020312E3236333620202020312E3735363720202020302E303030302043202020302020302020302020312020302020302020302020302020302020302020302020300A2020202D332E3933323220202020302E3732383820202020302E30303030204F202020302020302020302020312020302020302020302020302020302020302020302020300A20202020332E3933323220202020322E3236393520202020302E30303030204F202020302020302020302020312020302020302020302020302020302020302020302020300A2020202D302E343638322020202D322E3031393920202020302E30303030204F202020302020302020302020302020302020302020302020302020302020302020302020300A2020202D322E323030342020202D322E3237303720202020302E30303030204F202020302020302020302020312020302020302020302020302020302020302020302020300A2020312020322020322020302020302020302020300A2020322020332020312020302020302020302020300A2020332020342020322020302020302020302020300A2020342020352020312020302020302020302020300A2020352020362020322020302020302020302020300A2020362020312020312020302020302020302020300A2020342020372020312020302020302020302020300A2020372020382020312020302020302020302020300A2020382020392020312020302020302020302020300A2020392031302020312020302020302020302020300A2031302020352020312020302020302020302020300A2020392031312020312020362020302020302020300A2031312031322020322020302020302020302020300A2031322031332020312020302020302020302020300A2031332031342020322020302020302020302020300A2031342031352020312020302020302020302020300A2031352031362020322020302020302020302020300A2031362031312020312020302020302020302020300A2020332032302020312020302020302020302020300A2020312031372020312020302020302020302020300A2031342031382020312020302020302020302020300A2020372031392020322020302020302020302020300A4D2020454E44
Contributor: Tsuzimoto Y, Tsugawa H, Bamba T, Fukusaki E, engineering department, Osaka Univ.
InstType: EI
InstName: Pegasus II TOF-MS system, Leco; GC 6890, Agilent Technologies
IoniMethod: EI
IonPolarity: pos
Date: 2010-10-09 19:48:36+02:00
Num Peaks: 244
85 47 86 7 87 25 88 19 89 97 90 14 91 188 92 31 93 40 95 24 
96 31 97 26 98 7 99 134 100 31 101 33 102 38 103 89 104 6 105 97 
106 13 107 44 109 25 110 5 111 9 113 6 115 104 116 6 117 41 118 3 
119 58 120 6 121 57 122 14 123 39 124 4 125 34 126 14 128 5 129 31 
131 53 133 308 134 26 135 153 137 23 138 16 139 9 140 3 141 28 142 7 
143 39 145 36 146 16 147 315 148 74 149 131 150 42 151 154 152 49 153 22 
154 5 155 27 157 17 159 6 161 115 162 21 163 68 164 14 165 62 166 53 
167 41 168 7 169 9 170 15 171 26 172 1 173 12 175 56 176 24 177 407 
178 76 179 697 180 108 181 72 183 8 185 37 186 5 187 3 189 26 190 4 
191 35 192 210 193 92 194 51 195 35 197 23 201 6 203 18 204 1 205 7 
206 7 207 41 208 13 209 41 210 19 211 14 214 9 215 11 217 5 219 22 
220 23 221 19 222 40 223 31 224 20 225 33 227 2 229 156 230 49 235 64 
236 9 237 23 238 8 239 141 240 55 241 1 242 2 243 4 247 17 249 21 
250 13 251 4 252 27 253 60 254 19 255 2 257 2 259 10 263 4 264 7 
265 15 266 25 267 26 268 76 269 147 270 21 274 6 276 5 279 31 280 2 
281 144 282 53 283 45 284 15 285 1 288 4 290 12 291 12 293 8 294 7 
295 65 296 696 297 222 298 101 299 21 305 5 306 10 307 101 308 45 309 9 
310 10 311 26 312 2 313 5 316 7 317 7 321 6 322 10 323 77 324 27 
325 8 327 2 337 4 339 5 340 6 341 13 342 2 343 18 344 12 349 1 
351 11 354 3 355 5 362 3 368 15 369 17 370 33 371 11 373 16 374 3 
376 1 382 20 384 10 385 88 386 23 387 19 394 1 398 2 399 19 400 34 
401 17 415 23 416 15 434 4 435 2 443 17 445 1 447 1 455 2 456 19 
458 3 459 9 460 5 461 12 462 9 468 4 469 11 470 21 471 98 472 240 
473 999 474 478 475 188 476 72 477 8 478 9 486 9 487 117 488 87 489 21 
491 5 492 1 493 1 495 1 
