Name: Nicotinic acid
CAS: 59-67-6
MW: 123
Formula: C6H5NO2
Synonym: KEGG: C00253
Synonym: CID: 938
Synonym: MassBank: OUF00390
Synonym: Nicotinic acid
Structure: 310A32330A4330303030303230382E6364780A20204368656D447261773132323630383138343332440A2020392020392020302020302020302020302020302020302020302020303939392056323030300A2020202D312E3432383920202020302E3030303020202020302E303030302043202020302020302020302020302020302020302020302020302020302020302020302020300A2020202D312E343238392020202D302E3832353020202020302E303030302043202020302020302020302020302020302020302020302020302020302020302020302020300A2020202D302E373134352020202D312E3233373520202020302E30303030204E202020302020302020302020302020302020302020302020302020302020302020302020300A20202020302E303030302020202D302E3832353020202020302E303030302043202020302020302020302020302020302020302020302020302020302020302020302020300A20202020302E3030303020202020302E3030303020202020302E303030302043202020302020302020302020302020302020302020302020302020302020302020302020300A2020202D302E3731343520202020302E3431323520202020302E303030302043202020302020302020302020302020302020302020302020302020302020302020302020300A20202020302E3731343520202020302E3431323520202020302E303030302043202020302020302020302020302020302020302020302020302020302020302020302020300A20202020312E3432383920202020302E3030303020202020302E30303030204F202020302020302020302020302020302020302020302020302020302020302020302020300A20202020302E3731343520202020312E3233373520202020302E30303030204F202020302020302020302020302020302020302020302020302020302020302020302020300A2020312020322020322020302020202020200A2020322020332020312020302020202020200A2020332020342020322020302020202020200A2020342020352020312020302020202020200A2020352020362020322020302020202020200A2020362020312020312020302020202020200A2020352020372020312020302020202020200A2020372020382020322020302020202020200A2020372020392020312020302020202020200A4D2020454E44
Contributor: Tsuzimoto Y, Tsugawa H, Bamba T, Fukusaki E, engineering department, Osaka Univ.
InstType: EI
InstName: Pegasus II TOF-MS system, Leco; GC 6890, Agilent Technologies
IoniMethod: EI
IonPolarity: pos
Date: 2010-10-09 19:48:36+02:00
Num Peaks: 49
85 4 86 3 87 1 90 53 91 6 92 7 93 15 94 12 95 5 96 3 
97 1 99 1 104 3 105 32 106 782 107 61 108 10 109 14 110 6 119 1 
120 19 121 3 122 19 123 8 124 2 132 2 134 8 135 8 136 910 137 125 
138 39 139 3 150 6 151 2 152 1 153 1 162 5 164 6 165 2 166 1 
179 6 180 999 181 148 182 48 183 4 194 11 195 45 196 8 197 1 
