Name: Oxalacetic acid
CAS: 328-42-7
MW: 132
Formula: C4H4O5
Synonym: KEGG: C00036
Synonym: CID: 970
Synonym: MassBank: OUF00406
Synonym: Oxalacetic acid
Structure: 310A32320A4330303030313139372E6364780A20204368656D447261773132323630383139313432440A2020392020382020302020302020302020302020302020302020302020303939392056323030300A20202020302E313737352020202D302E3131323620202020302E303030302043202020302020302020302020302020302020302020302020302020302020302020302020300A20202020302E3637363420202020302E3137353520202020302E303030302043202020302020302020302020302020302020302020302020302020302020302020302020300A20202020302E3637363420202020302E3637303720202020302E30303030204F202020302020302020302020302020302020302020302020302020302020302020302020300A20202020312E333134352020202D302E3139323920202020302E30303030204F202020302020302020302020302020302020302020302020302020302020302020302020300A2020202D302E3332303220202020302E3137343820202020302E303030302043202020302020302020302020302020302020302020302020302020302020302020302020300A2020202D302E383138302020202D302E3131323620202020302E303030302043202020302020302020302020302020302020302020302020302020302020302020302020300A2020202D312E3331343520202020302E3137343120202020302E30303030204F202020302020302020302020302020302020302020302020302020302020302020302020300A2020202D302E383138302020202D302E3637303720202020302E30303030204F202020302020302020302020302020302020302020302020302020302020302020302020300A2020202D302E3332303220202020302E3635303020202020302E30303030204F202020302020302020302020302020302020302020302020302020302020302020302020300A2020312020322020312020302020202020200A2020322020332020322020302020202020200A2020322020342020312020302020202020200A2020312020352020312020302020202020200A2020352020362020312020302020202020200A2020362020372020312020302020202020200A2020362020382020322020302020202020200A2020352020392020322020302020202020200A4D2020454E44
Contributor: Tsuzimoto Y, Tsugawa H, Bamba T, Fukusaki E, engineering department, Osaka Univ.
InstType: EI
InstName: Pegasus II TOF-MS system, Leco; GC 6890, Agilent Technologies
IoniMethod: EI
IonPolarity: pos
Date: 2010-10-09 19:48:36+02:00
Num Peaks: 52
85 15 86 21 87 8 88 5 89 647 90 62 91 37 92 2 93 2 96 1 
98 12 99 224 100 187 101 34 102 9 103 16 104 1 113 2 114 33 115 322 
116 44 117 84 118 10 119 2 126 1 128 2 130 9 131 2 132 1 142 1 
143 20 144 5 145 1 146 2 157 1 158 73 159 26 160 4 161 1 174 999 
175 119 176 47 177 3 189 31 190 3 191 1 195 1 320 1 329 1 359 1 
367 1 471 1 
