Name: L-Homocitrulline
CAS: 1190-49-4
MW: 189
Formula: C7H15N3O3
Synonym: KEGG: C02427
Synonym: CID: 65072
Synonym: MassBank: OUF00047
Synonym: L-Homocitrulline
Structure: 313139302D34382D332E6D6F6C0A20204368656D447261773037323931303139343432440A2031332031322020302020302020302020302020302020302020302020303939392056323030300A20202020312E303738382020202D302E3235373620202020302E303030302043202020302020302020302020302020302020302020302020302020302020302020302020300A20202020312E3737343520202020302E3137393120202020302E303030302043202020302020302020302020302020302020302020302020302020302020302020302020300A20202020302E3333383720202020302E3131313220202020302E303030302043202020302020302020302020302020302020302020302020302020302020302020302020300A20202020322E353137332020202D302E3138393620202020302E303030302043202020302020302020302020302020302020302020302020302020302020302020302020300A20202020312E3733373920202020312E3031303920202020302E30303030204E202020302020302020302020302020302020302020302020302020302020302020302020300A2020202D302E333338362020202D302E3332353620202020302E303030302043202020302020302020302020302020302020302020302020302020302020302020302020300A20202020322E353539312020202D312E3031303920202020302E30303030204F202020302020302020302020302020302020302020302020302020302020302020302020300A20202020332E3231323920202020302E3234393820202020302E30303030204F202020302020302020302020302020302020302020302020302020302020302020302020300A2020202D312E3037363220202020302E3033353320202020302E303030302043202020302020302020302020302020302020302020302020302020302020302020302020300A2020202D312E373734352020202D302E3430343120202020302E30303030204E202020302020302020302020302020302020302020302020302020302020302020302020300A2020202D322E353134362020202D302E3033353320202020302E303030302043202020302020302020302020302020302020302020302020302020302020302020302020300A2020202D332E323132392020202D302E3437323120202020302E30303030204E202020302020302020302020302020302020302020302020302020302020302020302020300A2020202D322E3535393120202020302E3739313120202020302E30303030204F202020302020302020302020302020302020302020302020302020302020302020302020300A2020312020322020312020302020202020200A2020312020332020312020302020202020200A2020322020342020312020302020202020200A2020322020352020312020362020202020200A2020332020362020312020302020202020200A2020342020372020312020302020202020200A2020342020382020322020302020202020200A2020362020392020312020302020202020200A2020392031302020312020302020202020200A2031302031312020312020302020202020200A2031312031322020312020302020202020200A2031312031332020322020302020202020200A4D2020454E44
Contributor: Tsuzimoto Y, Tsugawa H, Bamba T, Fukusaki E, engineering department, Osaka Univ.
InstType: EI
InstName: Pegasus II TOF-MS system, Leco; GC 6890, Agilent Technologies
IoniMethod: EI
IonPolarity: pos
Date: 2010-10-09 19:48:36+02:00
Num Peaks: 95
85 53 86 33 87 4 88 4 89 4 90 1 97 14 98 33 99 116 100 130 
101 25 102 36 103 20 109 6 110 2 111 2 112 21 113 8 114 33 115 37 
116 29 117 13 125 4 126 12 127 24 128 99 129 17 130 18 131 21 132 18 
133 37 134 5 135 1 136 1 137 1 139 4 140 4 141 9 142 5 147 87 
148 16 149 7 153 14 154 20 155 138 156 55 157 20 158 28 159 3 166 1 
167 2 168 8 169 32 170 33 171 999 172 176 173 53 181 4 182 7 183 3 
184 5 186 4 187 1 192 2 200 2 206 1 218 27 219 3 227 1 229 2 
245 6 254 3 258 1 266 2 269 1 270 99 271 22 272 4 281 1 282 5 
283 1 333 1 344 1 363 1 372 2 373 1 387 10 388 5 400 1 420 1 
424 1 434 2 440 1 459 2 497 2 
