Name: D-Glucarate
CAS: 87-73-0
MW: 210
Formula: C6H10O8
Synonym: CID: 33037
Synonym: MassBank: OUF00169
Synonym: D-Glucarate
Structure: 38373732392D38392D332E6D6F6C0A20204368656D447261773038303531303131303732440A2031342031332020302020302020302020302020302020302020302020303939392056323030300A20202020302E3335363820202020302E3230323620202020302E303030302043202020302020302020302020302020302020302020302020302020302020302020302020300A2020202D302E333536382020202D302E3231313420202020302E303030302043202020302020302020302020302020302020302020302020302020302020302020302020300A2020202D312E3037303420202020302E3230323620202020302E303030302043202020302020302020302020302020302020302020302020302020302020302020302020300A20202020312E303730342020202D302E3231313420202020302E303030302043202020302020302020302020302020302020302020302020302020302020302020302020300A20202020312E3738333920202020302E3230323620202020302E303030302043202020302020302020302020302020302020302020302020302020302020302020302020300A2020202D312E373833392020202D302E3231313420202020302E303030302043202020302020302020302020302020302020302020302020302020302020302020302020300A20202020312E3738333920202020312E3033303720202020302E30303030204F202020302020302020302020302020302020302020302020302020302020302020302020300A2020202D312E373833392020202D312E3033303720202020302E30303030204F202020302020302020302020302020302020302020302020302020302020302020302020300A2020202D312E3037303420202020312E3033303720202020302E30303030204F202020302020302020302020302020302020302020302020302020302020302020302020300A20202020312E303730342020202D312E3033303720202020302E30303030204F202020302020302020302020302020302020302020302020302020302020302020302020300A2020202D302E333536382020202D312E3033303720202020302E30303030204F202020302020302020302020302020302020302020302020302020302020302020302020300A20202020302E3335363820202020312E3033303720202020302E30303030204F202020302020302020302020302020302020302020302020302020302020302020302020300A20202020322E343937352020202D302E3231313420202020302E30303030204F202020302020302020302020302020302020302020302020302020302020302020302020300A2020202D322E3439373520202020302E3230323620202020302E30303030204F202020302020302020302020302020302020302020302020302020302020302020302020300A2020322020312020312020302020202020200A2020342020312020312020302020202020200A2020312031322020312020362020202020200A2020332020322020312020302020202020200A2020322031312020312020362020202020200A2020362020332020312020302020202020200A2020332020392020312020312020202020200A2020352020342020312020302020202020200A2020342031302020312020362020202020200A2020372020352020322020302020202020200A2031332020352020312020302020202020200A2020382020362020322020302020202020200A2031342020362020312020302020202020200A4D2020454E44
Contributor: Tsuzimoto Y, Tsugawa H, Bamba T, Fukusaki E, engineering department, Osaka Univ.
InstType: EI
InstName: Pegasus II TOF-MS system, Leco; GC 6890, Agilent Technologies
IoniMethod: EI
IonPolarity: pos
Date: 2010-10-09 19:48:36+02:00
Num Peaks: 232
85 15 86 3 87 17 88 3 89 8 92 2 93 2 94 1 95 5 96 2 
99 19 100 5 101 30 102 88 103 92 104 8 105 6 107 1 109 2 110 1 
111 5 112 3 113 8 114 1 115 18 116 9 117 44 118 5 119 19 120 2 
126 1 127 13 128 3 129 72 130 44 131 101 132 16 133 180 134 24 135 13 
136 1 137 1 139 1 140 1 141 6 142 7 143 227 144 27 145 17 146 4 
147 999 148 170 149 113 150 13 151 5 154 1 155 4 156 2 157 9 159 6 
161 7 162 3 163 6 165 1 169 6 170 4 171 62 172 6 173 8 174 1 
175 13 176 2 177 7 183 7 185 1 187 3 189 148 190 36 191 60 192 10 
193 10 197 1 198 1 200 1 201 5 203 8 204 61 205 18 206 8 207 29 
208 5 209 3 210 2 211 2 214 1 215 5 216 3 217 127 218 26 219 62 
220 17 221 98 222 23 223 11 224 2 226 2 227 1 229 9 230 2 231 13 
232 2 233 2 237 3 238 1 241 1 242 2 244 2 245 23 246 5 247 2 
249 1 250 1 253 2 254 1 255 2 256 1 257 11 258 1 259 3 261 1 
263 4 264 3 265 2 268 1 270 1 271 1 277 43 278 21 279 9 280 5 
281 1 285 1 289 1 291 25 292 237 293 132 294 53 295 13 296 2 297 1 
299 1 301 1 303 1 304 4 305 86 306 51 307 23 308 7 309 2 312 2 
317 1 318 2 319 6 320 4 321 8 322 4 323 2 331 4 332 37 333 532 
334 360 335 148 336 46 337 8 338 1 339 1 345 10 346 8 347 5 348 1 
351 2 354 1 357 1 362 1 363 3 364 1 370 1 372 4 373 24 374 17 
375 7 376 2 377 1 379 5 380 3 381 4 382 1 385 1 390 2 391 1 
392 2 393 8 394 5 395 5 403 1 404 1 406 2 417 1 419 12 420 8 
421 5 422 8 423 23 424 19 425 10 426 1 427 1 433 1 435 8 436 9 
437 3 445 1 446 2 447 8 448 7 449 2 453 1 462 1 464 2 477 1 
493 1 497 1 
