Name: DL-Isocitric acid
CAS: 320-77-4
MW: 189
Formula: C6H5O7
Synonym: CID: 5460172
Synonym: MassBank: OUF00195
Synonym: DL-Isocitric acid
Structure: 33323737382D33352D312E6D6F6C0A20204368656D447261773036323130393133353432440A2031332031322020302020302020302020302020302020302020302020303939392056323030300A2020202D312E343433372020202D302E3731343520202020302E303030302043202020302020302020302020302020302020302020302020302020302020302020302020300A2020202D302E363138372020202D302E3731343520202020302E303030302043202020302020302020302020302020302020302020302020302020302020302020302020300A2020202D302E323036322020202D312E3432383920202020302E30303030204F202020302020302020302020302020302020302020302020302020302020302020302020300A2020202D302E3230363220202020302E3030303020202020302E303030302043202020302020302020302020302020302020302020302020302020302020302020302020300A2020202D302E3631383720202020302E3731343520202020302E303030302043202020302020302020302020302020302020302020302020302020302020302020302020300A20202020302E3631383720202020302E3030303020202020302E303030302043202020302020302020302020302020302020302020302020302020302020302020302020300A20202020312E303331332020202D302E3731343520202020302E303030302043202020302020302020302020302020302020302020302020302020302020302020302020300A2020202D312E3835363320202020302E3030303020202020302E30303030204F202020302020302020302020302020302020302020302020302020302020302020302020300A2020202D312E383536332020202D312E3432383920202020302E30303030204F202020302020352020302020302020302020302020302020302020302020302020302020300A2020202D312E3434333720202020302E3731343520202020302E30303030204F202020302020302020302020302020302020302020302020302020302020302020302020300A2020202D302E3230363220202020312E3432383920202020302E30303030204F202020302020352020302020302020302020302020302020302020302020302020302020300A20202020312E383536332020202D302E3731343520202020302E30303030204F202020302020302020302020302020302020302020302020302020302020302020302020300A20202020302E363138372020202D312E3432383920202020302E30303030204F202020302020352020302020302020302020302020302020302020302020302020302020300A2020312020322020312020302020202020200A2020322020332020312020302020202020200A2020322020342020312020302020202020200A2020342020352020312020302020202020200A2020342020362020312020302020202020200A2020362020372020312020302020202020200A2020312020382020322020302020202020200A2020312020392020312020302020202020200A2020352031302020322020302020202020200A2020352031312020312020302020202020200A2020372031322020322020302020202020200A2020372031332020312020302020202020200A4D20204348472020332020203920202D312020313120202D312020313320202D310A4D2020454E44
Contributor: Tsuzimoto Y, Tsugawa H, Bamba T, Fukusaki E, engineering department, Osaka Univ.
InstType: EI
InstName: Pegasus II TOF-MS system, Leco; GC 6890, Agilent Technologies
IoniMethod: EI
IonPolarity: pos
Date: 2010-10-09 19:48:36+02:00
Num Peaks: 209
85 24 86 4 87 13 88 11 89 11 90 2 91 1 92 4 93 17 94 3 
95 60 96 6 97 12 98 6 99 24 100 6 101 23 102 14 103 28 104 4 
105 9 106 2 108 1 109 1 110 3 111 10 112 3 113 52 114 8 115 19 
116 43 117 59 118 10 119 20 120 2 121 2 125 3 126 1 127 12 128 16 
129 109 130 18 131 78 132 14 133 184 134 27 135 22 136 3 137 1 139 17 
140 2 141 14 142 5 143 100 144 12 145 12 146 3 147 999 148 160 149 161 
150 22 151 11 152 1 154 1 155 6 156 13 157 62 158 9 159 9 160 1 
161 12 162 6 163 7 164 1 169 13 170 3 171 17 172 3 173 8 174 1 
175 3 176 1 177 18 178 3 179 2 180 1 183 7 184 3 185 23 186 4 
187 5 188 1 189 13 190 6 191 48 192 10 193 7 194 1 199 1 201 6 
202 3 203 20 204 54 205 18 206 7 207 16 208 3 209 2 211 76 212 14 
213 36 214 6 215 14 216 5 217 47 218 10 219 10 220 4 221 53 222 13 
223 8 224 1 227 1 228 1 229 12 230 6 231 14 232 3 233 1 237 1 
243 4 244 3 245 280 246 100 247 37 248 8 249 2 256 1 257 9 258 4 
259 18 260 4 261 4 262 1 263 1 265 6 266 2 267 1 271 1 272 15 
273 314 274 78 275 34 276 7 277 1 285 33 286 8 287 9 288 1 289 1 
291 3 292 2 293 1 301 5 302 1 303 16 304 6 305 25 306 8 307 3 
318 9 319 106 320 49 321 22 322 7 323 1 331 2 333 3 334 4 335 2 
336 1 346 4 347 67 348 25 349 13 350 3 351 1 362 6 363 41 364 16 
365 8 366 1 374 6 375 75 376 28 377 17 378 5 379 1 390 11 391 5 
392 2 393 1 464 5 465 30 466 17 467 9 468 3 480 3 481 1 
