Name: Methyl Dopa
CAS: 555-30-6
MW: 211
Formula: C10H13NO4
Synonym: KEGG: C07194
Synonym: CID: 38853
Synonym: MassBank: OUF00355
Synonym: Methyl Dopa
Structure: 310A33350A20204143442F4C6162733035313430373233333432440A2031352031352020302020302020312020302020302020302020302020302020312056323030300A20202020382E3730323220202D31312E3138313820202020302E303030302043202020302020302020302020302020302020302020302020302020302020302020302020300A20202020392E3835343020202D31302E3531363820202020302E303030302043202020302020302020302020302020302020302020302020302020302020302020302020300A20202020382E3730323220202D31322E3531313920202020302E303030302043202020302020302020302020302020302020302020302020302020302020302020302020300A20202031312E3030353920202D31312E3138313920202020302E303030302043202020302020302020302020302020302020302020302020302020302020302020302020300A20202020392E3835343020202D31332E3137363820202020302E303030302043202020302020302020302020302020302020302020302020302020302020302020302020300A20202031312E3030353820202D31322E3531313920202020302E303030302043202020302020302020302020302020302020302020302020302020302020302020302020300A20202020392E3835343020202D31342E3530363820202020302E30303030204F202020302020302020302020302020302020302020302020302020302020302020302020300A20202031322E3135373620202D31332E3137363920202020302E30303030204F202020302020302020302020302020302020302020302020302020302020302020302020300A20202020372E3535303420202D31302E3531363820202020302E303030302043202020302020302020302020302020302020302020302020302020302020302020302020300A20202020372E353530342020202D392E3138363820202020302E303030302043202020302020302020302020302020302020302020302020302020302020302020302020300A20202020372E353530342020202D372E3835363820202020302E303030302043202020302020302020302020302020302020302020302020302020302020302020302020300A20202020382E383830342020202D392E3138363820202020302E303030302043202020302020302020302020302020302020302020302020302020302020302020302020300A20202020362E323230342020202D392E3138363820202020302E30303030204E202020302020302020302020302020302020302020302020302020302020302020302020300A20202020382E373032322020202D372E3139313820202020302E30303030204F202020302020302020302020302020302020302020302020302020302020302020302020300A20202020362E333938362020202D372E3139313820202020302E30303030204F202020302020302020302020302020302020302020302020302020302020302020302020300A2020322020312020312020302020302020302020300A2020332020312020322020302020302020302020300A2020342020322020322020302020302020302020300A2020352020332020312020302020302020302020300A2020362020342020312020302020302020302020300A2020362020352020322020302020302020302020300A2020352020372020312020302020302020302020300A2020362020382020312020302020302020302020300A2020312020392020312020302020302020302020300A2031302020392020312020362020302020302020300A2031302031312020312020362020302020302020300A2031302031322020312020312020302020302020300A2031302031332020312020312020302020302020300A2031312031342020322020302020302020302020300A2031312031352020312020302020302020302020300A4D2020454E44
Contributor: Tsuzimoto Y, Tsugawa H, Bamba T, Fukusaki E, engineering department, Osaka Univ.
InstType: EI
InstName: Pegasus II TOF-MS system, Leco; GC 6890, Agilent Technologies
IoniMethod: EI
IonPolarity: pos
Date: 2010-10-09 19:48:36+02:00
Num Peaks: 147
85 2 86 1 87 4 88 1 89 4 90 1 91 6 92 1 93 1 95 1 
97 1 98 2 99 4 100 22 101 4 102 4 103 14 104 10 105 9 106 1 
113 2 114 330 115 51 116 24 117 12 118 3 119 10 120 1 121 1 128 2 
129 4 130 4 131 24 132 14 133 33 134 6 135 5 136 1 142 2 143 2 
144 25 145 6 146 9 147 136 148 25 149 30 150 6 151 3 158 2 159 2 
160 14 161 7 162 3 163 10 164 2 165 4 166 1 167 1 172 5 173 3 
174 28 175 7 176 3 177 5 178 2 179 94 180 18 181 7 182 1 188 9 
189 4 190 3 191 6 192 2 193 5 194 1 195 3 196 1 202 1 203 1 
204 1 205 4 206 1 207 3 208 1 209 3 210 1 216 3 217 9 218 4 
219 2 220 1 221 1 222 1 223 2 231 3 232 999 233 237 234 99 235 17 
236 4 237 7 238 2 239 1 248 1 251 1 252 1 253 1 264 1 265 2 
267 25 268 17 269 7 270 1 293 1 294 23 295 14 296 4 297 1 304 1 
305 2 306 1 311 1 320 1 353 1 368 1 369 1 381 1 382 15 383 12 
384 5 385 1 393 1 394 10 395 8 396 3 397 1 455 1 456 8 457 8 
458 5 459 2 483 1 484 7 485 6 486 3 487 1 
