Name: Ketoisoleucine
CAS: 1460-34-0
MW: 130
Formula: C6H10O3
Synonym: KEGG: C03465
Synonym: CID: 47
Synonym: MassBank: OUF00286
Synonym: Ketoisoleucine
Structure: 310A32320A20204143442F4C6162733037313430393130333833440A2020392020382020302020302020302020302020302020302020302020302020312056323030300A20202031352E3738313420202D31332E3938313120202020302E303030302043202020302020302020302020302020302020302020302020302020302020302020302020300A20202031362E3933323720202D31342E3634363820202020302E303030302043202020302020302020302020302020302020302020302020302020302020302020302020300A20202031382E3039323820202D31332E3938353520202020302E303030302043202020302020302020302020302020302020302020302020302020302020302020302020300A20202031382E3039333620202D31322E3635353520202020302E303030302043202020302020302020302020302020302020302020302020302020302020302020302020300A20202031392E3234343420202D31342E3635313220202020302E303030302043202020302020302020302020302020302020302020302020302020302020302020302020300A20202032302E3339353720202D31332E3938373020202020302E303030302043202020302020302020302020302020302020302020302020302020302020302020302020300A20202032312E3534373620202D31342E3635323020202020302E30303030204F202020302020302020302020302020302020302020302020302020302020302020302020300A20202032302E3339353820202D31322E3635363920202020302E30303030204F202020302020302020302020302020302020302020302020302020302020302020302020300A20202031392E3234333620202D31352E3938313120202020302E30303030204F202020302020302020302020302020302020302020302020302020302020302020302020300A2020312020322020312020302020302020302020300A2020322020332020312020302020302020302020300A2020332020342020312020302020302020302020300A2020332020352020312020302020302020302020300A2020352020362020312020302020302020302020300A2020352020392020322020302020302020302020300A2020362020372020312020302020302020302020300A2020362020382020322020302020302020302020300A4D2020454E44
Contributor: Tsuzimoto Y, Tsugawa H, Bamba T, Fukusaki E, engineering department, Osaka Univ.
InstType: EI
InstName: Pegasus II TOF-MS system, Leco; GC 6890, Agilent Technologies
IoniMethod: EI
IonPolarity: pos
Date: 2010-10-09 19:48:36+02:00
Num Peaks: 75
85 169 86 59 87 11 88 11 89 999 90 87 91 51 92 3 93 3 94 9 
95 2 96 3 97 7 98 29 99 54 100 50 101 8 102 2 103 12 104 2 
105 11 106 1 109 1 110 120 111 11 112 17 113 201 114 136 115 27 116 62 
117 34 118 7 119 1 126 20 127 11 128 22 129 18 130 5 131 2 133 1 
140 19 141 7 142 7 143 6 144 3 145 2 147 1 154 5 155 1 156 30 
157 7 158 11 159 1 160 2 166 1 172 107 173 20 174 8 175 1 182 1 
183 1 184 5 185 2 187 1 189 205 190 29 191 9 200 174 201 29 202 6 
203 79 204 11 205 2 216 29 217 3 
