Name: L-(+)-Lactic acid
CAS: 79-33-4
MW: 90
Formula: C3H6O3
Synonym: KEGG: C00186
Synonym: CID: 107689
Synonym: MassBank: OUF00314
Synonym: L-(+)-Lactic acid
Structure: 310A31380A4330303030313139312E6364780A20204368656D447261773132323630383139313432440A2020372020362020302020302020302020302020302020302020302020303939392056323030300A2020202D302E3831383620202020302E3233303620202020302E303030302043202020302020302020302020302020302020302020302020302020302020302020302020300A2020202D302E333138352020202D302E3035383220202020302E303030302043202020302020302020302020302020302020302020302020302020302020302020302020300A20202020302E3138303520202020302E3232393920202020302E303030302043202020302020302020302020302020302020302020302020302020302020302020302020300A20202020302E3138303520202020302E3732353120202020302E30303030204F202020302020302020302020302020302020302020302020302020302020302020302020300A20202020302E383138362020202D302E3133383520202020302E30303030204F202020302020302020302020302020302020302020302020302020302020302020302020300A20202020302E303230372020202D302E3634353620202020302E30303030204F202020302020302020302020302020302020302020302020302020302020302020302020300A2020202D302E343937322020202D302E3732353120202020302E303030302048202020302020302020302020302020302020302020302020302020302020302020302020300A2020312020322020312020302020202020200A2020322020332020312020302020202020200A2020332020342020322020302020202020200A2020332020352020312020302020202020200A2020322020362020312020312020202020200A2020322020372020312020362020202020200A4D2020454E44
Contributor: Tsuzimoto Y, Tsugawa H, Bamba T, Fukusaki E, engineering department, Osaka Univ.
InstType: EI
InstName: Pegasus II TOF-MS system, Leco; GC 6890, Agilent Technologies
IoniMethod: EI
IonPolarity: pos
Date: 2010-10-09 19:48:36+02:00
Num Peaks: 60
85 6 86 11 87 46 88 99 89 18 90 1 91 2 92 1 93 1 94 5 
95 1 99 4 100 8 101 61 102 40 103 32 104 5 105 12 106 1 107 1 
113 3 115 24 116 17 117 933 118 102 119 49 120 4 121 1 129 20 130 32 
131 61 132 12 133 107 134 15 135 9 136 1 143 1 144 1 145 2 146 1 
147 999 148 161 149 86 150 9 151 2 174 30 175 11 176 3 177 1 189 6 
190 127 191 164 192 45 193 15 194 3 203 6 204 1 219 59 220 12 221 5 
