Name: 1-Methyl Histidine
CAS: 332-80-9
MW: 169
Formula: C7H11N3O2
Synonym: CID: 352019
Synonym: MassBank: OUF00008
Synonym: 1-Methyl Histidine
Structure: 310A32390A20204143442F4C6162733039333031303038353432440A2031322031322020302020302020302020302020302020302020302020302020312056323030300A20202031392E303338392020202D362E3935313920202020302E303030302043202020302020302020302020302020302020302020302020302020302020302020302020300A20202031392E343530322020202D382E3231363420202020302E303030302043202020302020302020302020302020302020302020302020302020302020302020302020300A20202032312E363938332020202D342E3634383620202020302E303030302043202020302020302020302020302020302020302020302020302020302020302020302020300A20202032312E303333382020202D352E3830303420202020302E303030302043202020302020302020302020302020302020302020302020302020302020302020302020300A20202031372E323938362020202D382E3231363420202020302E303030302043202020302020302020302020302020302020302020302020302020302020302020302020300A20202031392E373033392020202D352E3830303420202020302E303030302043202020302020302020302020302020302020302020302020302020302020302020302020300A20202031382E3337343420202D31302E3332383520202020302E303030302043202020302020302020302020302020302020302020302020302020302020302020302020300A20202031382E333734342020202D382E3939383520202020302E30303030204E202020302020302020302020302020302020302020302020302020302020302020302020300A20202031372E373039352020202D362E3935313920202020302E30303030204E202020302020302020302020302020302020302020302020302020302020302020302020300A20202032312E363938332020202D362E3935313920202020302E30303030204E202020302020302020302020302020302020302020302020302020302020302020302020300A20202032332E303238332020202D342E3634383620202020302E30303030204F202020302020302020302020302020302020302020302020302020302020302020302020300A20202032312E303333382020202D332E3439363920202020302E30303030204F202020302020302020302020302020302020302020302020302020302020302020302020300A2020352020392020322020302020302020302020300A2020382020352020312020302020302020302020300A2020322020312020322020302020302020302020300A2020312020392020312020302020302020302020300A2020382020322020312020302020302020302020300A2020312020362020312020302020302020302020300A2020382020372020312020302020302020302020300A2020362020342020312020302020302020302020300A2020342020332020312020302020302020302020300A2020342031302020312020302020302020302020300A2020332031312020312020302020302020302020300A2020332031322020322020302020302020302020300A4D2020454E44
Contributor: Tsuzimoto Y, Tsugawa H, Bamba T, Fukusaki E, engineering department, Osaka Univ.
InstType: EI
InstName: Pegasus II TOF-MS system, Leco; GC 6890, Agilent Technologies
IoniMethod: EI
IonPolarity: pos
Date: 2010-10-09 19:48:36+02:00
Num Peaks: 102
85 7 86 15 87 1 88 5 91 1 93 6 95 79 96 999 97 265 98 20 
99 2 100 115 101 16 102 4 103 10 104 1 106 4 107 5 109 9 110 3 
111 1 112 22 113 1 115 3 116 1 117 4 119 2 120 2 121 2 122 2 
123 2 124 27 125 5 126 6 130 8 131 5 132 17 133 17 134 3 135 5 
137 1 139 11 141 4 147 57 148 10 149 10 151 1 153 5 155 1 159 4 
164 5 165 5 166 2 167 11 168 46 169 9 174 1 179 4 180 91 181 32 
182 4 183 1 186 1 195 4 196 347 197 66 198 14 199 17 200 1 203 2 
206 1 208 20 217 1 218 75 219 17 220 9 223 2 224 1 240 2 241 1 
251 1 257 2 270 10 271 1 272 1 281 1 296 1 298 5 299 2 306 1 
308 1 313 4 314 3 326 1 328 1 331 1 342 1 352 1 381 2 418 2 
476 1 483 1 
