Name: Sarcosine
CAS: 107-97-1
MW: 103
Formula: C4H9NO2
Synonym: CID: 111314
Synonym: MassBank: OUF00452
Synonym: Sarcosine
Structure: 310A31380A2020372020362020302020302020302020302020302020302020302020302020312056323030300A20202031372E3030303020202031392E3030303020202020302E303030302043202020302020302020302020302020302020302020302020302020302020300A20202020302E3030303020202031302E3030303020202020302E303030302043202020302020302020302020302020302020302020302020302020302020300A20202031372E3030303020202033392E3030303020202020302E303030302043202020302020302020302020302020302020302020302020302020302020300A20202033352E3030303020202031302E3030303020202020302E30303030204E202020302020302020302020302020302020302020302020302020302020300A20202D31372E3030303020202031392E3030303020202020302E30303030204F202020302020302020302020302020302020302020302020302020302020300A20202020302E3030303020202D31302E3030303020202020302E30303030204F202020302020302020302020302020302020302020302020302020302020300A20202D33352E3030303020202031302E3030303020202020302E303030302043202020302020302020302020302020302020302020302020302020302020300A2020312020322020312020302020302020302020300A2020312020332020312020302020302020302020300A2020312020342020312020302020302020302020300A2020322020352020312020302020302020302020300A2020322020362020322020302020302020302020300A2020352020372020312020302020302020302020300A4D2020454E44
Contributor: Tsuzimoto Y, Tsugawa H, Bamba T, Fukusaki E, engineering department, Osaka Univ.
InstType: EI
InstName: Pegasus II TOF-MS system, Leco; GC 6890, Agilent Technologies
IoniMethod: EI
IonPolarity: pos
Date: 2010-10-09 19:48:36+02:00
Num Peaks: 45
85 1 86 29 87 13 88 9 89 3 94 2 99 1 100 14 101 13 102 12 
103 20 104 2 105 4 113 1 114 6 115 8 116 999 117 123 118 43 119 8 
120 1 131 17 132 3 133 17 134 3 135 1 144 15 145 2 146 5 147 198 
148 32 149 16 150 1 151 2 161 2 175 5 190 39 191 8 192 3 204 1 
218 20 219 4 220 1 233 13 234 2 
