Name: N-FormylGlycine
CAS: 2491-15-8
MW: 103
Formula: C3H5NO3
Synonym: CID: 75606
Synonym: MassBank: OUF00386
Synonym: N-FormylGlycine
Structure: 310A31380A32343931302D36332D322E6D6F6C0A20204368656D447261773038303231303137353132440A2020372020362020302020302020302020302020302020302020302020303939392056323030300A2020202D302E3333313720202020302E3534313420202020302E303030302043202020302020302020302020302020302020302020302020302020302020302020302020300A2020202D312E3037303020202020302E3137333320202020302E303030302043202020302020302020302020302020302020302020302020302020302020302020302020300A20202020302E3333373620202020302E3039343520202020302E30303030204E202020302020302020302020302020302020302020302020302020302020302020302020300A2020202D312E313137322020202D302E3633303020202020302E30303030204F202020302020302020302020302020302020302020302020302020302020302020302020300A2020202D312E3735393120202020302E3633303020202020302E30303030204F202020302020302020302020302020302020302020302020302020302020302020302020300A20202020312E3037303020202020302E3436323720202020302E303030302043202020302020302020302020302020302020302020302020302020302020302020302020300A20202020312E3735393120202020302E3030373920202020302E30303030204F202020302020302020302020302020302020302020302020302020302020302020302020300A2020312020322020312020302020202020200A2020312020332020312020302020202020200A2020322020342020312020302020202020200A2020322020352020322020302020202020200A2020332020362020312020302020202020200A2020362020372020322020302020202020200A4D2020454E44
Contributor: Tsuzimoto Y, Tsugawa H, Bamba T, Fukusaki E, engineering department, Osaka Univ.
InstType: EI
InstName: Pegasus II TOF-MS system, Leco; GC 6890, Agilent Technologies
IoniMethod: EI
IonPolarity: pos
Date: 2010-10-09 19:48:36+02:00
Num Peaks: 79
85 17 86 50 87 25 88 15 89 14 90 2 91 2 92 4 93 3 95 4 
98 124 99 18 100 93 101 42 102 267 103 57 104 19 105 13 106 1 109 5 
112 1 113 5 114 7 115 30 116 32 117 111 118 15 119 15 120 1 128 2 
129 40 130 570 131 118 132 47 133 100 134 16 135 8 142 21 143 3 144 2 
145 1 146 2 147 999 148 168 149 91 150 11 151 2 156 1 157 84 158 14 
159 5 160 15 161 2 162 2 163 19 164 2 165 1 174 3 175 1 176 46 
177 18 178 6 179 1 188 92 189 25 190 13 191 3 203 28 204 273 205 70 
206 29 207 5 219 3 232 163 233 35 234 16 235 1 247 13 248 2 
