Name: N-Acetyl-Serotonin
CAS: 1210-83-9
MW: 218
Formula: C12H14N2O2
Synonym: KEGG: C00978
Synonym: CID: 903
Synonym: MassBank: OUF00378
Synonym: N-Acetyl-Serotonin
Structure: 3132313038332D30352D342E6D6F6C0A20204368656D447261773037323931303139353132440A2031362031372020302020302020302020302020302020302020302020303939392056323030300A20202020312E3330313420202020302E3037393920202020302E303030302043202020302020302020302020302020302020302020302020302020302020302020302020300A20202020312E3734393520202020302E3737333520202020302E303030302043202020302020302020302020302020302020302020302020302020302020302020302020300A20202020302E3530323920202020302E3238373220202020302E303030302043202020302020302020302020302020302020302020302020302020302020302020302020300A20202020312E363830342020202D302E3634343720202020302E303030302043202020302020302020302020302020302020302020302020302020302020302020302020300A20202020312E3232353220202020312E3431343620202020302E30303030204E202020302020302020302020302020302020302020302020302020302020302020302020300A20202020322E3537313920202020302E3733353320202020302E303030302043202020302020302020302020302020302020302020302020302020302020302020302020300A20202020302E3435353320202020312E3131363720202020302E303030302043202020302020302020302020302020302020302020302020302020302020302020302020300A2020202D302E313233392020202D302E3231383120202020302E303030302043202020302020302020302020302020302020302020302020302020302020302020302020300A20202020322E353032382020202D302E3638323920202020302E303030302043202020302020302020302020302020302020302020302020302020302020302020302020300A20202020322E393530382020202D302E3030333620202020302E303030302043202020302020302020302020302020302020302020302020302020302020302020302020300A2020202D302E3839383620202020302E3035383420202020302E303030302043202020302020302020302020302020302020302020302020302020302020302020302020300A20202020322E383838392020202D312E3431343620202020302E30303030204F202020302020302020302020302020302020302020302020302020302020302020302020300A2020202D312E353335302020202D302E3435343020202020302E30303030204E202020302020302020302020302020302020302020302020302020302020302020302020300A2020202D322E333039372020202D302E3135383520202020302E303030302043202020302020302020302020302020302020302020302020302020302020302020302020300A2020202D322E3434333120202020302E3634343720202020302E303030302043202020302020302020302020302020302020302020302020302020302020302020302020300A2020202D322E393530382020202D302E3638323920202020302E30303030204F202020302020302020302020302020302020302020302020302020302020302020302020300A2020312020322020322020302020202020200A2020312020332020312020302020202020200A2020312020342020312020302020202020200A2020322020352020312020302020202020200A2020322020362020312020302020202020200A2020332020372020322020302020202020200A2020332020382020312020302020202020200A2020342020392020322020302020202020200A2020352020372020312020302020202020200A2020362031302020322020302020202020200A2020382031312020312020302020202020200A2020392031322020312020302020202020200A2020392031302020312020302020202020200A2031312031332020312020302020202020200A2031332031342020312020302020202020200A2031342031352020312020302020202020200A2031342031362020322020302020202020200A4D2020454E44
Contributor: Tsuzimoto Y, Tsugawa H, Bamba T, Fukusaki E, engineering department, Osaka Univ.
InstType: EI
InstName: Pegasus II TOF-MS system, Leco; GC 6890, Agilent Technologies
IoniMethod: EI
IonPolarity: pos
Date: 2010-10-09 19:48:36+02:00
Num Peaks: 202
85 7 86 10 87 21 88 19 89 73 90 46 91 56 92 10 93 11 94 18 
95 7 98 6 99 6 100 6 101 60 102 110 103 80 104 24 105 15 106 6 
107 3 108 32 109 7 110 4 113 10 114 19 115 127 116 81 117 88 118 48 
119 14 120 2 121 9 126 8 127 25 128 127 129 123 130 112 131 35 132 20 
133 10 134 11 135 12 137 11 140 13 141 20 142 73 143 65 144 56 145 41 
146 175 147 34 148 17 149 9 150 1 152 3 153 2 154 23 155 17 156 72 
157 39 158 29 159 20 160 45 161 15 162 13 163 6 166 1 168 3 169 6 
170 39 171 11 172 42 173 24 174 41 175 30 176 11 183 3 184 14 185 15 
186 35 187 18 188 147 189 40 190 27 191 8 193 3 195 2 197 3 198 9 
199 3 200 40 201 32 202 111 203 36 204 13 205 6 206 7 209 1 211 1 
213 3 214 13 215 19 216 296 217 104 218 897 219 188 220 57 221 7 222 3 
223 3 225 4 227 3 228 4 229 3 230 48 231 999 232 206 233 68 234 12 
239 1 240 7 241 2 242 2 244 3 245 3 246 4 247 9 253 1 255 3 
258 4 259 10 261 2 264 5 270 2 271 1 272 3 275 35 276 6 281 1 
282 1 285 3 290 124 291 30 292 6 293 3 294 3 295 1 298 1 305 3 
319 1 320 2 325 1 334 1 336 3 343 2 344 2 345 2 349 2 350 1 
352 1 355 2 356 2 364 1 367 4 375 4 382 2 392 2 394 1 395 3 
397 2 401 3 402 2 404 2 409 3 410 4 418 1 419 3 420 1 425 2 
426 2 434 5 438 4 439 1 441 3 443 1 444 2 447 3 450 3 455 3 
456 3 459 2 460 2 469 1 471 5 473 1 482 2 484 3 489 1 490 2 
494 1 498 3 
