Name: Ferulic acid
CAS: 537-98-4
MW: 194
Formula: C10H10O4
Synonym: KEGG: C01494
Synonym: CID: 445858
Synonym: MassBank: OUF00227
Synonym: Ferulic acid
Structure: 310A33330A20204143442F4C6162733039333031303039323532440A2031342031342020302020302020302020302020302020302020302020302020312056323030300A20202031392E373836362020202D362E3837323620202020302E303030302043202020302020302020302020302020302020302020302020302020302020302020302020300A20202031392E373836362020202D352E3539313020202020302E303030302043202020302020302020302020302020302020302020302020302020302020302020302020300A20202031382E363430332020202D372E3534373120202020302E303030302043202020302020302020302020302020302020302020302020302020302020302020302020300A20202031382E363430332020202D342E3931363720202020302E303030302043202020302020302020302020302020302020302020302020302020302020302020302020300A20202032302E383636342020202D342E3931363720202020302E303030302043202020302020302020302020302020302020302020302020302020302020302020302020300A20202031372E343236302020202D352E3539313020202020302E303030302043202020302020302020302020302020302020302020302020302020302020302020302020300A20202031372E343236302020202D362E3837323620202020302E303030302043202020302020302020302020302020302020302020302020302020302020302020302020300A20202031362E323739372020202D372E3534373120202020302E30303030204F202020302020302020302020302020302020302020302020302020302020302020302020300A20202031382E363430332020202D382E3839363020202020302E30303030204F202020302020302020302020302020302020302020302020302020302020302020302020300A20202031392E373836362020202D392E3537303520202020302E303030302043202020302020302020302020302020302020302020302020302020302020302020302020300A20202032332E323237302020202D342E3834383520202020302E303030302043202020302020302020302020302020302020302020302020302020302020302020302020300A20202032322E303830372020202D352E3539313020202020302E303030302043202020302020302020302020302020302020302020302020302020302020302020302020300A20202032332E323237302020202D332E3439393620202020302E30303030204F202020302020302020302020302020302020302020302020302020302020302020302020300A20202032342E343431332020202D352E3532333820202020302E30303030204F202020302020302020302020302020302020302020302020302020302020302020302020300A2020312020322020322020302020302020302020300A2020312020332020312020302020302020302020300A2020322020342020312020302020302020302020300A2020322020352020312020302020302020302020300A2020332020372020322020302020302020302020300A2020332020392020312020302020302020302020300A2020342020362020322020302020302020302020300A2020352031322020322020302020302020302020300A2020362020372020312020302020302020302020300A2020372020382020312020302020302020302020300A2020392031302020312020302020302020302020300A2031312031322020312020302020302020302020300A2031312031332020322020302020302020302020300A2031312031342020312020302020302020302020300A4D2020454E44
Contributor: Tsuzimoto Y, Tsugawa H, Bamba T, Fukusaki E, engineering department, Osaka Univ.
InstType: EI
InstName: Pegasus II TOF-MS system, Leco; GC 6890, Agilent Technologies
IoniMethod: EI
IonPolarity: pos
Date: 2010-10-09 19:48:36+02:00
Num Peaks: 220
85 39 86 13 87 36 88 197 89 725 90 97 91 165 92 36 93 39 94 15 
95 33 96 4 97 12 98 9 99 33 100 8 101 55 102 213 103 143 104 55 
105 109 106 18 107 52 108 7 109 45 110 22 111 19 112 2 113 9 114 15 
115 283 116 118 117 415 118 138 119 126 120 33 121 46 122 16 123 11 124 16 
125 41 126 4 127 24 128 41 129 69 130 57 131 118 132 43 133 166 134 35 
135 186 136 38 137 81 138 13 139 216 140 29 141 8 142 28 143 55 144 27 
145 362 146 124 147 379 148 114 149 97 150 34 151 35 152 5 153 2 154 179 
155 26 156 3 157 8 158 17 159 60 160 264 161 208 162 52 163 111 164 36 
165 39 166 38 167 8 168 1 170 2 171 10 172 9 173 78 174 42 175 398 
176 93 177 73 178 34 179 326 180 61 181 25 182 2 185 12 186 8 187 32 
188 46 189 111 190 254 191 381 192 205 193 72 194 19 195 9 196 2 199 1 
200 2 201 14 202 9 203 247 204 125 205 126 206 47 207 53 208 12 209 132 
210 23 211 8 213 2 214 1 215 3 216 8 217 39 218 246 219 511 220 126 
221 105 222 55 223 38 224 7 225 5 231 14 232 37 233 116 234 35 235 33 
236 32 237 9 238 2 239 1 240 1 247 24 248 22 249 860 250 231 251 90 
252 18 253 13 254 5 261 2 263 54 264 60 265 62 266 30 267 8 268 3 
269 1 275 3 276 3 277 7 278 7 279 238 280 94 281 44 282 12 291 4 
292 20 293 687 294 280 295 103 296 25 297 5 298 2 299 3 300 10 301 10 
302 7 303 10 304 10 305 5 306 6 307 52 308 858 309 361 310 134 311 34 
312 6 314 2 315 5 316 4 317 5 318 2 319 1 320 1 321 2 322 35 
323 816 324 321 325 118 326 32 327 2 328 4 329 5 330 7 331 5 332 4 
333 7 334 5 335 2 336 4 337 68 338 999 339 345 340 132 341 30 342 3 
