Name: 2-Oxobutyrate
CAS: 600-18-0
MW: 102
Formula: C4H6O3
Synonym: KEGG: C00109
Synonym: CID: 58
Synonym: MassBank: OUF00039
Synonym: 2-Oxobutyrate
Structure: 310A31380A4330303031393637352E6364780A20204368656D447261773132323930383230303632440A2020372020362020302020302020302020302020302020302020302020303939392056323030300A2020202D302E3030303020202020302E3230363220202020302E303030302043202020302020302020302020302020302020302020302020302020302020302020302020300A20202020302E373134352020202D302E3230363220202020302E303030302043202020302020302020302020302020302020302020302020302020302020302020302020300A2020202D302E3030303020202020312E3033313320202020302E30303030204F202020302020302020302020302020302020302020302020302020302020302020302020300A20202020312E3432383920202020302E3230363220202020302E30303030204F202020302020302020302020302020302020302020302020302020302020302020302020300A20202020302E373134352020202D312E3033313320202020302E30303030204F202020302020302020302020302020302020302020302020302020302020302020302020300A2020202D312E3432383920202020302E3230363220202020302E303030302043202020302020302020302020302020302020302020302020302020302020302020302020300A2020202D302E373134352020202D302E3230363220202020302E303030302043202020302020302020302020302020302020302020302020302020302020302020302020300A2020372020312020312020302020202020200A2020312020322020312020302020202020200A2020312020332020322020302020202020200A2020322020342020322020302020202020200A2020322020352020312020302020202020200A2020362020372020312020302020202020200A4D2020454E44
Contributor: Tsuzimoto Y, Tsugawa H, Bamba T, Fukusaki E, engineering department, Osaka Univ.
InstType: EI
InstName: Pegasus II TOF-MS system, Leco; GC 6890, Agilent Technologies
IoniMethod: EI
IonPolarity: pos
Date: 2010-10-09 19:48:36+02:00
Num Peaks: 127
85 146 86 78 87 70 88 15 89 451 90 32 91 24 98 26 99 16 100 107 
101 770 102 106 103 78 104 8 105 29 106 4 109 3 111 4 112 28 113 13 
114 23 115 16 116 84 117 999 118 111 119 52 122 3 126 1 127 4 128 340 
129 47 130 25 131 72 132 18 133 95 134 14 135 4 138 1 139 5 141 19 
142 12 143 3 144 17 145 52 146 7 147 804 148 136 149 60 150 7 156 16 
157 43 158 37 159 5 163 39 164 8 166 1 171 1 172 41 173 15 174 132 
175 16 176 8 177 5 185 52 186 38 187 7 188 9 190 3 191 209 192 33 
193 20 200 14 202 3 203 3 204 32 213 2 215 2 216 30 217 2 218 7 
223 2 224 7 228 4 231 1 242 1 244 2 245 4 248 36 249 5 251 2 
252 1 256 1 260 57 261 17 262 1 267 2 273 3 276 130 277 35 278 7 
286 1 293 2 315 2 323 1 352 1 390 5 391 1 397 2 402 1 411 1 
413 2 417 2 419 1 421 2 427 1 430 1 431 2 436 3 444 2 457 1 
466 1 468 2 478 2 487 2 493 2 494 1 496 1 
