Name: D-(+)-Galactosamine
CAS: 7535-00-4
MW: 179
Formula: C6H13NO5
Synonym: CID: 2794221
Synonym: MassBank: OUF00149
Synonym: D-(+)-Galactosamine
Structure: 373533342D39342D332E6D6F6C0A20204368656D447261773038303431303230353732440A2031322031312020302020302020302020302020302020302020302020303939392056323030300A2020202D302E3136393920202020302E3037313120202020302E303030302043202020302020302020302020302020302020302020302020302020302020302020302020300A20202020302E313736362020202D302E3637373520202020302E303030302043202020302020302020302020302020302020302020302020302020302020302020302020300A20202020302E3239343320202020302E3735333020202020302E303030302043202020302020302020302020302020302020302020302020302020302020302020302020300A2020202D302E3937383620202020302E3038383820202020302E30303030204F202020302020302020302020302020302020302020302020302020302020302020302020300A2020202D302E323936352020202D312E3336313720202020302E303030302043202020302020302020302020302020302020302020302020302020302020302020302020300A20202020312E303037342020202D302E3639393720202020302E30303030204F202020302020302020302020302020302020302020302020302020302020302020302020300A2020202D302E3035303020202020312E3531353020202020302E303030302043202020302020302020302020302020302020302020302020302020302020302020302020300A20202020312E3131363320202020302E3735333020202020302E30303030204E202020302020302020302020302020302020302020302020302020302020302020302020300A20202020302E303530302020202D322E3132313420202020302E303030302043202020302020302020302020302020302020302020302020302020302020302020302020300A2020202D312E313136332020202D312E3337303620202020302E30303030204F202020302020302020302020302020302020302020302020302020302020302020302020300A20202020302E3432353420202020322E3139303320202020302E30303030204F202020302020302020302020302020302020302020302020302020302020302020302020300A20202020302E383639372020202D322E3139303320202020302E30303030204F202020302020302020302020302020302020302020302020302020302020302020302020300A2020312020322020312020302020202020200A2020312020332020312020302020202020200A2020312020342020312020362020202020200A2020322020352020312020302020202020200A2020322020362020312020312020202020200A2020332020372020312020302020202020200A2020332020382020312020362020202020200A2020352020392020312020302020202020200A2020352031302020312020312020202020200A2020372031312020322020302020202020200A2020392031322020312020302020202020200A4D2020454E44
Contributor: Tsuzimoto Y, Tsugawa H, Bamba T, Fukusaki E, engineering department, Osaka Univ.
InstType: EI
InstName: Pegasus II TOF-MS system, Leco; GC 6890, Agilent Technologies
IoniMethod: EI
IonPolarity: pos
Date: 2010-10-09 19:48:36+02:00
Num Peaks: 200
85 6 86 18 87 11 88 4 89 113 90 9 91 5 92 1 93 1 94 1 
95 1 96 3 97 4 98 6 99 11 100 39 101 46 102 17 103 194 104 21 
105 17 106 2 107 1 109 1 110 3 111 4 112 3 113 30 114 7 115 8 
116 14 117 132 118 16 119 11 120 1 121 1 125 2 126 5 127 16 128 21 
129 149 130 29 131 40 132 16 133 67 134 10 135 6 136 1 137 2 139 1 
140 2 141 16 142 11 143 25 144 13 145 6 146 5 147 332 148 54 149 35 
150 4 151 1 152 2 153 4 154 2 155 1 157 85 158 16 159 999 160 125 
161 42 162 5 163 8 164 1 165 2 167 1 168 9 169 4 170 3 171 5 
172 4 173 4 175 4 176 1 177 3 178 1 179 2 180 1 181 1 182 1 
183 1 184 1 185 4 186 3 187 2 188 4 189 27 190 14 191 9 192 2 
193 1 195 3 196 1 197 1 198 1 199 3 200 2 201 11 202 3 203 13 
204 36 205 216 206 44 207 21 208 3 209 2 211 1 213 3 214 5 215 10 
216 19 217 106 218 21 219 10 220 1 221 5 222 1 223 1 226 1 227 4 
228 2 229 25 230 8 231 12 232 12 233 8 234 2 235 1 239 1 240 5 
241 4 242 6 243 6 244 5 245 3 246 1 247 2 254 1 255 1 256 1 
258 2 259 1 260 1 261 2 267 5 268 2 269 1 270 1 273 49 274 14 
275 6 276 1 277 6 278 4 279 2 285 1 287 1 288 1 290 2 291 8 
292 3 293 1 303 8 304 6 305 6 306 3 307 5 308 2 314 1 315 1 
316 2 317 1 318 2 319 113 320 44 321 21 322 5 323 1 330 1 332 2 
333 1 357 3 358 2 359 1 375 1 447 4 448 3 449 1 450 1 463 1 
