Name: D-(-)-Fructose
CAS: 57-48-7
MW: 180
Formula: C6H12O6
Synonym: KEGG: C10906
Synonym: CID: 5984
Synonym: MassBank: OUF00229
Synonym: D-(-)-Fructose
Structure: 31322031312020302020302020312020302020302020302020302020303939392056323030300A20202032352E3237303020202D31352E3936303020202020302E303030302043202020302020302020302020302020302020302020302020302020302020302020302020300A20202032342E3038303020202D31352E3236303020202020302E303030302043202020302020302020322020302020302020302020302020302020302020302020302020300A20202032322E3839303020202D31352E3936303020202020302E303030302043202020302020302020322020302020302020302020302020302020302020302020302020300A20202032312E3730303020202D31352E3236303020202020302E303030302043202020302020302020312020302020302020302020302020302020302020302020302020300A20202032302E3434303020202D31352E3936303020202020302E303030302043202020302020302020302020302020302020302020302020302020302020302020302020300A20202031392E3235303020202D31352E3236303020202020302E303030302043202020302020302020302020302020302020302020302020302020302020302020302020300A20202031382E3036303020202D31352E3936303020202020302E30303030204F202020302020302020302020302020302020302020302020302020302020302020302020300A20202032302E3434303020202D31372E3336303020202020302E30303030204F202020302020302020302020302020302020302020302020302020302020302020302020300A20202032312E3633303020202D31332E3836303020202020302E30303030204F202020302020302020302020302020302020302020302020302020302020302020302020300A20202032322E3839303020202D31372E3336303020202020302E30303030204F202020302020302020302020302020302020302020302020302020302020302020302020300A20202032342E3038303020202D31332E3836303020202020302E30303030204F202020302020302020302020302020302020302020302020302020302020302020302020300A20202032362E3533303020202D31352E3236303020202020302E30303030204F202020302020302020302020302020302020302020302020302020302020302020302020300A2020312020322020312020302020202020302020300A2020362020372020312020302020202020302020300A2020332020342020312020302020202020302020300A2020352020382020322020302020202020302020300A2020342020392020312020312020202020302020300A2020342020352020312020302020202020302020300A2020332031302020312020312020202020302020300A2020322020332020312020302020202020302020300A2020322031312020312020362020202020302020300A2020352020362020312020302020202020302020300A2020312031322020312020302020202020302020300A4D2020454E44
Contributor: Tsuzimoto Y, Tsugawa H, Bamba T, Fukusaki E, engineering department, Osaka Univ.
InstType: EI
InstName: Pegasus II TOF-MS system, Leco; GC 6890, Agilent Technologies
IoniMethod: EI
IonPolarity: pos
Date: 2010-10-09 19:48:36+02:00
Num Peaks: 180
85 12 86 6 87 15 88 16 89 152 90 14 91 8 92 1 94 2 96 1 
97 1 98 5 99 9 100 27 101 38 102 12 103 999 104 97 105 49 106 3 
107 1 110 1 111 3 112 2 113 13 114 36 115 17 116 14 117 141 118 17 
119 20 120 2 121 1 126 7 127 4 128 8 129 91 130 19 131 50 132 9 
133 161 134 21 135 12 136 1 140 3 141 2 142 10 143 18 144 5 145 11 
146 4 147 392 148 63 149 42 150 5 151 3 152 1 154 2 155 1 156 5 
157 16 158 7 159 6 160 2 161 4 163 18 164 2 165 1 168 3 169 1 
170 2 171 1 172 30 173 38 174 9 175 13 176 3 177 9 178 1 180 2 
182 1 184 1 185 1 186 4 187 2 188 5 189 61 190 15 191 34 192 7 
193 4 196 1 198 2 200 3 201 18 202 12 203 9 204 33 205 45 206 11 
207 12 208 2 209 1 214 6 215 2 216 10 217 468 218 99 219 46 220 8 
221 14 222 3 223 2 228 1 229 3 230 7 231 14 232 5 233 2 235 3 
240 2 242 2 243 1 244 6 245 2 246 2 247 2 248 1 254 1 256 7 
257 1 258 1 260 5 261 3 262 6 263 13 264 3 265 2 266 1 268 1 
270 1 272 1 274 1 275 1 276 4 277 33 278 13 279 6 280 1 288 3 
291 9 292 2 293 1 300 1 302 2 303 1 304 1 305 2 306 4 307 148 
308 48 309 23 310 5 311 1 318 2 319 2 320 1 330 2 332 1 333 3 
334 5 335 11 336 4 337 1 350 1 363 1 364 19 365 8 366 4 367 1 
