Name: 2'-Deoxyadenosine
CAS: 958-09-8
MW: 251
Formula: C10H13N5O3
Synonym: MassBank: OUF00025
Synonym: 2'-Deoxyadenosine
Structure: 4330303031393238312E6364780A20204368656D447261773132323930383139353232440A2031382032302020302020302020302020302020302020302020302020303939392056323030300A20202020312E333435322020202D302E3638383320202020302E30303030204E202020302020302020302020302020302020302020302020302020302020302020302020300A20202020312E3335303620202020302E3133363720202020302E303030302043202020302020302020302020302020302020302020302020302020302020302020302020300A20202020302E3633383820202020302E3535333820202020302E30303030204E202020302020302020302020302020302020302020302020302020302020302020302020300A2020202D302E3037383420202020302E3134363020202020302E303030302043202020302020302020302020302020302020302020302020302020302020302020302020300A2020202D302E303833372020202D302E3637393020202020302E303030302043202020302020302020302020302020302020302020302020302020302020302020302020300A20202020302E363238312020202D312E3039363120202020302E303030302043202020302020302020302020302020302020302020302020302020302020302020302020300A2020202D302E3836313320202020302E3430363020202020302E30303030204E202020302020302020302020302020302020302020302020302020302020302020302020300A2020202D312E333530362020202D302E3235383320202020302E303030302043202020302020302020302020302020302020302020302020302020302020302020302020300A2020202D302E383730302020202D302E3932383820202020302E30303030204E202020302020302020302020302020302020302020302020302020302020302020302020300A20202020302E363232372020202D312E3931393720202020302E30303030204E202020302020302020302020302020302020302020302020302020302020302020302020300A2020202D302E3532363220202020312E3031393020202020302E303030302043202020302020302020302020302020302020302020302020302020302020302020302020300A20202020302E3736353120202020302E3837303920202020302E303030302043202020302020302020302020302020302020302020302020302020302020302020302020300A20202020302E3436343520202020312E3931393720202020302E30303030204F202020302020302020302020302020302020302020302020302020302020302020302020300A20202020302E3736313620202020312E3336363420202020302E303030302043202020302020302020302020302020302020302020302020302020302020302020302020300A2020202D302E3834323520202020312E3330393320202020302E303030302043202020302020302020302020302020302020302020302020302020302020302020302020300A20202020302E3436343520202020312E3035343220202020302E303030302043202020302020302020302020302020302020302020302020302020302020302020302020300A2020202D302E3034373620202020312E3535343320202020302E30303030204F202020302020302020302020302020302020302020302020302020302020302020302020300A20202020312E3234323620202020302E3631373120202020302E30303030204F202020302020302020302020302020302020302020302020302020302020302020302020300A2020312020322020322020302020202020200A2020322020332020312020302020202020200A2020332020342020322020302020202020200A2020342020352020312020302020202020200A2020352020362020322020302020202020200A2020362020312020312020302020202020200A2020342020372020312020302020202020200A2020372020382020312020302020202020200A2020382020392020322020302020202020200A2020392020352020312020302020202020200A2020362031302020312020302020202020200A2031362031312020312020312020202020200A2031352031312020312020312020202020200A2031342031362020312020312020202020200A2031342031322020312020302020202020200A2031372031342020312020302020202020200A2031352031372020312020302020202020200A2031322031382020312020302020202020200A2020372031352020312020302020202020200A2031362031332020312020302020202020200A4D2020454E44
Contributor: Tsuzimoto Y, Tsugawa H, Bamba T, Fukusaki E, engineering department, Osaka Univ.
InstType: EI
InstName: Pegasus II TOF-MS system, Leco; GC 6890, Agilent Technologies
IoniMethod: EI
IonPolarity: pos
Date: 2010-10-09 19:48:36+02:00
Num Peaks: 209
85 81 86 26 87 25 88 14 89 29 90 7 91 5 92 8 93 10 94 8 
95 18 96 21 97 20 98 19 99 88 100 34 101 126 102 19 103 762 104 76 
105 37 106 5 107 6 108 25 109 28 110 28 111 101 112 17 113 43 114 7 
115 27 116 24 117 155 118 22 119 27 120 9 121 8 122 8 123 17 124 10 
125 23 126 6 127 29 128 7 129 84 130 16 131 38 132 11 133 89 134 19 
135 36 136 24 137 24 138 29 139 8 140 3 141 11 142 40 143 42 144 9 
145 67 146 11 147 133 148 26 149 29 150 17 151 19 152 9 153 4 154 3 
155 107 156 19 157 26 158 7 159 5 160 2 161 8 162 30 163 10 164 76 
165 173 166 45 167 13 168 2 169 64 170 75 171 44 172 11 173 6 174 7 
175 11 176 35 177 20 178 15 179 12 180 99 181 29 182 9 183 2 184 1 
185 2 187 2 188 5 189 43 190 29 191 42 192 999 193 165 194 49 195 7 
196 2 197 2 198 3 199 3 200 2 201 4 202 8 203 7 204 12 205 15 
206 105 207 954 208 648 209 130 210 30 211 3 214 1 215 9 216 3 217 70 
218 113 219 45 220 21 221 13 222 7 223 3 224 1 230 2 231 6 232 9 
233 16 234 55 235 18 236 364 237 127 238 30 239 7 243 2 244 1 245 12 
246 8 247 2 248 2 249 6 250 3 251 1 258 1 259 3 260 5 261 3 
262 6 263 1 264 23 265 8 266 7 267 1 272 2 274 2 278 3 279 12 
280 21 281 5 282 3 287 2 288 3 290 1 292 1 296 1 306 5 307 1 
308 2 321 1 322 2 323 2 334 5 335 6 336 2 348 3 349 11 350 8 
351 7 352 2 362 5 363 2 364 5 365 1 376 1 377 8 378 4 379 1 
451 1 452 14 453 8 454 2 466 5 467 26 468 17 469 6 470 1 
