Name: Adipic acid
CAS: 124-04-9
MW: 146
Formula: C6H10O4
Synonym: KEGG: C06104
Synonym: CID: 196
Synonym: MassBank: OUF00101
Synonym: Adipic acid
Structure: 4330303030313137382E6364780A20204368656D447261773132323630383139313332440A2031302020392020302020302020302020302020302020302020302020303939392056323030300A2020202D312E373536392020202D302E3134333720202020302E30303030204F202020302020302020302020302020302020302020302020302020302020302020302020300A2020202D302E373530392020202D302E3134333720202020302E303030302043202020302020302020302020302020302020302020302020302020302020302020302020300A2020202D312E3235333920202020302E3134363720202020302E303030302043202020302020302020302020302020302020302020302020302020302020302020302020300A2020202D312E3235333920202020302E3439363920202020302E30303030204F202020302020302020302020302020302020302020302020302020302020302020302020300A2020202D302E3234383420202020302E3134363420202020302E303030302043202020302020302020302020302020302020302020302020302020302020302020302020300A20202020302E323532392020202D302E3134333020202020302E303030302043202020302020302020302020302020302020302020302020302020302020302020302020300A20202020302E3735343220202020302E3134363420202020302E303030302043202020302020302020302020302020302020302020302020302020302020302020302020300A20202020312E323535362020202D302E3134333020202020302E303030302043202020302020302020302020302020302020302020302020302020302020302020302020300A20202020312E3735363920202020302E3134363420202020302E30303030204F202020302020302020302020302020302020302020302020302020302020302020302020300A20202020312E323535362020202D302E3439363920202020302E30303030204F202020302020302020302020302020302020302020302020302020302020302020302020300A2020322020332020312020302020202020200A2020332020312020312020302020202020200A2020332020342020322020302020202020200A2020322020352020312020302020202020200A2020352020362020312020302020202020200A2020362020372020312020302020202020200A2020372020382020312020302020202020200A2020382020392020312020302020202020200A2020382031302020322020302020202020200A4D2020454E44
Contributor: Tsuzimoto Y, Tsugawa H, Bamba T, Fukusaki E, engineering department, Osaka Univ.
InstType: EI
InstName: Pegasus II TOF-MS system, Leco; GC 6890, Agilent Technologies
IoniMethod: EI
IonPolarity: pos
Date: 2010-10-09 19:48:36+02:00
Num Peaks: 103
85 31 86 44 87 16 88 12 89 14 90 2 91 5 92 4 93 7 95 4 
97 7 98 6 99 66 100 7 101 24 102 6 103 14 104 2 105 5 107 1 
109 4 110 7 111 999 112 70 113 18 114 2 115 23 116 51 117 183 118 20 
119 14 120 1 123 1 125 3 126 1 127 2 128 4 129 162 130 47 131 34 
132 17 133 71 134 11 135 9 136 1 139 2 140 1 141 380 142 59 143 34 
144 5 145 11 146 4 147 408 148 66 149 102 150 14 151 7 154 1 155 7 
156 8 157 45 158 13 159 111 160 15 161 5 162 1 163 1 171 6 172 173 
173 30 174 9 175 1 183 1 185 138 186 19 187 7 189 1 190 1 191 1 
200 16 201 9 202 1 203 4 204 38 205 8 206 3 215 9 216 2 217 42 
218 11 219 4 229 1 231 12 232 2 233 1 245 1 247 8 248 2 275 97 
276 24 277 10 278 1 
