Name: N-Methylethanolamine
CAS: 109-83-1
MW: 75
Formula: C3H9NO
Synonym: MassBank: OUF00391
Synonym: N-Methylethanolamine
Structure: 310A31340A3130393832362D38392D332E6D6F6C0A20204368656D447261773037323931303139313532440A2020352020342020302020302020302020302020302020302020302020303939392056323030300A2020202D302E3030333020202020302E3230323120202020302E303030302043202020302020302020302020302020302020302020302020302020302020302020302020300A2020202D302E373134332020202D302E3230323120202020302E303030302043202020302020302020302020302020302020302020302020302020302020302020302020300A20202020302E373134332020202D302E3230323120202020302E30303030204E202020302020302020302020302020302020302020302020302020302020302020302020300A2020202D312E3433333520202020302E3230323120202020302E30303030204F202020302020302020302020302020302020302020302020302020302020302020302020300A20202020312E3433333520202020302E3230323120202020302E303030302043202020302020302020302020302020302020302020302020302020302020302020302020300A2020312020322020312020302020202020200A2020312020332020312020302020202020200A2020322020342020312020302020202020200A2020332020352020312020302020202020200A4D2020454E44
Contributor: Tsuzimoto Y, Tsugawa H, Bamba T, Fukusaki E, engineering department, Osaka Univ.
InstType: EI
InstName: Pegasus II TOF-MS system, Leco; GC 6890, Agilent Technologies
IoniMethod: EI
IonPolarity: pos
Date: 2010-10-09 19:48:36+02:00
Num Peaks: 43
85 3 86 31 87 14 88 27 89 17 90 3 92 1 95 1 96 2 98 4 
99 2 100 21 101 13 102 8 103 18 104 2 105 5 113 1 114 13 115 15 
116 999 117 122 118 43 119 10 120 1 128 1 129 1 130 53 131 25 132 10 
133 22 134 3 135 1 146 1 147 223 148 37 149 18 150 1 204 14 205 2 
219 19 220 3 221 1 
