Name: 1-Kestose
CAS: 470-69-9
MW: 518
Formula: C19H34O16
Synonym: MassBank: OUF00007
Synonym: 1-Kestose
Structure: 3437303639312D34372D352E6D6F6C0A20204368656D447261773038303331303139323332440A2033352033372020302020302020302020302020302020302020302020303939392056323030300A20202020312E303738372020202D312E3430323620202020302E303030302043202020302020302020302020302020302020302020302020302020302020302020302020300A20202020302E333434352020202D302E3933343520202020302E30303030204F202020302020302020302020302020302020302020302020302020302020302020302020300A20202020312E313934382020202D322E3234393120202020302E30303030204F202020302020302020302020302020302020302020302020302020302020302020302020300A20202020312E383039302020202D312E3035303620202020302E303030302043202020302020302020302020302020302020302020302020302020302020302020302020300A20202020302E393137362020202D302E3539333620202020302E303030302043202020302020302020302020302020302020302020302020302020302020302020302020300A2020202D302E333535382020202D312E3432313420202020302E303030302043202020302020302020302020302020302020302020302020302020302020302020302020300A20202020322E303434392020202D322E3336393020202020302E303030302043202020302020302020302020302020302020302020302020302020302020302020302020300A20202020322E333933322020202D312E3635373320202020302E303030302043202020302020302020302020302020302020302020302020302020302020302020302020300A20202020312E393235312020202D302E3234353320202020302E30303030204F202020302020302020302020302020302020302020302020302020302020302020302020300A20202020312E3537363820202020302E3030393420202020302E30303030204F202020302020302020302020302020302020302020302020302020302020302020302020300A2020202D312E303637352020202D312E3032303620202020302E30303030204F202020302020302020302020302020302020302020302020302020302020302020302020300A2020202D302E333535382020202D322E3238323820202020302E303030302043202020302020302020302020302020302020302020302020302020302020302020302020300A20202020322E343537302020202D332E3036393320202020302E303030302043202020302020302020302020302020302020302020302020302020302020302020302020300A20202020332E323039382020202D312E3537313220202020302E30303030204F202020302020302020302020302020302020302020302020302020302020302020302020300A20202020312E3539393320202020302E3832353920202020302E30303030204F202020302020302020302020302020302020302020302020302020302020302020302020300A2020202D312E373836352020202D312E3435353120202020302E303030302043202020302020302020302020302020302020302020302020302020302020302020302020300A2020202D312E303637352020202D322E3638373320202020302E303030302043202020302020302020302020302020302020302020302020302020302020302020302020300A20202020302E333434352020202D322E3639343820202020302E30303030204F202020302020302020302020302020302020302020302020302020302020302020302020300A20202020322E303734392020202D332E3737373220202020302E30303030204F202020302020302020302020302020302020302020302020302020302020302020302020300A20202020302E3835333920202020312E3336383920202020302E303030302043202020302020302020302020302020302020302020302020302020302020302020302020300A2020202D312E373836352020202D322E3238323820202020302E303030302043202020302020302020302020302020302020302020302020302020302020302020302020300A2020202D322E343938322020202D312E3036313820202020302E303030302043202020302020302020302020302020302020302020302020302020302020302020302020300A2020202D312E303637352020202D332E3532323520202020302E30303030204F202020302020302020302020302020302020302020302020302020302020302020302020300A20202020302E3734393020202020322E3230373920202020302E30303030204F202020302020302020302020302020302020302020302020302020302020302020302020300A20202020302E3130313120202020312E3033393420202020302E303030302043202020302020302020302020302020302020302020302020302020302020302020302020300A20202020312E3733343120202020312E3238323820202020302E303030302043202020302020302020302020302020302020302020302020302020302020302020302020300A2020202D322E343938322020202D322E3638373320202020302E30303030204F202020302020302020302020302020302020302020302020302020302020302020302020300A2020202D332E323039382020202D312E3438353120202020302E30303030204F202020302020302020302020302020302020302020302020302020302020302020302020300A2020202D302E3036373520202020322E3336353220202020302E303030302043202020302020302020302020302020302020302020302020302020302020302020302020300A2020202D302E3436303620202020312E3634363120202020302E303030302043202020302020302020302020302020302020302020302020302020302020302020302020300A2020202D302E3034383720202020302E3232323820202020302E30303030204F202020302020302020302020302020302020302020302020302020302020302020302020300A20202020322E3136313020202020312E3737333420202020302E303030302043202020302020302020302020302020302020302020302020302020302020302020302020300A2020202D302E3433303820202020332E3039393320202020302E303030302043202020302020302020302020302020302020302020302020302020302020302020302020300A2020202D312E3238383420202020312E3534383720202020302E30303030204F202020302020302020302020302020302020302020302020302020302020302020302020300A20202020302E3032363220202020332E3737373220202020302E30303030204F202020302020302020302020302020302020302020302020302020302020302020302020300A2020312020322020312020312020202020200A2020312020332020312020302020202020200A2020312020342020312020302020202020200A2020312020352020312020302020202020200A2020362020322020312020362020202020200A2020332020372020312020302020202020200A2020342020382020312020302020202020200A2020342020392020312020312020202020200A2020352031302020312020302020202020200A2020362031312020312020302020202020200A2020362031322020312020302020202020200A2020372031332020312020312020202020200A2020372020382020312020302020202020200A2020382031342020312020362020202020200A2031302031352020312020302020202020200A2031312031362020312020302020202020200A2031322031372020312020302020202020200A2031322031382020312020362020202020200A2031332031392020312020302020202020200A2032302031352020312020312020202020200A2031362032312020312020302020202020200A2031362032322020312020312020202020200A2031372032332020312020312020202020200A2031372032312020312020302020202020200A2032302032342020312020302020202020200A2032302032352020312020302020202020200A2032302032362020312020302020202020200A2032312032372020312020362020202020200A2032322032382020312020302020202020200A2032342032392020312020302020202020200A2032352033302020312020302020202020200A2032352033312020312020312020202020200A2032362033322020312020302020202020200A2032392033332020312020312020202020200A2032392033302020312020302020202020200A2033302033342020312020362020202020200A2033332033352020312020302020202020200A4D2020454E44
Contributor: Tsuzimoto Y, Tsugawa H, Bamba T, Fukusaki E, engineering department, Osaka Univ.
InstType: EI
InstName: Pegasus II TOF-MS system, Leco; GC 6890, Agilent Technologies
IoniMethod: EI
IonPolarity: pos
Date: 2010-10-09 19:48:36+02:00
Num Peaks: 256
85 23 86 4 87 16 88 11 89 31 90 4 91 5 92 1 93 2 94 3 
95 7 96 2 97 14 98 4 99 21 100 4 101 43 102 31 103 566 104 57 
105 29 106 2 107 3 108 1 109 37 110 3 111 21 112 4 113 27 114 6 
115 26 116 18 117 113 118 13 119 17 120 2 121 2 123 1 125 6 126 3 
127 24 128 7 129 464 130 70 131 73 132 12 133 109 134 15 135 13 136 1 
137 1 139 13 140 7 141 23 142 36 143 88 144 14 145 32 146 6 147 506 
148 81 149 75 150 10 151 9 152 2 153 16 154 11 155 59 156 13 157 87 
158 13 159 14 160 2 161 9 162 2 163 14 164 3 165 2 166 1 167 11 
168 3 169 386 170 59 171 37 172 5 173 28 174 5 175 11 176 2 177 17 
178 4 179 4 180 1 181 10 182 5 183 35 184 6 185 16 186 3 187 6 
188 2 189 66 190 18 191 113 192 22 193 12 194 1 195 4 196 1 197 4 
198 1 199 18 200 3 201 9 202 5 203 23 204 69 205 40 206 12 207 10 
208 2 209 2 211 3 213 2 214 1 215 36 216 13 217 999 218 219 219 108 
220 18 221 25 222 6 223 4 224 1 225 1 226 1 227 7 228 2 229 31 
230 92 231 51 232 17 233 19 234 6 235 4 236 1 237 1 239 3 240 1 
241 8 242 4 243 100 244 31 245 31 246 8 247 10 248 2 249 2 251 3 
252 1 253 1 254 1 255 8 256 4 257 44 258 11 259 20 260 5 261 3 
262 1 263 7 264 2 265 4 266 1 267 1 269 2 270 2 271 119 272 36 
273 28 274 7 275 5 276 1 277 2 278 1 279 1 281 1 283 2 284 1 
285 4 286 1 287 5 288 3 289 5 290 2 291 10 292 4 293 4 294 1 
295 1 297 1 299 1 301 2 302 1 303 2 304 2 305 15 306 6 307 4 
308 1 309 1 315 1 317 5 318 4 319 26 320 20 321 9 322 3 323 1 
325 1 331 18 332 10 333 6 334 2 335 1 345 5 346 3 347 5 348 2 
349 2 357 1 359 2 360 13 361 445 362 170 363 87 364 25 365 7 366 1 
373 1 379 1 407 1 435 1 436 8 437 73 438 39 439 20 440 7 441 2 
450 7 451 59 452 32 453 16 454 6 455 2 
