Name: Gluconic acid
CAS: 526-95-4
MW: 196
Formula: C6H12O7
Synonym: KEGG: C08038
Synonym: CID: 10690
Synonym: MassBank: OUF00242
Synonym: Gluconic acid
Structure: 4330303030373330332E6364780A20204368656D447261773132323930383037313032440A2031332031322020302020302020302020302020302020302020302020303939392056323030300A2020202D322E383838332020202D302E3336333720202020302E30303030204F202020302020302020302020302020302020302020302020302020302020302020302020300A2020202D322E3037393120202020302E3434353420202020302E303030302043202020302020302020302020302020302020302020302020302020302020302020302020300A2020202D312E323738382020202D302E3335343820202020302E303030302043202020302020302020302020302020302020302020302020302020302020302020302020300A2020202D302E3436383920202020302E3435353020202020302E303030302043202020302020302020302020302020302020302020302020302020302020302020302020300A20202020302E333735362020202D302E3338393520202020302E303030302043202020302020302020302020302020302020302020302020302020302020302020302020300A20202020312E3233393920202020302E3437343820202020302E303030302043202020302020302020302020302020302020302020302020302020302020302020302020300A20202020312E3233393920202020312E3230353220202020302E30303030204F202020302020302020302020302020302020302020302020302020302020302020302020300A2020202D302E3436383920202020312E3138393420202020302E30303030204F202020302020302020302020302020302020302020302020302020302020302020302020300A20202020302E333735362020202D312E3230353220202020302E30303030204F202020302020302020302020302020302020302020302020302020302020302020302020300A2020202D312E323738382020202D312E3035363820202020302E30303030204F202020302020302020302020302020302020302020302020302020302020302020302020300A20202020322E303633332020202D302E3335363520202020302E303030302043202020302020302020302020302020302020302020302020302020302020302020302020300A20202020322E383838332020202D302E3335363520202020302E30303030204F202020302020302020302020302020302020302020302020302020302020302020302020300A20202020312E363530382020202D312E3037313020202020302E30303030204F202020302020302020302020302020302020302020302020302020302020302020302020300A2020312020322020312020302020202020200A2020322020332020312020302020202020200A2020332020342020312020302020202020200A2020342020352020312020302020202020200A2020352020362020312020302020202020200A2020362020372020312020312020202020200A2020342020382020312020312020202020200A2020352020392020312020312020202020200A2020332031302020312020362020202020200A2020362031312020312020302020202020200A2031312031322020322020302020202020200A2031312031332020312020302020202020200A4D202053545920203120202031205355500A4D2020534C4220203120202031202020310A4D202053414C202020312020332020313120203132202031330A4D202053424C20202031202031202031300A4D2020534D542020203120434F4F480A4D2020534256202020312031302020202D342E3630353920202020332E393336350A4D2020454E44
Contributor: Tsuzimoto Y, Tsugawa H, Bamba T, Fukusaki E, engineering department, Osaka Univ.
InstType: EI
InstName: Pegasus II TOF-MS system, Leco; GC 6890, Agilent Technologies
IoniMethod: EI
IonPolarity: pos
Date: 2010-10-09 19:48:36+02:00
Num Peaks: 199
85 25 86 5 87 30 88 20 89 78 90 9 91 7 93 2 94 3 95 9 
96 3 97 81 98 8 99 35 100 6 101 93 102 52 103 423 104 44 105 33 
106 3 107 5 111 30 112 3 113 24 114 4 115 40 116 34 117 284 118 37 
119 49 120 3 121 3 123 1 124 2 125 4 126 5 127 26 128 7 129 318 
130 61 131 126 132 25 133 305 134 50 135 37 136 3 137 2 139 1 140 2 
141 9 142 37 143 117 144 16 145 33 146 6 147 957 148 163 149 132 150 19 
151 11 153 13 155 31 156 11 157 38 158 5 159 8 160 2 161 8 163 15 
165 3 166 1 167 1 169 44 170 12 171 23 172 3 173 8 175 17 176 4 
177 22 179 1 180 2 183 1 184 2 185 4 186 1 187 6 189 201 190 52 
191 80 192 16 193 21 194 2 195 1 196 2 197 26 198 2 199 4 200 1 
201 11 202 3 203 30 204 293 205 199 206 55 207 31 208 4 213 1 215 27 
216 13 217 999 218 203 219 124 220 35 221 37 222 9 223 1 227 9 228 1 
229 20 230 51 231 31 232 11 233 5 234 1 241 1 242 7 243 91 244 117 
245 62 246 24 247 5 248 3 251 1 256 2 257 8 258 4 259 8 260 1 
261 2 262 1 263 1 265 4 266 2 271 33 272 4 273 3 277 3 278 3 
283 1 285 2 286 2 287 1 291 5 292 20 293 8 294 3 297 1 304 6 
305 54 306 21 307 12 308 3 312 1 317 10 318 10 319 11 320 3 322 9 
323 2 324 2 331 6 332 56 333 51 334 45 335 27 336 8 337 2 348 14 
349 3 350 1 360 1 361 22 362 6 363 6 369 3 375 1 384 1 409 1 
423 3 430 1 449 1 455 1 459 1 465 1 466 7 467 6 468 4 
