Name: N-Formyl-L-Methionine
CAS: 4289-98-9
MW: 177
Formula: C6H11NO3S
Synonym: KEGG: C03145
Synonym: CID: 439750
Synonym: MassBank: OUF00388
Synonym: N-Formyl-L-Methionine
Structure: 31322031312020302020302020312020302020302020302020302020303939392056323030300A20202031392E3533333320202D31342E3534313120202020302E303030302043202020302020302020322020302020302020302020302020302020302020302020302020300A20202031382E3338353320202D31332E3737333620202020302E303030302043202020302020302020302020302020302020302020302020302020302020302020302020300A20202031392E3535323220202D31362E3139363320202020302E30303030204E202020302020302020302020302020302020302020302020302020302020302020302020300A20202032302E3833393520202D31342E3038343420202020302E303030302043202020302020302020302020302020302020302020302020302020302020302020302020300A20202031372E3037393120202D31342E3234333020202020302E303030302043202020302020302020302020302020302020302020302020302020302020302020302020300A20202031382E3336363420202D31362E3839333820202020302E303030302043202020302020302020302020302020302020302020302020302020302020302020302020300A20202032312E3936313920202D31342E3838333520202020302E30303030204F202020302020302020302020302020302020302020302020302020302020302020302020300A20202032302E3833393520202D31322E3732373220202020302E30303030204F202020302020302020302020302020302020302020302020302020302020302020302020300A20202031362E3231303320202D31332E3137313220202020302E303030302053202020302020302020302020302020302020302020302020302020302020302020302020300A20202031372E3136313520202D31362E3232313720202020302E30303030204F202020302020302020302020302020302020302020302020302020302020302020302020300A20202031342E3839373620202D31332E3633343220202020302E303030302043202020302020302020302020302020302020302020302020302020302020302020302020300A20202031382E3331313720202D31382E3430393420202020302E303030302048202020302020302020302020302020302020302020302020302020302020302020302020300A2020312020322020312020302020202020302020300A2020312020332020312020312020202020302020300A2020312020342020312020302020202020302020300A2020322020352020312020302020202020302020300A2020332020362020312020302020202020302020300A2020342020372020312020302020202020302020300A2020342020382020322020302020202020302020300A2020352020392020312020302020202020302020300A2020362031302020322020302020202020302020300A2020392031312020312020302020202020302020300A2020362031322020312020302020202020302020300A4D2020454E44
Contributor: Tsuzimoto Y, Tsugawa H, Bamba T, Fukusaki E, engineering department, Osaka Univ.
InstType: EI
InstName: Pegasus II TOF-MS system, Leco; GC 6890, Agilent Technologies
IoniMethod: EI
IonPolarity: pos
Date: 2010-10-09 19:48:36+02:00
Num Peaks: 162
85 154 86 57 87 102 88 36 89 31 90 10 91 32 92 10 93 11 94 4 
95 4 96 4 97 14 98 127 99 65 100 701 101 113 102 304 103 88 104 36 
105 58 106 6 107 12 108 2 109 2 110 4 111 8 112 16 113 17 114 141 
115 70 116 50 117 45 118 53 119 39 120 7 121 5 124 5 125 1 126 21 
127 6 128 105 129 927 130 186 131 108 132 28 133 136 134 24 135 20 136 1 
137 1 139 1 140 8 141 9 142 333 143 60 144 79 145 23 146 10 147 439 
148 75 149 80 150 10 151 5 152 1 154 2 155 2 156 172 157 999 158 253 
159 100 160 33 161 33 162 12 163 21 164 3 165 1 168 3 169 1 170 124 
171 19 172 41 173 8 174 23 175 44 176 69 177 17 178 8 179 2 180 1 
183 1 184 3 185 1 186 34 187 5 188 70 189 23 190 10 191 25 192 5 
193 2 198 1 199 1 200 2 201 2 202 35 203 16 204 147 205 28 206 16 
207 3 208 1 214 1 215 1 216 13 217 3 218 40 219 11 220 4 221 1 
223 1 229 1 230 75 231 23 232 20 233 6 234 4 235 1 242 1 244 1 
245 1 246 3 247 547 248 118 249 54 250 55 251 19 252 9 253 2 258 2 
259 1 260 276 261 70 262 32 263 5 264 1 273 1 274 5 275 1 277 1 
278 64 279 23 280 12 281 3 305 2 306 100 307 31 308 16 309 3 321 22 
322 6 323 2 
