Name: N-Acetyl-D-Glucosamine
CAS: 7512-17-6
MW: 221
Formula: C8H15NO6
Synonym: MassBank: OUF00363
Synonym: N-Acetyl-D-Glucosamine
Structure: 31352031352020302020202020312020302020202020202020202020203939392056323030300A20202020302E3335383620202020302E3032373620202020302E303030302043202020302020302020322020302020302020302020202020202020202020302020302020300A2020202D302E333337392020202D302E3337353920202020302E303030302043202020302020302020322020302020302020302020202020202020202020302020302020300A20202020302E3335383620202020302E3832373620202020302E303030302043202020302020302020332020302020302020302020202020202020202020302020302020300A20202020302E393732342020202D302E3537353920202020302E30303030204E202020302020302020302020302020302020302020202020202020202020302020302020300A2020202D312E3032343120202020302E3032373620202020302E303030302043202020302020302020312020302020302020302020202020202020202020302020302020300A2020202D302E333334352020202D312E3137323420202020302E30303030204F202020302020302020302020302020302020302020202020202020202020302020302020300A2020202D302E3333373920202020312E3233313020202020302E30303030204F202020302020302020302020302020302020302020202020202020202020302020302020300A20202020312E3035353220202020312E3233313020202020302E30303030204F202020302020302020302020302020302020302020202020202020202020302020302020300A20202020312E373632312020202D312E3031303320202020302E303030302043202020302020302020302020302020302020302020202020202020202020302020302020300A2020202D312E3032343120202020302E3832373620202020302E303030302043202020302020302020322020302020302020302020202020202020202020302020302020300A2020202D312E373133382020202D302E3337353920202020302E30303030204F202020302020302020302020302020302020302020202020202020202020302020302020300A20202020322E353334352020202D302E3631303320202020302E303030302043202020302020302020302020302020302020302020202020202020202020302020302020300A20202020312E373635352020202D312E3938363220202020302E30303030204F202020302020302020302020302020302020302020202020202020202020302020302020300A2020202D312E3731333820202020312E3233313020202020302E303030302043202020302020302020302020302020302020302020202020202020202020302020302020300A2020202D322E3332343120202020302E3730363920202020302E30303030204F202020302020302020302020302020302020302020202020202020202020302020302020300A2020312020322020312020302020202020302020300A2020312020332020312020302020202020302020300A2020312020342020312020362020202020302020300A2020322020352020312020302020202020302020300A2020322020362020312020312020202020302020300A2020332020372020312020302020202020302020300A2020332020382020312020342020202020302020300A2020342020392020312020302020202020302020300A2020352031302020312020302020202020302020300A2020352031312020312020362020202020302020300A2020392031322020312020302020202020302020300A2020392031332020322020302020202020302020300A2031302031342020312020312020202020302020300A2031342031352020312020302020202020302020300A2020372031302020312020302020202020302020300A4D2020454E44
Contributor: Tsuzimoto Y, Tsugawa H, Bamba T, Fukusaki E, engineering department, Osaka Univ.
InstType: EI
InstName: Pegasus II TOF-MS system, Leco; GC 6890, Agilent Technologies
IoniMethod: EI
IonPolarity: pos
Date: 2010-10-09 19:48:36+02:00
Num Peaks: 260
85 25 86 27 87 45 88 23 89 208 90 22 91 14 92 5 93 3 94 6 
95 13 96 20 97 15 98 13 99 33 100 72 101 88 102 49 103 341 104 41 
105 43 106 8 107 6 108 4 109 8 110 6 111 14 112 21 113 55 114 55 
115 40 116 100 117 406 118 52 119 43 120 8 121 3 122 2 123 2 124 2 
125 6 126 17 127 33 128 26 129 426 130 73 131 100 132 33 133 196 134 33 
135 21 136 2 137 5 138 2 139 8 140 10 141 22 142 27 143 52 144 37 
145 18 146 7 147 999 148 172 149 102 150 14 151 9 152 7 153 10 154 18 
155 21 156 36 157 291 158 64 159 186 160 34 161 16 162 8 163 24 164 5 
165 4 166 4 167 11 168 17 169 32 170 26 171 49 172 22 173 53 174 15 
175 16 176 6 177 7 178 3 179 6 180 5 181 7 182 7 183 13 184 5 
185 12 186 23 187 7 188 9 189 59 190 30 191 73 192 17 193 10 194 4 
195 8 196 6 197 3 198 5 199 6 200 5 201 240 202 126 203 40 204 93 
205 596 206 127 207 65 208 12 209 4 210 4 211 3 212 3 213 30 214 13 
215 10 216 11 217 147 218 36 219 19 220 4 221 20 222 6 223 4 224 1 
225 2 226 2 227 10 228 7 229 87 230 47 231 29 232 13 233 4 235 2 
236 2 237 2 238 2 239 2 240 5 241 5 242 8 243 35 244 20 245 22 
246 21 247 8 248 4 251 1 252 1 253 1 254 2 255 6 256 5 257 8 
258 15 259 5 260 5 261 3 263 1 265 2 266 2 267 1 268 3 269 6 
270 5 271 5 272 3 273 2 274 23 275 9 276 4 277 12 278 5 279 3 
280 1 281 1 284 5 285 13 286 6 287 3 291 17 292 7 293 2 294 1 
296 1 300 1 301 3 303 12 304 5 305 13 306 7 307 7 308 3 309 3 
310 3 311 3 315 54 316 19 317 8 318 12 319 430 320 163 321 77 322 23 
323 4 324 1 326 1 329 1 332 4 333 3 334 2 337 1 341 2 342 1 
343 1 344 2 345 3 346 2 347 1 350 2 357 1 358 1 359 2 360 1 
371 1 372 1 373 2 374 1 375 1 386 1 388 1 399 2 400 2 401 1 
405 2 415 1 417 1 431 1 433 1 434 1 489 5 490 4 491 2 492 1 
