Name: Sakuranetin
CAS: 2957-21-3
MW: 286
Formula: C16H14O5
Synonym: KEGG: C09833
Synonym: CID: 73571
Synonym: MassBank: OUF00449
Synonym: Sakuranetin
Structure: 4330303030303939392E6364780A20204368656D447261773132323630383139303832440A2032312032332020302020302020302020302020302020302020302020303939392056323030300A2020202D322E3232363520202020302E3136363920202020302E303030302043202020302020302020302020302020302020302020302020302020302020302020302020300A2020202D322E323236362020202D302E3635383120202020302E303030302043202020302020302020302020302020302020302020302020302020302020302020302020300A2020202D312E353132322020202D312E3037303720202020302E303030302043202020302020302020302020302020302020302020302020302020302020302020302020300A2020202D302E373937372020202D302E3635383320202020302E303030302043202020302020302020302020302020302020302020302020302020302020302020302020300A2020202D302E3739373620202020302E3136363720202020302E303030302043202020302020302020302020302020302020302020302020302020302020302020302020300A2020202D312E3531323020202020302E3537393320202020302E303030302043202020302020302020302020302020302020302020302020302020302020302020302020300A2020202D302E303833332020202D312E3037313020202020302E303030302043202020302020302020302020302020302020302020302020302020302020302020302020300A20202020302E363331322020202D302E3635383620202020302E303030302043202020302020302020302020302020302020302020302020302020302020302020302020300A20202020302E3633313420202020302E3136363420202020302E303030302043202020302020302020302020302020302020302020302020302020302020302020302020300A2020202D302E3038333020202020302E3537393020202020302E30303030204F202020302020302020302020302020302020302020302020302020302020302020302020300A20202020312E3530343820202020302E3636323720202020302E303030302043202020302020302020302020302020302020302020302020302020302020302020302020300A20202020322E3231363820202020302E3234363020202020302E303030302043202020302020302020302020302020302020302020302020302020302020302020302020300A20202020322E3933333720202020302E3635343320202020302E303030302043202020302020302020302020302020302020302020302020302020302020302020302020300A20202020322E3933383520202020312E3437393320202020302E303030302043202020302020302020302020302020302020302020302020302020302020302020302020300A20202020322E3232363520202020312E3839363020202020302E303030302043202020302020302020302020302020302020302020302020302020302020302020302020300A20202020312E3530393620202020312E3438373720202020302E303030302043202020302020302020302020302020302020302020302020302020302020302020302020300A2020202D312E353132342020202D312E3839353720202020302E30303030204F202020302020302020302020302020302020302020302020302020302020302020302020300A2020202D302E303833342020202D312E3839363020202020302E30303030204F202020302020302020302020302020302020302020302020302020302020302020302020300A20202020332E3635353420202020312E3838373520202020302E30303030204F202020302020302020302020302020302020302020302020302020302020302020302020300A2020202D322E3934303920202020302E3537393520202020302E30303030204F202020302020302020302020302020302020302020302020302020302020302020302020300A2020202D332E3635353420202020302E3136373220202020302E303030302043202020302020302020302020302020302020302020302020302020302020302020302020300A2020312020322020322020302020202020200A2020322020332020312020302020202020200A2020332020342020322020302020202020200A2020342020352020312020302020202020200A2020352020362020322020302020202020200A2020362020312020312020302020202020200A2020342020372020312020302020202020200A2020372020382020312020302020202020200A2020382020392020312020302020202020200A2020392031302020312020302020202020200A2031302020352020312020302020202020200A2020392031312020312020362020202020200A2031312031322020322020302020202020200A2031322031332020312020302020202020200A2031332031342020322020302020202020200A2031342031352020312020302020202020200A2031352031362020322020302020202020200A2031362031312020312020302020202020200A2020332031372020312020302020202020200A2020312032302020312020302020202020200A2020372031382020322020302020202020200A2031342031392020312020302020202020200A2032302032312020312020302020202020200A4D2020454E44
Contributor: Tsuzimoto Y, Tsugawa H, Bamba T, Fukusaki E, engineering department, Osaka Univ.
InstType: EI
InstName: Pegasus II TOF-MS system, Leco; GC 6890, Agilent Technologies
IoniMethod: EI
IonPolarity: pos
Date: 2010-10-09 19:48:36+02:00
Num Peaks: 299
85 62 86 4 87 28 88 33 89 192 90 52 91 184 92 34 93 53 94 20 
95 85 96 23 97 39 98 26 99 91 100 4 101 45 102 64 103 103 104 28 
105 74 106 45 107 64 108 54 109 79 110 20 111 35 112 6 113 22 114 7 
115 122 116 27 117 77 118 19 119 76 120 19 121 78 122 28 123 76 124 19 
125 43 126 22 127 32 128 22 129 29 130 13 131 45 132 15 133 94 134 32 
135 189 136 41 137 108 138 33 139 69 140 27 141 32 142 12 143 33 144 7 
145 41 146 17 147 102 148 34 149 183 150 80 151 238 152 102 153 49 154 20 
155 20 156 19 157 24 158 10 159 18 160 12 161 141 162 46 163 109 164 57 
165 105 166 72 167 201 168 47 169 28 170 16 171 15 172 13 173 22 175 51 
176 45 177 501 178 152 179 775 180 174 181 206 182 51 183 30 185 73 186 19 
187 17 188 7 189 24 190 16 191 65 192 552 193 184 194 65 195 98 196 45 
197 55 198 19 199 48 200 658 201 136 202 14 203 18 204 8 205 29 206 74 
207 76 208 90 209 123 210 226 211 73 212 25 213 7 214 2 215 7 216 6 
217 18 218 12 219 44 220 5 221 45 222 17 223 45 224 22 225 60 226 14 
227 16 230 2 231 16 232 5 233 24 234 31 235 33 236 37 237 82 238 876 
239 202 240 82 241 34 242 6 243 5 244 4 248 33 249 232 250 57 251 38 
252 20 253 39 254 17 255 16 256 11 257 4 258 4 259 4 260 2 262 3 
263 9 264 26 265 128 266 39 267 21 268 2 269 29 270 14 271 8 273 5 
274 7 277 3 279 7 280 3 281 10 282 4 283 17 284 7 287 7 289 2 
294 3 295 7 296 3 297 24 298 17 299 9 301 5 303 1 306 3 307 6 
308 2 309 2 310 11 311 73 312 30 313 38 314 16 315 13 316 10 317 2 
318 5 319 3 323 8 324 28 325 21 326 16 328 2 330 3 331 3 336 1 
337 2 338 8 339 2 340 10 341 37 342 55 343 21 344 7 345 2 353 9 
355 8 356 4 357 15 358 14 360 1 362 1 368 2 369 6 370 9 371 8 
372 10 373 3 374 3 380 7 383 1 384 1 385 17 386 4 387 11 388 9 
389 5 395 7 397 4 398 8 399 5 400 10 401 13 402 23 403 8 404 4 
408 2 409 4 410 4 411 2 412 21 413 99 414 225 415 999 416 465 417 189 
418 51 419 9 420 3 421 3 426 1 428 17 429 131 430 109 431 45 432 12 
434 6 437 2 442 3 444 4 453 4 455 2 456 4 458 2 460 1 463 1 
467 1 468 1 478 5 480 3 486 2 489 5 493 3 494 3 495 2 
