Name: D-(-)-Mannitol
CAS: 69-65-8
MW: 182
Formula: C6H14O6
Synonym: KEGG: D00062
Synonym: CID: 6251
Synonym: MassBank: OUF00344
Synonym: D-(-)-Mannitol
Structure: 4330303030313136352E6364780A20204368656D447261773132323630383139313332440A2031362031352020302020302020302020302020302020302020302020303939392056323030300A2020202D302E373830302020202D302E3131333120202020302E303030302043202020302020302020302020302020302020302020302020302020302020302020302020300A20202020302E3130363920202020302E3135353120202020302E303030302043202020302020302020302020302020302020302020302020302020302020302020302020300A20202020302E363834342020202D302E3131333120202020302E303030302043202020302020302020302020302020302020302020302020302020302020302020302020300A20202020302E3438303720202020302E3830323520202020302E30303030204F202020302020302020302020302020302020302020302020302020302020302020302020300A2020202D302E363037372020202D302E3735363220202020302E30303030204F202020302020302020302020302020302020302020302020302020302020302020302020300A2020202D312E313737322020202D302E3739393320202020302E303030302048202020302020302020302020302020302020302020302020302020302020302020302020300A20202020302E333536362020202D302E3638303720202020302E303030302048202020302020302020302020302020302020302020302020302020302020302020302020300A20202020312E303832342020202D302E3830323520202020302E30303030204F202020302020302020302020302020302020302020302020302020302020302020302020300A2020202D302E3134363820202020302E3539343420202020302E303030302048202020302020302020302020302020302020302020302020302020302020302020302020300A2020202D312E3332343120202020302E3230313120202020302E303030302043202020302020302020302020302020302020302020302020302020302020302020302020300A2020202D312E3536363020202020302E3632303020202020302E303030302048202020302020302020302020302020302020302020302020302020302020302020302020300A2020202D312E3030333620202020302E3735363320202020302E30303030204F202020302020302020302020302020302020302020302020302020302020302020302020300A20202020312E3332343120202020302E3138323820202020302E303030302043202020302020302020302020302020302020302020302020302020302020302020302020300A20202020322E303338362020202D302E3232393720202020302E30303030204F202020302020302020302020302020302020302020302020302020302020302020302020300A2020202D322E3033383620202020302E3330303120202020302E303030302043202020302020302020302020302020302020302020302020302020302020302020302020300A2020202D312E333234312020202D302E3131323420202020302E30303030204F202020302020302020302020302020302020302020302020302020302020302020302020300A2020312020322020312020302020202020200A2020322020332020312020302020202020200A2020322020342020312020362020202020200A2020312020352020312020362020202020200A2020312020362020312020312020202020200A2020332020372020312020362020202020200A2020332020382020312020312020202020200A2020322020392020312020312020202020200A2020312031302020312020302020202020200A2031302031312020312020362020202020200A2031302031322020312020312020202020200A2020332031332020312020302020202020200A2031332031342020312020302020202020200A2031302031352020312020302020202020200A2031352031362020312020302020202020200A4D202053545920203120202031205355500A4D2020534C4220203120202031202020310A4D202053414C2020203120203220203133202031340A4D202053424C20202031202031202031320A4D2020534D5420202031204348324F480A4D2020534256202020312031322020202D342E3932313120202020322E353334310A4D202053545920203120202032205355500A4D2020534C4220203120202032202020320A4D202053414C2020203220203220203135202031360A4D202053424C20202032202031202031340A4D2020534D5420202032204348324F480A4D2020534256202020322031342020202D362E3237353420202020322E333337320A4D2020454E44
Contributor: Tsuzimoto Y, Tsugawa H, Bamba T, Fukusaki E, engineering department, Osaka Univ.
InstType: EI
InstName: Pegasus II TOF-MS system, Leco; GC 6890, Agilent Technologies
IoniMethod: EI
IonPolarity: pos
Date: 2010-10-09 19:48:36+02:00
Num Peaks: 197
85 11 86 3 87 21 88 20 89 91 90 9 91 5 93 1 94 1 95 2 
96 1 97 20 98 2 99 12 100 2 101 71 102 14 103 637 104 63 105 31 
106 2 107 1 109 1 111 8 112 2 113 17 114 3 115 17 116 23 117 379 
118 39 119 31 120 3 121 2 125 2 127 8 128 2 129 263 130 34 131 85 
132 13 133 185 134 28 135 17 136 2 137 1 139 1 140 1 141 6 142 5 
143 45 144 6 145 11 146 4 147 999 148 161 149 103 150 11 151 6 152 1 
153 2 154 1 155 12 156 4 157 214 158 29 159 17 160 2 161 9 162 2 
163 16 164 3 165 1 167 3 168 1 169 11 170 2 171 2 172 1 173 3 
174 1 175 20 176 4 177 10 178 2 179 1 181 1 182 1 183 22 184 4 
185 3 186 1 187 3 188 1 189 98 190 27 191 88 192 17 193 8 194 1 
201 5 202 3 203 14 204 117 205 485 206 100 207 55 208 8 209 3 210 1 
215 6 216 2 217 491 218 108 219 48 220 7 221 32 222 8 223 4 224 1 
225 1 228 1 229 59 230 21 231 38 232 8 233 4 234 1 235 1 237 1 
239 3 240 1 241 1 242 1 243 5 244 2 245 2 246 2 247 3 248 1 
249 1 254 1 255 20 256 5 257 7 258 2 259 10 260 3 261 1 263 1 
265 6 266 2 267 1 273 2 277 20 278 11 279 5 280 2 291 23 292 8 
293 4 294 1 304 1 305 24 306 13 307 68 308 21 309 10 310 2 317 2 
318 7 319 443 320 143 321 70 322 16 323 4 329 2 330 1 331 25 332 8 
333 5 334 1 344 1 345 21 346 7 347 4 348 1 408 1 409 4 410 2 
411 1 419 6 420 4 421 11 422 5 423 3 434 1 
