Name: Indoxyl Sulfate
CAS: 487-94-5
MW: 213
Formula: C8H7NO4S
Synonym: CID: 10258
Synonym: MassBank: OUF00278
Synonym: Indoxyl Sulfate
Structure: 310A33340A20204143442F4C6162733038303730393134343732440A2031342031352020302020302020302020302020302020302020302020302020312056323030300A20202032312E313135382020202D362E3830303120202020302E303030302053202020302020302020302020302020302020302020302020302020302020302020302020300A20202032312E353033342020202D372E3637363320202020302E30303030204F202020302020302020302020302020302020302020302020302020302020302020302020300A20202032302E323339362020202D372E3138373720202020302E30303030204F202020302020302020302020302020302020302020302020302020302020302020302020300A20202032312E393932302020202D362E3431323520202020302E30303030204F202020302020302020302020302020302020302020302020302020302020302020302020300A20202031372E373733342020202D332E3838343520202020302E303030302043202020302020302020302020302020302020302020302020302020302020302020302020300A20202031372E373733342020202D342E3834353920202020302E303030302043202020302020302020302020302020302020302020302020302020302020302020302020300A20202031382E363036312020202D352E3332363620202020302E303030302043202020302020302020302020302020302020302020302020302020302020302020302020300A20202031392E343338372020202D342E3834353920202020302E303030302043202020302020302020302020302020302020302020302020302020302020302020302020300A20202031392E343338372020202D332E3838343520202020302E303030302043202020302020302020302020302020302020302020302020302020302020302020302020300A20202031382E363036312020202D332E3430333720202020302E303030302043202020302020302020302020302020302020302020302020302020302020302020302020300A20202032302E333130362020202D332E3531373220202020302E30303030204E202020302020302020302020302020302020302020302020302020302020302020302020300A20202032302E343339372020202D352E3034323520202020302E303030302043202020302020302020302020302020302020302020302020302020302020302020302020300A20202032302E393239332020202D342E3233333020202020302E303030302043202020302020302020302020302020302020302020302020302020302020302020302020300A20202032302E363839302020202D352E3639303920202020302E30303030204F202020302020302020302020302020302020302020302020302020302020302020302020300A2020312020322020312020302020302020302020300A2020312020332020322020302020302020302020300A2020312020342020322020302020302020302020300A2020352020362020322020302020302020302020300A2020362020372020312020302020302020302020300A2020372020382020322020302020302020302020300A2020382020392020312020302020302020302020300A2020392031302020322020302020302020302020300A2031302020352020312020302020302020302020300A2020382031322020312020302020302020302020300A2031322031332020322020302020302020302020300A2031332031312020312020302020302020302020300A2031312020392020312020302020302020302020300A2031342031322020312020302020302020302020300A2020312031342020312020302020302020302020300A4D2020454E44
Contributor: Tsuzimoto Y, Tsugawa H, Bamba T, Fukusaki E, engineering department, Osaka Univ.
InstType: EI
InstName: Pegasus II TOF-MS system, Leco; GC 6890, Agilent Technologies
IoniMethod: EI
IonPolarity: pos
Date: 2010-10-09 19:48:36+02:00
Num Peaks: 87
85 11 86 85 87 12 88 14 89 6 90 1 91 4 92 11 93 12 94 1 
95 4 98 4 99 13 100 422 101 47 102 245 103 25 104 10 105 1 106 1 
108 3 110 2 112 1 114 54 115 7 116 20 117 6 118 1 119 1 120 2 
122 4 123 6 124 5 126 1 128 14 129 2 130 5 131 1 134 4 136 1 
137 5 138 3 139 2 144 14 145 2 146 1 148 1 152 3 153 5 154 1 
155 1 158 2 160 1 164 3 166 29 167 4 168 3 179 1 180 69 181 12 
182 137 183 16 184 12 185 1 192 1 194 5 195 1 196 54 197 20 198 8 
199 1 208 6 209 2 210 6 211 3 212 1 215 1 223 1 224 999 225 147 
226 91 227 10 228 2 238 87 239 13 240 9 241 1 
