Name: Malonic acid
CAS: 141-82-2
MW: 104
Formula: C3H4O4
Synonym: KEGG: C00383
Synonym: CID: 867
Synonym: MassBank: OUF00338
Synonym: Malonic acid
Structure: 310A31380A4330303030313139332E6364780A20204368656D447261773132323630383139313432440A2020372020362020302020302020302020302020302020302020302020303939392056323030300A2020202D312E333738352020202D302E3538323820202020302E30303030204F202020302020302020302020302020302020302020302020302020302020302020302020300A2020202D302E3936363620202020302E3133303720202020302E303030302043202020302020302020302020302020302020302020302020302020302020302020302020300A2020202D302E3235363520202020302E3133303720202020302E303030302043202020302020302020302020302020302020302020302020302020302020302020302020300A2020202D312E3431383720202020302E3538323820202020302E30303030204F202020302020302020302020302020302020302020302020302020302020302020302020300A20202020302E3933323120202020302E3034343120202020302E303030302043202020302020302020302020302020302020302020302020302020302020302020302020300A20202020312E323336322020202D302E3438323720202020302E30303030204F202020302020302020302020302020302020302020302020302020302020302020302020300A20202020312E3431383720202020302E3533303620202020302E30303030204F202020302020302020302020302020302020302020302020302020302020302020302020300A2020312020322020312020302020202020200A2020322020332020312020302020202020200A2020322020342020322020302020202020200A2020332020352020312020302020202020200A2020352020362020312020302020202020200A2020352020372020322020302020202020200A4D2020454E44
Contributor: Tsuzimoto Y, Tsugawa H, Bamba T, Fukusaki E, engineering department, Osaka Univ.
InstType: EI
InstName: Pegasus II TOF-MS system, Leco; GC 6890, Agilent Technologies
IoniMethod: EI
IonPolarity: pos
Date: 2010-10-09 19:48:36+02:00
Num Peaks: 54
85 3 86 2 87 18 88 9 89 6 90 1 91 1 92 1 93 3 95 1 
98 1 99 47 100 5 101 22 102 6 103 13 104 2 105 8 109 15 110 1 
113 2 115 15 116 10 117 19 118 3 119 5 130 1 131 36 132 7 133 48 
134 7 135 4 143 26 144 3 145 2 146 2 147 999 148 161 149 90 150 10 
151 2 159 1 162 1 173 4 189 5 190 1 204 1 217 6 218 1 233 48 
234 10 235 4 248 7 249 1 
