Name: DL-Glyceraldehyde
CAS: 56-82-6
MW: 90
Formula: C3H6O3
Synonym: KEGG: C02154
Synonym: CID: 751
Synonym: MassBank: OUF00252
Synonym: DL-Glyceraldehyde
Structure: 310A32380A4330303030373431332E6364780A20204368656D447261773132323930383037313432440A2020392020382020302020302020302020302020302020302020302020303939392056323030300A2020202D302E3236303220202020302E3337343220202020302E303030302043202020302020302020302020302020302020302020302020302020302020302020302020300A2020202D302E323630322020202D302E3338383920202020302E303030302043202020302020302020302020302020302020302020302020302020302020302020302020300A2020202D302E373331352020202D302E3338383920202020302E303030302048202020302020302020302020302020302020302020302020302020302020302020302020300A20202020302E323239332020202D302E3338383920202020302E30303030204F202020302020302020302020302020302020302020302020302020302020302020302020300A2020202D302E3735323720202020302E3337343220202020302E303030302048202020302020302020302020302020302020302020302020302020302020302020302020300A20202020302E3231313220202020302E3337343220202020302E30303030204F202020302020302020302020302020302020302020302020302020302020302020302020300A2020202D302E323630322020202D302E3935393020202020302E303030302048202020302020302020302020302020302020302020302020302020302020302020302020300A20202020302E3033383220202020302E3935393020202020302E303030302043202020302020302020302020302020302020302020302020302020302020302020302020300A20202020302E3735323720202020302E3534363520202020302E30303030204F202020302020302020302020302020302020302020302020302020302020302020302020300A2020312020322020312020302020202020200A2020322020332020312020302020202020200A2020322020342020312020302020202020200A2020312020352020312020302020202020200A2020312020362020312020302020202020200A2020322020372020312020302020202020200A2020312020382020312020302020202020200A2020382020392020322020302020202020200A4D202053545920203120202031205355500A4D2020534C4220203120202031202020310A4D202053414C2020203120203220202038202020390A4D202053424C20202031202031202020370A4D2020534D54202020312043484F0A4D2020534256202020312020372020202D342E3437323720202020332E383735360A4D2020454E44
Contributor: Tsuzimoto Y, Tsugawa H, Bamba T, Fukusaki E, engineering department, Osaka Univ.
InstType: EI
InstName: Pegasus II TOF-MS system, Leco; GC 6890, Agilent Technologies
IoniMethod: EI
IonPolarity: pos
Date: 2010-10-09 19:48:36+02:00
Num Peaks: 92
85 35 86 54 87 59 88 48 89 884 90 96 91 23 99 21 100 533 101 255 
102 225 103 999 104 112 105 214 107 10 113 2 114 59 115 47 116 42 117 502 
118 52 119 42 120 9 125 8 126 27 127 3 128 18 129 15 130 12 131 284 
132 28 133 527 134 62 135 27 142 17 143 7 146 9 147 759 148 110 149 60 
158 15 160 252 161 16 163 66 164 7 165 4 172 4 173 19 176 5 185 4 
189 113 190 10 191 107 192 12 200 106 201 24 212 7 213 9 216 16 218 8 
223 1 232 52 233 2 244 6 248 3 257 2 263 47 264 9 269 2 271 2 
275 2 277 6 296 1 302 6 319 4 321 3 325 2 335 2 343 1 344 3 
356 5 359 1 368 4 395 1 398 8 408 1 411 5 425 2 435 4 448 5 
478 2 487 5 
