Name: Glycerol
CAS: 56-81-5
MW: 92
Formula: C3H8O3
Synonym: KEGG: C00116
Synonym: CID: 753
Synonym: MassBank: OUF00254
Synonym: Glycerol
Structure: 310A33300A4330303030313136332E6364780A20204368656D447261773132323630383139313332440A2020372020362020302020302020302020302020302020302020302020303939392056323030300A2020202D302E313831342020202D302E3031363020202020302E303030302043202020302020302020302020302020302020302020302020302020302020302020302020300A20202020302E3139323420202020302E3633313520202020302E30303030204F202020302020302020302020302020302020302020302020302020302020302020302020300A2020202D302E3433353020202020302E3432333420202020302E303030302048202020302020302020302020302020302020302020302020302020302020302020302020300A2020202D302E3839353920202020302E3131353120202020302E303030302043202020302020302020302020302020302020302020302020302020302020302020302020300A2020202D302E313831342020202D302E3239373420202020302E30303030204F202020302020302020302020302020302020302020302020302020302020302020302020300A20202020302E313831342020202D302E3231393020202020302E303030302043202020302020302020302020302020302020302020302020302020302020302020302020300A20202020302E383935392020202D302E3633313520202020302E30303030204F202020302020302020302020302020302020302020302020302020302020302020302020300A2020312020322020312020362020202020200A2020312020332020312020312020202020200A2020312020342020312020302020202020200A2020342020352020312020302020202020200A2020312020362020312020302020202020200A2020362020372020312020302020202020200A4D202053545920203120202031205355500A4D2020534C4220203120202031202020310A4D202053414C2020203120203220202034202020350A4D202053424C20202031202031202020330A4D2020534D5420202031204348324F480A4D2020534256202020312020332020202D322E3736383620202020312E353137360A4D202053545920203120202032205355500A4D2020534C4220203120202032202020320A4D202053414C2020203220203220202036202020370A4D202053424C20202032202031202020350A4D2020534D5420202032204348324F480A4D2020534256202020322020352020202D312E3639313420202020312E313833350A4D2020454E44
Contributor: Tsuzimoto Y, Tsugawa H, Bamba T, Fukusaki E, engineering department, Osaka Univ.
InstType: EI
InstName: Pegasus II TOF-MS system, Leco; GC 6890, Agilent Technologies
IoniMethod: EI
IonPolarity: pos
Date: 2010-10-09 19:48:36+02:00
Num Peaks: 88
85 21 86 4 87 23 88 19 89 72 90 7 91 4 94 1 95 1 97 1 
98 1 99 12 100 2 101 131 102 19 103 477 104 49 105 33 106 3 107 2 
111 2 113 13 114 2 115 45 116 45 117 571 118 60 119 57 120 6 121 3 
128 4 129 105 130 16 131 96 132 16 133 330 134 47 135 30 136 3 137 1 
143 3 144 1 145 5 146 3 147 999 148 160 149 113 150 13 151 6 159 7 
160 1 161 4 162 2 163 17 164 3 165 2 173 1 174 5 175 56 176 11 
177 40 178 7 179 4 180 1 187 1 189 13 190 4 191 45 192 11 193 5 
203 45 204 64 205 381 206 75 207 36 208 5 209 1 217 26 218 164 219 36 
220 15 221 8 222 1 223 1 263 2 293 10 294 3 295 1 
