Name: Alanylalanine
CAS: 1948-31-8
MW: 160
Formula: C6H12N2O3
Synonym: CID: 5484352
Synonym: MassBank: OUF00105
Synonym: Alanylalanine
Structure: 313934382D32392D342E6D6F6C0A20204368656D447261773038303231303132333932440A2031312031302020302020302020302020302020302020302020302020303939392056323030300A20202020302E3731333920202020302E3139393620202020302E303030302043202020302020302020302020302020302020302020302020302020302020302020302020300A20202020312E343236382020202D302E3230313520202020302E303030302043202020302020302020302020302020302020302020302020302020302020302020302020300A2020202D302E303033302020202D302E3230313520202020302E30303030204E202020302020302020302020302020302020302020302020302020302020302020302020300A20202020302E3731333920202020312E3033313720202020302E303030302043202020302020302020302020302020302020302020302020302020302020302020302020300A20202020312E343236382020202D312E3033313720202020302E30303030204F202020302020302020302020302020302020302020302020302020302020302020302020300A20202020322E3134373820202020302E3139393620202020302E30303030204F202020302020302020302020302020302020302020302020302020302020302020302020300A2020202D302E3731323020202020302E3139393620202020302E303030302043202020302020302020302020302020302020302020302020302020302020302020302020300A2020202D312E343332382020202D302E3230313520202020302E303030302043202020302020302020302020302020302020302020302020302020302020302020302020300A2020202D302E3731323020202020312E3033313720202020302E30303030204F202020302020302020302020302020302020302020302020302020302020302020302020300A2020202D312E343332382020202D312E3033313720202020302E303030302043202020302020302020302020302020302020302020302020302020302020302020302020300A2020202D322E3134373820202020302E3139393620202020302E30303030204E202020302020302020302020302020302020302020302020302020302020302020302020300A2020312020322020312020302020202020200A2020312020332020312020312020202020200A2020312020342020312020302020202020200A2020322020352020312020302020202020200A2020322020362020322020302020202020200A2020332020372020312020302020202020200A2020372020382020312020302020202020200A2020372020392020322020302020202020200A2020382031302020312020302020202020200A2020382031312020312020362020202020200A4D2020454E44
Contributor: Tsuzimoto Y, Tsugawa H, Bamba T, Fukusaki E, engineering department, Osaka Univ.
InstType: EI
InstName: Pegasus II TOF-MS system, Leco; GC 6890, Agilent Technologies
IoniMethod: EI
IonPolarity: pos
Date: 2010-10-09 19:48:36+02:00
Num Peaks: 140
85 14 86 49 87 14 88 5 89 4 94 1 95 2 97 9 98 12 99 14 
100 583 101 82 102 43 103 14 104 3 105 4 110 2 112 4 113 9 114 157 
115 39 116 134 117 47 118 14 119 9 120 1 123 1 125 2 126 1 127 4 
128 12 129 23 130 94 131 42 132 20 133 49 134 12 135 7 136 2 138 1 
139 1 141 2 142 7 143 4 144 16 145 2 146 22 147 122 148 26 149 18 
150 3 151 3 152 1 155 3 156 5 157 12 158 13 159 4 160 9 161 1 
162 1 169 9 170 3 171 4 172 35 173 13 174 21 175 3 176 4 177 1 
178 1 179 1 181 1 186 19 187 7 188 999 189 205 190 166 191 31 192 8 
193 4 194 2 195 1 198 1 199 1 200 28 201 16 202 8 203 5 204 1 
214 1 215 10 216 11 217 4 218 5 219 1 220 3 221 3 226 2 228 1 
233 1 238 1 243 21 244 6 245 4 246 27 247 4 254 1 257 2 259 2 
263 2 266 2 269 1 271 15 272 2 274 1 289 1 301 1 304 1 307 2 
317 1 318 1 320 1 321 2 332 1 333 1 336 1 344 2 360 1 361 38 
362 21 363 4 364 1 368 2 371 1 402 1 415 2 432 2 434 1 475 2 
