Name: N-Formyl-L-Methionine
CAS: 4289-98-9
MW: 177
Formula: C6H11NO3S
Synonym: KEGG: C03145
Synonym: CID: 439750
Synonym: MassBank: OUF00387
Synonym: N-Formyl-L-Methionine
Structure: 31322031312020302020302020312020302020302020302020302020303939392056323030300A20202031392E3533333320202D31342E3534313120202020302E303030302043202020302020302020322020302020302020302020302020302020302020302020302020300A20202031382E3338353320202D31332E3737333620202020302E303030302043202020302020302020302020302020302020302020302020302020302020302020302020300A20202031392E3535323220202D31362E3139363320202020302E30303030204E202020302020302020302020302020302020302020302020302020302020302020302020300A20202032302E3833393520202D31342E3038343420202020302E303030302043202020302020302020302020302020302020302020302020302020302020302020302020300A20202031372E3037393120202D31342E3234333020202020302E303030302043202020302020302020302020302020302020302020302020302020302020302020302020300A20202031382E3336363420202D31362E3839333820202020302E303030302043202020302020302020302020302020302020302020302020302020302020302020302020300A20202032312E3936313920202D31342E3838333520202020302E30303030204F202020302020302020302020302020302020302020302020302020302020302020302020300A20202032302E3833393520202D31322E3732373220202020302E30303030204F202020302020302020302020302020302020302020302020302020302020302020302020300A20202031362E3231303320202D31332E3137313220202020302E303030302053202020302020302020302020302020302020302020302020302020302020302020302020300A20202031372E3136313520202D31362E3232313720202020302E30303030204F202020302020302020302020302020302020302020302020302020302020302020302020300A20202031342E3839373620202D31332E3633343220202020302E303030302043202020302020302020302020302020302020302020302020302020302020302020302020300A20202031382E3331313720202D31382E3430393420202020302E303030302048202020302020302020302020302020302020302020302020302020302020302020302020300A2020312020322020312020302020202020302020300A2020312020332020312020312020202020302020300A2020312020342020312020302020202020302020300A2020322020352020312020302020202020302020300A2020332020362020312020302020202020302020300A2020342020372020312020302020202020302020300A2020342020382020322020302020202020302020300A2020352020392020312020302020202020302020300A2020362031302020322020302020202020302020300A2020392031312020312020302020202020302020300A2020362031322020312020302020202020302020300A4D2020454E44
Contributor: Tsuzimoto Y, Tsugawa H, Bamba T, Fukusaki E, engineering department, Osaka Univ.
InstType: EI
InstName: Pegasus II TOF-MS system, Leco; GC 6890, Agilent Technologies
IoniMethod: EI
IonPolarity: pos
Date: 2010-10-09 19:48:36+02:00
Num Peaks: 113
85 999 86 71 87 43 88 35 89 14 90 1 91 151 92 12 93 11 94 1 
97 1 98 244 99 31 100 18 101 1 102 186 103 66 104 124 105 24 106 2 
107 1 111 68 112 26 113 6 114 17 115 16 116 39 117 15 118 3 119 4 
125 1 128 33 129 26 130 78 131 45 132 54 136 2 137 1 139 1 141 1 
142 7 143 1 144 116 145 21 146 22 154 1 156 2 157 22 158 73 159 110 
160 58 161 10 172 1 173 5 174 5 175 603 176 67 177 22 178 5 179 1 
182 1 186 79 187 9 188 74 189 40 190 10 192 2 202 2 206 10 207 5 
219 2 227 1 233 1 234 38 235 5 236 1 243 1 249 37 250 5 251 1 
282 1 286 2 289 1 291 1 292 1 304 1 309 1 316 1 319 1 327 1 
347 2 348 1 359 3 360 1 371 1 398 1 404 1 409 1 419 2 425 1 
427 1 430 1 438 1 443 1 444 1 445 2 446 3 453 1 457 2 465 2 
493 1 497 1 499 1 
