Name: DL-Threo-b-HydroxyAspartic acid
CAS: 4294-45-5
MW: 149
Formula: C4H7NO5
Synonym: CID: 11788378
Synonym: MassBank: OUF00202
Synonym: DL-Threo-b-HydroxyAspartic acid
Structure: 34323934332D36382D302E6D6F6C0A20204368656D447261773038303331303139303932440A2031302020392020302020302020302020302020302020302020302020303939392056323030300A2020202D302E333137332020202D302E3235313120202020302E303030302043202020302020302020302020302020302020302020302020302020302020302020302020300A20202020302E3331373320202020302E3234393120202020302E303030302043202020302020302020302020302020302020302020302020302020302020302020302020300A2020202D312E3038363420202020302E3033393520202020302E303030302043202020302020302020302020302020302020302020302020302020302020302020302020300A2020202D302E313938372020202D312E3036373620202020302E30303030204E202020302020302020302020302020302020302020302020302020302020302020302020300A20202020312E303836342020202D302E3034393420202020302E303030302043202020302020302020302020302020302020302020302020302020302020302020302020300A20202020302E3139383720202020312E3036373620202020302E30303030204F202020302020302020302020302020302020302020302020302020302020302020302020300A2020202D312E373332392020202D302E3435343720202020302E30303030204F202020302020302020302020302020302020302020302020302020302020302020302020300A2020202D312E3230333020202020302E3836303120202020302E30303030204F202020302020302020302020302020302020302020302020302020302020302020302020300A20202020312E323035302020202D302E3836363020202020302E30303030204F202020302020302020302020302020302020302020302020302020302020302020302020300A20202020312E3733323920202020302E3435303820202020302E30303030204F202020302020302020302020302020302020302020302020302020302020302020302020300A2020312020322020312020302020202020200A2020312020332020312020302020202020200A2020312020342020312020312020202020200A2020322020352020312020302020202020200A2020322020362020312020312020202020200A2020332020372020312020302020202020200A2020332020382020322020302020202020200A2020352020392020312020302020202020200A2020352031302020322020302020202020200A4D2020454E44
Contributor: Tsuzimoto Y, Tsugawa H, Bamba T, Fukusaki E, engineering department, Osaka Univ.
InstType: EI
InstName: Pegasus II TOF-MS system, Leco; GC 6890, Agilent Technologies
IoniMethod: EI
IonPolarity: pos
Date: 2010-10-09 19:48:36+02:00
Num Peaks: 168
85 13 86 37 87 19 88 7 89 8 90 1 91 2 92 1 93 3 94 1 
95 2 96 2 97 2 98 10 99 17 100 348 101 62 102 91 103 59 104 9 
105 10 106 1 110 1 111 1 112 3 113 5 114 12 115 30 116 15 117 36 
118 9 119 17 120 3 121 2 124 1 125 1 126 3 127 1 128 7 129 7 
130 100 131 70 132 60 133 124 134 22 135 12 136 2 140 6 141 2 142 31 
143 10 144 9 145 6 146 14 147 530 148 92 149 61 150 8 151 4 152 1 
156 3 157 3 158 22 159 11 160 9 161 6 162 6 163 24 164 5 165 3 
166 1 169 1 170 6 171 3 172 20 173 9 174 17 175 6 176 4 177 14 
178 4 179 2 184 2 185 1 186 2 187 2 188 42 189 15 190 9 191 8 
192 3 193 2 194 1 198 1 200 3 201 1 202 27 203 38 204 21 205 15 
206 5 207 8 208 2 209 1 214 6 215 2 216 24 217 13 218 999 219 201 
220 94 221 42 222 10 223 4 224 1 230 19 231 6 232 10 233 3 234 1 
242 1 244 1 245 1 246 2 248 2 249 1 259 1 260 3 261 1 262 3 
263 1 276 12 277 8 278 6 279 2 288 2 289 1 290 3 291 3 292 195 
293 59 294 29 295 6 296 2 304 17 305 7 306 5 307 2 319 3 320 131 
321 43 322 20 323 5 324 1 332 9 333 5 334 3 335 1 378 1 394 8 
395 5 396 3 397 1 421 2 422 18 423 9 424 4 425 1 
