Name: Tryptamine
CAS: 61-54-1
MW: 160
Formula: C10H12N2
Synonym: KEGG: C00398
Synonym: CID: 1150
Synonym: MassBank: OUF00478
Synonym: Tryptamine
Structure: 4330303030313433342E6364780A20204368656D447261773132323630383139323232440A2031322031332020302020302020302020302020302020302020302020303939392056323030300A2020202D312E3238393220202020302E3038343520202020302E303030302043202020302020302020302020302020302020302020302020302020302020302020302020300A2020202D312E323839322020202D302E3437323420202020302E303030302043202020302020302020302020302020302020302020302020302020302020302020302020300A2020202D302E383036392020202D302E3735303820202020302E303030302043202020302020302020302020302020302020302020302020302020302020302020302020300A2020202D302E333234372020202D302E3437323420202020302E303030302043202020302020302020302020302020302020302020302020302020302020302020302020300A2020202D302E3332343720202020302E3038343520202020302E303030302043202020302020302020302020302020302020302020302020302020302020302020302020300A2020202D302E3830363920202020302E3336323920202020302E303030302043202020302020302020302020302020302020302020302020302020302020302020302020300A20202020302E323034392020202D302E3634343520202020302E30303030204E202020302020302020302020302020302020302020302020302020302020302020302020300A20202020302E353332332020202D302E3139333920202020302E303030302043202020302020302020302020302020302020302020302020302020302020302020302020300A20202020302E3230343920202020302E3235363620202020302E303030302043202020302020302020302020302020302020302020302020302020302020302020302020300A20202020302E3439303320202020302E3735303820202020302E303030302043202020302020302020302020302020302020302020302020302020302020302020302020300A20202020312E3033373320202020302E3630343320202020302E303030302043202020302020302020302020302020302020302020302020302020302020302020302020300A20202020312E3238393220202020302E3136373920202020302E30303030204E202020302020302020302020302020302020302020302020302020302020302020302020300A2020312020322020322020302020202020200A2020322020332020312020302020202020200A2020332020342020322020302020202020200A2020342020352020312020302020202020200A2020352020362020322020302020202020200A2020362020312020312020302020202020200A2020342020372020312020302020202020200A2020372020382020312020302020202020200A2020382020392020322020302020202020200A2020392020352020312020302020202020200A2020392031302020312020302020202020200A2031302031312020312020302020202020200A2031312031322020312020302020202020200A4D2020454E44
Contributor: Tsuzimoto Y, Tsugawa H, Bamba T, Fukusaki E, engineering department, Osaka Univ.
InstType: EI
InstName: Pegasus II TOF-MS system, Leco; GC 6890, Agilent Technologies
IoniMethod: EI
IonPolarity: pos
Date: 2010-10-09 19:48:36+02:00
Num Peaks: 88
85 10 86 465 87 47 88 20 89 12 90 6 91 7 92 2 93 1 98 1 
99 6 100 211 101 43 102 62 103 52 104 8 105 3 113 7 114 8 115 34 
116 28 117 47 118 9 119 5 120 2 127 4 128 20 129 17 130 205 131 47 
132 14 133 4 134 7 135 2 136 1 137 33 138 4 140 1 141 1 142 9 
143 23 144 27 145 12 146 43 147 9 148 7 149 1 154 1 155 2 156 5 
157 1 158 13 159 4 160 17 161 3 162 1 169 1 170 5 171 2 172 19 
173 7 174 999 175 188 176 84 177 10 178 2 184 6 185 2 186 8 187 3 
188 24 189 5 190 2 199 4 200 4 201 36 202 9 203 3 214 4 215 29 
216 7 217 2 287 2 288 1 289 26 290 8 291 3 304 2 
