Name: Ketovaline
CAS: 759-05-7
MW: 116
Formula: C5H8O3
Synonym: KEGG: C00141
Synonym: CID: 49
Synonym: MassBank: OUF00290
Synonym: Ketovaline
Structure: 310A32300A4330303030373632332E6364780A20204368656D447261773132323930383037323132440A2020382020372020302020302020302020302020302020302020302020303939392056323030300A20202020302E303030302020202D302E3230363220202020302E303030302043202020302020302020302020302020302020302020302020302020302020302020302020300A20202020302E303030302020202D312E3033313320202020302E30303030204F202020302020302020302020302020302020302020302020302020302020302020302020300A20202020302E3731343520202020302E3230363220202020302E303030302043202020302020302020302020302020302020302020302020302020302020302020302020300A2020202D302E3731343520202020302E3230363220202020302E303030302043202020302020302020302020302020302020302020302020302020302020302020302020300A20202020312E343238392020202D302E3230363220202020302E30303030204F202020302020302020302020302020302020302020302020302020302020302020302020300A2020202D302E3731343520202020312E3033313320202020302E303030302043202020302020302020302020302020302020302020302020302020302020302020302020300A2020202D312E343238392020202D302E3230363220202020302E303030302043202020302020302020302020302020302020302020302020302020302020302020302020300A20202020302E3731343520202020312E3033313320202020302E30303030204F202020302020302020302020302020302020302020302020302020302020302020302020300A2020312020322020322020302020202020200A2020312020332020312020302020202020200A2020312020342020312020302020202020200A2020332020352020312020302020202020200A2020342020362020312020302020202020200A2020342020372020312020302020202020200A2020332020382020322020302020202020200A4D2020454E44
Contributor: Tsuzimoto Y, Tsugawa H, Bamba T, Fukusaki E, engineering department, Osaka Univ.
InstType: EI
InstName: Pegasus II TOF-MS system, Leco; GC 6890, Agilent Technologies
IoniMethod: EI
IonPolarity: pos
Date: 2010-10-09 19:48:36+02:00
Num Peaks: 107
85 40 86 157 87 17 88 18 89 999 90 96 91 45 92 5 94 2 96 49 
97 10 98 29 99 100 100 290 101 67 102 18 103 13 104 5 105 84 106 5 
107 9 110 3 111 3 112 33 113 12 114 24 115 4 116 6 117 93 118 10 
119 2 126 45 127 176 128 225 129 37 131 4 132 5 136 4 137 4 138 1 
140 20 141 33 142 53 143 62 144 20 145 4 146 6 157 8 158 6 161 1 
162 2 164 1 165 1 170 15 171 5 172 1 173 4 186 223 187 58 188 3 
189 3 190 3 202 336 203 60 204 18 207 1 215 1 216 1 217 22 218 2 
233 1 235 1 239 2 262 1 272 1 276 1 277 2 288 1 300 2 304 1 
311 3 315 1 330 1 337 1 338 2 340 1 365 1 369 1 370 1 376 2 
378 1 383 3 386 1 389 2 404 3 413 1 414 1 425 1 438 2 445 1 
451 2 458 1 461 1 470 2 472 1 486 1 494 2 
