Name: Adenosine
CAS: 58-61-7
MW: 267
Formula: C10H13N5O4
Synonym: CID: 191
Synonym: MassBank: OUF00097
Synonym: Adenosine
Structure: 4330303030373434342E6364780A20204368656D447261773132323930383037313532440A2031392032312020302020302020302020302020302020302020302020303939392056323030300A20202020302E3139353720202020312E3032383920202020302E303030302043202020302020302020302020302020302020302020302020302020302020302020302020300A20202020302E3139353720202020302E3238353620202020302E303030302043202020302020302020302020302020302020302020302020302020302020302020302020300A2020202D302E343437382020202D302E3038373420202020302E30303030204E202020302020302020302020302020302020302020302020302020302020302020302020300A2020202D312E3039323620202020302E3238353620202020302E303030302043202020302020302020302020302020302020302020302020302020302020302020302020300A2020202D312E3039323620202020312E3032383920202020302E30303030204E202020302020302020302020302020302020302020302020302020302020302020302020300A2020202D302E3434373820202020312E3430303520202020302E303030302043202020302020302020302020302020302020302020302020302020302020302020302020300A2020202D302E3434373820202020322E3134333920202020302E30303030204E202020302020302020302020302020302020302020302020302020302020302020302020300A2020202D302E343537342020202D312E3737353120202020302E303030302043202020302020302020302020302020302020302020302020302020302020302020302020300A20202020302E363131312020202D312E3737353120202020302E303030302043202020302020302020302020302020302020302020302020302020302020302020302020300A20202020302E393335342020202D312E3430323520202020302E303030302043202020302020302020302020302020302020302020302020302020302020302020302020300A20202020302E303735372020202D312E3038333820202020302E30303030204F202020302020302020302020302020302020302020302020302020302020302020302020300A2020202D302E373838352020202D312E3430323520202020302E303030302043202020302020302020302020302020302020302020302020302020302020302020302020300A2020202D302E373838352020202D302E3839333020202020302E303030302043202020302020302020302020302020302020302020302020302020302020302020302020300A2020202D312E333339362020202D302E3537343320202020302E30303030204F202020302020302020302020302020302020302020302020302020302020302020302020300A20202020302E3930323720202020302E3035353920202020302E30303030204E202020302020302020302020302020302020302020302020302020302020302020302020300A20202020312E3333393620202020302E3635373320202020302E303030302043202020302020302020302020302020302020302020302020302020302020302020302020300A20202020302E3930323720202020312E3235383620202020302E30303030204E202020302020302020302020302020302020302020302020302020302020302020302020300A2020202D302E343537342020202D322E3133323620202020302E30303030204F202020302020302020302020302020302020302020302020302020302020302020302020300A20202020302E363131312020202D322E3134333920202020302E30303030204F202020302020302020302020302020302020302020302020302020302020302020302020300A2020312020322020312020302020202020200A2020322020332020322020302020202020200A2020332020342020312020302020202020200A2020342020352020322020302020202020200A2020352020362020312020302020202020200A2020312020362020322020302020202020200A2020362020372020312020302020202020200A2020382020392020312020312020202020200A2031302020392020312020312020202020200A2031302031312020312020302020202020200A2031312031322020312020302020202020200A2031322020382020312020312020202020200A2031322031332020312020302020202020200A2031332031342020312020302020202020200A2020322031352020312020302020202020200A2031352031362020312020302020202020200A2031362031372020322020302020202020200A2031372020312020312020302020202020200A2020382031382020312020302020202020200A2020392031392020312020302020202020200A2031352031302020312020302020202020200A4D2020454E44
Contributor: Tsuzimoto Y, Tsugawa H, Bamba T, Fukusaki E, engineering department, Osaka Univ.
InstType: EI
InstName: Pegasus II TOF-MS system, Leco; GC 6890, Agilent Technologies
IoniMethod: EI
IonPolarity: pos
Date: 2010-10-09 19:48:36+02:00
Num Peaks: 251
85 77 86 28 87 28 88 16 89 60 90 8 91 5 92 5 93 8 94 6 
95 16 96 12 97 34 98 20 99 85 100 33 101 112 102 24 103 579 104 59 
105 31 106 6 107 5 108 12 109 27 110 11 111 87 112 16 113 53 114 13 
115 109 116 73 117 119 118 18 119 34 120 6 121 7 122 7 123 15 124 10 
125 15 126 15 127 32 128 10 129 191 130 33 131 89 132 26 133 168 134 28 
135 34 136 16 137 21 138 33 139 8 140 12 141 24 142 29 143 88 144 28 
145 35 146 10 147 493 148 85 149 78 150 23 151 20 152 9 153 31 154 7 
155 13 156 14 157 42 158 14 159 13 160 6 161 7 162 20 163 11 164 32 
165 128 166 32 167 13 168 11 169 127 170 23 171 22 172 6 173 10 174 5 
175 11 176 29 177 20 178 13 179 16 180 29 181 13 182 5 183 5 184 2 
185 4 186 2 187 7 188 3 189 52 190 23 191 52 192 444 193 78 194 26 
195 4 196 3 197 1 199 2 200 1 201 4 202 4 203 11 204 26 205 21 
206 115 207 86 208 241 209 51 210 16 211 3 212 1 214 2 215 20 216 14 
217 412 218 102 219 58 220 31 221 15 222 7 223 6 224 1 225 1 227 1 
228 1 229 18 230 999 231 238 232 112 233 25 234 20 235 13 236 899 237 168 
238 47 239 10 240 3 241 1 242 3 243 191 244 52 245 442 246 106 247 46 
248 17 249 6 250 7 251 3 252 1 257 20 258 53 259 95 260 30 261 12 
262 11 263 8 264 65 265 23 266 16 267 4 268 1 270 1 273 1 274 1 
276 1 277 3 278 29 279 59 280 111 281 34 282 15 283 2 286 3 290 4 
291 5 292 6 293 5 294 4 295 2 296 2 303 1 304 2 305 4 306 54 
307 19 308 15 309 4 310 2 318 1 319 4 320 17 321 12 322 65 323 22 
324 9 325 2 331 2 332 1 333 3 334 28 335 10 336 5 337 23 338 10 
339 3 346 4 347 4 348 32 349 14 350 8 351 2 352 1 360 2 362 6 
363 2 364 1 375 7 376 9 377 4 378 3 379 1 380 1 392 2 393 1 
394 6 395 2 408 2 436 1 450 4 451 4 452 7 453 3 465 4 466 5 
467 1 
