Name: Maltotriose
CAS: 1109-28-0
MW: 504
Formula: C18H32O16
Synonym: CID: 92146
Synonym: MassBank: OUF00342
Synonym: Maltotriose
Structure: 310A3130320A20204143442F4C6162733037313330393134323132440A2034382034392020302020302020312020302020302020302020302020302020312056323030300A20202031322E3137323720202D32322E3138373420202020302E303030302043202020302020302020302020302020302020302020302020302020302020302020302020300A20202031322E3138323620202D32332E3531363420202020302E303030302043202020302020302020302020302020302020302020302020302020302020302020302020300A20202031312E3032343620202D32312E3532303420202020302E303030302043202020302020302020302020302020302020302020302020302020302020302020302020300A20202031312E3032343520202D32342E3138303420202020302E303030302043202020302020302020302020302020302020302020302020302020302020302020302020300A20202020392E3836333020202D32322E3139353720202020302E303030302043202020302020302020302020302020302020302020302020302020302020302020302020300A20202031322E3532363820202D32342E3830313120202020302E303030302048202020302020302020302020302020302020302020302020302020302020302020302020300A20202031332E3436373320202D32332E3836303620202020302E30303030204F202020302020302020302020302020302020302020302020302020302020302020302020300A20202031312E3032343520202D32302E3139303420202020302E303030302048202020302020302020302020302020302020302020302020302020302020302020302020300A20202031312E3032343620202D32322E3835303420202020302E30303030204F202020302020302020302020302020302020302020302020302020302020302020302020300A20202031312E3032323520202D32352E3531303420202020302E30303030204F202020302020302020302020302020302020302020302020302020302020302020302020300A20202020382E3731353220202D32312E3531373120202020302E303030302043202020302020302020302020302020302020302020302020302020302020302020302020300A20202020392E3837323820202D32332E3531353420202020302E30303030204F202020302020302020302020302020302020302020302020302020302020302020302020300A20202020392E3836323920202D32302E3836353720202020302E303030302048202020302020302020302020302020302020302020302020302020302020302020302020300A20202020372E3536333520202D32322E3138323120202020302E30303030204F202020302020302020302020302020302020302020302020302020302020302020302020300A20202031322E3833353020202D32312E3033343020202020302E303030302048202020302020302020302020302020302020302020302020302020302020302020302020300A20202031332E3731383620202D32322E3735333020202020302E30303030204F202020302020302020302020302020302020302020302020302020302020302020302020300A20202031352E3231333420202D32322E3235343720202020302E303030302043202020302020302020302020302020302020302020302020302020302020302020302020300A20202031342E3535393520202D32312E3130333520202020302E303030302048202020302020302020302020302020302020302020302020302020302020302020302020300A20202031362E3337303120202D32312E3631333120202020302E303030302043202020302020302020302020302020302020302020302020302020302020302020302020300A20202031372E3034343920202D32302E3436333920202020302E303030302048202020302020302020302020302020302020302020302020302020302020302020302020300A20202031352E3731393620202D32302E3435333020202020302E30303030204F202020302020302020302020302020302020302020302020302020302020302020302020300A20202031372E3530373020202D32322E3239333420202020302E303030302043202020302020302020302020302020302020302020302020302020302020302020302020300A20202031382E3834313020202D32322E3330383120202020302E303030302048202020302020302020302020302020302020302020302020302020302020302020302020300A20202031382E3139303720202D32312E3134373620202020302E30303030204F202020302020302020302020302020302020302020302020302020302020302020302020300A20202031372E3439353520202D32332E3631383920202020302E303030302043202020302020302020302020302020302020302020302020302020302020302020302020300A20202031382E3833303120202D32332E3633333420202020302E303030302048202020302020302020302020302020302020302020302020302020302020302020302020300A20202031392E3034323220202D32342E3536313020202020302E30303030204F202020302020302020302020302020302020302020302020302020302020302020302020300A20202032302E3436333620202D32332E3533323820202020302E303030302043202020302020302020302020302020302020302020302020302020302020302020302020300A20202032302E3437303320202D32322E3231373320202020302E30303030204F202020302020302020302020302020302020302020302020302020302020302020302020300A20202032312E3632303620202D32312E3535313120202020302E303030302043202020302020302020302020302020302020302020302020302020302020302020302020300A20202032302E3936343420202D32302E3339333920202020302E303030302048202020302020302020302020302020302020302020302020302020302020302020302020300A20202032322E3239303220202D32302E3430303720202020302E303030302043202020302020302020302020302020302020302020302020302020302020302020302020300A20202032312E3632353620202D31392E3234313920202020302E30303030204F202020302020302020302020302020302020302020302020302020302020302020302020300A20202032322E3737393920202D32322E3232323420202020302E303030302043202020302020302020302020302020302020302020302020302020302020302020302020300A20202032342E3130363920202D32322E3232303220202020302E303030302048202020302020302020302020302020302020302020302020302020302020302020302020300A20202032332E3434323320202D32312E3036313420202020302E30303030204F202020302020302020302020302020302020302020302020302020302020302020302020300A20202032322E3737343920202D32332E3533383420202020302E303030302043202020302020302020302020302020302020302020302020302020302020302020302020300A20202032332E3433393620202D32342E3639373120202020302E303030302048202020302020302020302020302020302020302020302020302020302020302020302020300A20202032342E3130393220202D32332E3534363720202020302E30303030204F202020302020302020302020302020302020302020302020302020302020302020302020300A20202032312E3632343620202D32342E3230343520202020302E303030302043202020302020302020302020302020302020302020302020302020302020302020302020300A20202032302E3935353020202D32352E3335343920202020302E303030302048202020302020302020302020302020302020302020302020302020302020302020302020300A20202032322E3238303820202D32352E3336313720202020302E30303030204F202020302020302020302020302020302020302020302020302020302020302020302020300A20202032302E3132333620202D32342E3831363620202020302E303030302048202020302020302020302020302020302020302020302020302020302020302020302020300A20202031362E3332373420202D32342E3236363320202020302E303030302043202020302020302020302020302020302020302020302020302020302020302020302020300A20202031362E3938353920202D32352E3432393520202020302E303030302048202020302020302020302020302020302020302020302020302020302020302020302020300A20202031352E3635353020202D32352E3430363820202020302E303030302043202020302020302020302020302020302020302020302020302020302020302020302020300A20202031342E3332393520202D32352E3339353320202020302E30303030204F202020302020302020302020302020302020302020302020302020302020302020302020300A20202031352E3139383520202D32332E3538393120202020302E30303030204F202020302020302020302020302020302020302020302020302020302020302020302020300A2020322020312020312020302020302020302020300A2020332020312020312020302020302020302020300A2020342020322020312020302020302020302020300A2020352020332020312020302020302020302020300A2020322020362020312020312020302020302020300A2020322020372020312020302020302020302020300A2020332020382020312020312020302020302020300A2020332020392020312020302020302020302020300A2020342031302020312020302020302020302020300A2020352031312020312020302020302020302020300A2020352031322020312020302020302020302020300A2020352031332020312020362020302020302020300A2031312031342020322020302020302020302020300A2020312031352020312020312020302020302020300A2031362031372020312020302020302020302020300A2031372031382020312020312020302020302020300A2031372031392020312020302020302020302020300A2031372034382020312020302020302020302020300A2031392032302020312020312020302020302020300A2031392032312020312020302020302020302020300A2031392032322020312020302020302020302020300A2032322032332020312020362020302020302020300A2032322032342020312020302020302020302020300A2032322032352020312020302020302020302020300A2032352032362020312020302020302020302020300A2032352032372020312020362020302020302020300A2032352034342020312020302020302020302020300A2032372032382020312020302020302020302020300A2032382032392020312020302020302020302020300A2032382034302020312020302020302020302020300A2032382034332020312020362020302020302020300A2032392033302020312020302020302020302020300A2033302033312020312020312020302020302020300A2033302033322020312020302020302020302020300A2033302033342020312020302020302020302020300A2033322033332020312020302020302020302020300A2033342033352020312020362020302020302020300A2033342033362020312020302020302020302020300A2033342033372020312020302020302020302020300A2033372033382020312020312020302020302020300A2033372033392020312020302020302020302020300A2033372034302020312020302020302020302020300A2034302034312020312020362020302020302020300A2034302034322020312020302020302020302020300A2034342034352020312020362020302020302020300A2034342034362020312020302020302020302020300A2034342034382020312020302020302020302020300A2034362034372020312020302020302020302020300A2020312031362020312020302020302020302020300A4D2020454E44
Contributor: Tsuzimoto Y, Tsugawa H, Bamba T, Fukusaki E, engineering department, Osaka Univ.
InstType: EI
InstName: Pegasus II TOF-MS system, Leco; GC 6890, Agilent Technologies
IoniMethod: EI
IonPolarity: pos
Date: 2010-10-09 19:48:36+02:00
Num Peaks: 276
85 17 86 9 87 15 88 11 89 93 90 11 91 8 92 1 93 3 94 5 
95 7 96 3 97 30 98 7 99 19 100 31 101 56 102 22 103 402 104 43 
105 49 106 6 107 4 108 2 109 29 110 4 111 14 112 5 113 19 114 16 
115 21 116 31 117 245 118 28 119 21 120 2 121 3 122 1 123 4 124 2 
125 5 126 4 127 15 128 14 129 305 130 48 131 59 132 13 133 115 134 17 
135 11 136 1 137 2 138 3 139 11 140 4 141 12 142 23 143 65 144 10 
145 27 146 6 147 520 148 89 149 65 150 11 151 8 152 4 153 12 154 8 
155 48 156 13 157 68 158 16 159 14 160 118 161 23 162 8 163 19 164 6 
165 3 166 2 167 9 168 9 169 210 170 34 171 25 173 21 174 9 175 13 
176 3 177 10 178 3 179 5 180 4 181 7 182 5 183 22 184 6 185 7 
186 8 187 7 188 3 189 73 190 26 191 145 192 28 193 13 194 4 195 9 
196 5 197 4 198 7 199 19 200 6 201 7 202 5 203 25 204 999 205 320 
206 111 207 32 208 7 209 3 210 17 211 6 212 3 213 2 214 2 215 13 
216 19 217 350 218 84 219 42 220 9 221 19 222 5 223 9 224 2 225 1 
226 1 227 6 228 4 229 23 230 23 231 50 232 19 233 19 234 10 235 5 
236 1 237 2 238 1 239 1 240 3 241 12 242 9 243 87 244 33 245 26 
246 16 247 13 248 5 249 2 250 1 253 1 254 1 255 6 256 9 257 20 
258 7 259 14 260 5 261 4 262 5 263 4 264 1 265 4 266 1 267 1 
268 1 269 9 270 7 271 164 272 42 273 31 274 13 275 8 276 5 277 4 
278 2 279 1 283 2 284 1 285 5 286 3 287 2 288 4 289 12 290 4 
291 11 292 4 293 4 294 1 297 1 298 1 299 1 300 14 301 5 302 2 
303 2 304 4 305 19 306 10 307 10 308 2 309 1 313 5 314 1 316 1 
317 14 318 11 319 41 320 21 321 10 322 2 323 1 324 1 330 1 331 19 
332 14 333 10 334 4 335 1 336 1 343 1 344 2 345 5 346 4 347 3 
358 3 359 7 360 20 361 419 362 164 363 77 364 21 365 9 366 2 373 1 
374 2 376 1 377 1 378 1 390 4 391 2 392 1 394 1 403 1 407 1 
435 1 436 1 450 4 451 19 452 12 453 7 454 1 464 1 465 1 478 1 
479 4 480 15 481 13 482 5 483 1 490 1 
