Name: 4-Aminobenzoic acid
CAS: 150-13-0
MW: 137
Formula: C7H7NO2
Synonym: KEGG: C00568
Synonym: CID: 978
Synonym: MassBank: OUF00060
Synonym: 4-Aminobenzoic acid
Structure: 4330303030313430312E6364780A20204368656D447261773132323630383139323132440A2031302031302020302020302020302020302020302020302020302020303939392056323030300A2020202D302E353739332020202D302E3030303020202020302E303030302043202020302020302020302020302020302020302020302020302020302020302020302020300A2020202D302E333437362020202D302E3430313420202020302E303030302043202020302020302020302020302020302020302020302020302020302020302020302020300A20202020302E313135392020202D302E3430313420202020302E303030302043202020302020302020302020302020302020302020302020302020302020302020302020300A20202020302E333437362020202D302E3030303020202020302E303030302043202020302020302020302020302020302020302020302020302020302020302020302020300A20202020302E3131353920202020302E3430313420202020302E303030302043202020302020302020302020302020302020302020302020302020302020302020302020300A2020202D302E3334373620202020302E3430313420202020302E303030302043202020302020302020302020302020302020302020302020302020302020302020302020300A2020202D312E303432372020202D302E3030303020202020302E30303030204E202020302020302020302020302020302020302020302020302020302020302020302020300A20202020302E383131302020202D302E3030303020202020302E303030302043202020302020302020302020302020302020302020302020302020302020302020302020300A20202020312E3034323720202020302E3430313320202020302E30303030204F202020302020302020302020302020302020302020302020302020302020302020302020300A20202020312E303432372020202D302E3430313320202020302E30303030204F202020302020302020302020302020302020302020302020302020302020302020302020300A2020312020322020322020302020202020200A2020322020332020312020302020202020200A2020332020342020322020302020202020200A2020342020352020312020302020202020200A2020352020362020322020302020202020200A2020362020312020312020302020202020200A2020312020372020312020302020202020200A2020342020382020312020302020202020200A2020382020392020322020302020202020200A2020382031302020312020302020202020200A4D2020454E44
Contributor: Tsuzimoto Y, Tsugawa H, Bamba T, Fukusaki E, engineering department, Osaka Univ.
InstType: EI
InstName: Pegasus II TOF-MS system, Leco; GC 6890, Agilent Technologies
IoniMethod: EI
IonPolarity: pos
Date: 2010-10-09 19:48:36+02:00
Num Peaks: 175
85 22 86 17 87 17 88 12 89 52 90 55 91 196 92 148 93 70 94 45 
95 54 96 42 97 22 98 16 99 8 100 17 101 11 102 23 103 48 104 69 
105 87 106 86 107 45 108 41 109 16 110 13 111 14 112 3 113 4 114 3 
115 20 116 11 117 48 118 115 119 173 120 285 121 118 122 50 123 33 124 9 
125 21 126 101 127 11 128 8 129 6 130 23 131 52 132 184 133 99 134 244 
135 56 136 25 137 7 138 3 139 1 140 1 141 3 142 4 143 7 144 8 
145 12 146 95 147 118 148 215 149 123 150 196 151 37 152 12 153 3 154 2 
155 2 156 2 157 2 158 8 159 4 160 20 161 9 162 91 163 25 164 53 
165 21 166 9 167 5 168 3 169 2 170 1 171 1 173 1 174 5 175 4 
176 266 177 48 178 177 179 39 180 20 181 6 182 3 183 1 188 1 189 3 
190 34 191 14 192 999 193 234 194 93 195 24 196 7 197 2 204 3 205 4 
206 128 207 71 208 36 209 19 210 5 211 1 213 1 216 1 217 1 218 2 
219 1 220 15 221 9 222 965 223 235 224 107 225 20 226 5 227 1 232 1 
233 1 234 2 235 2 236 7 237 4 238 2 239 2 240 1 241 2 242 2 
243 1 244 2 245 1 246 2 247 2 248 3 249 2 250 20 251 10 252 5 
253 2 254 1 255 1 256 1 264 4 265 11 266 945 267 287 268 110 269 23 
270 4 271 2 272 3 273 3 274 4 275 3 276 3 277 3 278 2 280 22 
281 566 282 154 283 60 284 11 285 2 
