Name: 4-Methyl Benzoic acid
CAS: 99-94-5
MW: 136
Formula: C8H8O2
Synonym: KEGG: C01454
Synonym: CID: 7470
Synonym: MassBank: OUF00069
Synonym: 4-Methyl Benzoic acid
Structure: 31302031302020302020302020302020302020302020302020302020302020312056323030300A20202020352E303030302020202D322E3030303020202020302E303030302043202020302020302020302020302020302020302020302020302020302020300A20202D31352E303030302020202D322E3030303020202020302E303030302043202020302020302020302020302020302020302020302020302020302020300A20202031352E3030303020202031352E3030303020202020302E303030302043202020302020302020302020302020302020302020302020302020302020300A20202D32352E3030303020202031352E3030303020202020302E303030302043202020302020302020302020302020302020302020302020302020302020300A20202020352E3030303020202033322E3030303020202020302E303030302043202020302020302020302020302020302020302020302020302020302020300A20202033352E3030303020202031352E3030303020202020302E303030302043202020302020302020302020302020302020302020302020302020302020300A20202D31352E3030303020202033322E3030303020202020302E303030302043202020302020302020302020302020302020302020302020302020302020300A20202D34352E3030303020202031352E3030303020202020302E303030302043202020302020302020302020302020302020302020302020302020302020300A20202034362E303030302020202D322E3030303020202020302E30303030204F202020302020302020302020302020302020302020302020302020302020300A20202034362E3030303020202033322E3030303020202020302E30303030204F202020302020302020302020302020302020302020302020302020302020300A2020312020322020322020302020302020302020300A2020312020332020312020302020302020302020300A2020322020342020312020302020302020302020300A2020332020352020322020302020302020302020300A2020332020362020312020302020302020302020300A2020342020372020322020302020302020302020300A2020342020382020312020302020302020302020300A2020352020372020312020302020302020302020300A2020362020392020312020302020302020302020300A2020362031302020322020302020302020302020300A4D2020454E44
Contributor: Tsuzimoto Y, Tsugawa H, Bamba T, Fukusaki E, engineering department, Osaka Univ.
InstType: EI
InstName: Pegasus II TOF-MS system, Leco; GC 6890, Agilent Technologies
IoniMethod: EI
IonPolarity: pos
Date: 2010-10-09 19:48:36+02:00
Num Peaks: 61
85 4 86 5 87 6 88 4 89 122 90 91 91 620 92 52 93 9 94 1 
95 3 96 34 97 9 99 1 102 1 103 6 104 5 105 13 106 2 107 5 
109 2 115 1 117 5 118 30 119 999 120 89 121 18 122 3 123 1 131 4 
132 1 133 12 134 3 135 9 136 3 137 1 145 5 146 1 147 5 148 15 
149 772 150 120 151 34 152 3 163 3 164 1 165 1 175 1 176 1 177 3 
178 2 179 2 192 10 193 822 194 142 195 41 196 4 207 11 208 89 209 16 
210 4 
