Name: n-Propylamine
CAS: 107-10-8
MW: 59
Formula: C3H9N
Synonym: CID: 7852
Synonym: MassBank: OUF00395
Synonym: n-Propylamine
Structure: 310A31320A2020342020332020302020302020302020302020302020302020302020302020312056323030300A20202020392E3030303020202032302E3030303020202020302E303030302043202020302020302020302020302020302020302020302020302020302020300A2020202D392E3030303020202031302E3030303020202020302E303030302043202020302020302020302020302020302020302020302020302020302020300A20202032362E3030303020202031302E3030303020202020302E30303030204E202020302020302020302020302020302020302020302020302020302020300A20202D32362E3030303020202032302E3030303020202020302E303030302043202020302020302020302020302020302020302020302020302020302020300A2020312020322020312020302020302020302020300A2020312020332020312020302020302020302020300A2020322020342020312020302020302020302020300A4D2020454E44
Contributor: Tsuzimoto Y, Tsugawa H, Bamba T, Fukusaki E, engineering department, Osaka Univ.
InstType: EI
InstName: Pegasus II TOF-MS system, Leco; GC 6890, Agilent Technologies
IoniMethod: EI
IonPolarity: pos
Date: 2010-10-09 19:48:36+02:00
Num Peaks: 65
85 29 86 722 87 84 88 32 89 4 94 1 95 1 96 1 97 2 98 9 
99 18 100 400 101 63 102 53 103 13 104 4 110 1 111 1 112 12 113 20 
114 776 115 105 116 77 117 52 118 10 119 4 126 1 127 1 128 19 129 10 
130 141 131 62 132 18 133 4 134 1 142 2 143 2 144 10 145 3 146 11 
147 2 148 1 156 1 158 17 159 4 160 4 170 2 172 26 173 6 174 999 
175 193 176 84 177 10 178 2 186 11 187 3 188 215 189 42 190 18 191 2 
201 1 202 3 203 20 204 4 205 1 
