Name: 4-Hydroxy-3-methoxymandelate
CAS: 55-10-7
MW: 198
Formula: C9H10O5
Synonym: KEGG: C05584
Synonym: CID: 1245
Synonym: MassBank: OUF00062
Synonym: 4-Hydroxy-3-methoxymandelate
Structure: 310A33340A202049534953484F53543033323430343233313232442031202020312E30303030302020202020302E30303030302020343732380A2031342031342020302020202020302020302020202020202020202020203939392056323030300A20202020302E3636353520202020302E3230363920202020302E303030302043202020302020302020302020302020302020302020202020202020202020302020302020300A2020202D302E303234312020202D312E3033313020202020302E303030302043202020302020302020302020302020302020302020202020202020202020302020302020300A20202020312E3838393720202020302E3932303720202020302E303030302043202020302020302020332020302020302020302020202020202020202020302020302020300A2020202D302E3035383620202020312E3432303720202020302E303030302043202020302020302020302020302020302020302020202020202020202020302020302020300A2020202D312E343431342020202D312E3035313720202020302E303030302043202020302020302020302020302020302020302020202020202020202020302020302020300A20202020332E3131333820202020302E3231333820202020302E303030302043202020302020302020302020302020302020302020202020202020202020302020302020300A20202020312E3838323820202020322E3333373920202020302E30303030204F202020302020302020302020302020302020302020202020202020202020302020302020300A2020202D312E3437323420202020312E3430303020202020302E303030302043202020302020302020302020302020302020302020202020202020202020302020302020300A2020202D322E3136323120202020302E3136323120202020302E303030302043202020302020302020302020302020302020302020202020202020202020302020302020300A2020202D322E343434382020202D322E3034383320202020302E30303030204F202020302020302020302020302020302020302020202020202020202020302020302020300A20202020332E313133382020202D312E3230303020202020302E30303030204F202020302020302020302020302020302020302020202020202020202020302020302020300A20202020342E3333373920202020302E3932303720202020302E30303030204F202020302020302020302020302020302020302020202020202020202020302020302020300A2020202D332E3538323820202020302E3136353520202020302E30303030204F202020302020302020302020302020302020302020202020202020202020302020302020300A2020202D332E383137322020202D322E3431333820202020302E303030302043202020302020302020302020302020302020302020202020202020202020302020302020300A2020312020322020312020302020202020302020300A2020312020332020312020302020202020302020300A2020312020342020322020302020202020302020300A2020322020352020322020302020202020302020300A2020332020362020312020302020202020302020300A2020332020372020312020302020202020302020300A2020342020382020312020302020202020302020300A2020352020392020312020302020202020302020300A2020352031302020312020302020202020302020300A2020362031312020312020302020202020302020300A2020362031322020322020302020202020302020300A2020392031332020312020302020202020302020300A2031302031342020312020302020202020302020300A2020382020392020322020302020202020302020300A4D2020454E44
Contributor: Tsuzimoto Y, Tsugawa H, Bamba T, Fukusaki E, engineering department, Osaka Univ.
InstType: EI
InstName: Pegasus II TOF-MS system, Leco; GC 6890, Agilent Technologies
IoniMethod: EI
IonPolarity: pos
Date: 2010-10-09 19:48:36+02:00
Num Peaks: 162
85 5 86 1 87 7 88 3 89 44 90 7 91 25 92 10 93 7 94 1 
95 6 96 2 97 2 98 1 99 3 101 3 102 4 103 18 104 9 105 18 
106 3 107 14 108 2 109 5 110 1 111 3 113 1 115 12 116 3 117 17 
118 7 119 18 120 5 121 12 122 2 123 4 125 1 126 3 127 1 129 2 
130 1 131 29 132 7 133 58 134 11 135 34 136 9 137 17 138 3 139 1 
140 1 141 1 143 2 145 3 146 2 147 256 148 45 149 38 150 8 151 12 
152 2 153 1 159 1 160 1 161 10 162 8 163 35 164 11 165 22 166 11 
167 3 168 1 173 1 174 1 175 3 176 3 177 18 178 15 179 23 180 8 
181 5 182 1 189 2 190 2 191 9 192 21 193 92 194 106 195 29 196 7 
197 2 203 1 204 1 205 3 206 13 207 17 208 6 209 40 210 8 211 3 
219 2 220 1 221 9 222 5 223 68 224 16 225 6 226 1 233 1 234 1 
235 3 236 6 237 17 238 5 239 3 240 1 249 3 250 2 251 31 252 16 
253 13 254 4 255 2 265 12 266 7 267 51 268 20 269 7 270 2 280 1 
281 8 282 4 283 2 294 1 295 9 296 13 297 999 298 306 299 124 300 23 
301 4 311 3 312 1 323 1 325 2 326 3 327 1 355 1 370 2 371 37 
372 22 373 12 374 4 375 1 398 1 399 23 400 12 401 5 402 1 414 7 
415 4 416 2 
