Name: 5-Amino-Levulinate
CAS: 106-60-5
MW: 131
Formula: C5H9NO3
Synonym: KEGG: C00430
Synonym: CID: 137
Synonym: MassBank: OUF00071
Synonym: 5-Amino-Levulinate
Structure: 310A32320A4330303030373337382E6364780A20204368656D447261773132323930383037313332440A2020392020382020302020302020302020302020302020302020302020303939392056323030300A2020202D322E3134333420202020302E3230363220202020302E30303030204E202020302020302020302020302020302020302020302020302020302020302020302020300A2020202D312E343238392020202D302E3230363220202020302E303030302043202020302020302020302020302020302020302020302020302020302020302020302020300A2020202D302E3731343520202020302E3230363220202020302E303030302043202020302020302020302020302020302020302020302020302020302020302020302020300A2020202D302E303030302020202D302E3230363220202020302E303030302043202020302020302020302020302020302020302020302020302020302020302020302020300A20202020302E3731343520202020302E3230363220202020302E303030302043202020302020302020302020302020302020302020302020302020302020302020302020300A20202020312E343238392020202D302E3230363220202020302E303030302043202020302020302020302020302020302020302020302020302020302020302020302020300A20202020322E3134333420202020302E3230363220202020302E30303030204F202020302020302020302020302020302020302020302020302020302020302020302020300A2020202D302E3731343520202020312E3033313320202020302E30303030204F202020302020302020302020302020302020302020302020302020302020302020302020300A20202020312E343238392020202D312E3033313320202020302E30303030204F202020302020302020302020302020302020302020302020302020302020302020302020300A2020322020312020312020302020202020200A2020332020322020312020302020202020200A2020342020332020312020302020202020200A2020352020342020312020302020202020200A2020362020352020312020302020202020200A2020372020362020312020302020202020200A2020332020382020322020302020202020200A2020362020392020322020302020202020200A4D2020454E44
Contributor: Tsuzimoto Y, Tsugawa H, Bamba T, Fukusaki E, engineering department, Osaka Univ.
InstType: EI
InstName: Pegasus II TOF-MS system, Leco; GC 6890, Agilent Technologies
IoniMethod: EI
IonPolarity: pos
Date: 2010-10-09 19:48:36+02:00
Num Peaks: 132
85 15 86 515 87 50 88 24 89 188 90 17 91 9 92 1 93 1 94 2 
95 2 96 1 97 2 98 5 99 9 100 197 101 42 102 64 103 15 104 3 
105 3 110 3 111 4 112 8 113 11 114 12 115 10 116 24 117 32 118 9 
119 4 124 1 125 4 126 8 127 4 128 13 129 57 130 54 131 22 132 10 
133 20 134 4 135 1 137 1 139 3 140 8 141 4 142 3 143 6 144 15 
145 5 146 21 147 41 148 9 149 5 152 1 153 1 154 2 155 2 156 83 
157 13 158 18 159 5 160 45 161 13 162 4 163 3 167 10 168 4 169 1 
170 3 171 2 172 32 173 9 174 999 175 191 176 86 177 12 178 2 179 1 
183 13 184 3 185 3 186 3 187 1 188 2 189 1 190 88 191 21 192 10 
193 1 197 1 198 1 199 8 200 3 202 1 212 1 213 3 214 2 217 1 
227 2 228 2 230 1 231 2 239 2 240 3 241 4 242 2 243 1 244 5 
245 1 246 7 247 1 248 1 255 4 256 1 257 3 304 1 329 2 330 4 
331 3 332 1 344 2 345 63 346 31 347 13 348 4 349 1 361 15 362 7 
363 2 378 1 
