Name: L-Alanine
CAS: 56-41-7
MW: 89
Formula: C3H7NO2
Synonym: KEGG: C00041
Synonym: CID: 5950
Synonym: MassBank: OUF00104
Synonym: L-Alanine
Structure: 310A31380A4330303030313333322E6364780A20204368656D447261773132323630383139313832440A2020372020362020302020302020302020302020302020302020302020303939392056323030300A2020202D302E363232332020202D302E3131393120202020302E303030302043202020302020302020302020302020302020302020302020302020302020302020302020300A2020202D302E313335382020202D302E3131393120202020302E303030302043202020302020302020302020302020302020302020302020302020302020302020302020300A20202020302E3030353220202020302E3430373220202020302E303030302043202020302020302020302020302020302020302020302020302020302020302020302020300A2020202D302E3337333620202020302E3738363020202020302E30303030204F202020302020302020302020302020302020302020302020302020302020302020302020300A20202020302E3632323320202020302E3537323620202020302E30303030204F202020302020302020302020302020302020302020302020302020302020302020302020300A20202020302E343933322020202D302E3238373620202020302E303030302048202020302020302020302020302020302020302020302020302020302020302020302020300A20202020302E303432392020202D302E3738363020202020302E30303030204E202020302020302020302020302020302020302020302020302020302020302020302020300A2020312020322020312020302020202020200A2020322020332020312020302020202020200A2020332020342020322020302020202020200A2020332020352020312020302020202020200A2020322020362020312020362020202020200A2020322020372020312020312020202020200A4D2020454E44
Contributor: Tsuzimoto Y, Tsugawa H, Bamba T, Fukusaki E, engineering department, Osaka Univ.
InstType: EI
InstName: Pegasus II TOF-MS system, Leco; GC 6890, Agilent Technologies
IoniMethod: EI
IonPolarity: pos
Date: 2010-10-09 19:48:36+02:00
Num Peaks: 47
85 3 86 27 87 9 88 9 89 3 92 1 93 1 94 18 95 2 98 3 
99 2 100 63 101 17 102 17 103 46 104 5 105 5 112 1 113 1 114 12 
115 15 116 999 117 123 118 43 119 8 128 20 129 4 130 6 131 17 132 9 
133 25 134 4 135 2 144 4 146 6 147 180 148 30 149 15 150 1 174 4 
175 1 190 39 191 10 192 4 218 14 219 2 220 1 
