Name: 2-Methyl benzoic acid (o-Toluic Acid)
CAS: 118-90-1
MW: 136
Formula: C8H8O2
Synonym: KEGG: C07215
Synonym: CID: 8373
Synonym: MassBank: OUF00035
Synonym: 2-Methyl benzoic acid (o-Toluic Acid)
Structure: 313138383939362D35382D382E6D6F6C0A20204368656D447261773037323931303139343332440A2031302031302020302020302020302020302020302020302020302020303939392056323030300A2020202D302E3138383520202020302E3332303420202020302E303030302043202020302020302020302020302020302020302020302020302020302020302020302020300A20202020302E313830352020202D302E3430373620202020302E303030302043202020302020302020302020302020302020302020302020302020302020302020302020300A20202020302E3235353920202020312E3031383620202020302E303030302043202020302020302020302020302020302020302020302020302020302020302020302020300A2020202D312E3030393720202020302E3336343020202020302E303030302043202020302020302020302020302020302020302020302020302020302020302020302020300A20202020312E303037372020202D302E3434353320202020302E303030302043202020302020302020302020302020302020302020302020302020302020302020302020300A2020202D302E323537392020202D312E3039393920202020302E303030302043202020302020302020302020302020302020302020302020302020302020302020302020300A20202020312E3038333120202020302E3937343920202020302E303030302043202020302020302020302020302020302020302020302020302020302020302020302020300A2020202D312E343539392020202D302E3332323320202020302E30303030204F202020302020302020302020302020302020302020302020302020302020302020302020300A2020202D312E3339303520202020312E3039393920202020302E30303030204F202020302020302020302020302020302020302020302020302020302020302020302020300A20202020312E3435393920202020302E3234313020202020302E303030302043202020302020302020302020302020302020302020302020302020302020302020302020300A2020312020322020322020302020202020200A2020312020332020312020302020202020200A2020312020342020312020302020202020200A2020322020352020312020302020202020200A2020322020362020312020302020202020200A2020332020372020322020302020202020200A2020342020382020312020302020202020200A2020342020392020322020302020202020200A2020352031302020322020302020202020200A2020372031302020312020302020202020200A4D2020454E44
Contributor: Tsuzimoto Y, Tsugawa H, Bamba T, Fukusaki E, engineering department, Osaka Univ.
InstType: EI
InstName: Pegasus II TOF-MS system, Leco; GC 6890, Agilent Technologies
IoniMethod: EI
IonPolarity: pos
Date: 2010-10-09 19:48:36+02:00
Num Peaks: 96
85 4 86 4 87 4 88 5 89 163 90 218 91 659 92 57 93 8 94 1 
95 2 96 18 97 8 100 1 103 6 105 18 106 1 107 4 108 1 109 1 
113 1 114 1 115 2 116 1 117 6 118 358 119 999 120 94 121 28 122 2 
127 2 131 3 132 1 133 37 134 6 135 13 136 6 137 1 138 1 144 1 
145 3 146 2 147 8 148 19 149 357 150 61 151 18 152 3 155 1 159 1 
163 2 164 2 168 1 171 1 177 5 178 1 180 1 192 44 193 493 194 87 
195 29 196 2 204 1 206 1 207 4 208 143 209 29 210 9 224 1 225 1 
236 1 237 1 242 1 247 1 252 1 254 1 276 1 282 1 316 1 334 1 
336 1 347 1 351 1 378 1 390 1 413 1 416 1 417 1 418 1 427 1 
434 1 436 1 456 1 473 1 474 1 484 1 
