Name: Acetaminophen glucuronide
CAS: 16110-10-4
MW: 327
Formula: C14H17NO8
Synonym: CID: 83944
Synonym: MassBank: OUF00090
Synonym: Acetaminophen glucuronide
Structure: 310A35320A20204143442F4C6162733039333031303039323132440A2032332032342020302020302020312020302020302020302020302020302020312056323030300A20202031362E303633382020202D352E3433343720202020302E303030302043202020302020302020302020302020302020302020302020302020302020302020302020300A20202031372E323331332020202D342E3831383920202020302E30303030204F202020302020302020302020302020302020302020302020302020302020302020302020300A20202031382E333536342020202D352E3433343720202020302E303030302043202020302020302020302020302020302020302020302020302020302020302020302020300A20202031382E333536342020202D362E3737323120202020302E303030302043202020302020302020302020302020302020302020302020302020302020302020302020300A20202031362E303633382020202D362E3737323120202020302E303030302043202020302020302020302020302020302020302020302020302020302020302020302020300A20202031372E323130312020202D372E3433303220202020302E303030302043202020302020302020302020302020302020302020302020302020302020302020302020300A20202032362E323533382020202D372E3430383920202020302E303030302043202020302020302020302020302020302020302020302020302020302020302020302020300A20202032352E313238372020202D362E3732393620202020302E303030302043202020302020302020302020302020302020302020302020302020302020302020302020300A20202031342E393830392020202D342E3739373820202020302E303030302043202020302020302020302020302020302020302020302020302020302020302020302020300A20202032332E393832332020202D372E3430383920202020302E30303030204E202020302020302020302020302020302020302020302020302020302020302020302020300A20202031392E353032382020202D342E3831383920202020302E30303030204F202020302020302020302020302020302020302020302020302020302020302020302020300A20202032352E313238372020202D352E3433343720202020302E30303030204F202020302020302020302020302020302020302020302020302020302020302020302020300A20202031342E393830392020202D332E3530323820202020302E30303030204F202020302020302020302020302020302020302020302020302020302020302020302020300A20202031392E353032382020202D372E3435313420202020302E30303030204F202020302020302020302020302020302020302020302020302020302020302020302020300A20202031342E393338362020202D372E3430383920202020302E30303030204F202020302020302020302020302020302020302020302020302020302020302020302020300A20202031372E323130312020202D382E3734363420202020302E30303030204F202020302020302020302020302020302020302020302020302020302020302020302020300A20202032322E383134362020202D362E3737323120202020302E303030302043202020302020302020302020302020302020302020302020302020302020302020302020300A20202032302E363238302020202D352E3437373020202020302E303030302043202020302020302020302020302020302020302020302020302020302020302020302020300A20202031332E383133342020202D352E3433343720202020302E30303030204F202020302020302020302020302020302020302020302020302020302020302020302020300A20202032322E383134362020202D352E3439383320202020302E303030302043202020302020302020302020302020302020302020302020302020302020302020302020300A20202032312E373332302020202D372E3338373720202020302E303030302043202020302020302020302020302020302020302020302020302020302020302020302020300A20202032312E373332302020202D342E3834303220202020302E303030302043202020302020302020302020302020302020302020302020302020302020302020302020300A20202032302E363238302020202D362E3732393620202020302E303030302043202020302020302020302020302020302020302020302020302020302020302020302020300A2020322020312020312020302020302020302020300A2020352020312020312020302020302020302020300A2020312020392020312020312020302020302020300A2020332020322020312020302020302020302020300A2020332031312020312020312020302020302020300A2020332020342020312020302020302020302020300A2020342020362020312020302020302020302020300A2020342031342020312020362020302020302020300A2020362020352020312020302020302020302020300A2020352031352020312020362020302020302020300A2020362031362020312020312020302020302020300A2020372020382020312020302020302020302020300A2020382031302020312020302020302020302020300A2031322020382020322020302020302020302020300A2031332020392020322020302020302020302020300A2031392020392020312020302020302020302020300A2031302031372020312020302020302020302020300A2031382031312020312020302020302020302020300A2031372032312020312020302020302020302020300A2032302031372020322020302020302020302020300A2032322031382020322020302020302020302020300A2032332031382020312020302020302020302020300A2032302032322020312020302020302020302020300A2032312032332020322020302020302020302020300A4D2020454E44
Contributor: Tsuzimoto Y, Tsugawa H, Bamba T, Fukusaki E, engineering department, Osaka Univ.
InstType: EI
InstName: Pegasus II TOF-MS system, Leco; GC 6890, Agilent Technologies
IoniMethod: EI
IonPolarity: pos
Date: 2010-10-09 19:48:36+02:00
Num Peaks: 303
85 26 86 13 87 19 88 7 89 30 90 15 91 43 92 15 93 48 94 9 
95 37 96 10 97 17 98 7 99 39 100 14 101 64 102 17 103 123 104 25 
105 78 106 16 107 16 108 31 109 24 110 5 111 22 112 5 113 21 114 43 
115 55 116 396 117 146 118 43 119 31 120 11 121 11 122 4 123 20 124 3 
125 13 126 4 127 20 128 7 129 249 130 37 131 104 132 28 133 288 134 380 
135 78 136 16 137 13 138 3 139 4 140 5 141 30 142 16 143 249 144 40 
145 28 146 30 147 999 148 170 149 144 150 32 151 28 152 12 153 39 154 9 
155 8 156 8 157 34 158 17 159 15 160 7 161 13 162 49 163 33 164 23 
165 44 166 20 167 12 168 5 169 591 170 89 171 63 172 12 173 13 174 13 
175 14 176 11 177 12 178 11 179 15 180 68 181 37 182 12 183 12 184 6 
185 33 186 12 187 9 188 14 189 66 190 30 191 66 192 37 193 17 194 7 
195 7 196 2 197 8 198 4 199 3 200 3 201 8 202 5 203 14 204 101 
205 34 206 131 207 88 208 185 209 41 210 15 211 4 212 3 213 7 214 3 
215 15 216 7 217 374 218 86 219 57 220 26 221 37 222 176 223 189 224 41 
225 13 226 2 227 2 228 4 229 21 230 9 231 29 232 30 233 13 234 13 
235 4 236 25 237 14 238 6 239 4 240 1 241 24 242 8 243 54 244 16 
245 25 246 9 247 5 248 37 249 11 250 9 251 4 252 3 253 2 254 9 
255 5 256 6 257 196 258 53 259 31 260 29 261 11 262 9 263 2 264 4 
265 4 266 3 267 2 269 1 270 1 271 2 272 2 273 1 274 2 275 3 
276 4 277 3 278 5 279 10 280 120 281 73 282 27 283 8 284 3 285 33 
286 14 287 10 288 5 289 3 290 3 291 11 292 5 293 5 294 28 295 834 
296 255 297 99 298 22 299 5 300 3 301 1 302 2 303 4 304 3 305 45 
306 19 307 10 308 7 309 2 310 1 311 1 312 1 315 1 317 3 318 3 
319 19 320 10 321 6 322 16 323 7 324 6 325 1 326 1 328 2 330 1 
331 28 332 16 333 44 334 21 335 20 336 11 337 6 338 10 339 4 340 1 
344 1 345 7 346 6 347 21 348 13 349 6 350 4 351 2 352 1 354 1 
358 1 359 5 360 3 361 2 362 5 363 1 366 1 373 1 374 22 375 270 
376 117 377 53 378 18 379 4 380 1 390 2 391 1 392 1 393 1 394 1 
402 1 404 1 407 1 410 3 411 1 418 1 420 1 421 1 422 1 424 2 
439 1 448 1 449 2 450 1 463 5 464 27 465 19 466 10 467 4 490 4 
491 2 492 5 493 3 
