Name: Glycolic acid
CAS: 79-14-1
MW: 76
Formula: C2H4O3
Synonym: KEGG: C00160
Synonym: CID: 3698251
Synonym: MassBank: OUF00257
Synonym: Glycolic acid
Structure: 310A31340A4330303030373436312E6364780A20204368656D447261773132323930383037313532440A2020352020342020302020302020302020302020302020302020302020303939392056323030300A2020202D312E303731372020202D302E3230363220202020302E30303030204F202020302020302020302020302020302020302020302020302020302020302020302020300A2020202D302E333537322020202D302E3631383820202020302E303030302043202020302020302020302020302020302020302020302020302020302020302020302020300A20202020302E333537322020202D302E3230363220202020302E303030302043202020302020302020302020302020302020302020302020302020302020302020302020300A20202020312E303731372020202D302E3631383820202020302E30303030204F202020302020302020302020302020302020302020302020302020302020302020302020300A20202020302E3335373220202020302E3631383820202020302E30303030204F202020302020302020302020302020302020302020302020302020302020302020302020300A2020322020312020312020302020202020200A2020332020322020312020302020202020200A2020342020332020312020302020202020200A2020332020352020322020302020202020200A4D2020454E44
Contributor: Tsuzimoto Y, Tsugawa H, Bamba T, Fukusaki E, engineering department, Osaka Univ.
InstType: EI
InstName: Pegasus II TOF-MS system, Leco; GC 6890, Agilent Technologies
IoniMethod: EI
IonPolarity: pos
Date: 2010-10-09 19:48:36+02:00
Num Peaks: 59
85 2 86 2 87 16 88 46 89 23 90 4 91 2 92 1 93 1 95 11 
96 1 99 2 100 1 101 15 102 14 103 59 104 9 105 15 106 2 107 1 
113 3 115 17 116 8 117 43 118 7 119 14 120 2 121 1 129 1 130 2 
131 49 132 9 133 113 134 17 135 9 136 1 145 1 146 2 147 999 148 164 
149 98 150 12 151 4 161 58 162 11 163 5 175 1 176 2 177 151 178 37 
179 15 180 2 190 5 191 1 192 1 205 109 206 20 207 10 208 1 
