Name: Glycine
CAS: 56-40-6
MW: 75
Formula: C2H5NO2
Synonym: KEGG: C00037
Synonym: CID: 750
Synonym: MassBank: OUF00256
Synonym: Glycine
Structure: 310A31340A4330303030313336312E6364780A20204368656D447261773132323630383139313932440A2020352020342020302020302020302020302020302020302020302020303939392056323030300A20202020302E353630302020202D302E3032313720202020302E303030302043202020302020302020302020302020302020302020302020302020302020302020302020300A20202020312E3132333220202020302E3534313520202020302E30303030204F202020302020302020302020302020302020302020302020302020302020302020302020300A20202020312E303739382020202D302E3534313520202020302E30303030204F202020302020302020302020302020302020302020302020302020302020302020302020300A2020202D302E313136352020202D302E3030353220202020302E303030302043202020302020302020302020302020302020302020302020302020302020302020302020300A2020202D312E313233322020202D302E3030353220202020302E30303030204E202020302020302020302020302020302020302020302020302020302020302020302020300A2020312020322020322020302020202020200A2020312020332020312020302020202020200A2020342020312020312020302020202020200A2020342020352020312020302020202020200A4D2020454E44
Contributor: Tsuzimoto Y, Tsugawa H, Bamba T, Fukusaki E, engineering department, Osaka Univ.
InstType: EI
InstName: Pegasus II TOF-MS system, Leco; GC 6890, Agilent Technologies
IoniMethod: EI
IonPolarity: pos
Date: 2010-10-09 19:48:36+02:00
Num Peaks: 77
85 11 86 482 87 56 88 23 89 5 90 1 91 1 95 3 98 2 99 8 
100 267 101 57 102 60 103 28 104 5 105 7 113 9 114 10 115 15 116 23 
117 62 118 11 119 19 120 2 121 1 128 2 129 6 130 55 131 60 132 19 
133 170 134 26 135 14 136 1 142 1 143 2 144 17 145 5 146 8 147 388 
148 63 149 31 150 4 158 24 159 8 160 12 161 4 162 1 172 15 173 6 
174 999 175 190 176 85 177 20 178 4 179 1 187 1 188 15 189 4 190 4 
191 2 202 6 203 1 204 9 205 2 246 12 247 5 248 141 249 43 250 21 
251 4 252 1 262 1 276 43 277 12 278 6 279 1 
