Name: Propyleneglycol
CAS: 57-55-6
MW: 76
Formula: C3H8O2
Synonym: MassBank: OUF00428
Synonym: Propyleneglycol
Structure: 310A31340A4330303030373431302E6364780A20204368656D447261773132323930383037313432440A2020352020342020302020302020302020302020302020302020302020303939392056323030300A2020202D312E3035383120202020302E3138383820202020302E30303030204F202020302020302020302020302020302020302020302020302020302020302020302020300A2020202D302E3333383120202020302E3630343520202020302E303030302043202020302020302020302020302020302020302020302020302020302020302020302020300A20202020302E3336303320202020302E3230313320202020302E303030302043202020302020302020302020302020302020302020302020302020302020302020302020300A20202020312E3035383120202020302E3630343120202020302E30303030204F202020302020302020302020302020302020302020302020302020302020302020302020300A20202020302E333630332020202D302E3630343520202020302E303030302043202020302020302020302020302020302020302020302020302020302020302020302020300A2020312020322020312020302020202020200A2020322020332020312020302020202020200A2020332020342020312020302020202020200A2020332020352020312020302020202020200A4D2020454E44
Contributor: Tsuzimoto Y, Tsugawa H, Bamba T, Fukusaki E, engineering department, Osaka Univ.
InstType: EI
InstName: Pegasus II TOF-MS system, Leco; GC 6890, Agilent Technologies
IoniMethod: EI
IonPolarity: pos
Date: 2010-10-09 19:48:36+02:00
Num Peaks: 46
85 16 86 3 87 27 88 12 89 17 90 2 91 1 94 2 95 10 96 1 
97 1 99 7 100 1 101 35 102 11 103 34 104 5 105 12 106 1 107 1 
113 4 115 48 116 27 117 999 118 109 119 48 120 3 121 1 129 3 130 4 
131 51 132 8 133 84 134 12 135 6 147 581 148 94 149 52 150 5 151 1 
161 1 176 1 189 3 205 35 206 6 207 3 
