Name: L-Methionine sulfone
CAS: 7314-32-1
MW: 181
Formula: C5H11NO4S
Synonym: CID: 445282
Synonym: MassBank: OUF00318
Synonym: L-Methionine sulfone
Structure: 373331342D33322D312E6D6F6C0A20204368656D447261773132303530363139303232440A2031312031302020302020302020302020302020302020302020302020303939392056323030300A2020202D312E3432383920202020302E3230363220202020302E303030302053202020302020302020302020302020302020302020302020302020302020302020302020300A2020202D302E373134352020202D302E3230363220202020302E303030302043202020302020302020302020302020302020302020302020302020302020302020302020300A2020202D302E3030303120202020302E3230363220202020302E303030302043202020302020302020302020302020302020302020302020302020302020302020302020300A20202020302E373134352020202D302E3230363220202020302E303030302043202020302020302020302020302020302020302020302020302020302020302020302020300A20202020312E3432383920202020302E3230363220202020302E303030302043202020302020302020302020302020302020302020302020302020302020302020302020300A20202020322E313433342020202D302E3230363320202020302E30303030204F202020302020302020302020302020302020302020302020302020302020302020302020300A20202020312E3432393020202020312E3033313220202020302E30303030204F202020302020302020302020302020302020302020302020302020302020302020302020300A20202020302E373134352020202D312E3033313220202020302E30303030204E202020302020302020302020302020302020302020302020302020302020302020302020300A2020202D322E3134333420202020302E3631383720202020302E303030302043202020302020302020302020302020302020302020302020302020302020302020302020300A2020202D312E3031363420202020302E3932303720202020302E30303030204F202020302020302020302020302020302020302020302020302020302020302020302020300A2020202D312E383431342020202D302E3530383220202020302E30303030204F202020302020302020302020302020302020302020302020302020302020302020302020300A2020322020312020312020302020202020200A2020332020322020312020302020202020200A2020342020332020312020302020202020200A2020352020342020312020302020202020200A2020352020362020312020302020202020200A2020352020372020322020302020202020200A2020342020382020312020312020202020200A2020312020392020312020302020202020200A2020312031302020322020302020202020200A2020312031312020322020302020202020200A4D2020454E44
Contributor: Tsuzimoto Y, Tsugawa H, Bamba T, Fukusaki E, engineering department, Osaka Univ.
InstType: EI
InstName: Pegasus II TOF-MS system, Leco; GC 6890, Agilent Technologies
IoniMethod: EI
IonPolarity: pos
Date: 2010-10-09 19:48:36+02:00
Num Peaks: 96
85 11 86 16 87 7 88 3 89 3 91 3 92 1 93 3 94 2 95 1 
96 3 97 2 98 15 99 6 100 54 101 10 102 8 103 13 104 2 105 3 
106 1 108 1 110 2 111 1 112 15 113 4 114 30 115 14 116 6 117 12 
118 3 119 4 120 2 121 2 122 4 123 1 126 9 127 3 128 999 129 130 
130 82 131 21 132 13 133 29 134 6 135 4 136 12 137 45 138 5 139 6 
140 3 141 5 142 2 143 1 144 4 145 2 146 2 147 92 148 16 149 9 
150 1 151 1 152 2 154 1 156 6 157 4 158 7 159 2 160 2 163 1 
172 2 173 3 174 3 186 1 192 5 196 6 202 118 203 24 204 11 205 1 
207 1 208 277 209 39 210 25 211 7 212 1 213 1 216 1 218 13 219 3 
220 3 230 1 282 4 283 1 310 2 325 1 
