Name: D-(-)-Fructose
CAS: 57-48-7
MW: 180
Formula: C6H12O6
Synonym: KEGG: C10906
Synonym: CID: 5984
Synonym: MassBank: OUF00230
Synonym: D-(-)-Fructose
Structure: 31322031312020302020302020312020302020302020302020302020303939392056323030300A20202032352E3237303020202D31352E3936303020202020302E303030302043202020302020302020302020302020302020302020302020302020302020302020302020300A20202032342E3038303020202D31352E3236303020202020302E303030302043202020302020302020322020302020302020302020302020302020302020302020302020300A20202032322E3839303020202D31352E3936303020202020302E303030302043202020302020302020322020302020302020302020302020302020302020302020302020300A20202032312E3730303020202D31352E3236303020202020302E303030302043202020302020302020312020302020302020302020302020302020302020302020302020300A20202032302E3434303020202D31352E3936303020202020302E303030302043202020302020302020302020302020302020302020302020302020302020302020302020300A20202031392E3235303020202D31352E3236303020202020302E303030302043202020302020302020302020302020302020302020302020302020302020302020302020300A20202031382E3036303020202D31352E3936303020202020302E30303030204F202020302020302020302020302020302020302020302020302020302020302020302020300A20202032302E3434303020202D31372E3336303020202020302E30303030204F202020302020302020302020302020302020302020302020302020302020302020302020300A20202032312E3633303020202D31332E3836303020202020302E30303030204F202020302020302020302020302020302020302020302020302020302020302020302020300A20202032322E3839303020202D31372E3336303020202020302E30303030204F202020302020302020302020302020302020302020302020302020302020302020302020300A20202032342E3038303020202D31332E3836303020202020302E30303030204F202020302020302020302020302020302020302020302020302020302020302020302020300A20202032362E3533303020202D31352E3236303020202020302E30303030204F202020302020302020302020302020302020302020302020302020302020302020302020300A2020312020322020312020302020202020302020300A2020362020372020312020302020202020302020300A2020332020342020312020302020202020302020300A2020352020382020322020302020202020302020300A2020342020392020312020312020202020302020300A2020342020352020312020302020202020302020300A2020332031302020312020312020202020302020300A2020322020332020312020302020202020302020300A2020322031312020312020362020202020302020300A2020352020362020312020302020202020302020300A2020312031322020312020302020202020302020300A4D2020454E44
Contributor: Tsuzimoto Y, Tsugawa H, Bamba T, Fukusaki E, engineering department, Osaka Univ.
InstType: EI
InstName: Pegasus II TOF-MS system, Leco; GC 6890, Agilent Technologies
IoniMethod: EI
IonPolarity: pos
Date: 2010-10-09 19:48:36+02:00
Num Peaks: 188
85 26 86 13 87 20 88 19 89 212 90 19 91 10 92 1 94 2 95 1 
96 1 97 2 98 7 99 11 100 30 101 49 102 16 103 999 104 100 105 65 
106 6 107 1 110 3 111 5 112 2 113 19 114 136 115 30 116 21 117 149 
118 19 119 26 120 3 121 1 124 1 125 1 126 7 127 7 128 10 129 106 
130 24 131 54 132 10 133 140 134 19 135 13 136 1 140 2 141 4 142 15 
143 22 144 6 145 12 146 3 147 490 148 80 149 57 150 7 151 3 152 2 
154 2 155 2 156 8 157 20 158 8 159 6 160 2 161 4 162 1 163 16 
164 2 165 1 166 1 168 6 169 2 170 7 171 2 172 19 173 35 174 12 
175 16 176 3 177 7 178 1 180 3 182 1 184 1 185 1 186 4 187 2 
188 5 189 57 190 15 191 43 192 9 193 4 196 3 198 7 199 1 200 4 
201 18 202 17 203 11 204 42 205 56 206 14 207 11 208 2 214 5 215 3 
216 9 217 538 218 118 219 54 220 8 221 17 222 4 223 2 228 2 229 5 
230 5 231 14 232 5 233 2 240 2 241 1 242 2 243 1 244 10 245 5 
246 3 247 1 254 1 255 1 256 4 257 1 258 1 260 2 261 1 262 27 
263 18 264 6 265 3 268 2 269 1 270 2 272 1 275 1 276 3 277 36 
278 16 279 7 280 1 288 2 289 1 291 7 292 2 293 1 300 1 302 1 
305 3 306 5 307 165 308 54 309 25 310 6 311 1 318 2 319 6 320 2 
321 1 330 2 332 1 333 4 334 5 335 11 336 6 337 2 350 2 358 1 
363 1 364 23 365 9 366 4 367 1 376 1 390 1 464 1 
