Name: trans-Chalcone
CAS: 614-47-1
MW: 281
Formula: C11H15N5O4
Synonym: MassBank: OUF00476
Synonym: trans-Chalcone
Structure: 32302032312020302020302020302020302020302020302020302020302020312056323030300A20202D31392E3030303020202020352E3030303020202020302E303030302043202020302020302020302020302020302020302020302020302020302020300A20202D31392E3030303020202032352E3030303020202020302E303030302043202020302020302020302020302020302020302020302020302020302020300A20202D33372E303030302020202D352E3030303020202020302E30303030204E202020302020302020302020302020302020302020302020302020302020300A20202020302E303030302020202D312E3030303020202020302E30303030204E202020302020302020302020302020302020302020302020302020302020300A20202D33372E3030303020202033352E3030303020202020302E303030302043202020302020302020302020302020302020302020302020302020302020300A20202020302E3030303020202033312E3030303020202020302E30303030204E202020302020302020302020302020302020302020302020302020302020300A20202D35342E3030303020202020352E3030303020202020302E303030302043202020302020302020302020302020302020302020302020302020302020300A20202D33372E3030303020202D32352E3030303020202020302E303030302043202020302020302020302020302020302020302020302020302020302020300A20202031312E3030303020202031352E3030303020202020302E303030302043202020302020302020302020302020302020302020302020302020302020300A20202D33372E3030303020202035352E3030303020202020302E30303030204F202020302020302020302020302020302020302020302020302020302020300A20202D35342E3030303020202032352E3030303020202020302E30303030204E202020302020302020302020302020302020302020302020302020302020300A20202020362E3030303020202035302E3030303020202020302E303030302043202020302020302020302020302020302020302020302020302020302020300A20202D37312E3030303020202033352E3030303020202020302E303030302043202020302020302020302020302020302020302020302020302020302020300A20202D37312E303030302020202D352E3030303020202020302E30303030204F202020302020302020302020302020302020302020302020302020302020300A20202033312E3030303020202031352E3030303020202020302E303030302043202020302020302020302020302020302020302020302020302020302020300A20202034312E3030303020202033332E3030303020202020302E303030302043202020302020302020302020302020302020302020302020302020302020300A20202036312E3030303020202033332E3030303020202020302E303030302043202020302020302020302020302020302020302020302020302020302020300A20202033312E3030303020202035302E3030303020202020302E30303030204E202020302020302020302020302020302020302020302020302020302020300A20202037312E3030303020202035302E3030303020202020302E30303030204F202020302020302020302020302020302020302020302020302020302020300A20202037312E3030303020202031352E3030303020202020302E30303030204F202020302020302020302020302020302020302020302020302020302020300A2020312020322020322020302020302020302020300A2020312020332020312020302020302020302020300A2020312020342020312020302020302020302020300A2020322020352020312020302020302020302020300A2020322020362020312020302020302020302020300A2020332020372020312020302020302020302020300A2020332020382020312020302020302020302020300A2020342020392020322020302020302020302020300A2020352031302020322020302020302020302020300A2020352031312020312020302020302020302020300A2020362031322020312020302020302020302020300A2020362020392020312020302020302020302020300A2020372031342020322020302020302020302020300A2020372031312020312020302020302020302020300A2020392031352020312020302020302020302020300A2031312031332020312020302020302020302020300A2031352031362020312020302020302020302020300A2031362031372020312020302020302020302020300A2031362031382020312020302020302020302020300A2031372031392020322020302020302020302020300A2031372032302020312020302020302020302020300A4D2020454E44
Contributor: Tsuzimoto Y, Tsugawa H, Bamba T, Fukusaki E, engineering department, Osaka Univ.
InstType: EI
InstName: Pegasus II TOF-MS system, Leco; GC 6890, Agilent Technologies
IoniMethod: EI
IonPolarity: pos
Date: 2010-10-09 19:48:36+02:00
Num Peaks: 104
85 3 86 16 87 38 88 68 89 169 90 70 91 203 92 18 93 4 94 15 
95 25 96 5 97 1 98 8 99 13 100 10 101 118 102 533 103 646 104 224 
105 72 107 2 108 1 110 1 111 6 113 15 114 13 115 63 116 11 118 5 
119 37 120 3 121 57 122 2 125 1 126 8 127 19 128 630 129 107 130 19 
133 4 134 32 135 1 137 3 138 1 139 19 140 4 144 3 150 7 151 20 
152 27 153 6 154 2 157 1 160 13 161 2 162 5 163 23 164 17 165 124 
166 23 167 6 168 1 175 3 176 32 177 25 178 105 179 56 180 21 181 3 
187 2 188 8 189 88 190 53 191 91 192 19 193 8 194 5 196 1 202 7 
203 32 204 219 205 309 206 999 207 191 208 15 209 7 218 1 219 2 220 16 
221 12 222 1 236 673 237 270 238 47 239 2 308 2 318 1 327 2 391 3 
413 1 448 1 464 1 470 1 
