Name: D-Arabinose-5-phosphate
CAS: 13137-52-5
MW: 230
Formula: C5H11O8P
Synonym: CID: 188324
Synonym: MassBank: OUF00158
Synonym: D-Arabinose-5-phosphate
Structure: 310A33320A3C4341535F49443E206E756C6C093C4B4547475F49443E20433031313132093C4E414D453E20442D41726162696E6F736520352D70686F7370686174093C464F524D554C413E2043354831314F3850093C45584143544D4153533E203233302E303139313533383338093C415645524147454D4153533E203233302E3130393830303939393939393938093C534D494C45533E204F3D435B434040485D284F295B4340485D284F295B4340485D284F29434F50284F29284F293D4F093C434F505952494748543E2041524D2050524F4A45435420687474703A2F2F7777772E6D657461626F6C6F6D652E6A702F0A2031342031332020302020302020312020302020302020302020302020303939392056323030300A20202020352E3436343120202020322E3433333020202020302E303030302043202020302020302020302020312020302020302020302020302020302020302020302020300A20202020352E3436343120202020312E3433333020202020302E303030302043202020302020302020322020312020302020302020302020302020302020302020302020300A20202020342E3539383120202020302E3933333020202020302E303030302043202020302020302020312020312020302020302020302020302020302020302020302020300A20202020342E353938312020202D302E3036373020202020302E303030302043202020302020302020312020312020302020302020302020302020302020302020302020300A20202020332E373332312020202D302E3536373020202020302E303030302043202020302020302020302020322020302020302020302020302020302020302020302020300A20202020362E3333303120202020322E3933333020202020302E30303030204F202020302020302020302020302020302020302020302020302020302020302020302020300A20202020362E3333303120202020302E3933333020202020302E30303030204F202020302020302020302020312020302020302020302020302020302020302020302020300A20202020332E3733323120202020312E3433333020202020302E30303030204F202020302020302020302020312020302020302020302020302020302020302020302020300A20202020352E343634312020202D302E3536373020202020302E30303030204F202020302020302020302020312020302020302020302020302020302020302020302020300A20202020332E373332312020202D312E3536373020202020302E30303030204F202020302020302020302020302020302020302020302020302020302020302020302020300A20202020322E383636302020202D322E3036373020202020302E303030302050202020302020302020302020302020302020302020302020302020302020302020302020300A20202020322E333636302020202D312E3230313020202020302E30303030204F202020302020302020302020312020302020302020302020302020302020302020302020300A20202020332E333636302020202D322E3933333020202020302E30303030204F202020302020302020302020312020302020302020302020302020302020302020302020300A20202020322E303030302020202D322E3536373020202020302E30303030204F202020302020302020302020302020302020302020302020302020302020302020302020300A2020312020322020312020302020302020302020300A2020312020362020322020302020302020302020300A2020322020372020312020312020302020302020300A2020322020332020312020302020302020302020300A2020332020342020312020302020302020302020300A2020342020352020312020302020302020302020300A2020352031302020312020302020302020302020300A2031302031312020312020302020302020302020300A2031312031322020312020302020302020302020300A2031312031332020312020302020302020302020300A2031312031342020322020302020302020302020300A2020332020382020312020312020302020302020300A2020342020392020312020362020302020302020300A4D2020454E44
Contributor: Tsuzimoto Y, Tsugawa H, Bamba T, Fukusaki E, engineering department, Osaka Univ.
InstType: EI
InstName: Pegasus II TOF-MS system, Leco; GC 6890, Agilent Technologies
IoniMethod: EI
IonPolarity: pos
Date: 2010-10-09 19:48:36+02:00
Num Peaks: 273
85 48 86 29 87 39 88 14 89 262 90 28 91 26 92 6 93 8 94 12 
95 7 96 8 97 5 98 28 99 47 100 50 101 263 102 72 103 121 104 18 
105 85 106 14 107 17 108 3 109 5 110 2 111 19 112 17 113 53 114 44 
115 86 116 87 117 98 118 14 119 52 120 6 121 24 122 2 123 7 124 2 
125 4 126 40 127 38 128 36 129 626 130 135 131 132 132 25 133 390 134 62 
135 107 136 12 137 44 138 6 139 4 140 10 141 13 142 38 143 70 144 15 
145 24 146 6 147 719 148 124 149 113 150 17 151 49 152 14 153 9 154 6 
155 5 156 14 157 51 158 117 159 34 160 132 161 39 162 11 163 40 164 7 
165 14 166 9 167 17 168 89 169 26 170 13 171 5 172 8 173 30 174 34 
175 10 176 4 177 14 178 5 179 18 180 5 181 60 182 15 183 27 184 19 
185 8 186 7 187 5 188 4 189 51 190 12 191 65 192 13 193 65 194 13 
195 59 196 11 197 21 198 51 199 10 200 35 201 7 202 6 203 12 204 45 
205 48 206 13 207 88 208 18 209 19 210 7 211 313 212 57 213 35 214 7 
215 21 216 46 217 761 218 176 219 78 220 12 221 14 222 2 223 4 224 1 
225 89 226 18 227 81 228 22 229 13 230 8 231 29 232 7 233 3 234 1 
237 1 239 1 240 7 241 11 242 14 243 13 244 6 245 1 246 4 247 1 
248 2 251 1 253 23 254 5 255 11 256 45 257 17 258 13 259 2 260 2 
262 3 263 1 265 2 266 1 267 2 268 2 269 15 270 3 271 2 272 37 
273 7 274 8 275 2 281 1 283 22 284 10 285 30 286 8 287 5 288 7 
289 2 290 3 291 2 294 1 297 2 298 19 299 576 300 224 301 105 302 25 
303 6 304 2 305 6 306 5 307 4 308 3 309 5 310 4 311 3 312 1 
313 13 314 36 315 999 316 297 317 161 318 36 319 9 320 1 328 13 329 3 
330 16 331 13 332 5 333 3 335 1 340 1 341 34 342 14 343 6 344 3 
345 1 346 1 347 1 356 3 357 102 358 37 359 16 360 4 362 10 363 4 
364 1 369 10 370 4 371 3 372 2 373 26 374 9 375 4 377 1 378 3 
385 5 386 4 387 31 388 13 389 10 390 1 391 1 402 4 403 72 404 35 
405 16 406 5 407 1 429 1 431 2 432 2 458 2 459 54 460 27 461 12 
462 2 483 1 485 1 
