Name: MassBank: OUF00125
CAS: 121-91-5
MW: 166
Formula: C8H6O4
Synonym: CID: 8496
Synonym: MassBank: OUF00125
Synonym: Benzen-1,3-Dicarboxylic acid
Structure: 31322031322020302020302020302020302020302020302020302020302020312056323030300A20202D33342E3030303020202032302E3030303020202020302E303030302043202020302020302020302020302020302020302020302020302020302020300A20202D31382E3030303020202033302E3030303020202020302E303030302043202020302020302020302020302020302020302020302020302020302020300A20202D33342E3030303020202020302E3030303020202020302E303030302043202020302020302020302020302020302020302020302020302020302020300A20202020302E3030303020202032302E3030303020202020302E303030302043202020302020302020302020302020302020302020302020302020302020300A20202D31382E3030303020202035302E3030303020202020302E303030302043202020302020302020302020302020302020302020302020302020302020300A20202D31372E3030303020202D31302E3030303020202020302E303030302043202020302020302020302020302020302020302020302020302020302020300A20202020302E3030303020202020302E3030303020202020302E303030302043202020302020302020302020302020302020302020302020302020302020300A20202031382E3030303020202D31302E3030303020202020302E303030302043202020302020302020302020302020302020302020302020302020302020300A20202031382E3030303020202D33302E3030303020202020302E30303030204F202020302020302020302020302020302020302020302020302020302020300A20202033352E3030303020202020302E3030303020202020302E30303030204F202020302020302020302020302020302020302020302020302020302020300A20202020302E3030303020202036302E3030303020202020302E30303030204F202020302020302020302020302020302020302020302020302020302020300A20202D33342E3030303020202036302E3030303020202020302E30303030204F202020302020302020302020302020302020302020302020302020302020300A2020312020322020322020302020302020302020300A2020312020332020312020302020302020302020300A2020322020342020312020302020302020302020300A2020322020352020312020302020302020302020300A2020332020362020322020302020302020302020300A2020342020372020322020302020302020302020300A2020352031312020312020302020302020302020300A2020352031322020322020302020302020302020300A2020362020372020312020302020302020302020300A2020372020382020312020302020302020302020300A2020382020392020312020302020302020302020300A2020382031302020322020302020302020302020300A4D2020454E44
Contributor: Tsuzimoto Y, Tsugawa H, Bamba T, Fukusaki E, engineering department, Osaka Univ.
InstType: EI
InstName: Pegasus II TOF-MS system, Leco; GC 6890, Agilent Technologies
IoniMethod: EI
IonPolarity: pos
Date: 2010-10-09 19:48:36+02:00
Num Peaks: 187
85 21 86 4 87 11 88 9 89 113 90 45 91 104 92 18 93 29 94 4 
95 16 96 15 97 10 98 4 99 3 100 1 101 9 102 8 103 537 104 345 
105 93 106 13 107 20 108 3 109 10 110 11 111 7 112 4 113 2 114 1 
115 34 116 7 117 29 118 66 119 106 120 21 121 68 122 10 123 8 124 1 
125 18 126 62 127 31 128 4 129 10 130 3 131 27 132 14 133 121 134 51 
135 277 136 40 137 20 138 2 139 2 140 260 141 36 142 2 143 4 144 1 
145 17 146 11 147 69 148 21 149 75 150 19 151 21 152 3 153 9 154 1 
155 1 157 1 159 3 160 1 161 7 162 3 163 33 164 6 165 23 166 6 
167 2 173 1 175 20 176 11 177 151 178 85 179 61 180 21 181 8 182 2 
183 1 185 1 189 1 191 6 192 16 193 74 194 24 195 16 196 3 197 2 
203 1 204 1 205 239 206 42 207 143 208 33 209 19 210 4 211 8 212 1 
213 1 217 8 218 2 219 15 220 11 221 222 222 41 223 22 224 3 225 1 
233 17 234 6 235 30 236 17 237 11 238 4 239 1 241 1 242 1 243 15 
244 10 245 6 246 2 247 1 249 3 250 2 251 42 252 14 253 10 254 3 
255 1 256 1 257 1 259 1 260 1 261 10 262 11 263 6 264 4 265 4 
266 2 267 1 268 1 269 1 270 1 271 1 272 1 273 1 277 5 278 5 
279 240 280 129 281 41 282 11 283 2 284 1 285 2 286 3 287 3 288 3 
289 3 290 4 291 3 292 1 293 4 294 10 295 999 296 258 297 106 298 19 
299 4 308 1 309 44 310 76 311 23 312 8 313 1 
