Name: Flavanone
CAS: 487-26-3
MW: 224
Formula: C15H12O2
Synonym: KEGG: C00766
Synonym: CID: 10251
Synonym: MassBank: OUF00228
Synonym: Flavanone
Structure: 310A34310A20204143442F4C6162733130313130373134313332440A2031372031392020302020302020302020302020302020302020302020302020312056323030300A20202031332E3937313120202D31322E3331343520202020302E303030302043202020302020302020302020302020302020302020302020302020302020302020302020300A20202031332E3937313120202D31332E3634343520202020302E303030302043202020302020302020302020302020302020302020302020302020302020302020302020300A20202031322E3831393220202D31312E3634393520202020302E30303030204F202020302020302020302020302020302020302020302020302020302020302020302020300A20202031322E3831393220202D31342E3330393520202020302E303030302043202020302020302020302020302020302020302020302020302020302020302020302020300A20202031312E3636373420202D31322E3331343520202020302E303030302043202020302020302020302020302020302020302020302020302020302020302020302020300A20202031312E3636373420202D31332E3634343520202020302E303030302043202020302020302020302020302020302020302020302020302020302020302020302020300A20202031352E3132333020202D31312E3634393520202020302E303030302043202020302020302020302020302020302020302020302020302020302020302020302020300A20202031352E3132333020202D31342E3330393520202020302E303030302043202020302020302020302020302020302020302020302020302020302020302020302020300A20202031362E3237343820202D31322E3331343520202020302E303030302043202020302020302020302020302020302020302020302020302020302020302020302020300A20202031362E3237343820202D31332E3634343520202020302E303030302043202020302020302020302020302020302020302020302020302020302020302020302020300A20202031302E3531353620202D31312E3634393520202020302E303030302043202020302020302020302020302020302020302020302020302020302020302020302020300A20202020382E3231313920202D31302E3331393520202020302E303030302043202020302020302020302020302020302020302020302020302020302020302020302020300A20202020382E3231313920202D31312E3634393520202020302E303030302043202020302020302020302020302020302020302020302020302020302020302020302020300A20202020392E333633382020202D392E3635343520202020302E303030302043202020302020302020302020302020302020302020302020302020302020302020302020300A20202020392E3336333820202D31322E3331343520202020302E303030302043202020302020302020302020302020302020302020302020302020302020302020302020300A20202031302E3531353620202D31302E3331393520202020302E303030302043202020302020302020302020302020302020302020302020302020302020302020302020300A20202031322E3831393220202D31352E3633393520202020302E30303030204F202020302020302020302020302020302020302020302020302020302020302020302020300A2020332020312020312020302020302020302020300A2020342020322020312020302020302020302020300A2020352020332020312020302020302020302020300A2020362020342020312020302020302020302020300A2020362020352020312020302020302020302020300A2020322020312020312020302020302020302020300A2020372020312020322020302020302020302020300A2020382020322020322020302020302020302020300A2020392020372020312020302020302020302020300A2031302020382020312020302020302020302020300A2031302020392020322020302020302020302020300A2020352031312020312020302020302020302020300A2031332031322020312020302020302020302020300A2031342031322020322020302020302020302020300A2031352031332020322020302020302020302020300A2031362031342020312020302020302020302020300A2031312031352020312020302020302020302020300A2031312031362020322020302020302020302020300A2020342031372020322020302020302020302020300A4D2020454E44
Contributor: Tsuzimoto Y, Tsugawa H, Bamba T, Fukusaki E, engineering department, Osaka Univ.
InstType: EI
InstName: Pegasus II TOF-MS system, Leco; GC 6890, Agilent Technologies
IoniMethod: EI
IonPolarity: pos
Date: 2010-10-09 19:48:36+02:00
Num Peaks: 125
85 5 86 19 87 33 88 59 89 222 90 246 91 446 92 74 93 38 94 15 
95 22 96 33 97 64 98 19 99 8 100 9 101 52 102 372 103 986 104 389 
105 110 106 42 107 4 108 1 109 1 110 37 111 67 112 3 113 12 114 13 
115 80 116 47 117 30 118 55 119 83 120 65 121 999 122 89 123 6 126 15 
127 20 128 96 129 24 130 32 131 23 132 20 133 6 134 28 135 2 137 3 
138 1 139 26 140 19 141 5 142 2 144 32 145 55 146 39 147 23 148 3 
149 4 150 12 151 30 152 70 153 21 154 14 155 4 160 5 161 6 162 49 
163 22 164 21 165 103 166 43 167 86 168 20 174 2 175 10 176 188 177 56 
178 82 179 34 180 18 181 19 182 2 187 1 188 3 189 15 190 25 191 70 
192 95 193 72 194 94 195 39 196 8 200 1 201 2 202 16 203 23 204 44 
205 31 206 19 207 48 208 9 209 3 210 2 218 4 219 30 220 637 221 260 
222 545 223 120 224 17 225 1 236 2 237 3 251 5 252 362 253 466 254 87 
255 11 315 1 390 3 443 1 444 1 
