Name: trans-4-Hydroxy-L-proline
CAS: 51-35-4
MW: 131
Formula: C5H9NO3
Synonym: KEGG: C01157
Synonym: CID: 5810
Synonym: MassBank: OUF00473
Synonym: trans-4-Hydroxy-L-proline
Structure: 4330303030313337302E6364780A20204368656D447261773132323630383139313932440A2031312031312020302020302020302020302020302020302020302020303939392056323030300A2020202D302E3732393620202020302E3435383420202020302E303030302043202020302020302020302020302020302020302020302020302020302020302020302020300A2020202D302E393032302020202D302E3138353320202020302E303030302043202020302020302020302020302020302020302020302020302020302020302020302020300A2020202D302E333433312020202D302E3534383320202020302E30303030204E202020302020302020302020302020302020302020302020302020302020302020302020300A20202020302E313734382020202D302E3132383920202020302E303030302043202020302020302020302020302020302020302020302020302020302020302020302020300A2020202D302E3036343120202020302E3439333320202020302E303030302043202020302020302020302020302020302020302020302020302020302020302020302020300A2020202D302E3732393620202020302E3937343420202020302E303030302048202020302020302020302020302020302020302020302020302020302020302020302020300A2020202D312E3331353820202020302E3330313320202020302E30303030204F202020302020302020302020302020302020302020302020302020302020302020302020300A20202020302E383734302020202D302E3331363220202020302E303030302043202020302020302020302020302020302020302020302020302020302020302020302020300A20202020312E3331353820202020302E3132353620202020302E30303030204F202020302020302020302020302020302020302020302020302020302020302020302020300A20202020312E303530342020202D302E3937343420202020302E30303030204F202020302020302020302020302020302020302020302020302020302020302020302020300A20202020302E313734382020202D302E3734363720202020302E303030302048202020302020302020302020302020302020302020302020302020302020302020302020300A2020312020322020312020302020202020200A2020322020332020312020302020202020200A2020332020342020312020302020202020200A2020342020352020312020302020202020200A2020352020312020312020302020202020200A2020312020362020312020312020202020200A2020312020372020312020362020202020200A2020342020382020312020312020202020200A2020382020392020322020302020202020200A2020382031302020312020302020202020200A2020342031312020312020362020202020200A4D2020454E44
Contributor: Tsuzimoto Y, Tsugawa H, Bamba T, Fukusaki E, engineering department, Osaka Univ.
InstType: EI
InstName: Pegasus II TOF-MS system, Leco; GC 6890, Agilent Technologies
IoniMethod: EI
IonPolarity: pos
Date: 2010-10-09 19:48:36+02:00
Num Peaks: 139
85 24 86 27 87 15 88 6 89 14 90 2 91 1 92 2 93 2 94 7 
95 6 96 11 97 11 98 17 99 22 100 60 101 55 102 16 103 30 104 4 
105 10 106 2 107 1 108 3 109 2 110 4 111 11 112 14 113 21 114 13 
115 22 116 23 117 25 118 6 119 14 120 2 121 1 122 1 124 42 125 7 
126 12 127 3 128 11 129 40 130 10 131 45 132 12 133 94 134 16 135 9 
136 2 138 6 139 17 140 986 141 142 142 115 143 20 144 6 145 3 146 2 
147 243 148 39 149 34 150 5 151 2 152 5 153 1 154 2 155 1 156 10 
157 5 158 51 159 10 160 3 161 1 166 5 167 1 168 3 169 1 170 14 
171 3 172 12 173 4 174 4 175 8 176 2 177 3 178 1 179 1 182 4 
183 1 184 1 185 1 186 2 187 7 188 22 189 8 190 4 191 4 192 1 
196 2 197 1 198 3 199 1 200 3 201 1 202 1 203 3 204 1 205 1 
212 1 214 31 215 8 216 10 217 2 218 3 219 1 221 1 228 12 229 8 
230 999 231 223 232 95 233 16 234 3 240 5 242 2 244 1 255 1 258 1 
259 1 260 4 304 29 305 11 306 5 307 1 332 18 333 7 334 2 
