Name: Galactitol
CAS: 608-66-2
MW: 182
Formula: C6H14O6
Synonym: CID: 11850
Synonym: MassBank: OUF00234
Synonym: Galactitol
Structure: 4330303030313136302E6364780A20204368656D447261773132323630383139313332440A2031362031352020302020302020302020302020302020302020302020303939392056323030300A2020202D302E383139392020202D302E3036303320202020302E303030302043202020302020302020302020302020302020302020302020302020302020302020302020300A20202020302E3036373020202020302E3230373820202020302E303030302043202020302020302020302020302020302020302020302020302020302020302020302020300A20202020302E383039352020202D302E3232353320202020302E303030302043202020302020302020302020302020302020302020302020302020302020302020302020300A20202020302E3434303820202020302E3835353320202020302E30303030204F202020302020302020302020302020302020302020302020302020302020302020302020300A2020202D302E363437362020202D302E3730333420202020302E30303030204F202020302020302020302020302020302020302020302020302020302020302020302020300A2020202D312E323137302020202D302E3734363620202020302E303030302048202020302020302020302020302020302020302020302020302020302020302020302020300A20202020302E393738332020202D302E3835353320202020302E303030302048202020302020302020302020302020302020302020302020302020302020302020302020300A20202020312E333730312020202D302E3534393020202020302E30303030204F202020302020302020302020302020302020302020302020302020302020302020302020300A2020202D302E3138363720202020302E3634373220202020302E303030302048202020302020302020302020302020302020302020302020302020302020302020302020300A2020202D312E3336343020202020302E3235333820202020302E303030302043202020302020302020302020302020302020302020302020302020302020302020302020300A2020202D312E3630353920202020302E3637323720202020302E303030302048202020302020302020302020302020302020302020302020302020302020302020302020300A2020202D312E3034333520202020302E3830393020202020302E30303030204F202020302020302020302020302020302020302020302020302020302020302020302020300A2020202D322E3037383520202020302E3335323820202020302E303030302043202020302020302020302020302020302020302020302020302020302020302020302020300A2020202D312E333634302020202D302E3035393720202020302E30303030204F202020302020302020302020302020302020302020302020302020302020302020302020300A20202020312E3336343020202020302E3236313520202020302E303030302043202020302020302020302020302020302020302020302020302020302020302020302020300A20202020322E303738352020202D302E3135313020202020302E30303030204F202020302020302020302020302020302020302020302020302020302020302020302020300A2020312020322020312020302020202020200A2020322020332020312020302020202020200A2020322020342020312020362020202020200A2020312020352020312020312020202020200A2020312020362020312020362020202020200A2020332020372020312020312020202020200A2020332020382020312020362020202020200A2020322020392020312020312020202020200A2020312031302020312020302020202020200A2031302031312020312020362020202020200A2031302031322020312020312020202020200A2031302031332020312020302020202020200A2031332031342020312020302020202020200A2020332031352020312020302020202020200A2031352031362020312020302020202020200A4D202053545920203120202031205355500A4D2020534C4220203120202031202020310A4D202053414C2020203120203220203133202031340A4D202053424C20202031202031202031320A4D2020534D5420202031204348324F480A4D2020534256202020312031322020202D362E3331353220202020322E333839390A4D202053545920203120202032205355500A4D2020534C4220203120202032202020320A4D202053414C2020203220203220203135202031360A4D202053424C20202032202031202031340A4D2020534D5420202032204348324F480A4D2020534256202020322031342020202D352E3034363220202020322E373737380A4D2020454E44
Contributor: Tsuzimoto Y, Tsugawa H, Bamba T, Fukusaki E, engineering department, Osaka Univ.
InstType: EI
InstName: Pegasus II TOF-MS system, Leco; GC 6890, Agilent Technologies
IoniMethod: EI
IonPolarity: pos
Date: 2010-10-09 19:48:36+02:00
Num Peaks: 201
85 12 86 4 87 23 88 20 89 86 90 9 91 5 92 1 93 1 94 1 
95 2 96 1 97 35 98 4 99 14 100 2 101 71 102 14 103 827 104 80 
105 39 106 3 107 1 109 2 111 9 112 2 113 19 114 3 115 19 116 23 
117 350 118 37 119 30 120 3 121 1 125 3 127 9 128 2 129 230 130 30 
131 86 132 14 133 193 134 29 135 18 136 2 137 1 139 1 140 1 141 7 
142 5 143 48 144 7 145 16 146 4 147 999 148 160 149 105 150 12 151 7 
152 1 153 3 154 1 155 13 156 4 157 108 158 15 159 13 160 2 161 11 
162 2 163 15 164 3 165 2 167 4 168 1 169 22 170 5 171 3 172 1 
173 4 174 1 175 24 176 5 177 12 178 2 179 2 181 1 182 1 183 23 
184 4 185 3 186 1 187 3 188 1 189 97 190 29 191 128 192 24 193 12 
194 2 201 4 202 3 203 13 204 132 205 343 206 73 207 43 208 7 209 3 
215 6 216 4 217 912 218 199 219 89 220 14 221 34 222 8 223 5 224 1 
229 31 230 14 231 54 232 12 233 6 234 1 235 1 237 1 239 3 240 1 
241 1 242 1 243 7 244 2 245 2 246 1 247 4 248 1 249 1 253 1 
254 1 255 23 256 6 257 8 258 2 259 22 260 5 261 3 262 1 263 1 
264 1 265 7 266 2 267 1 273 1 277 31 278 16 279 8 280 2 281 1 
291 20 292 7 293 4 294 1 305 24 306 22 307 170 308 53 309 26 310 6 
311 1 317 2 318 6 319 224 320 73 321 36 322 8 323 2 329 3 330 3 
331 49 332 16 333 9 334 2 335 1 344 2 345 18 346 7 347 4 348 1 
349 1 409 3 410 1 418 1 419 9 420 6 421 15 422 8 423 3 424 1 
434 1 
