Name: D-Glucarate
CAS: 87-73-0
MW: 210
Formula: C6H10O8
Synonym: CID: 33037
Synonym: MassBank: OUF00167
Synonym: D-Glucarate
Structure: 38373732392D38392D332E6D6F6C0A20204368656D447261773038303531303131303732440A2031342031332020302020302020302020302020302020302020302020303939392056323030300A20202020302E3335363820202020302E3230323620202020302E303030302043202020302020302020302020302020302020302020302020302020302020302020302020300A2020202D302E333536382020202D302E3231313420202020302E303030302043202020302020302020302020302020302020302020302020302020302020302020302020300A2020202D312E3037303420202020302E3230323620202020302E303030302043202020302020302020302020302020302020302020302020302020302020302020302020300A20202020312E303730342020202D302E3231313420202020302E303030302043202020302020302020302020302020302020302020302020302020302020302020302020300A20202020312E3738333920202020302E3230323620202020302E303030302043202020302020302020302020302020302020302020302020302020302020302020302020300A2020202D312E373833392020202D302E3231313420202020302E303030302043202020302020302020302020302020302020302020302020302020302020302020302020300A20202020312E3738333920202020312E3033303720202020302E30303030204F202020302020302020302020302020302020302020302020302020302020302020302020300A2020202D312E373833392020202D312E3033303720202020302E30303030204F202020302020302020302020302020302020302020302020302020302020302020302020300A2020202D312E3037303420202020312E3033303720202020302E30303030204F202020302020302020302020302020302020302020302020302020302020302020302020300A20202020312E303730342020202D312E3033303720202020302E30303030204F202020302020302020302020302020302020302020302020302020302020302020302020300A2020202D302E333536382020202D312E3033303720202020302E30303030204F202020302020302020302020302020302020302020302020302020302020302020302020300A20202020302E3335363820202020312E3033303720202020302E30303030204F202020302020302020302020302020302020302020302020302020302020302020302020300A20202020322E343937352020202D302E3231313420202020302E30303030204F202020302020302020302020302020302020302020302020302020302020302020302020300A2020202D322E3439373520202020302E3230323620202020302E30303030204F202020302020302020302020302020302020302020302020302020302020302020302020300A2020322020312020312020302020202020200A2020342020312020312020302020202020200A2020312031322020312020362020202020200A2020332020322020312020302020202020200A2020322031312020312020362020202020200A2020362020332020312020302020202020200A2020332020392020312020312020202020200A2020352020342020312020302020202020200A2020342031302020312020362020202020200A2020372020352020322020302020202020200A2031332020352020312020302020202020200A2020382020362020322020302020202020200A2031342020362020312020302020202020200A4D2020454E44
Contributor: Tsuzimoto Y, Tsugawa H, Bamba T, Fukusaki E, engineering department, Osaka Univ.
InstType: EI
InstName: Pegasus II TOF-MS system, Leco; GC 6890, Agilent Technologies
IoniMethod: EI
IonPolarity: pos
Date: 2010-10-09 19:48:36+02:00
Num Peaks: 198
85 26 86 6 87 22 88 3 89 18 90 1 91 1 92 1 93 2 95 29 
96 2 97 4 98 2 99 26 100 6 101 45 102 96 103 158 104 16 105 18 
106 1 107 1 111 21 112 4 113 42 114 4 115 35 116 19 117 62 118 7 
119 30 120 4 125 2 126 4 127 25 128 5 129 164 130 91 131 122 132 25 
133 288 134 43 135 29 136 2 139 1 141 15 142 6 143 248 144 34 145 19 
146 5 147 999 148 169 149 129 150 15 151 7 154 3 155 3 156 12 157 26 
158 4 159 8 161 8 163 8 164 1 165 1 169 43 170 4 171 10 172 2 
173 8 174 1 175 7 176 1 177 40 178 5 179 3 183 3 184 1 185 7 
186 2 187 12 188 3 189 114 190 27 191 66 192 13 193 15 194 1 199 2 
200 1 201 18 202 4 203 14 204 108 205 32 206 8 207 18 208 3 213 2 
215 23 216 13 217 652 218 161 219 128 220 31 221 57 222 14 223 5 224 1 
229 7 230 21 231 20 232 6 233 12 234 1 241 1 243 9 244 166 245 78 
246 23 247 7 248 1 249 1 257 39 258 13 259 8 260 1 261 1 268 1 
272 1 273 2 274 1 275 3 278 1 279 2 285 56 286 18 287 5 288 1 
291 30 292 69 293 28 294 9 295 1 301 1 303 10 304 8 305 51 306 28 
307 10 308 2 318 6 319 21 320 13 321 5 322 1 331 36 332 24 333 24 
334 17 335 11 336 5 337 3 345 8 346 7 347 36 348 25 349 8 350 2 
362 3 363 3 364 3 365 1 375 5 376 3 377 2 378 1 379 11 380 12 
381 4 390 2 419 1 420 2 423 1 437 1 438 2 464 4 465 21 466 19 
467 8 468 2 479 5 480 24 481 22 482 8 483 2 484 1 
