Name: 2-MethylGlutarate
CAS: 617-62-9
MW: 146
Formula: C6H10O4
Synonym: KEGG: C05282
Synonym: CID: 12046
Synonym: MassBank: OUF00036
Synonym: 2-MethylGlutarate
Structure: 310A32340A20204143442F4C6162733034323730393039313132440A2031302020392020302020302020302020302020302020302020302020302020312056323030300A20202020352E313636342020202D382E3733383520202020302E303030302043202020302020302020302020302020302020302020302020302020302020302020302020300A20202020352E393939312020202D392E3231393220202020302E303030302043202020302020302020302020302020302020302020302020302020302020302020302020300A20202020362E383331372020202D382E3733383520202020302E303030302043202020302020302020302020302020302020302020302020302020302020302020302020300A20202020372E363634332020202D392E3231393220202020302E303030302043202020302020302020302020302020302020302020302020302020302020302020302020300A20202020382E343937302020202D382E3733383520202020302E303030302043202020302020302020302020302020302020302020302020302020302020302020302020300A20202020392E333239362020202D392E3231393220202020302E30303030204F202020302020302020302020302020302020302020302020302020302020302020302020300A20202020382E343937302020202D372E3737373020202020302E30303030204F202020302020302020302020302020302020302020302020302020302020302020302020300A20202020352E3939393120202D31302E3138303620202020302E303030302043202020302020302020302020302020302020302020302020302020302020302020302020300A20202020352E313636342020202D372E3737373020202020302E30303030204F202020302020302020302020302020302020302020302020302020302020302020302020300A20202020342E333333382020202D392E3231393220202020302E30303030204F202020302020302020302020302020302020302020302020302020302020302020302020300A2020312020322020312020302020302020302020300A2020322020332020312020302020302020302020300A2020332020342020312020302020302020302020300A2020342020352020312020302020302020302020300A2020352020362020312020302020302020302020300A2020352020372020322020302020302020302020300A2020322020382020312020302020302020302020300A2020312020392020322020302020302020302020300A2020312031302020312020302020302020302020300A4D2020454E44
Contributor: Tsuzimoto Y, Tsugawa H, Bamba T, Fukusaki E, engineering department, Osaka Univ.
InstType: EI
InstName: Pegasus II TOF-MS system, Leco; GC 6890, Agilent Technologies
IoniMethod: EI
IonPolarity: pos
Date: 2010-10-09 19:48:36+02:00
Num Peaks: 111
85 31 86 59 87 24 88 28 89 24 90 2 91 3 92 2 93 3 95 6 
97 6 98 2 99 40 100 8 101 60 102 13 103 22 104 4 105 10 106 1 
107 1 109 3 110 3 111 35 112 5 113 36 114 6 115 43 116 120 117 90 
118 14 119 14 120 1 123 1 125 4 127 3 128 5 129 217 130 146 131 86 
132 21 133 116 134 21 135 11 136 1 139 1 141 15 142 4 143 97 144 107 
145 38 146 67 147 999 148 169 149 312 150 44 151 20 152 1 155 1 156 2 
157 181 158 26 159 23 160 2 161 1 162 22 163 9 164 2 165 2 171 3 
172 302 173 75 174 20 175 4 176 1 185 4 188 1 189 52 190 24 191 9 
192 2 199 1 200 47 201 23 202 5 203 18 204 190 205 47 206 19 207 3 
217 22 218 22 219 7 220 1 231 104 232 50 233 22 234 5 235 1 240 1 
243 1 247 81 248 44 249 22 250 5 251 1 266 1 275 189 276 79 277 27 
278 5 
