Name: Kynurenate
CAS: 492-27-3
MW: 189
Formula: C10H7NO3
Synonym: KEGG: C01717
Synonym: CID: 3845
Synonym: MassBank: OUF00292
Synonym: Kynurenate
Structure: 4330303032363435332E6364780A20204368656D447261773034303230393039353632440A2031342031352020302020302020302020302020302020302020302020303939392056323030300A2020202D312E3433383620202020302E3835333120202020302E303030302043202020302020302020302020302020302020302020302020302020302020302020302020300A2020202D322E3135323020202020302E3433383620202020302E303030302043202020302020302020302020302020302020302020302020302020302020302020302020300A2020202D302E3732333020202020302E3434323520202020302E303030302043202020302020302020302020302020302020302020302020302020302020302020302020300A2020202D302E373230382020202D302E3338323520202020302E303030302043202020302020302020302020302020302020302020302020302020302020302020302020300A2020202D312E343334322020202D302E3739363920202020302E303030302043202020302020302020302020302020302020302020302020302020302020302020302020300A2020202D322E313439382020202D302E3338363420202020302E303030302043202020302020302020302020302020302020302020302020302020302020302020302020300A2020202D302E303035332020202D302E3739333120202020302E303030302043202020302020302020302020302020302020302020302020302020302020302020302020300A2020202D302E3030393720202020302E3835363920202020302E30303030204E202020302020302020302020302020302020302020302020302020302020302020302020300A20202020302E373038312020202D302E3337383720202020302E303030302043202020302020302020302020302020302020302020302020302020302020302020302020300A20202020302E3730353920202020302E3434363320202020302E303030302043202020302020302020302020302020302020302020302020302020302020302020302020300A2020202D302E303033302020202D312E3631383120202020302E30303030204F202020302020302020302020302020302020302020302020302020302020302020302020300A20202020312E3433353020202020302E3739333120202020302E303030302043202020302020302020302020302020302020302020302020302020302020302020302020300A20202020312E3433303020202020312E3631383120202020302E30303030204F202020302020302020302020302020302020302020302020302020302020302020302020300A20202020322E3135323020202020302E3338353020202020302E30303030204F202020302020302020302020302020302020302020302020302020302020302020302020300A2020312020322020322020302020202020200A2020312020332020312020302020202020200A2020332020342020322020302020202020200A2020342020352020312020302020202020200A2020352020362020322020302020202020200A2020362020322020312020302020202020200A2020342020372020312020302020202020200A2020332020382020312020302020202020200A2020372020392020322020302020202020200A2020392031302020312020302020202020200A2031302020382020322020302020202020200A2020372031312020312020302020202020200A2031322031332020322020302020202020200A2031322031342020312020302020202020200A2031302031322020312020302020202020200A4D2020454E44
Contributor: Tsuzimoto Y, Tsugawa H, Bamba T, Fukusaki E, engineering department, Osaka Univ.
InstType: EI
InstName: Pegasus II TOF-MS system, Leco; GC 6890, Agilent Technologies
IoniMethod: EI
IonPolarity: pos
Date: 2010-10-09 19:48:36+02:00
Num Peaks: 201
85 24 86 36 87 43 88 95 89 128 90 26 91 52 92 25 93 35 94 15 
95 9 96 6 97 9 98 15 99 44 100 98 101 73 102 44 103 76 104 28 
105 71 106 12 107 18 108 22 109 8 110 13 111 4 112 4 113 35 114 81 
115 252 116 77 117 47 118 17 119 36 120 13 121 16 122 75 123 14 124 4 
125 2 126 16 127 75 128 62 129 43 130 98 131 83 132 34 133 68 134 17 
135 13 136 5 137 14 138 3 139 5 140 75 141 35 142 59 143 74 144 121 
145 66 146 30 147 93 148 24 149 13 150 3 151 3 152 37 153 7 154 21 
155 9 156 55 157 23 158 98 159 42 160 29 161 10 162 5 163 3 164 1 
165 1 166 2 167 3 168 8 169 12 170 53 171 21 172 45 173 27 174 15 
175 5 176 4 177 2 178 2 179 2 180 2 181 1 182 8 183 4 184 39 
185 27 186 123 187 33 188 21 189 7 190 5 191 1 193 2 195 1 196 2 
197 2 198 17 199 12 200 84 201 27 202 94 203 26 204 10 205 3 206 1 
207 1 208 1 210 1 211 2 212 9 213 8 214 117 215 44 216 161 217 109 
218 50 219 15 220 3 221 1 223 1 224 1 226 1 227 2 228 9 229 16 
230 41 231 999 232 220 233 57 234 10 235 1 242 7 243 6 244 25 245 67 
246 42 247 10 248 3 256 4 257 4 258 21 259 7 260 12 261 4 262 2 
270 1 271 1 272 18 273 9 274 43 275 19 276 9 277 2 285 1 286 12 
287 16 288 208 289 146 290 126 291 46 292 16 293 4 301 1 302 28 303 22 
304 343 305 135 306 54 307 15 308 4 309 1 316 17 317 31 318 811 319 254 
320 98 321 22 322 5 323 1 331 1 332 41 333 87 334 32 335 12 336 1 
411 1 
