Name: Lignoceric acid
CAS: 557-59-5
MW: 368
Formula: C24H48O2
Synonym: KEGG: C08320
Synonym: CID: 11197
Synonym: MassBank: OUF00311
Synonym: Lignoceric acid
Structure: 4330303030313232332E6364780A20204368656D447261773132323630383139313532440A2032362032352020302020302020302020302020302020302020302020303939392056323030300A20202020302E353731392020202D332E3430303420202020302E303030302043202020302020302020302020302020302020302020302020302020302020302020302020300A20202020312E313131372020202D322E3836303620202020302E30303030204F202020302020302020302020302020302020302020302020302020302020302020302020300A20202020312E313139332020202D332E3934373820202020302E30303030204F202020302020302020302020302020302020302020302020302020302020302020302020300A2020202D312E323835302020202D332E3339343720202020302E303030302043202020302020302020302020302020302020302020302020302020302020302020302020300A2020202D372E3530313920202020332E3533353320202020302E303030302043202020302020302020302020302020302020302020302020302020302020302020302020300A2020202D362E3738373520202020332E3934373820202020302E303030302043202020302020302020302020302020302020302020302020302020302020302020302020300A2020202D362E3037333020202020332E3533353320202020302E303030302043202020302020302020302020302020302020302020302020302020302020302020302020300A2020202D352E3335383520202020332E3934373820202020302E303030302043202020302020302020302020302020302020302020302020302020302020302020302020300A2020202D342E3634343120202020332E3533353320202020302E303030302043202020302020302020302020302020302020302020302020302020302020302020302020300A2020202D332E3932393620202020332E3934373820202020302E303030302043202020302020302020302020302020302020302020302020302020302020302020302020300A2020202D332E3231353120202020332E3533353320202020302E303030302043202020302020302020302020302020302020302020302020302020302020302020302020300A2020202D322E3530303620202020332E3934373820202020302E303030302043202020302020302020302020302020302020302020302020302020302020302020302020300A2020202D312E3738363220202020332E3533353320202020302E303030302043202020302020302020302020302020302020302020302020302020302020302020302020300A2020202D312E3037313720202020332E3934373820202020302E303030302043202020302020302020302020302020302020302020302020302020302020302020302020300A2020202D302E3335373220202020332E3533353320202020302E303030302043202020302020302020302020302020302020302020302020302020302020302020302020300A20202020302E3335373220202020332E3934373820202020302E303030302043202020302020302020302020302020302020302020302020302020302020302020302020300A20202020312E3037313720202020332E3533353320202020302E303030302043202020302020302020302020302020302020302020302020302020302020302020302020300A20202020312E3738363220202020332E3934373820202020302E303030302043202020302020302020302020302020302020302020302020302020302020302020302020300A20202020322E3530303620202020332E3533353320202020302E303030302043202020302020302020302020302020302020302020302020302020302020302020302020300A20202020332E3231353120202020332E3934373820202020302E303030302043202020302020302020302020302020302020302020302020302020302020302020302020300A20202020332E3932393620202020332E3533353320202020302E303030302043202020302020302020302020302020302020302020302020302020302020302020302020300A20202020342E3634343120202020332E3934373820202020302E303030302043202020302020302020302020302020302020302020302020302020302020302020302020300A20202020352E3335383520202020332E3533353320202020302E303030302043202020302020302020302020302020302020302020302020302020302020302020302020300A20202020362E3037333020202020332E3934373820202020302E303030302043202020302020302020302020302020302020302020302020302020302020302020302020300A20202020362E3738373520202020332E3533353320202020302E303030302043202020302020302020302020302020302020302020302020302020302020302020302020300A20202020372E3530313920202020332E3934373820202020302E303030302043202020302020302020302020302020302020302020302020302020302020302020302020300A2020312020322020322020302020202020200A2020312020332020312020302020202020200A2020312032362020312020302020202020200A2020342020352020312020302020202020200A2020352020362020312020302020202020200A2020362020372020312020302020202020200A2020372020382020312020302020202020200A2020382020392020312020302020202020200A2020392031302020312020302020202020200A2031302031312020312020302020202020200A2031312031322020312020302020202020200A2031322031332020312020302020202020200A2031332031342020312020302020202020200A2031342031352020312020302020202020200A2031352031362020312020302020202020200A2031362031372020312020302020202020200A2031372031382020312020302020202020200A2031382031392020312020302020202020200A2031392032302020312020302020202020200A2032302032312020312020302020202020200A2032312032322020312020302020202020200A2032322032332020312020302020202020200A2032332032342020312020302020202020200A2032342032352020312020302020202020200A2032352032362020312020302020202020200A4D202053545920203120202031205355500A4D2020534C4220203120202031202020310A4D202053414C202020312031352020203520202036202020372020203820202039202031302020313120203132202031332020313420203135202031362020313720203138202031390A4D202053414C20202031202037202032302020323120203232202032332020323420203235202032360A4D202053424C2020203120203220202033202020340A4D2020534D542020203120284348322932320A4D20205342562020203120203320202020342E3330393220202020352E313634370A4D2020534256202020312020342020202D382E3833373920202020342E373436350A4D2020454E44
Contributor: Tsuzimoto Y, Tsugawa H, Bamba T, Fukusaki E, engineering department, Osaka Univ.
InstType: EI
InstName: Pegasus II TOF-MS system, Leco; GC 6890, Agilent Technologies
IoniMethod: EI
IonPolarity: pos
Date: 2010-10-09 19:48:36+02:00
Num Peaks: 156
85 53 86 11 87 10 88 5 89 30 90 5 91 12 92 2 93 23 94 4 
95 68 96 14 97 86 98 60 99 28 100 4 101 12 102 4 103 6 105 22 
106 2 107 14 108 2 109 27 110 5 111 42 112 16 113 8 114 2 115 11 
116 59 117 999 118 111 119 44 120 3 121 16 122 2 123 11 124 3 125 12 
126 5 127 7 128 5 129 475 130 73 131 132 132 566 133 162 134 34 135 18 
136 3 137 5 138 1 139 5 140 3 141 4 142 3 143 47 144 8 145 356 
146 49 147 18 148 1 149 6 150 1 151 1 153 4 154 6 155 5 156 1 
157 9 158 2 159 28 160 5 161 1 163 2 165 1 167 2 168 2 169 2 
171 22 172 6 173 7 174 6 175 1 177 1 181 1 185 38 186 11 187 26 
188 11 189 2 199 7 200 1 201 71 202 13 203 4 213 6 214 1 215 6 
216 1 227 8 228 2 229 4 230 1 241 8 242 2 243 9 244 3 255 5 
256 1 257 10 258 3 269 5 270 1 271 2 272 1 283 4 284 1 285 3 
286 1 297 3 298 1 299 3 300 1 311 2 312 1 313 2 325 2 326 1 
327 1 339 1 340 1 341 4 342 1 355 2 356 1 381 5 382 5 383 3 
384 1 396 1 397 5 398 5 399 3 400 1 424 13 425 71 426 50 427 17 
428 4 439 3 440 29 441 20 442 7 443 1 
