Name: L-(-)-Cystine
CAS: 56-89-3
MW: 240
Formula: C6H12N2O4S2
Synonym: KEGG: C00491
Synonym: CID: 67678
Synonym: MassBank: OUF00304
Synonym: L-(-)-Cystine
Structure: 4330303030313335322E6364780A20204368656D447261773132323630383139313932440A2031362031352020302020302020302020302020302020302020302020303939392056323030300A20202020312E343833322020202D302E3134303120202020302E303030302043202020302020302020302020302020302020302020302020302020302020302020302020300A20202020312E3839313420202020302E3434353020202020302E303030302043202020302020302020302020302020302020302020302020302020302020302020302020300A20202020322E3431303720202020302E3538343220202020302E30303030204F202020302020302020302020302020302020302020302020302020302020302020302020300A20202020312E3435333820202020302E3838323620202020302E30303030204F202020302020302020302020302020302020302020302020302020302020302020302020300A20202020312E393838372020202D302E3532313820202020302E303030302048202020302020302020302020302020302020302020302020302020302020302020302020300A20202020312E343833322020202D302E3838323620202020302E30303030204E202020302020302020302020302020302020302020302020302020302020302020302020300A20202020302E303939382020202D302E3132353220202020302E303030302053202020302020302020302020302020302020302020302020302020302020302020302020300A20202020302E3635343620202020302E3038313920202020302E303030302043202020302020302020302020302020302020302020302020302020302020302020302020300A2020202D302E343736332020202D302E3132353220202020302E303030302053202020302020302020302020302020302020302020302020302020302020302020302020300A2020202D302E3838363220202020302E3131313520202020302E303030302043202020302020302020302020302020302020302020302020302020302020302020302020300A2020202D312E353832372020202D302E3037353120202020302E303030302043202020302020302020302020302020302020302020302020302020302020302020302020300A2020202D312E3932383820202020302E3532343420202020302E303030302043202020302020302020302020302020302020302020302020302020302020302020302020300A2020202D312E3439383320202020302E3737323920202020302E30303030204F202020302020302020302020302020302020302020302020302020302020302020302020300A2020202D322E3431303720202020302E3830323620202020302E30303030204F202020302020302020302020302020302020302020302020302020302020302020302020300A2020202D312E393830342020202D302E3437323820202020302E303030302048202020302020302020302020302020302020302020302020302020302020302020302020300A2020202D312E343332302020202D302E3633373720202020302E30303030204E202020302020302020302020302020302020302020302020302020302020302020302020300A2020312020322020312020302020202020200A2020322020332020312020302020202020200A2020322020342020322020302020202020200A2020312020352020312020362020202020200A2020312020362020312020312020202020200A2020312020382020312020302020202020200A2020382020372020312020302020202020200A2020372020392020312020302020202020200A2020392031302020312020302020202020200A2031302031312020312020302020202020200A2031312031322020312020302020202020200A2031322031332020322020302020202020200A2031322031342020312020302020202020200A2031312031352020312020312020202020200A2031312031362020312020362020202020200A4D2020454E44
Contributor: Tsuzimoto Y, Tsugawa H, Bamba T, Fukusaki E, engineering department, Osaka Univ.
InstType: EI
InstName: Pegasus II TOF-MS system, Leco; GC 6890, Agilent Technologies
IoniMethod: EI
IonPolarity: pos
Date: 2010-10-09 19:48:36+02:00
Num Peaks: 160
85 25 86 49 87 27 88 9 89 10 90 13 91 24 92 7 93 6 95 2 
96 3 97 2 98 22 99 17 100 678 101 104 102 58 103 56 104 11 105 17 
106 6 107 6 108 2 109 1 110 2 112 3 113 7 114 77 115 214 116 125 
117 54 118 22 119 11 120 35 121 5 122 4 124 1 126 1 127 1 128 13 
129 57 130 64 131 103 132 145 133 87 134 23 135 9 136 2 137 1 138 1 
142 6 143 5 144 47 145 18 146 999 147 591 148 232 149 68 150 15 151 5 
152 1 156 1 157 1 158 12 159 18 160 20 161 11 162 3 163 13 164 3 
165 2 166 1 172 36 173 8 174 30 175 8 176 7 177 2 178 80 179 22 
180 18 181 3 182 2 184 1 185 1 188 53 189 15 190 15 191 5 192 4 
193 1 194 4 198 1 200 2 201 1 202 13 203 28 204 13 205 6 206 2 
207 1 214 2 215 1 216 80 217 26 218 943 219 205 220 135 221 33 222 16 
223 3 231 8 232 123 233 28 234 17 235 1 246 1 248 9 249 18 250 15 
251 3 252 2 260 13 261 5 262 6 263 4 264 97 265 55 266 193 267 46 
268 29 269 6 282 1 288 20 289 15 290 6 291 6 292 4 293 1 294 3 
295 2 296 26 297 65 298 17 299 13 300 1 322 5 323 2 338 10 339 4 
340 1 405 1 410 8 411 68 412 35 413 20 414 7 415 2 438 1 446 1 
