Name: Ketovaline
CAS: 759-05-7
MW: 116
Formula: C5H8O3
Synonym: KEGG: C00141
Synonym: CID: 49
Synonym: MassBank: OUF00289
Synonym: Ketovaline
Structure: 310A32300A4330303030373632332E6364780A20204368656D447261773132323930383037323132440A2020382020372020302020302020302020302020302020302020302020303939392056323030300A20202020302E303030302020202D302E3230363220202020302E303030302043202020302020302020302020302020302020302020302020302020302020302020302020300A20202020302E303030302020202D312E3033313320202020302E30303030204F202020302020302020302020302020302020302020302020302020302020302020302020300A20202020302E3731343520202020302E3230363220202020302E303030302043202020302020302020302020302020302020302020302020302020302020302020302020300A2020202D302E3731343520202020302E3230363220202020302E303030302043202020302020302020302020302020302020302020302020302020302020302020302020300A20202020312E343238392020202D302E3230363220202020302E30303030204F202020302020302020302020302020302020302020302020302020302020302020302020300A2020202D302E3731343520202020312E3033313320202020302E303030302043202020302020302020302020302020302020302020302020302020302020302020302020300A2020202D312E343238392020202D302E3230363220202020302E303030302043202020302020302020302020302020302020302020302020302020302020302020302020300A20202020302E3731343520202020312E3033313320202020302E30303030204F202020302020302020302020302020302020302020302020302020302020302020302020300A2020312020322020322020302020202020200A2020312020332020312020302020202020200A2020312020342020312020302020202020200A2020332020352020312020302020202020200A2020342020362020312020302020202020200A2020342020372020312020302020202020200A2020332020382020322020302020202020200A4D2020454E44
Contributor: Tsuzimoto Y, Tsugawa H, Bamba T, Fukusaki E, engineering department, Osaka Univ.
InstType: EI
InstName: Pegasus II TOF-MS system, Leco; GC 6890, Agilent Technologies
IoniMethod: EI
IonPolarity: pos
Date: 2010-10-09 19:48:36+02:00
Num Peaks: 63
85 18 86 36 87 4 88 8 89 999 90 88 91 43 92 2 93 2 95 1 
96 29 97 5 98 10 99 43 100 176 101 22 102 4 103 7 104 2 105 49 
106 4 107 1 110 1 111 1 112 8 113 5 114 4 115 1 116 38 117 53 
118 7 119 2 126 10 127 61 128 26 129 3 130 2 131 2 133 1 140 8 
141 20 142 22 143 8 144 4 146 1 147 1 156 1 157 4 158 2 159 1 
170 4 171 1 172 2 174 6 186 118 187 19 188 6 189 1 202 38 203 5 
204 1 217 18 218 3 
