Name: DL-alpha-Hydroxybutyric acid
CAS: 103404-58-6
MW: 104
Formula: C4H8O3
Synonym: MassBank: PR010195
Synonym: DL-alpha-Hydroxybutyric acid
Structure: 310A31380A20204143442F4C6162733132303230363134353732440A2020372020362020302020302020302020302020302020302020302020302020312056323030300A20202031302E303137392020202D372E3931393920202020302E30303030204F202020302020302020302020302020302020302020302020302020302020302020302020300A20202031312E313639372020202D382E3538343920202020302E303030302043202020302020302020302020302020302020302020302020302020302020302020302020300A20202031322E333231352020202D372E3931393920202020302E303030302043202020302020302020302020302020302020302020302020302020302020302020302020300A20202031332E343733342020202D382E3538343920202020302E30303030204F202020302020302020302020302020302020302020302020302020302020302020302020300A20202031312E313639372020202D392E3931343920202020302E303030302043202020302020302020302020302020302020302020302020302020302020302020302020300A20202031302E3031373920202D31302E3537393920202020302E303030302043202020302020302020302020302020302020302020302020302020302020302020302020300A20202031322E333231352020202D362E3538393920202020302E30303030204F202020302020302020302020302020302020302020302020302020302020302020302020300A2020322020312020312020302020302020302020300A2020332020322020312020302020302020302020300A2020342020332020312020302020302020302020300A2020322020352020312020302020302020302020300A2020352020362020312020302020302020302020300A2020332020372020322020302020302020302020300A4D2020454E44
Contributor: Kusano M, Fukushima A, Plant Science Center, RIKEN.
InstType: EI
InstName: Pegasus III TOF-MS system, Leco; GC 6890, Agilent Technologies
IoniMethod: EI
IonPolarity: pos
Date: 2010-10-09 19:48:36+02:00
Num Peaks: 72
60 16 61 36 62 3 63 2 65 1 66 91 67 10 69 8 70 8 71 11 
72 28 73 999 74 97 75 145 76 14 77 24 78 2 79 6 81 49 82 4 
83 1 84 1 85 14 86 1 87 11 88 2 89 4 94 1 95 11 96 1 
99 14 100 1 101 21 102 6 103 13 104 2 105 6 109 3 113 2 115 27 
116 6 117 16 118 2 119 3 129 5 130 10 131 508 132 63 133 78 134 9 
135 4 143 11 144 1 145 1 147 425 148 68 149 41 150 4 151 1 175 2 
189 2 190 24 191 6 192 2 205 44 206 9 207 4 217 1 219 3 233 21 
234 4 235 1 
