Name: DL-beta-Hydroxybutyric acid
CAS: 300-85-6
MW: 104
Formula: C4H8O3
Synonym: MassBank: PR010153
Synonym: DL-beta-Hydroxybutyric acid
Structure: 310A31380A20204143442F4C6162733132303230363134353832440A2020372020362020302020302020302020302020302020302020302020302020312056323030300A20202031322E343232352020202D372E3437313320202020302E30303030204F202020302020302020302020302020302020302020302020302020302020302020302020300A20202031332E353734342020202D382E3133363220202020302E303030302043202020302020302020302020302020302020302020302020302020302020302020302020300A20202031342E373236312020202D372E3437313320202020302E303030302043202020302020302020302020302020302020302020302020302020302020302020302020300A20202031352E383737392020202D382E3133363220202020302E303030302043202020302020302020302020302020302020302020302020302020302020302020302020300A20202031372E303239382020202D372E3437313320202020302E30303030204F202020302020302020302020302020302020302020302020302020302020302020302020300A20202031352E383737392020202D392E3436363220202020302E30303030204F202020302020302020302020302020302020302020302020302020302020302020302020300A20202031332E353734342020202D392E3436363220202020302E303030302043202020302020302020302020302020302020302020302020302020302020302020302020300A2020322020312020312020302020302020302020300A2020332020322020312020302020302020302020300A2020342020332020312020302020302020302020300A2020352020342020312020302020302020302020300A2020342020362020322020302020302020302020300A2020322020372020312020302020302020302020300A4D2020454E44
Contributor: Kusano M, Fukushima A, Plant Science Center, RIKEN.
InstType: EI
InstName: Pegasus III TOF-MS system, Leco; GC 6890, Agilent Technologies
IoniMethod: EI
IonPolarity: pos
Date: 2010-10-09 19:48:36+02:00
Num Peaks: 90
60 30 61 79 62 6 63 5 65 1 66 105 67 13 68 1 69 27 70 15 
71 17 72 59 73 999 74 106 75 404 76 41 77 55 78 5 79 14 80 2 
81 1 83 2 84 2 85 11 86 2 87 16 88 120 89 17 90 1 91 2 
92 1 97 1 98 2 99 33 100 4 101 57 102 10 103 17 104 2 105 7 
106 1 107 1 109 5 113 2 114 1 115 63 116 17 117 434 118 48 119 26 
120 2 129 4 130 69 131 44 132 9 133 93 134 13 135 7 142 2 143 23 
144 2 145 2 146 2 147 768 148 125 149 69 150 7 151 2 157 2 158 2 
159 1 161 1 162 1 163 2 175 1 189 19 190 4 191 178 192 33 193 15 
194 2 204 14 205 3 206 1 217 4 218 1 231 1 233 64 234 13 235 5 
