Name: Ethanolamine
CAS: 141-43-5
MW: 61
Formula: C2H7NO
Synonym: KEGG: C00189
Synonym: CID: 3489
Synonym: MassBank: PR010155
Synonym: Ethanolamine
Synonym: Aminoethanol
Synonym: 2-Hydroxyethylamine
Structure: 310A31330A3C4341535F49443E203134312D34332D35093C4B4547475F49443E20433030313839093C4E414D453E20457468616E6F6C616D696E65093C464F524D554C413E20433248374E4F093C45584143544D4153533E2036312E303532373633383530393939393935093C415645524147454D4153533E2036312E3038333132093C534D494C45533E204E43434F093C434F505952494748543E2041524D2050524F4A45435420687474703A2F2F7777772E6D657461626F6C6F6D652E6A702F0A2020342020332020302020302020302020302020302020302020302020303939392056323030300A20202020322E3836363020202020302E3235303020202020302E303030302043202020302020302020302020322020302020302020302020302020302020302020302020300A20202020322E303030302020202D302E3235303020202020302E303030302043202020302020302020302020322020302020302020302020302020302020302020302020300A20202020322E3836363020202020312E3235303020202020302E30303030204E202020302020302020302020322020302020302020302020302020302020302020302020300A20202020322E303030302020202D312E3235303020202020302E30303030204F202020302020302020302020312020302020302020302020302020302020302020302020300A2020342020322020312020302020302020302020300A2020322020312020312020302020302020302020300A2020312020332020312020302020302020302020300A4D2020454E44
Contributor: Kusano M, Fukushima A, Plant Science Center, RIKEN.
InstType: EI
InstName: Pegasus III TOF-MS system, Leco; GC 6890, Agilent Technologies
IoniMethod: EI
IonPolarity: pos
Date: 2010-10-09 19:48:36+02:00
Num Peaks: 74
60 23 61 15 62 1 66 10 67 1 69 1 70 17 71 11 72 30 73 999 
74 92 75 45 76 3 77 8 83 2 84 5 85 9 86 281 87 36 88 23 
89 12 90 1 98 2 99 5 100 291 101 44 102 35 103 27 104 4 105 5 
113 9 114 37 115 18 116 20 117 30 118 6 119 13 120 1 121 1 128 1 
129 4 130 49 131 44 132 13 133 96 134 14 135 7 142 1 143 1 144 10 
145 3 146 6 147 155 148 25 149 12 150 1 158 7 159 2 160 1 172 11 
173 3 174 605 175 117 176 60 177 7 178 1 187 1 188 7 189 2 190 1 
204 1 262 14 263 4 264 2 
