Name: Melibiose
CAS: 585-99-9
MW: 342
Formula: C12H22O11
Synonym: KEGG: C05402
Synonym: CID: 7769
Synonym: MassBank: PR010073
Synonym: Melibiose
Synonym: D-Gal-alpha1->6D-Glucose
Synonym: 6-O-(alpha-D-Galactopyranosyl)-D-glucopyranose
Structure: 310A35330A3C4341535F49443E203538352D39392D39093C4B4547475F49443E20433035343032093C4E414D453E204D656C6962696F7365093C464F524D554C413E204331324832324F3131093C45584143544D4153533E203334322E313136323131353436093C415645524147454D4153533E203334322E3239363438093C534D494C45533E204F435B434040485D284F31295B4340485D284F295B4340485D284F295B434040485D284F295B434040485D284F435B434040485D284F32295B434040485D284F295B4340485D284F295B434040485D284F2943284F29322931093C434F505952494748543E2041524D2050524F4A45435420687474703A2F2F7777772E6D657461626F6C6F6D652E6A702F0A2032332032342020302020302020312020302020302020302020302020303939392056323030300A20202020332E373332312020202D312E3235303020202020302E303030302043202020302020302020322020312020302020302020302020302020302020302020302020300A20202020322E383636302020202D312E3735303020202020302E303030302043202020302020302020312020312020302020302020302020302020302020302020302020300A20202020322E383636302020202D322E3735303020202020302E303030302043202020302020302020322020312020302020302020302020302020302020302020302020300A20202020332E373332312020202D332E3235303020202020302E303030302043202020302020302020322020312020302020302020302020302020302020302020302020300A20202020342E353938312020202D322E3735303020202020302E303030302043202020302020302020312020312020302020302020302020302020302020302020302020300A20202020352E343634312020202D332E3235303020202020302E303030302043202020302020302020302020322020302020302020302020302020302020302020302020300A20202020352E3436343120202020322E3735303020202020302E303030302043202020302020302020332020312020302020302020302020302020302020302020302020300A20202020342E3539383120202020332E3235303020202020302E303030302043202020302020302020312020312020302020302020302020302020302020302020302020300A20202020332E3733323120202020322E3735303020202020302E303030302043202020302020302020322020312020302020302020302020302020302020302020302020300A20202020332E3733323120202020312E3735303020202020302E303030302043202020302020302020312020312020302020302020302020302020302020302020302020300A20202020342E3539383120202020312E3235303020202020302E303030302043202020302020302020312020312020302020302020302020302020302020302020302020300A20202020342E3539383120202020302E3235303020202020302E303030302043202020302020302020302020322020302020302020302020302020302020302020302020300A20202020322E303030302020202D312E3235303020202020302E30303030204F202020302020302020302020312020302020302020302020302020302020302020302020300A20202020322E303030302020202D332E3235303020202020302E30303030204F202020302020302020302020312020302020302020302020302020302020302020302020300A20202020332E373332312020202D342E3235303020202020302E30303030204F202020302020302020302020312020302020302020302020302020302020302020302020300A20202020342E353938312020202D312E3735303020202020302E30303030204F202020302020302020302020302020302020302020302020302020302020302020302020300A20202020362E333330312020202D322E3735303020202020302E30303030204F202020302020302020302020312020302020302020302020302020302020302020302020300A20202020362E3333303120202020332E3235303020202020302E30303030204F202020302020302020302020312020302020302020302020302020302020302020302020300A20202020342E3539383120202020342E3235303020202020302E30303030204F202020302020302020302020312020302020302020302020302020302020302020302020300A20202020322E3836363020202020332E3235303020202020302E30303030204F202020302020302020302020312020302020302020302020302020302020302020302020300A20202020322E3836363020202020312E3235303020202020302E30303030204F202020302020302020302020312020302020302020302020302020302020302020302020300A20202020352E3436343120202020312E3735303020202020302E30303030204F202020302020302020302020302020302020302020302020302020302020302020302020300A20202020332E373332312020202D302E3235303020202020302E30303030204F202020302020302020302020302020302020302020302020302020302020302020302020300A2032322020372020312020302020302020302020300A2020372020382020312020302020302020302020300A2020382020392020312020302020302020302020300A2020392031302020312020302020302020302020300A2031302031312020312020302020302020302020300A2020382031392020312020312020302020302020300A2020392032302020312020362020302020302020300A2031312031322020312020302020302020302020300A2020372031382020312020342020302020302020300A2031312032322020312020362020302020302020300A2031372020362020312020302020302020302020300A2020352031362020312020362020302020302020300A2020312031362020312020302020302020302020300A2020312020322020312020302020302020302020300A2020322020332020312020302020302020302020300A2020332020342020312020302020302020302020300A2020342020352020312020302020302020302020300A2020352020362020312020302020302020302020300A2020322031332020312020312020302020302020300A2020332031342020312020362020302020302020300A2020342031352020312020362020302020302020300A2020312032332020312020312020302020302020300A2031322032332020312020302020302020302020300A2031302032312020312020312020302020302020300A4D2020454E44
Contributor: Kusano M, Fukushima A, Plant Science Center, RIKEN.
InstType: EI
InstName: Pegasus III TOF-MS system, Leco; GC 6890, Agilent Technologies
IoniMethod: EI
IonPolarity: pos
Date: 2010-10-09 19:48:36+02:00
Num Peaks: 190
60 4 61 5 65 1 66 5 67 4 69 9 70 4 71 3 72 12 73 999 
74 83 75 71 76 5 77 7 79 1 80 1 81 12 82 4 83 3 84 2 
85 5 86 2 87 4 88 1 89 40 90 3 91 2 95 1 97 3 98 1 
99 4 100 13 101 28 102 10 103 121 104 12 105 22 106 2 107 1 109 5 
111 3 112 1 113 6 114 5 115 7 116 15 117 52 118 5 119 5 125 1 
126 1 127 4 128 3 129 119 130 19 131 25 132 4 133 39 134 5 135 3 
139 2 140 1 141 3 142 5 143 18 144 3 145 6 146 1 147 169 148 28 
149 21 150 2 151 1 153 2 154 1 155 17 156 3 157 16 158 4 159 3 
160 73 161 33 162 6 163 7 164 1 167 1 168 1 169 71 170 11 171 7 
172 2 173 4 174 2 175 3 177 3 181 1 183 2 185 1 186 1 187 2 
188 1 189 21 190 6 191 42 192 7 193 3 199 2 200 1 201 2 202 1 
203 9 204 253 205 62 206 25 207 7 208 1 210 1 215 3 216 5 217 112 
218 29 219 12 220 2 221 6 222 1 223 1 227 2 228 4 229 7 230 4 
231 9 232 3 233 6 234 2 235 1 241 2 242 1 243 24 244 7 245 6 
246 4 247 4 248 1 256 1 257 1 259 5 260 1 262 2 263 1 265 1 
269 1 270 1 271 22 272 5 273 3 274 2 275 2 276 1 277 1 291 5 
292 1 293 1 300 3 304 1 305 7 306 3 307 5 308 1 317 2 318 2 
319 18 320 5 321 3 331 5 332 3 333 2 345 1 360 4 361 97 362 32 
363 16 364 6 365 1 390 3 391 1 451 4 452 1 480 4 481 2 482 1 
