Name: (+-)-alpha-Tocopherol
CAS: 10191-41-0
MW: 430
Formula: C29H50O2
Synonym: MassBank: PR010089
Synonym: (+-)-alpha-Tocopherol
Structure: 310A36380A20204143442F4C6162733132303230363039313732440A2033312033322020302020302020312020302020302020302020302020302020312056323030300A20202020362E3835363420202D31322E3331343520202020302E303030302043202020302020302020302020302020302020302020302020302020302020302020302020300A20202020362E3835363420202D31332E3634343520202020302E303030302043202020302020302020302020302020302020302020302020302020302020302020302020300A20202020352E3730343520202D31312E3634393520202020302E303030302043202020302020302020302020302020302020302020302020302020302020302020302020300A20202020352E3730343520202D31342E3330393520202020302E303030302043202020302020302020302020302020302020302020302020302020302020302020302020300A20202020342E3535323720202D31322E3331343520202020302E303030302043202020302020302020302020302020302020302020302020302020302020302020302020300A20202020342E3535323720202D31332E3634343520202020302E303030302043202020302020302020302020302020302020302020302020302020302020302020302020300A20202020352E3730343520202D31302E3331393520202020302E303030302043202020302020302020302020302020302020302020302020302020302020302020302020300A20202020332E3430303920202D31312E3634393520202020302E30303030204F202020302020302020302020302020302020302020302020302020302020302020302020300A20202020332E3430303920202D31342E3330393520202020302E303030302043202020302020302020302020302020302020302020302020302020302020302020302020300A20202020352E3730343520202D31352E3633393520202020302E303030302043202020302020302020302020302020302020302020302020302020302020302020302020300A20202020392E3136303120202D31322E3331343520202020302E303030302043202020302020302020302020302020302020302020302020302020302020302020302020300A20202020392E3136303120202D31332E3634343520202020302E303030302043202020302020302020302020302020302020302020302020302020302020302020302020300A20202020382E3030383220202D31312E3634393520202020302E303030302043202020302020302020302020302020302020302020302020302020302020302020302020300A20202020382E3030383220202D31342E3330393520202020302E30303030204F202020302020302020302020302020302020302020302020302020302020302020302020300A20202031302E3439303120202D31332E3634343520202020302E303030302043202020302020302020302020302020302020302020302020302020302020302020302020300A20202031312E3135353120202D31322E3439323720202020302E303030302043202020302020302020302020302020302020302020302020302020302020302020302020300A20202031322E3438353120202D31322E3439323720202020302E303030302043202020302020302020302020302020302020302020302020302020302020302020302020300A20202031332E3135303120202D31312E3334303920202020302E303030302043202020302020302020302020302020302020302020302020302020302020302020302020300A20202031342E3438303120202D31312E3334303920202020302E303030302043202020302020302020302020302020302020302020302020302020302020302020302020300A20202031352E3134353120202D31302E3138393120202020302E303030302043202020302020302020302020302020302020302020302020302020302020302020302020300A20202031362E3437353120202D31302E3138393120202020302E303030302043202020302020302020302020302020302020302020302020302020302020302020302020300A20202031372E313430312020202D392E3033373320202020302E303030302043202020302020302020302020302020302020302020302020302020302020302020302020300A20202020392E3530343320202D31342E3932393220202020302E303030302043202020302020302020302020302020302020302020302020302020302020302020302020300A20202031322E3438353120202D31302E3138393120202020302E303030302043202020302020302020302020302020302020302020302020302020302020302020302020300A20202031382E343730312020202D392E3033373320202020302E303030302043202020302020302020302020302020302020302020302020302020302020302020302020300A20202031392E313335312020202D372E3838353520202020302E303030302043202020302020302020302020302020302020302020302020302020302020302020302020300A20202031362E343735312020202D372E3838353520202020302E303030302043202020302020302020302020302020302020302020302020302020302020302020302020300A20202032302E343635312020202D372E3838353520202020302E303030302043202020302020302020302020302020302020302020302020302020302020302020302020300A20202032312E313330312020202D362E3733333720202020302E303030302043202020302020302020302020302020302020302020302020302020302020302020302020300A20202032322E343630312020202D362E3733333720202020302E303030302043202020302020302020302020302020302020302020302020302020302020302020302020300A20202032302E343635312020202D352E3538313820202020302E303030302043202020302020302020302020302020302020302020302020302020302020302020302020300A2020332020312020322020302020302020302020300A2020342020322020322020302020302020302020300A2020352020332020312020302020302020302020300A2020362020342020312020302020302020302020300A2020362020352020322020302020302020302020300A2020332020372020312020302020302020302020300A2020352020382020312020302020302020302020300A2020362020392020312020302020302020302020300A2020342031302020312020302020302020302020300A2031322031312020312020302020302020302020300A2031332031312020312020302020302020302020300A2031342031322020312020302020302020302020300A2020312031332020312020302020302020302020300A2020322031342020312020302020302020302020300A2020322020312020312020302020302020302020300A2031322031352020312020302020302020302020300A2031352031362020312020302020302020302020300A2031362031372020312020302020302020302020300A2031372031382020312020302020302020302020300A2031382031392020312020302020302020302020300A2031392032302020312020302020302020302020300A2032302032312020312020302020302020302020300A2032312032322020312020302020302020302020300A2031322032332020312020362020302020302020300A2031382032342020312020362020302020302020300A2032322032352020312020302020302020302020300A2032352032362020312020302020302020302020300A2032322032372020312020362020302020302020300A2032362032382020312020302020302020302020300A2032382032392020312020302020302020302020300A2032392033302020312020302020302020302020300A2032392033312020312020302020302020302020300A4D2020454E44
Contributor: Kusano M, Fukushima A, Plant Science Center, RIKEN.
InstType: EI
InstName: Pegasus III TOF-MS system, Leco; GC 6890, Agilent Technologies
IoniMethod: EI
IonPolarity: pos
Date: 2010-10-09 19:48:36+02:00
Num Peaks: 183
60 2 61 4 62 1 63 2 65 6 66 1 67 21 69 29 70 9 71 82 
72 7 73 999 74 82 75 61 76 5 77 14 78 3 79 10 80 1 81 31 
82 3 83 21 84 2 85 14 86 1 87 1 88 1 89 2 91 19 92 2 
93 6 94 1 95 16 96 2 97 12 98 1 99 3 102 1 103 7 104 2 
105 11 106 1 107 6 108 1 109 8 110 1 111 6 113 1 115 7 116 2 
117 9 118 2 119 23 120 3 121 6 122 1 123 3 124 1 125 1 127 2 
128 5 129 5 130 2 131 8 132 1 133 7 134 3 135 7 136 4 137 2 
139 1 141 2 142 2 143 3 144 2 145 6 146 1 147 4 148 3 149 10 
150 1 151 1 153 1 155 1 157 2 158 1 159 9 160 2 161 5 162 1 
163 8 164 3 165 9 166 1 169 1 171 2 172 1 173 4 174 1 175 4 
176 2 177 11 178 4 179 5 180 1 181 1 185 1 186 1 187 5 188 1 
189 5 190 1 191 7 192 3 193 20 194 5 195 2 201 2 202 1 203 4 
204 3 205 7 206 4 207 12 208 29 209 12 210 3 211 1 215 1 216 1 
217 2 218 2 219 5 220 5 221 28 222 9 223 24 224 8 225 3 229 1 
230 1 231 2 232 1 233 5 234 5 235 8 236 197 237 340 238 73 239 19 
240 2 244 1 245 2 246 1 247 5 248 3 249 6 250 2 251 1 259 1 
260 1 261 5 262 6 263 4 264 1 275 6 276 2 277 24 278 5 279 1 
332 1 346 1 360 1 361 1 374 1 416 1 500 2 501 20 502 118 503 61 
504 20 505 5 506 1 
