Name: rac-Glycerol 3-phosphoate
CAS: 3325-00-6
MW: 169
Formula: C3H7O6P
Synonym: MassBank: PR010231
Synonym: rac-Glycerol 3-phosphoate
Structure: 333332352D30302D362E6D6F6C0A20204368656D447261773132303630363130353932440A2031302020392020302020302020302020302020302020302020302020303939392056323030300A2020202D302E3731343520202020302E3135313020202020302E30303030204F202020302020302020302020302020302020302020302020302020302020302020302020300A20202020302E303030302020202D302E3236313520202020302E303030302043202020302020302020302020302020302020302020302020302020302020302020302020300A20202020302E3731343420202020302E3135313020202020302E303030302043202020302020302020302020302020302020302020302020302020302020302020302020300A20202020312E343238392020202D302E3236313520202020302E303030302043202020302020302020302020302020302020302020302020302020302020302020302020300A20202020322E3134333420202020302E3135313020202020302E30303030204F202020302020302020302020302020302020302020302020302020302020302020302020300A20202020302E3731343420202020302E3937363020202020302E30303030204F202020302020302020302020302020302020302020302020302020302020302020302020300A2020202D312E343238392020202D302E3236313520202020302E303030302050202020302020302020302020302020302020302020302020302020302020302020302020300A2020202D322E313433342020202D302E3637343020202020302E30303030204F202020302020352020302020302020302020302020302020302020302020302020302020300A2020202D312E3834313520202020302E3435323920202020302E30303030204F202020302020352020302020302020302020302020302020302020302020302020302020300A2020202D312E303136342020202D302E3937363020202020302E30303030204F202020302020302020302020302020302020302020302020302020302020302020302020300A2020322020312020312020302020202020200A2020332020322020312020302020202020200A2020342020332020312020302020202020200A2020352020342020312020302020202020200A2020332020362020312020312020202020200A2020312020372020312020302020202020200A2020372020382020312020302020202020200A2020372020392020312020302020202020200A2020372031302020322020302020202020200A4D20204348472020322020203820202D312020203920202D310A4D2020454E44
Contributor: Kusano M, Fukushima A, Plant Science Center, RIKEN.
InstType: EI
InstName: Pegasus III TOF-MS system, Leco; GC 6890, Agilent Technologies
IoniMethod: EI
IonPolarity: pos
Date: 2010-10-09 19:48:36+02:00
Num Peaks: 171
60 10 61 20 62 2 63 3 66 4 67 1 70 6 71 8 72 27 73 999 
74 91 75 92 76 8 77 29 78 4 79 18 80 1 83 1 84 2 85 7 
86 1 87 9 88 4 89 11 90 1 91 3 92 1 93 1 98 1 99 5 
100 1 101 104 102 12 103 108 104 11 105 10 106 1 107 3 109 1 111 1 
113 18 114 2 115 22 116 23 117 19 118 3 119 10 120 1 121 5 123 2 
127 1 128 1 129 53 130 10 131 47 132 6 133 83 134 11 135 24 136 3 
137 9 138 1 139 1 145 2 147 107 148 17 149 15 150 2 151 6 152 1 
153 1 159 1 161 1 163 4 164 1 165 3 167 2 175 1 177 2 179 2 
181 10 182 2 183 4 184 1 189 2 191 11 192 2 193 13 194 2 195 12 
196 2 197 3 203 8 204 2 205 5 206 1 207 22 208 5 209 4 210 2 
211 61 212 10 213 6 217 2 218 14 219 7 220 2 221 1 225 14 226 4 
227 12 228 2 229 1 241 11 242 2 243 8 244 1 253 3 254 1 255 2 
256 14 257 3 258 1 269 3 270 1 271 1 283 3 284 1 285 12 286 3 
287 2 298 7 299 118 300 32 301 18 302 3 303 1 313 2 314 6 315 28 
316 8 317 4 318 1 327 2 328 6 329 2 330 1 341 8 342 4 343 2 
356 7 357 75 358 23 359 11 360 2 369 1 370 13 371 5 372 3 373 6 
374 2 375 1 386 1 387 8 388 3 389 3 390 1 444 2 445 12 446 5 
447 2 
