Name: MassBank: PR010101
CAS: 110-60-1
MW: 88
Formula: C4H12N2
Synonym: KEGG: C00134
Synonym: CID: 3434
Synonym: MassBank: PR010101
Synonym: 1,4-Butanediamine
Synonym: Putrescine
Synonym: Tetramethylenediamine
Synonym: 1,4-Diaminobutane
Structure: 310A31370A3C4341535F49443E203131302D36302D31093C4B4547475F49443E20433030313334093C4E414D453E2050757472657363696E65093C464F524D554C413E2043344831324E32093C45584143544D4153533E2038382E313030303438333934093C415645524147454D4153533E2038382E3135313536093C534D494C45533E204E434343434E093C434F505952494748543E2041524D2050524F4A45435420687474703A2F2F7777772E6D657461626F6C6F6D652E6A702F0A2020362020352020302020302020302020302020302020302020302020303939392056323030300A20202020332E3733323120202020312E3030303020202020302E303030302043202020302020302020302020322020302020302020302020302020302020302020302020300A20202020322E3836363020202020302E3530303020202020302E303030302043202020302020302020302020322020302020302020302020302020302020302020302020300A20202020322E383636302020202D302E3530303020202020302E303030302043202020302020302020302020322020302020302020302020302020302020302020302020300A20202020322E303030302020202D312E3030303020202020302E303030302043202020302020302020302020322020302020302020302020302020302020302020302020300A20202020332E3733323120202020322E3030303020202020302E30303030204E202020302020302020302020322020302020302020302020302020302020302020302020300A20202020322E303030302020202D322E3030303020202020302E30303030204E202020302020302020302020322020302020302020302020302020302020302020302020300A2020352020312020312020302020302020302020300A2020312020322020312020302020302020302020300A2020322020332020312020302020302020302020300A2020332020342020312020302020302020302020300A2020342020362020312020302020302020302020300A4D2020454E44
Contributor: Kusano M, Fukushima A, Plant Science Center, RIKEN.
InstType: EI
InstName: Pegasus III TOF-MS system, Leco; GC 6890, Agilent Technologies
IoniMethod: EI
IonPolarity: pos
Date: 2010-10-09 19:48:36+02:00
Num Peaks: 100
60 22 61 9 69 1 70 12 71 12 72 19 73 999 74 93 75 26 76 1 
77 2 82 1 83 3 84 9 85 15 86 250 87 27 88 12 89 1 96 1 
97 4 98 11 99 43 100 124 101 23 102 20 103 5 104 1 110 9 111 2 
112 14 113 10 114 31 115 16 116 28 117 23 118 6 119 1 124 2 125 2 
126 37 127 5 128 21 129 8 130 72 131 34 132 16 133 3 134 1 139 2 
140 12 141 2 142 35 143 6 144 9 145 2 146 38 147 6 148 3 156 3 
157 1 158 10 159 2 160 5 161 4 162 1 170 3 171 1 172 42 173 11 
174 696 175 138 176 66 177 8 178 1 184 1 186 5 187 12 188 6 189 2 
198 2 199 4 200 52 201 12 202 6 203 1 213 2 214 87 215 20 216 8 
217 1 218 1 228 3 273 1 361 16 362 6 363 3 376 10 377 4 378 2 
