Name: Nicotinic Acid
CAS: 59-67-6
MW: 123
Formula: C6H5NO2
Synonym: KEGG: C00253
Synonym: CID: 3552
Synonym: MassBank: PR010189
Synonym: Nicotinic Acid
Synonym: Nicotinate
Synonym: Niacin
Synonym: Nicotinic acid
Synonym: 3-Pyridinecarboxylic acid
Structure: 310A32340A3C4341535F49443E2035392D36372D36093C4B4547475F49443E20433030323533093C4E414D453E204E69636F74696E617465093C464F524D554C413E20433648354E4F32093C45584143544D4153533E203132332E3033323032383430383939393939093C415645524147454D4153533E203132332E3130393433393939393939393939093C534D494C45533E204F43283D4F296328633129636E636331093C434F505952494748543E2041524D2050524F4A45435420687474703A2F2F7777772E6D657461626F6C6F6D652E6A702F0A2020392020392020302020302020302020302020302020302020302020303939392056323030300A20202020342E3539383120202020312E3530303020202020302E30303030204E202020302020302020302020302020302020302020302020302020302020302020302020300A20202020332E3733323120202020312E3030303020202020302E303030302043202020302020302020302020312020302020302020302020302020302020302020302020300A20202020332E373332312020202D302E3030303020202020302E303030302043202020302020302020302020302020302020302020302020302020302020302020302020300A20202020342E353938312020202D302E3530303020202020302E303030302043202020302020302020302020312020302020302020302020302020302020302020302020300A20202020352E3436343120202020302E3030303020202020302E303030302043202020302020302020302020312020302020302020302020302020302020302020302020300A20202020352E3436343120202020312E3030303020202020302E303030302043202020302020302020302020312020302020302020302020302020302020302020302020300A20202020322E383636302020202D302E3530303020202020302E303030302043202020302020302020302020302020302020302020302020302020302020302020302020300A20202020322E303030302020202D302E3030303020202020302E30303030204F202020302020302020302020312020302020302020302020302020302020302020302020300A20202020322E383636302020202D312E3530303020202020302E30303030204F202020302020302020302020302020302020302020302020302020302020302020302020300A2020312020362020322020302020302020302020300A2020312020322020312020302020302020302020300A2020322020332020322020302020302020302020300A2020332020342020312020302020302020302020300A2020342020352020322020302020302020302020300A2020352020362020312020302020302020302020300A2020372020382020312020302020302020302020300A2020372020392020322020302020302020302020300A2020332020372020312020302020302020302020300A4D2020454E44
Contributor: Kusano M, Fukushima A, Plant Science Center, RIKEN.
InstType: EI
InstName: Pegasus III TOF-MS system, Leco; GC 6890, Agilent Technologies
IoniMethod: EI
IonPolarity: pos
Date: 2010-10-09 19:48:36+02:00
Num Peaks: 79
60 24 61 29 62 7 63 10 64 5 65 16 66 17 67 18 68 1 69 5 
70 8 71 6 72 22 73 127 74 34 75 125 76 53 77 124 78 999 79 93 
80 7 81 8 82 4 83 14 84 6 85 4 86 2 89 1 90 42 91 4 
92 7 93 14 94 12 95 5 96 3 97 1 98 1 99 1 104 3 105 54 
106 741 107 58 108 10 109 13 110 6 111 1 119 1 120 16 121 3 122 14 
123 6 124 1 125 1 132 2 134 6 135 6 136 861 137 117 138 36 139 3 
150 4 151 2 152 1 153 1 162 3 163 1 164 4 165 1 166 1 179 4 
180 882 181 130 182 41 183 4 184 1 194 7 195 38 196 6 197 2 
