Name: 4-Hydroxyphenylacetic acid
CAS: 156-38-7
MW: 152
Formula: C8H8O3
Synonym: KEGG: C00642
Synonym: CID: 3915
Synonym: MassBank: PR010008
Synonym: 4-Hydroxyphenylacetic acid
Synonym: 4-Hydroxyphenylacetate
Structure: 310A32380A3C4341535F49443E203135362D33382D37093C4B4547475F49443E20433030363432093C4E414D453E20342D487964726F78797068656E796C61636574617465093C464F524D554C413E20433848384F33093C45584143544D4153533E203135322E303437333434313232093C415645524147454D4153533E203135322E3134373331393939393939393938093C534D494C45533E204F43283D4F29436328633129636363284F296331093C434F505952494748543E2041524D2050524F4A45435420687474703A2F2F7777772E6D657461626F6C6F6D652E6A702F0A2031312031312020302020302020302020302020302020302020302020303939392056323030300A20202020332E3733323120202020302E3235303020202020302E303030302043202020302020302020302020302020302020302020302020302020302020302020302020300A20202020322E383636302020202D302E3235303020202020302E303030302043202020302020302020302020312020302020302020302020302020302020302020302020300A20202020322E383636302020202D312E3235303020202020302E303030302043202020302020302020302020312020302020302020302020302020302020302020302020300A20202020332E373332312020202D312E3735303020202020302E303030302043202020302020302020302020302020302020302020302020302020302020302020302020300A20202020342E353938312020202D312E3235303020202020302E303030302043202020302020302020302020312020302020302020302020302020302020302020302020300A20202020342E353938312020202D302E3235303020202020302E303030302043202020302020302020302020312020302020302020302020302020302020302020302020300A20202020332E3733323120202020312E3235303020202020302E303030302043202020302020302020302020322020302020302020302020302020302020302020302020300A20202020322E3836363020202020312E3735303020202020302E303030302043202020302020302020302020302020302020302020302020302020302020302020302020300A20202020322E3030303020202020312E3235303020202020302E30303030204F202020302020302020302020302020302020302020302020302020302020302020302020300A20202020322E3836363020202020322E3735303020202020302E30303030204F202020302020302020302020312020302020302020302020302020302020302020302020300A20202020332E373332312020202D322E3735303020202020302E30303030204F202020302020302020302020312020302020302020302020302020302020302020302020300A2020312020372020312020302020302020302020300A2020362020352020322020302020302020302020300A2020372020382020312020302020302020302020300A2020352020342020312020302020302020302020300A2020382031302020312020302020302020302020300A2020342020332020322020302020302020302020300A2020342031312020312020302020302020302020300A2020332020322020312020302020302020302020300A2020322020312020322020302020302020302020300A2020312020362020312020302020302020302020300A2020382020392020322020302020302020302020300A4D2020454E44
Contributor: Kusano M, Fukushima A, Plant Science Center, RIKEN.
InstType: EI
InstName: Pegasus III TOF-MS system, Leco; GC 6890, Agilent Technologies
IoniMethod: EI
IonPolarity: pos
Date: 2010-10-09 19:48:36+02:00
Num Peaks: 102
60 4 61 16 62 3 63 12 64 2 65 3 66 1 67 4 69 1 70 2 
71 3 72 11 73 999 74 90 75 121 76 11 77 25 78 10 79 6 81 1 
82 7 83 3 84 1 85 4 87 2 88 1 89 32 90 18 91 12 92 1 
93 2 95 2 97 1 99 1 101 1 102 2 103 11 104 8 105 15 106 2 
107 5 109 2 111 1 115 2 116 1 117 16 118 3 119 5 120 1 121 4 
123 1 131 5 132 1 133 31 134 5 135 17 136 2 137 3 145 3 146 1 
147 45 148 9 149 40 150 6 151 3 161 10 162 3 163 34 164 113 165 19 
166 5 175 1 177 17 178 5 179 153 180 24 181 7 191 10 192 1 193 3 
195 1 206 2 207 1 208 2 209 3 210 1 221 1 225 6 226 1 237 5 
238 1 252 67 253 25 254 10 255 2 265 2 281 44 282 11 283 4 296 46 
297 12 298 4 
