Name: D-(-)-Penicillamine
CAS: 52-67-5
MW: 149
Formula: C5H11NO2S
Synonym: KEGG: C07418
Synonym: CID: 9622
Synonym: MassBank: PR010142
Synonym: D-(-)-Penicillamine
Synonym: Penicillamine
Structure: 310A32320A35322D36372D352E6D6F6C0A20204368656D447261773132303530363138333132440A2020392020382020302020302020302020302020302020302020302020303939392056323030300A2020202D312E343239302020202D302E3230363320202020302E30303030204F202020302020302020302020302020302020302020302020302020302020302020302020300A2020202D302E3731343520202020302E3230363220202020302E303030302043202020302020302020302020302020302020302020302020302020302020302020302020300A2020202D302E303030302020202D302E3230363320202020302E303030302043202020302020302020302020302020302020302020302020302020302020302020302020300A20202020302E3731343520202020302E3230363220202020302E303030302043202020302020302020302020302020302020302020302020302020302020302020302020300A2020202D302E3731343520202020312E3033313220202020302E30303030204F202020302020302020302020302020302020302020302020302020302020302020302020300A2020202D302E303030312020202D312E3033313220202020302E30303030204E202020302020302020302020302020302020302020302020302020302020302020302020300A20202020312E3432393020202020302E3631383720202020302E303030302053202020302020302020302020302020302020302020302020302020302020302020302020300A20202020302E3330323220202020302E3932303820202020302E303030302043202020302020302020302020302020302020302020302020302020302020302020302020300A20202020312E313236382020202D302E3530383320202020302E303030302043202020302020302020302020302020302020302020302020302020302020302020302020300A2020322020312020312020302020202020200A2020332020322020312020302020202020200A2020342020332020312020302020202020200A2020322020352020322020302020202020200A2020332020362020312020312020202020200A2020342020372020312020302020202020200A2020342020382020312020302020202020200A2020342020392020312020302020202020200A4D2020454E44
Contributor: Kusano M, Fukushima A, Plant Science Center, RIKEN.
InstType: EI
InstName: Pegasus III TOF-MS system, Leco; GC 6890, Agilent Technologies
IoniMethod: EI
IonPolarity: pos
Date: 2010-10-09 19:48:36+02:00
Num Peaks: 142
60 17 61 9 62 1 63 1 64 1 66 1 67 2 68 1 69 5 70 43 
71 34 72 22 73 999 74 120 75 80 76 8 77 21 78 1 82 5 83 13 
84 6 85 8 86 14 87 5 88 1 89 2 90 2 91 6 92 1 93 1 
96 1 97 3 98 18 99 7 100 156 101 29 102 15 103 8 104 2 105 12 
106 1 107 2 110 2 111 1 112 12 113 8 114 3 115 14 116 3 117 9 
118 4 119 3 120 1 121 1 126 8 127 4 128 115 129 19 130 17 131 12 
132 21 133 17 134 3 135 2 140 2 141 1 142 79 143 128 144 31 145 19 
146 6 147 83 148 17 149 9 150 1 155 1 156 3 157 2 158 2 159 8 
160 9 161 4 162 1 163 9 164 1 165 1 170 4 171 1 172 4 173 1 
174 21 175 5 176 6 177 2 179 1 186 1 187 1 188 2 190 3 202 5 
203 25 204 5 205 2 206 2 216 15 217 8 218 217 219 56 220 22 221 4 
222 1 229 1 230 2 232 6 233 2 234 1 244 4 245 1 248 1 250 2 
251 1 260 84 261 20 262 8 268 1 276 3 277 1 278 1 289 5 290 2 
291 47 292 152 293 43 294 27 295 5 296 2 324 2 366 5 367 1 368 1 
619 1 729 1 
