Name: Indole-3-acetaldehyde
CAS: 20095-27-6
MW: 159
Formula: C10H9NO
Synonym: MassBank: PR010167
Synonym: Indole-3-acetaldehyde
Structure: 310A33300A20204143442F4C6162733132303230363135333832440A2031322031332020302020302020302020302020302020302020302020302020312056323030300A20202031312E353139342020202D382E3236303420202020302E303030302043202020302020302020302020302020302020302020302020302020302020302020302020300A20202031312E353139342020202D392E3539303420202020302E303030302043202020302020302020302020302020302020302020302020302020302020302020302020300A20202031302E333637352020202D372E3539353420202020302E303030302043202020302020302020302020302020302020302020302020302020302020302020302020300A20202031302E3336373520202D31302E3235353420202020302E303030302043202020302020302020302020302020302020302020302020302020302020302020302020300A20202020392E323135372020202D382E3236303420202020302E303030302043202020302020302020302020302020302020302020302020302020302020302020302020300A20202020392E323135372020202D392E3539303420202020302E303030302043202020302020302020302020302020302020302020302020302020302020302020302020300A20202031322E373834332020202D372E3834393520202020302E303030302043202020302020302020302020302020302020302020302020302020302020302020302020300A20202031332E353636302020202D382E3932353420202020302E303030302043202020302020302020302020302020302020302020302020302020302020302020302020300A20202031322E3738343520202D31302E3030313420202020302E30303030204E202020302020302020302020302020302020302020302020302020302020302020302020300A20202031332E313935332020202D362E3538343620202020302E303030302043202020302020302020302020302020302020302020302020302020302020302020302020300A20202031342E343936332020202D362E3330383120202020302E303030302043202020302020302020302020302020302020302020302020302020302020302020302020300A20202031352E333836322020202D372E3239363520202020302E30303030204F202020302020302020302020302020302020302020302020302020302020302020302020300A2020332020312020322020302020302020302020300A2020342020322020322020302020302020302020300A2020352020332020312020302020302020302020300A2020362020342020312020302020302020302020300A2020362020352020322020302020302020302020300A2020372020312020312020302020302020302020300A2020322020312020312020302020302020302020300A2020382020372020322020302020302020302020300A2020392020322020312020302020302020302020300A2020392020382020312020302020302020302020300A2020372031302020312020302020302020302020300A2031302031312020312020302020302020302020300A2031312031322020322020302020302020302020300A4D2020454E44
Contributor: Kusano M, Fukushima A, Plant Science Center, RIKEN.
InstType: EI
InstName: Pegasus III TOF-MS system, Leco; GC 6890, Agilent Technologies
IoniMethod: EI
IonPolarity: pos
Date: 2010-10-09 19:48:36+02:00
Num Peaks: 123
60 4 61 5 62 7 63 20 64 5 65 6 66 3 67 5 70 8 71 5 
72 15 73 999 74 101 75 45 76 39 77 33 78 8 82 1 83 2 84 13 
85 3 86 3 87 4 88 5 89 39 90 7 91 7 92 2 93 3 94 1 
98 2 99 3 100 6 101 35 102 68 103 27 104 6 105 7 106 1 107 1 
113 2 114 3 115 20 116 6 117 10 118 3 119 6 120 2 126 1 127 6 
128 44 129 95 130 73 131 12 132 4 133 2 134 3 135 1 136 1 140 3 
141 3 142 6 143 8 144 9 145 30 146 8 147 1 148 1 153 1 155 24 
156 29 157 9 158 3 159 3 160 7 161 2 167 1 168 2 169 5 170 13 
171 4 172 13 173 3 174 2 180 1 181 1 182 2 183 1 184 6 185 4 
186 46 187 20 188 10 189 2 195 1 196 1 197 3 198 3 199 3 200 21 
201 20 202 149 203 33 204 8 205 1 211 1 212 3 213 26 214 6 215 5 
216 1 218 2 227 23 228 76 229 54 230 15 231 3 232 2 245 2 259 2 
260 91 261 19 262 5 
