Name: delta-Aminolevulinic acid
CAS: 5451-09-2
MW: 131
Formula: C5H9NO3
Synonym: MassBank: PR010217
Synonym: delta-Aminolevulinic acid
Structure: 310A32320A20204143442F4C6162733132303230363138313332440A2020392020382020302020302020302020302020302020302020302020302020312056323030300A20202031302E343139352020202D382E3332303520202020302E303030302043202020302020302020302020302020302020302020302020302020302020302020302020300A20202031312E353731342020202D382E3938353520202020302E303030302043202020302020302020302020302020302020302020302020302020302020302020302020300A20202031322E373233312020202D382E3332303520202020302E303030302043202020302020302020302020302020302020302020302020302020302020302020302020300A20202031332E383734392020202D382E3938353520202020302E303030302043202020302020302020302020302020302020302020302020302020302020302020302020300A20202031352E303236372020202D382E3332303520202020302E303030302043202020302020302020302020302020302020302020302020302020302020302020302020300A20202031362E313738352020202D382E3938353620202020302E30303030204F202020302020302020302020302020302020302020302020302020302020302020302020300A20202031352E303236382020202D362E3939303520202020302E30303030204F202020302020302020302020302020302020302020302020302020302020302020302020300A20202020392E323637372020202D382E3938353620202020302E30303030204E202020302020302020302020302020302020302020302020302020302020302020302020300A20202031312E3537313420202D31302E3331353520202020302E30303030204F202020302020302020302020302020302020302020302020302020302020302020302020300A2020322020312020312020302020302020302020300A2020332020322020312020302020302020302020300A2020342020332020312020302020302020302020300A2020352020342020312020302020302020302020300A2020352020362020312020302020302020302020300A2020352020372020322020302020302020302020300A2020312020382020312020302020302020302020300A2020322020392020322020302020302020302020300A4D2020454E44
Contributor: Kusano M, Fukushima A, Plant Science Center, RIKEN.
InstType: EI
InstName: Pegasus III TOF-MS system, Leco; GC 6890, Agilent Technologies
IoniMethod: EI
IonPolarity: pos
Date: 2010-10-09 19:48:36+02:00
Num Peaks: 141
60 38 61 42 62 3 63 1 66 2 67 2 68 1 69 2 70 15 71 8 
72 30 73 999 74 103 75 299 76 27 77 27 78 1 79 1 82 10 83 3 
84 21 85 10 86 377 87 39 88 17 89 143 90 12 91 6 93 1 94 1 
95 1 97 2 98 5 99 6 100 141 101 32 102 45 103 11 104 3 105 2 
109 1 110 2 111 2 112 6 113 7 114 7 115 7 116 17 117 23 118 5 
119 3 124 1 125 2 126 5 127 2 128 8 129 35 130 36 131 13 132 7 
133 12 134 2 135 1 139 2 140 5 141 2 142 2 143 3 144 10 145 3 
146 13 147 23 148 5 149 2 152 1 154 2 155 1 156 55 157 7 158 11 
159 3 160 32 161 6 162 2 163 2 167 6 168 2 169 1 170 1 171 1 
172 18 173 5 174 609 175 112 176 55 177 7 178 1 182 1 183 5 184 1 
185 1 186 1 187 1 188 1 189 1 190 54 191 13 192 6 193 1 197 1 
198 1 199 5 200 2 201 1 202 1 204 1 212 1 213 2 214 1 227 1 
228 2 231 1 239 1 240 1 241 2 244 3 246 3 248 1 255 2 257 2 
329 1 330 2 331 1 344 3 345 37 346 14 347 6 348 1 361 7 362 2 
363 1 
