Name: beta-Phenylpyruvic acid
CAS: 114-76-1
MW: 164
Formula: C9H8O3
Synonym: MassBank: PR010214
Synonym: beta-Phenylpyruvic acid
Structure: 310A32390A20204143442F4C6162733132303230363138303932440A2031322031322020302020302020302020302020302020302020302020302020312056323030300A20202020392E3036373720202D31312E3531333320202020302E303030302043202020302020302020302020302020302020302020302020302020302020302020302020300A20202020392E3036373720202D31322E3834333320202020302E303030302043202020302020302020302020302020302020302020302020302020302020302020302020300A20202020372E3931353820202D31302E3834383320202020302E303030302043202020302020302020302020302020302020302020302020302020302020302020302020300A20202020372E3931353820202D31332E3530383320202020302E303030302043202020302020302020302020302020302020302020302020302020302020302020302020300A20202020362E3736343120202D31312E3531333320202020302E303030302043202020302020302020302020302020302020302020302020302020302020302020302020300A20202020362E3736343120202D31322E3834333320202020302E303030302043202020302020302020302020302020302020302020302020302020302020302020302020300A20202020372E393135382020202D392E3531383320202020302E303030302043202020302020302020302020302020302020302020302020302020302020302020302020300A20202020392E303637362020202D382E3835333320202020302E303030302043202020302020302020302020302020302020302020302020302020302020302020302020300A20202020392E303637362020202D372E3532333320202020302E303030302043202020302020302020302020302020302020302020302020302020302020302020302020300A20202031302E323139342020202D392E3531383320202020302E30303030204F202020302020302020302020302020302020302020302020302020302020302020302020300A20202031302E323139342020202D362E3835383320202020302E30303030204F202020302020302020302020302020302020302020302020302020302020302020302020300A20202020372E393135382020202D362E3835383320202020302E30303030204F202020302020302020302020302020302020302020302020302020302020302020302020300A2020322020312020312020302020302020302020300A2020332020312020322020302020302020302020300A2020342020322020322020302020302020302020300A2020352020332020312020302020302020302020300A2020362020342020312020302020302020302020300A2020362020352020322020302020302020302020300A2020332020372020312020302020302020302020300A2020372020382020312020302020302020302020300A2020382020392020312020302020302020302020300A2020382031302020322020302020302020302020300A2020392031312020312020302020302020302020300A2020392031322020322020302020302020302020300A4D2020454E44
Contributor: Kusano M, Fukushima A, Plant Science Center, RIKEN.
InstType: EI
InstName: Pegasus III TOF-MS system, Leco; GC 6890, Agilent Technologies
IoniMethod: EI
IonPolarity: pos
Date: 2010-10-09 19:48:36+02:00
Num Peaks: 77
60 14 61 17 62 14 63 45 64 14 65 96 66 6 67 1 70 15 71 4 
72 17 73 999 74 107 75 98 76 15 77 38 78 8 79 6 82 2 83 1 
84 47 85 5 86 4 87 7 88 5 89 175 90 79 91 205 92 18 93 2 
98 1 100 2 101 1 102 4 103 6 104 3 105 10 106 1 107 1 110 1 
114 2 115 5 116 198 117 63 118 7 119 1 121 4 122 2 125 1 130 3 
131 2 132 2 133 2 135 2 137 1 142 1 143 2 144 5 145 1 146 3 
147 11 148 5 149 1 151 3 160 1 174 4 175 4 176 2 189 33 190 7 
191 8 192 1 250 28 251 5 252 1 265 16 266 3 
