Name: trans-4-Hydroxy-L-proline
CAS: 51-35-4
MW: 131
Formula: C5H9NO3
Synonym: KEGG: C01015
Synonym: CID: 4260
Synonym: MassBank: PR010075
Synonym: trans-4-Hydroxy-L-proline
Synonym: 4-Hydroxy-L-proline
Synonym: L-Hydroxyproline
Structure: 310A32330A35312D33352D342E6D6F6C0A20204368656D447261773132303630363131313232440A2020392020392020302020302020312020302020302020302020302020303939392056323030300A2020202D302E3130363020202020302E3932333320202020302E30303030204E202020302020302020302020302020302020302020302020302020302020302020302020300A2020202D302E3336303920202020302E3133383720202020302E303030302043202020302020302020302020302020302020302020302020302020302020302020302020300A20202020302E333036352020202D302E3334363320202020302E303030302043202020302020302020302020302020302020302020302020302020302020302020302020300A20202020302E3937343020202020302E3133383720202020302E303030302043202020302020302020302020302020302020302020302020302020302020302020302020300A20202020302E3731393020202020302E3932333320202020302E303030302043202020302020302020302020302020302020302020302020302020302020302020302020300A2020202D312E313435362020202D302E3131363320202020302E303030302043202020302020302020302020302020302020302020302020302020302020302020302020300A2020202D312E333137312020202D302E3932333320202020302E30303030204F202020302020302020302020302020302020302020302020302020302020302020302020300A2020202D312E3735383620202020302E3433353820202020302E30303030204F202020302020302020302020302020302020302020302020302020302020302020302020300A20202020312E373538362020202D302E3131363320202020302E30303030204F202020302020302020302020302020302020302020302020302020302020302020302020300A2020352020312020312020302020202020200A2020322020312020312020302020202020200A2020322020332020312020312020202020200A2020332020342020312020302020202020200A2020342020352020312020302020202020200A2020362020372020312020302020202020200A2020362020382020322020302020202020200A2020322020362020312020302020202020200A2020342020392020312020362020202020200A4D2020454E44
Contributor: Kusano M, Fukushima A, Plant Science Center, RIKEN.
InstType: EI
InstName: Pegasus III TOF-MS system, Leco; GC 6890, Agilent Technologies
IoniMethod: EI
IonPolarity: pos
Date: 2010-10-09 19:48:36+02:00
Num Peaks: 117
60 9 61 18 62 1 63 2 66 6 67 6 68 7 69 5 70 7 71 8 
72 25 73 999 74 88 75 120 76 10 77 17 78 1 79 3 80 1 81 1 
82 2 83 8 84 6 85 9 86 10 87 5 88 1 89 4 93 1 94 2 
95 1 96 3 97 3 98 5 99 7 100 24 101 18 102 6 103 8 104 1 
105 3 108 1 110 1 111 3 112 5 113 8 114 4 115 8 116 6 117 9 
118 1 119 5 124 12 125 2 126 4 127 1 128 3 129 14 130 3 131 18 
132 4 133 36 134 5 135 3 138 2 139 5 140 428 141 59 142 43 143 6 
144 1 145 1 147 91 148 14 149 12 150 1 152 1 156 4 157 1 158 10 
159 2 166 1 170 5 171 1 172 4 173 1 174 1 175 3 176 1 177 1 
182 1 187 2 188 9 189 3 190 1 191 1 198 1 200 1 203 1 214 11 
215 2 216 3 218 1 228 3 229 2 230 433 231 99 232 41 233 6 234 1 
240 1 304 14 305 4 306 2 332 9 333 3 334 1 
