Name: alpha-Methyl-DL-serine
CAS: 5424-29-3
MW: 119
Formula: C4H9NO3
Synonym: MassBank: PR010211
Synonym: alpha-Methyl-DL-serine
Structure: 310A32300A20204143442F4C6162733132303230363137353632440A2020382020372020302020302020302020302020302020302020302020302020312056323030300A20202031372E363736342020202D382E3533363820202020302E303030302043202020302020302020302020302020302020302020302020302020302020302020302020300A20202031382E383238342020202D372E3837313820202020302E303030302043202020302020302020302020302020302020302020302020302020302020302020302020300A20202031392E393830322020202D382E3533363820202020302E30303030204F202020302020302020302020302020302020302020302020302020302020302020302020300A20202031382E383238342020202D362E3534313820202020302E30303030204F202020302020302020302020302020302020302020302020302020302020302020302020300A20202031362E353234362020202D392E3230313820202020302E30303030204E202020302020302020302020302020302020302020302020302020302020302020302020300A20202031382E333431312020202D392E3638383820202020302E303030302043202020302020302020302020302020302020302020302020302020302020302020302020300A20202031372E303131382020202D372E3338343820202020302E303030302043202020302020302020302020302020302020302020302020302020302020302020302020300A20202031352E363831382020202D372E3338343520202020302E30303030204F202020302020302020302020302020302020302020302020302020302020302020302020300A2020322020312020312020302020302020302020300A2020332020322020312020302020302020302020300A2020322020342020322020302020302020302020300A2020312020352020312020302020302020302020300A2020312020362020312020302020302020302020300A2020312020372020312020302020302020302020300A2020372020382020312020302020302020302020300A4D2020454E44
Contributor: Kusano M, Fukushima A, Plant Science Center, RIKEN.
InstType: EI
InstName: Pegasus III TOF-MS system, Leco; GC 6890, Agilent Technologies
IoniMethod: EI
IonPolarity: pos
Date: 2010-10-09 19:48:36+02:00
Num Peaks: 113
60 17 61 17 62 2 63 1 66 11 67 2 69 6 70 18 71 9 72 30 
73 999 74 110 75 109 76 12 77 22 78 2 79 5 82 2 83 2 84 16 
85 6 86 6 87 20 88 9 89 7 90 1 91 1 92 1 96 1 97 2 
98 5 99 11 100 31 101 7 102 7 103 29 104 3 105 4 111 1 112 5 
113 4 114 228 115 53 116 19 117 14 118 3 119 6 120 1 126 1 128 83 
129 19 130 52 131 34 132 23 133 47 134 9 135 6 142 2 143 1 144 11 
145 3 146 13 147 133 148 24 149 16 150 2 151 1 155 2 156 2 157 1 
158 4 159 1 160 7 161 2 162 1 163 4 164 1 172 3 173 1 174 12 
175 3 176 2 177 2 186 2 187 1 188 6 189 5 190 2 191 4 202 22 
203 5 204 4 205 1 216 1 217 7 218 195 219 43 220 18 221 4 222 1 
230 17 231 6 232 210 233 45 234 19 235 3 247 1 292 15 293 4 294 2 
320 7 321 2 322 1 
