Name: Caffeic acid
CAS: 331-39-5
MW: 180
Formula: C9H8O4
Synonym: KEGG: C01481
Synonym: CID: 4652
Synonym: MassBank: PR010140
Synonym: Caffeic acid
Synonym: 3,4-Dihydroxycinnamic acid
Synonym: Caffeate
Synonym: cis-Caffeic acid
Structure: 310A33320A3C4341535F49443E203530312D31362D36093C4B4547475F49443E20433031313937093C4E414D453E20332C342D4469687964726F78792D7472616E732D63696E6E616D617465093C464F524D554C413E20433948384F34093C45584143544D4153533E203138302E3034323235383734333939393938093C415645524147454D4153533E203138302E3135373432093C534D494C45533E204F43283D4F29433D4363286331296363284F2963284F296331093C434F505952494748543E2041524D2050524F4A45435420687474703A2F2F7777772E6D657461626F6C6F6D652E6A702F0A2031332031332020302020302020302020302020302020302020302020303939392056323030300A20202020332E373332312020202D302E3030303020202020302E303030302043202020302020302020302020302020302020302020302020302020302020302020302020300A20202020322E383636302020202D302E3530303020202020302E303030302043202020302020302020302020312020302020302020302020302020302020302020302020300A20202020322E383636302020202D312E3530303020202020302E303030302043202020302020302020302020302020302020302020302020302020302020302020302020300A20202020332E373332312020202D322E3030303020202020302E303030302043202020302020302020302020302020302020302020302020302020302020302020302020300A20202020342E353938312020202D312E3530303020202020302E303030302043202020302020302020302020312020302020302020302020302020302020302020302020300A20202020342E353938312020202D302E3530303020202020302E303030302043202020302020302020302020312020302020302020302020302020302020302020302020300A20202020332E3733323120202020312E3030303020202020302E303030302043202020302020302020302020312020302020302020302020302020302020302020302020300A20202020342E3539383120202020312E3530303020202020302E303030302043202020302020302020302020312020302020302020302020302020302020302020302020300A20202020342E3539383120202020322E3530303020202020302E303030302043202020302020302020302020302020302020302020302020302020302020302020302020300A20202020332E3733323120202020332E3030303020202020302E30303030204F202020302020302020302020312020302020302020302020302020302020302020302020300A20202020352E3436343120202020332E3030303020202020302E30303030204F202020302020302020302020302020302020302020302020302020302020302020302020300A20202020322E303030302020202D322E3030303020202020302E30303030204F202020302020302020302020312020302020302020302020302020302020302020302020300A20202020332E373332312020202D332E3030303020202020302E30303030204F202020302020302020302020312020302020302020302020302020302020302020302020300A2020312020322020322020302020302020302020300A2020312020362020312020302020302020302020300A2020362020352020322020302020302020302020300A2020352020342020312020302020302020302020300A2020342020332020322020302020302020302020300A2020332020322020312020302020302020302020300A2020332031322020312020302020302020302020300A2020342031332020312020302020302020302020300A2020312020372020312020302020302020302020300A2020372020382020322020302020302020302020300A2020382020392020312020302020302020302020300A2020392031302020312020302020302020302020300A2020392031312020322020302020302020302020300A4D2020454E44
Contributor: Kusano M, Fukushima A, Plant Science Center, RIKEN.
InstType: EI
InstName: Pegasus III TOF-MS system, Leco; GC 6890, Agilent Technologies
IoniMethod: EI
IonPolarity: pos
Date: 2010-10-09 19:48:36+02:00
Num Peaks: 156
60 3 61 9 62 3 63 8 64 1 65 1 66 2 67 1 70 4 71 3 
72 14 73 999 74 74 75 90 76 9 77 24 78 3 79 11 81 1 83 7 
84 1 85 2 88 9 89 25 90 2 91 5 92 1 93 2 95 1 99 1 
101 2 102 6 103 10 104 3 105 8 106 1 107 3 109 3 113 1 115 25 
116 7 117 28 118 3 119 7 120 1 121 3 127 2 128 4 129 8 130 2 
131 17 132 3 133 20 134 3 135 18 136 3 137 6 138 1 139 1 141 2 
142 1 143 3 144 1 145 6 146 1 147 30 148 7 149 6 150 1 151 1 
157 1 159 3 160 10 161 11 162 2 163 14 164 3 165 2 171 1 173 3 
174 1 175 15 176 3 177 4 178 1 179 7 180 1 181 1 185 1 187 1 
188 1 189 8 190 8 191 82 192 23 193 8 194 1 195 2 201 1 203 9 
204 3 205 6 206 2 207 2 209 1 216 1 217 3 218 4 219 471 220 84 
221 27 222 3 223 4 224 1 231 1 233 12 234 3 235 1 247 2 248 1 
249 35 250 9 251 4 263 2 264 1 265 2 266 1 267 6 268 1 277 1 
278 1 279 2 280 4 281 1 291 3 292 4 293 17 294 5 295 2 306 1 
307 19 308 7 309 2 323 1 337 1 380 2 381 37 382 15 383 7 384 1 
395 10 396 110 397 41 398 19 399 4 400 1 
