Name: L-Aspartic acid
CAS: 56-84-8
MW: 133
Formula: C4H7NO4
Synonym: KEGG: C00049
Synonym: CID: 3351
Synonym: MassBank: PR010173
Synonym: L-Aspartic acid
Synonym: L-Aspartate
Synonym: 2-Aminosuccinic acid
Structure: 310A32330A3C4341535F49443E2035362D38342D38093C4B4547475F49443E20433030303439093C4E414D453E204C2D417370617274617465093C464F524D554C413E20433448374E4F34093C45584143544D4153533E203133332E3033373530373731363939393938093C415645524147454D4153533E203133332E3130323732093C534D494C45533E204E5B434040485D284343284F293D4F2943284F293D4F093C434F505952494748543E2041524D2050524F4A45435420687474703A2F2F7777772E6D657461626F6C6F6D652E6A702F0A2020392020382020302020302020312020302020302020302020302020303939392056323030300A20202020342E3539383120202020312E3030303020202020302E303030302043202020302020302020302020302020302020302020302020302020302020302020302020300A20202020332E3733323120202020302E3530303020202020302E303030302043202020302020302020322020312020302020302020302020302020302020302020302020300A20202020332E373332312020202D302E3530303020202020302E303030302043202020302020302020302020322020302020302020302020302020302020302020302020300A20202020322E383636302020202D312E3030303020202020302E303030302043202020302020302020302020302020302020302020302020302020302020302020302020300A20202020322E3836363020202020312E3030303020202020302E30303030204E202020302020302020302020322020302020302020302020302020302020302020302020300A20202020352E3436343120202020302E3530303020202020302E30303030204F202020302020302020302020302020302020302020302020302020302020302020302020300A20202020342E3539383120202020322E3030303020202020302E30303030204F202020302020302020302020312020302020302020302020302020302020302020302020300A20202020322E383636302020202D322E3030303020202020302E30303030204F202020302020302020302020312020302020302020302020302020302020302020302020300A20202020322E303030302020202D302E3530303020202020302E30303030204F202020302020302020302020302020302020302020302020302020302020302020302020300A2020322020352020312020362020302020302020300A2020322020312020312020302020302020302020300A2020312020362020322020302020302020302020300A2020322020332020312020302020302020302020300A2020342020382020312020302020302020302020300A2020342020392020322020302020302020302020300A2020332020342020312020302020302020302020300A2020312020372020312020302020302020302020300A4D2020454E44
Contributor: Kusano M, Fukushima A, Plant Science Center, RIKEN.
InstType: EI
InstName: Pegasus III TOF-MS system, Leco; GC 6890, Agilent Technologies
IoniMethod: EI
IonPolarity: pos
Date: 2010-10-09 19:48:36+02:00
Num Peaks: 111
60 15 61 21 62 2 63 2 66 10 67 2 69 1 70 38 71 7 72 32 
73 999 74 112 75 131 76 12 77 30 78 2 79 6 82 1 83 3 84 8 
85 4 86 10 87 5 88 3 89 3 91 1 92 1 93 1 98 8 99 6 
100 224 101 30 102 14 103 14 104 1 105 2 113 1 114 4 115 14 116 8 
117 51 118 6 119 10 120 1 126 1 128 6 129 4 130 22 131 19 132 15 
133 42 134 8 135 4 142 13 143 5 144 6 145 1 146 3 147 117 148 20 
149 19 150 3 151 1 158 2 159 1 160 3 161 2 163 11 164 2 165 1 
171 1 172 6 173 2 174 10 175 2 176 2 177 3 184 1 188 30 189 7 
190 4 191 2 200 1 202 31 203 6 204 9 205 3 206 1 216 14 217 3 
218 52 219 10 220 4 221 2 230 1 231 1 232 274 233 58 234 25 235 4 
244 2 245 2 246 1 292 3 293 1 306 6 307 2 308 1 334 3 335 1 
349 1 
