Name: Amantadine
CAS: 211-560-2
MW: 151
Formula: C10H17N
Synonym: MassBank: PR010138
Synonym: Amantadine
Structure: 310A32390A20204143442F4C6162733132303230363133323432440A2031312031332020302020302020302020302020302020302020302020302020312056323030300A20202031332E373134372020202D362E3630393920202020302E303030302043202020302020302020302020302020302020302020302020302020302020302020302020300A20202031332E373134372020202D372E3933393920202020302E303030302043202020302020302020302020302020302020302020302020302020302020302020302020300A20202031322E353632382020202D352E3934343920202020302E303030302043202020302020302020302020302020302020302020302020302020302020302020302020300A20202031322E353632382020202D382E3630343920202020302E303030302043202020302020302020302020302020302020302020302020302020302020302020302020300A20202031312E343131302020202D362E3630393920202020302E303030302043202020302020302020302020302020302020302020302020302020302020302020302020300A20202031312E343131302020202D372E3933393920202020302E303030302043202020302020302020302020302020302020302020302020302020302020302020302020300A20202031322E393835392020202D392E3232343620202020302E303030302043202020302020302020302020302020302020302020302020302020302020302020302020300A20202031312E373031322020202D382E3838303420202020302E303030302043202020302020302020302020302020302020302020302020302020302020302020302020300A20202031302E333837332020202D382E3838303420202020302E303030302043202020302020302020302020302020302020302020302020302020302020302020302020300A20202031312E373031322020202D372E3138313820202020302E303030302043202020302020302020302020302020302020302020302020302020302020302020302020300A20202031322E353632382020202D342E3631343920202020302E30303030204E202020302020302020302020302020302020302020302020302020302020302020302020300A2020322020312020312020302020302020302020300A2020332020312020312020302020302020302020300A2020342020322020312020302020302020302020300A2020352020332020312020302020302020302020300A2020362020342020312020302020302020302020300A2020362020352020312020302020302020302020300A2020372020322020312020302020302020302020300A2020382020372020312020302020302020302020300A2020392020382020312020302020302020302020300A2020362020392020312020302020302020302020300A2020382031302020312020302020302020302020300A2031302020332020312020302020302020302020300A2020332031312020312020302020302020302020300A4D2020454E44
Contributor: Kusano M, Fukushima A, Plant Science Center, RIKEN.
InstType: EI
InstName: Pegasus III TOF-MS system, Leco; GC 6890, Agilent Technologies
IoniMethod: EI
IonPolarity: pos
Date: 2010-10-09 19:48:36+02:00
Num Peaks: 126
60 26 61 5 62 3 63 5 64 2 65 39 66 21 67 75 68 3 69 10 
70 19 71 13 72 28 73 648 74 104 75 21 76 7 77 95 78 18 79 101 
80 25 81 33 82 13 83 16 84 18 85 16 86 10 87 2 88 5 89 2 
90 3 91 78 92 14 93 81 94 95 95 22 96 10 97 10 98 25 99 9 
100 19 101 3 102 5 103 3 104 7 105 12 106 8 107 20 108 18 109 9 
110 14 111 5 112 9 113 11 114 81 115 18 116 5 117 3 118 1 119 3 
120 7 121 3 122 3 123 4 124 9 125 4 126 11 127 2 128 7 129 198 
130 30 131 10 132 4 133 4 134 11 135 29 136 15 137 3 138 6 139 5 
140 7 141 2 142 3 143 1 146 2 147 1 148 10 149 5 150 252 151 49 
152 27 153 9 154 10 155 3 156 1 157 1 158 1 159 1 160 1 161 1 
162 2 163 1 164 12 165 6 166 999 167 189 168 52 169 6 178 1 179 2 
180 47 181 12 182 6 183 1 192 1 194 1 206 2 207 1 208 146 209 28 
210 7 222 7 223 177 224 35 225 9 226 1 
