Name: gamma-Amino-n-butyric acid
CAS: 56-12-2
MW: 103
Formula: C4H9NO2
Synonym: KEGG: C00334
Synonym: CID: 3628
Synonym: MassBank: PR010215
Synonym: gamma-Amino-n-butyric acid
Synonym: gamma-Aminobutyric acid
Synonym: 4-Aminobutanoate
Synonym: 4-Aminobutanoic acid
Synonym: 4-Aminobutyric acid
Synonym: 4-Aminobutyrate
Synonym: 4-Aminobutylate
Structure: 310A31390A3C4341535F49443E2035362D31322D32093C4B4547475F49443E20433030333334093C4E414D453E20342D416D696E6F627574616E6F617465093C464F524D554C413E20433448394E4F32093C45584143544D4153533E203130332E3036333332383533363939393939093C415645524147454D4153533E203130332E3131393830303030303030303031093C534D494C45533E204E43434343284F293D4F093C434F505952494748543E2041524D2050524F4A45435420687474703A2F2F7777772E6D657461626F6C6F6D652E6A702F0A2020372020362020302020302020302020302020302020302020302020303939392056323030300A20202020322E383636302020202D312E3030303020202020302E303030302043202020302020302020302020302020302020302020302020302020302020302020302020300A20202020332E373332312020202D302E3530303020202020302E303030302043202020302020302020302020322020302020302020302020302020302020302020302020300A20202020332E3733323120202020302E3530303020202020302E303030302043202020302020302020302020322020302020302020302020302020302020302020302020300A20202020342E3539383120202020312E3030303020202020302E303030302043202020302020302020302020322020302020302020302020302020302020302020302020300A20202020342E3539383120202020322E3030303020202020302E30303030204E202020302020302020302020322020302020302020302020302020302020302020302020300A20202020322E303030302020202D302E3530303020202020302E30303030204F202020302020302020302020312020302020302020302020302020302020302020302020300A20202020322E383636302020202D322E3030303020202020302E30303030204F202020302020302020302020302020302020302020302020302020302020302020302020300A2020342020332020312020302020302020302020300A2020342020352020312020302020302020302020300A2020332020322020312020302020302020302020300A2020312020362020312020302020302020302020300A2020312020372020322020302020302020302020300A2020322020312020312020302020302020302020300A4D2020454E44
Contributor: Kusano M, Fukushima A, Plant Science Center, RIKEN.
InstType: EI
InstName: Pegasus III TOF-MS system, Leco; GC 6890, Agilent Technologies
IoniMethod: EI
IonPolarity: pos
Date: 2010-10-09 19:48:36+02:00
Num Peaks: 110
60 24 61 28 62 2 63 1 66 9 67 3 68 5 69 11 70 16 71 12 
72 33 73 999 74 100 75 188 76 18 77 21 78 2 79 6 80 1 82 3 
83 3 84 11 85 17 86 196 87 26 88 10 89 6 96 1 97 2 98 10 
99 16 100 112 101 24 102 19 103 9 104 2 105 3 110 1 111 1 112 10 
113 10 114 18 115 17 116 18 117 27 118 5 119 7 120 1 124 1 126 2 
127 1 128 8 129 11 130 46 131 39 132 12 133 56 134 8 135 4 140 12 
141 2 142 45 143 45 144 14 145 6 146 13 147 262 148 42 149 24 150 2 
154 1 156 18 157 5 158 8 159 2 160 2 161 1 170 2 171 1 172 24 
173 5 174 574 175 109 176 52 177 6 178 1 186 2 187 1 188 1 189 1 
198 1 200 2 204 1 214 9 215 2 216 41 217 8 218 3 219 2 220 1 
230 3 232 1 246 17 247 3 248 1 303 1 304 85 305 25 306 12 307 2 
