Name: Oleic acid
CAS: 112-80-1
MW: 282
Formula: C18H34O2
Synonym: KEGG: C00712
Synonym: CID: 3978
Synonym: MassBank: PR010209
Synonym: Oleic acid
Synonym: Oleate
Synonym: (9Z)-Octadecenoic acid
Synonym: (Z)-Octadec-9-enoic acid
Structure: 310A34350A3C4341535F49443E203131322D38302D31093C4B4547475F49443E20433030373132093C4E414D453E2028395A292D4F637461646563656E6F69632061636964093C464F524D554C413E204331384833344F32093C45584143544D4153533E203238322E323535383830333332093C415645524147454D4153533E203238322E3436313336093C534D494C45533E204343434343434343433D434343434343434343284F293D4F093C434F505952494748543E2041524D2050524F4A45435420687474703A2F2F7777772E6D657461626F6C6F6D652E6A702F0A2032302031392020302020302020302020302020302020302020302020303939392056323030300A20202020322E3836363020202020362E3235303020202020302E303030302043202020302020302020302020302020302020302020302020302020302020302020302020300A20202020322E3836363020202020352E3235303020202020302E303030302043202020302020302020302020322020302020302020302020302020302020302020302020300A20202020332E3733323020202020342E3735303020202020302E303030302043202020302020302020302020322020302020302020302020302020302020302020302020300A20202020332E3733323020202020332E3735303020202020302E303030302043202020302020302020302020322020302020302020302020302020302020302020302020300A20202020342E3539383120202020332E3235303020202020302E303030302043202020302020302020302020322020302020302020302020302020302020302020302020300A20202020342E3539383120202020322E3235303020202020302E303030302043202020302020302020302020322020302020302020302020302020302020302020302020300A20202020352E3436343120202020312E3735303020202020302E303030302043202020302020302020302020322020302020302020302020302020302020302020302020300A20202020352E3436343120202020302E3735303020202020302E303030302043202020302020302020302020322020302020302020302020302020302020302020302020300A20202020362E3333303120202020302E3235303020202020302E303030302043202020302020302020302020312020302020302020302020302020302020302020302020300A20202020362E333330312020202D302E3735303020202020302E303030302043202020302020302020302020312020302020302020302020302020302020302020302020300A20202020372E313936312020202D312E3235303020202020302E303030302043202020302020302020302020322020302020302020302020302020302020302020302020300A20202020372E313936312020202D322E3235303020202020302E303030302043202020302020302020302020322020302020302020302020302020302020302020302020300A20202020382E303632322020202D322E3735303020202020302E303030302043202020302020302020302020322020302020302020302020302020302020302020302020300A20202020382E303632322020202D332E3735303020202020302E303030302043202020302020302020302020322020302020302020302020302020302020302020302020300A20202020382E393238322020202D342E3235303020202020302E303030302043202020302020302020302020322020302020302020302020302020302020302020302020300A20202020382E393238322020202D352E3235303020202020302E303030302043202020302020302020302020322020302020302020302020302020302020302020302020300A20202020392E373934322020202D352E3735303020202020302E303030302043202020302020302020302020322020302020302020302020302020302020302020302020300A20202020392E373934322020202D362E3735303020202020302E303030302043202020302020302020302020332020302020302020302020302020302020302020302020300A20202020332E3733323120202020362E3735303020202020302E30303030204F202020302020302020302020312020302020302020302020302020302020302020302020300A20202020322E3030303020202020362E3735303020202020302E30303030204F202020302020302020302020302020302020302020302020302020302020302020302020300A2031322031332020312020302020302020302020300A2031352031362020312020302020302020302020300A2031392020312020312020302020302020302020300A2031312031322020312020302020302020302020300A2020312020322020312020302020302020302020300A2031362031372020312020302020302020302020300A2020322020332020312020302020302020302020300A2031332031342020312020302020302020302020300A2020332020342020312020302020302020302020300A2031372031382020312020302020302020302020300A2020342020352020312020302020302020302020300A2020352020362020312020302020302020302020300A2031312031302020312020302020302020302020300A2020362020372020312020302020302020302020300A2031342031352020312020302020302020302020300A2020372020382020312020302020302020302020300A2020392031302020322020302020302020302020300A2020312032302020322020302020302020302020300A2020382020392020312020302020302020302020300A4D2020454E44
Contributor: Kusano M, Fukushima A, Plant Science Center, RIKEN.
InstType: EI
InstName: Pegasus III TOF-MS system, Leco; GC 6890, Agilent Technologies
IoniMethod: EI
IonPolarity: pos
Date: 2010-10-09 19:48:36+02:00
Num Peaks: 186
60 19 61 81 62 8 63 9 64 1 65 34 66 22 67 302 68 14 69 126 
70 76 71 37 72 53 73 999 74 117 75 771 76 78 77 105 78 18 79 121 
80 43 81 213 82 105 83 157 84 165 85 42 86 14 87 8 88 6 89 27 
90 4 91 42 92 12 93 59 94 31 95 137 96 189 97 123 98 132 99 31 
100 4 101 12 102 3 103 6 104 1 105 29 106 7 107 31 108 20 109 69 
110 72 111 52 112 26 113 7 114 2 115 7 116 56 117 528 118 56 119 45 
120 9 121 30 122 10 123 48 124 30 125 18 126 7 127 4 128 5 129 412 
130 55 131 87 132 88 133 42 134 21 135 19 136 6 137 30 138 23 139 9 
140 3 141 5 142 4 143 28 144 5 145 146 146 20 147 16 148 10 149 7 
150 4 151 18 152 25 153 6 154 2 155 18 156 6 157 13 158 5 159 12 
160 2 161 5 162 2 163 3 164 3 165 10 166 15 167 6 168 3 169 12 
170 5 171 19 172 8 173 9 174 3 175 3 176 1 177 2 178 1 179 4 
180 25 181 7 182 2 183 14 184 3 185 37 186 9 187 7 188 4 189 2 
191 1 192 1 193 4 194 3 195 2 197 3 198 1 199 43 200 8 201 10 
202 2 203 1 207 3 208 2 209 2 211 3 213 7 214 2 215 2 220 5 
221 7 222 27 223 5 225 2 227 8 228 2 229 2 235 3 236 4 237 1 
239 1 241 7 242 2 243 2 246 2 255 3 256 1 257 4 258 1 264 22 
265 5 267 1 269 1 271 2 272 2 283 1 286 1 295 1 311 1 338 6 
339 79 340 23 341 6 342 1 354 7 355 2 
