Name: cis-Aconitic acid
CAS: 209-564-4
MW: 174
Formula: C6H6O6
Synonym: MassBank: PR010012
Synonym: cis-Aconitic acid
Structure: 320A32380A20204143442F4C6162733132303230363039353732440A2031322031312020302020302020302020302020302020302020302020302020312056323030300A20202031352E3032383720202D31312E3333373020202020302E30303030204F202020302020302020302020302020302020302020302020302020302020302020302020300A20202031332E383736382020202D392E3334323020202020302E303030302043202020302020302020302020302020302020302020302020302020302020302020302020300A20202031332E3837363820202D31322E3030323020202020302E303030302043202020302020302020302020302020302020302020302020302020302020302020302020300A20202031322E3732353020202D31302E3030373020202020302E303030302043202020302020302020302020302020302020302020302020302020302020302020302020300A20202031322E3732353020202D31312E3333373020202020302E303030302043202020302020302020302020302020302020302020302020302020302020302020302020300A20202031332E3837363820202D31332E3333323020202020302E30303030204F202020302020302020302020302020302020302020302020302020302020302020302020300A20202031332E383736382020202D382E3031323020202020302E303030302043202020302020302020302020302020302020302020302020302020302020302020302020300A20202031352E303238362020202D372E3334373020202020302E30303030204F202020302020302020302020302020302020302020302020302020302020302020302020300A20202031322E373235302020202D372E3334373120202020302E30303030204F202020302020302020302020302020302020302020302020302020302020302020302020300A20202031312E353733322020202D392E3334323120202020302E303030302043202020302020302020302020302020302020302020302020302020302020302020302020300A20202031312E353733322020202D382E3031323120202020302E30303030204F202020302020302020302020302020302020302020302020302020302020302020302020300A20202031302E3432313420202D31302E3030373120202020302E30303030204F202020302020302020302020302020302020302020302020302020302020302020302020300A2020332020312020322020302020302020302020300A2020342020322020322020302020302020302020300A2020352020332020312020302020302020302020300A2020352020342020312020302020302020302020300A2020332020362020312020302020302020302020300A2020322020372020312020302020302020302020300A2020372020382020312020302020302020302020300A2020372020392020322020302020302020302020300A2020342031302020312020302020302020302020300A2031302031312020322020302020302020302020300A2031302031322020312020302020302020302020300A4D2020454E440A33310A200A200A200A2031332031322020302020302020302020302020302020302020302020303939392056323030300A20202032322E3530313120202D31362E3138333720202020302E303030302043202020302020302020302020302020302020302020302020302020302020302020302020300A20202032332E3231353220202D31342E3934353320202020302E303030302043202020302020302020302020302020302020302020302020302020302020302020302020300A20202032312E3037393120202D31362E3138333720202020302E303030302043202020302020302020302020302020302020302020302020302020302020302020302020300A20202032332E3231353220202D31372E3431353720202020302E303030302043202020302020302020302020302020302020302020302020302020302020302020302020300A20202032342E3633373220202D31342E3934353320202020302E303030302043202020302020302020302020302020302020302020302020302020302020302020302020300A20202032302E3336343720202D31372E3431353720202020302E303030302043202020302020302020302020302020302020302020302020302020302020302020302020300A20202032322E3835343920202D31382E3738353420202020302E30303030204F202020302020302020302020302020302020302020302020302020302020302020302020300A20202032342E3633373220202D31372E3430393020202020302E30303030204F202020302020302020302020302020302020302020302020302020302020302020302020300A20202032352E3334343920202D31362E3235333720202020302E30303030204F202020302020302020302020302020302020302020302020302020302020302020302020300A20202032352E3238313520202D31332E3835333320202020302E30303030204F202020302020302020302020302020302020302020302020302020302020302020302020300A20202031382E3933363320202D31372E3430393020202020302E30303030204F202020302020302020302020302020302020302020302020302020302020302020302020300A20202032302E3835363220202D31382E3735373020202020302E30303030204F202020302020302020302020302020302020302020302020302020302020302020302020300A20202032302E3337323020202D31342E3935363420202020302E303030302048202020302020302020302020302020302020302020302020302020302020302020302020300A2020312020322020312020302020202020302020300A2020312020332020322020302020202020302020300A2020312020342020312020302020202020302020300A2020322020352020312020302020202020302020300A2020332020362020312020302020202020302020300A2020342020372020312020302020202020302020300A2020342020382020322020302020202020302020300A2020352020392020312020302020202020302020300A2020352031302020322020302020202020302020300A2020362031312020312020302020202020302020300A2020362031322020322020302020202020302020300A2020332031332020312020302020202020302020300A4D2020454E44
Contributor: Kusano M, Fukushima A, Plant Science Center, RIKEN.
InstType: EI
InstName: Pegasus III TOF-MS system, Leco; GC 6890, Agilent Technologies
IoniMethod: EI
IonPolarity: pos
Date: 2010-10-09 19:48:36+02:00
Num Peaks: 151
60 5 61 23 62 3 65 1 66 24 67 161 68 1 69 7 70 6 71 7 
72 25 73 999 74 105 75 152 76 13 79 4 80 2 81 11 82 9 83 13 
84 4 85 6 86 1 87 4 88 2 89 3 93 5 95 12 96 10 97 39 
98 7 99 8 101 3 102 1 103 7 105 3 107 2 108 1 109 2 110 3 
111 8 112 5 113 5 114 1 115 8 116 3 117 16 118 2 119 7 121 2 
123 3 124 1 125 2 126 1 127 2 129 1 131 20 132 3 133 78 134 12 
135 12 136 1 137 1 139 4 140 3 141 17 142 3 143 6 144 1 145 2 
147 558 148 104 149 104 150 11 151 5 153 1 154 1 155 7 156 3 157 7 
158 2 159 2 161 1 163 1 169 11 170 2 171 4 172 1 173 1 175 1 
177 4 182 1 183 8 184 14 185 7 186 1 191 3 195 1 197 1 199 2 
201 3 202 1 205 1 207 5 208 2 209 1 211 132 212 23 213 15 214 3 
215 58 216 14 217 6 221 9 222 1 228 9 229 188 230 44 231 20 232 3 
243 1 245 2 256 4 257 11 258 4 259 3 271 1 272 11 273 8 274 2 
275 2 285 56 286 12 287 12 288 2 289 1 299 1 300 12 301 3 302 1 
303 3 304 1 332 1 346 10 347 5 348 1 374 2 375 60 376 20 377 11 
378 2 
