Name: MassBank: PR010149
CAS: 54879-59-5
MW: 104
Formula: C3H8N2O2
Synonym: MassBank: PR010149
Synonym: DL-2,3-Diaminopropionic acid
Structure: 310A31380A20204143442F4C6162733132303230363135323832440A2020372020362020302020302020302020302020302020302020302020302020312056323030300A20202031312E303237342020202D362E3530393820202020302E30303030204E202020302020302020302020302020302020302020302020302020302020302020302020300A20202031322E313739322020202D372E3137343820202020302E303030302043202020302020302020302020302020302020302020302020302020302020302020302020300A20202031332E333331302020202D362E3530393820202020302E303030302043202020302020302020302020302020302020302020302020302020302020302020302020300A20202031342E343833302020202D372E3137343820202020302E30303030204F202020302020302020302020302020302020302020302020302020302020302020302020300A20202031332E333331302020202D352E3137393820202020302E30303030204F202020302020302020302020302020302020302020302020302020302020302020302020300A20202031322E313739322020202D382E3530343820202020302E303030302043202020302020302020302020302020302020302020302020302020302020302020302020300A20202031312E303237342020202D392E3136393820202020302E30303030204E202020302020302020302020302020302020302020302020302020302020302020302020300A2020322020312020312020302020302020302020300A2020332020322020312020302020302020302020300A2020342020332020312020302020302020302020300A2020332020352020322020302020302020302020300A2020322020362020312020302020302020302020300A2020362020372020312020302020302020302020300A4D2020454E44
Contributor: Kusano M, Fukushima A, Plant Science Center, RIKEN.
InstType: EI
InstName: Pegasus III TOF-MS system, Leco; GC 6890, Agilent Technologies
IoniMethod: EI
IonPolarity: pos
Date: 2010-10-09 19:48:36+02:00
Num Peaks: 97
60 18 61 12 62 2 63 1 66 6 67 1 69 1 70 12 71 7 72 42 
73 999 74 128 75 95 76 9 77 24 78 2 79 6 82 1 83 1 84 13 
85 6 86 48 87 13 88 18 89 4 90 2 92 1 98 2 99 26 100 63 
101 174 102 801 103 93 104 32 105 3 113 3 114 10 115 21 116 11 117 8 
118 5 119 4 120 1 128 2 129 47 130 17 131 17 132 31 133 22 134 5 
135 1 142 1 143 1 144 4 145 1 146 5 147 57 148 13 149 6 158 3 
159 7 160 6 161 1 171 3 172 2 173 1 174 4 176 11 177 2 178 1 
187 10 188 4 189 1 190 1 191 1 202 1 203 20 204 28 205 6 206 3 
215 1 216 1 218 6 219 10 220 3 221 2 248 7 249 2 250 1 276 3 
277 3 278 1 290 1 291 71 292 21 293 10 294 2 
