Name: N-Methyl-DL-Alanine
CAS: 600-21-5
MW: 103
Formula: C4H9NO2
Synonym: MassBank: PR010182
Synonym: N-Methyl-DL-Alanine
Structure: 310A31380A20204143442F4C6162733132303230363136323232440A2020372020362020302020302020312020302020302020302020302020302020312056323030300A20202031322E313832322020202D382E3138343320202020302E303030302043202020302020302020302020302020302020302020302020302020302020302020302020300A20202031332E333334302020202D372E3531393320202020302E30303030204E202020302020302020302020302020302020302020302020302020302020302020302020300A20202031342E343835372020202D382E3138343320202020302E303030302043202020302020302020302020302020302020302020302020302020302020302020302020300A20202031352E363337362020202D372E3531393320202020302E303030302043202020302020302020302020302020302020302020302020302020302020302020302020300A20202031362E373839342020202D382E3138343320202020302E30303030204F202020302020302020302020302020302020302020302020302020302020302020302020300A20202031342E343835372020202D392E3531343320202020302E303030302043202020302020302020302020302020302020302020302020302020302020302020302020300A20202031352E363337362020202D362E3138393320202020302E30303030204F202020302020302020302020302020302020302020302020302020302020302020302020300A2020322020312020312020302020302020302020300A2020332020322020312020362020302020302020300A2020342020332020312020302020302020302020300A2020352020342020312020302020302020302020300A2020332020362020312020302020302020302020300A2020342020372020322020302020302020302020300A4D2020454E44
Contributor: Kusano M, Fukushima A, Plant Science Center, RIKEN.
InstType: EI
InstName: Pegasus III TOF-MS system, Leco; GC 6890, Agilent Technologies
IoniMethod: EI
IonPolarity: pos
Date: 2010-10-09 19:48:36+02:00
Num Peaks: 72
60 19 61 27 62 2 63 2 66 17 67 2 69 1 70 16 71 9 72 29 
73 999 74 95 75 94 76 8 77 20 78 2 79 5 82 1 83 1 84 7 
85 4 86 18 87 10 88 9 89 3 90 1 95 1 98 3 99 2 100 38 
101 14 102 8 103 17 104 2 105 3 109 1 112 1 113 1 114 26 115 9 
116 10 117 9 118 1 119 4 128 2 129 5 130 938 131 137 132 45 133 27 
134 4 135 2 142 5 143 1 144 6 145 1 146 1 147 118 148 19 149 10 
150 1 158 7 159 1 160 1 175 6 176 1 204 38 205 8 206 3 218 1 
232 3 247 1 
