Name: (+-)-3-Methyl-2-oxovaleric acid
CAS: 66872-74-0
MW: 129
Formula: C6H9O3
Synonym: MassBank: PR010087
Synonym: (+-)-3-Methyl-2-oxovaleric acid
Structure: 310A32330A20204143442F4C6162733132303430363137353332440A2020392020382020302020302020302020302020302020302020302020302020322056323030300A20202031382E373034312020202D342E3734373220202020302E303030302043202020302020302020302020302020302020302020302020302020302020302020302020300A20202031392E383535392020202D352E3431323220202020302E303030302043202020302020302020302020302020302020302020302020302020302020302020302020300A20202032312E303037372020202D342E3734373220202020302E303030302043202020302020302020302020302020302020302020302020302020302020302020302020300A20202032322E313539352020202D352E3431323220202020302E303030302043202020302020302020302020302020302020302020302020302020302020302020302020300A20202032332E333131332020202D342E3734373220202020302E303030302043202020302020302020302020302020302020302020302020302020302020302020302020300A20202031372E353532332020202D352E3431323320202020302E30303030204F202020302020352020302020302020302020302020302020302020302020302020302020300A20202031382E373034312020202D332E3431373220202020302E30303030204F202020302020302020302020302020302020302020302020302020302020302020302020300A20202032312E303037362020202D332E3431373220202020302E303030302043202020302020302020302020302020302020302020302020302020302020302020302020300A20202031392E383536302020202D362E3734323220202020302E30303030204F202020302020302020302020302020302020302020302020302020302020302020302020300A2020322020312020312020302020302020302020300A2020332020322020312020302020302020302020300A2020342020332020312020302020302020302020300A2020352020342020312020302020302020302020300A2020312020362020312020302020302020302020300A2020312020372020322020302020302020302020300A2020332020382020312020302020302020302020300A2020322020392020322020302020302020302020300A4D20204348472020312020203620202D310A4D2020454E44
Contributor: Kusano M, Fukushima A, Plant Science Center, RIKEN.
InstType: EI
InstName: Pegasus III TOF-MS system, Leco; GC 6890, Agilent Technologies
IoniMethod: EI
IonPolarity: pos
Date: 2010-10-09 19:48:36+02:00
Num Peaks: 80
60 18 61 18 62 1 63 1 64 2 65 2 66 4 67 7 68 2 69 2 
70 22 71 12 72 25 73 999 74 94 75 89 76 8 77 8 79 1 80 3 
81 5 82 77 83 22 84 53 85 61 86 18 87 3 88 2 89 333 90 27 
91 15 92 1 93 1 94 2 97 2 98 8 99 16 100 15 101 2 102 1 
103 3 105 3 110 42 111 3 112 4 113 66 114 50 115 8 116 20 117 10 
118 2 126 6 127 3 128 6 129 4 130 1 140 6 141 2 142 1 143 2 
144 1 154 2 156 9 157 1 158 3 172 33 173 5 174 2 184 1 189 66 
190 8 191 3 200 57 201 9 202 2 203 26 204 3 205 1 216 9 217 1 
