Name: L-Cystine
CAS: 56-89-3
MW: 240
Formula: C6H12N2O4S2
Synonym: KEGG: C00491
Synonym: CID: 3774
Synonym: MassBank: PR010057
Synonym: L-Cystine
Synonym: L-Dicysteine
Synonym: L-alpha-Diamino-beta-dithiolactic acid
Structure: 310A33330A3C4341535F49443E2035362D38392D33093C4B4547475F49443E20433030343931093C4E414D453E204C2D43797374696E65093C464F524D554C413E2043364831324E324F345332093C45584143544D4153533E203234302E3032333834383236313939393937093C415645524147454D4153533E203234302E3330323536093C534D494C45533E204F43283D4F295B434040485D284E29435353435B4340485D284E2943284F293D4F093C434F505952494748543E2041524D2050524F4A45435420687474703A2F2F7777772E6D657461626F6C6F6D652E6A702F0A2031342031332020302020302020312020302020302020302020302020303939392056323030300A20202020362E3333303120202020322E3530303020202020302E303030302043202020302020302020302020302020302020302020302020302020302020302020302020300A20202020352E3436343120202020322E3030303020202020302E303030302043202020302020302020322020312020302020302020302020302020302020302020302020300A20202020352E3436343120202020312E3030303020202020302E303030302043202020302020302020302020322020302020302020302020302020302020302020302020300A20202020342E3539383120202020322E3530303020202020302E30303030204E202020302020302020302020322020302020302020302020302020302020302020302020300A20202020342E3539383120202020302E3530303020202020302E303030302053202020302020302020302020302020302020302020302020302020302020302020302020300A20202020322E383636302020202D322E3530303020202020302E303030302043202020302020302020302020302020302020302020302020302020302020302020302020300A20202020332E373332312020202D322E3030303020202020302E303030302043202020302020302020322020312020302020302020302020302020302020302020302020300A20202020332E373332312020202D312E3030303020202020302E303030302043202020302020302020302020322020302020302020302020302020302020302020302020300A20202020342E353938312020202D322E3530303020202020302E30303030204E202020302020302020302020322020302020302020302020302020302020302020302020300A20202020342E353938312020202D302E3530303020202020302E303030302053202020302020302020302020302020302020302020302020302020302020302020302020300A20202020372E3139363220202020322E3030303020202020302E30303030204F202020302020302020302020312020302020302020302020302020302020302020302020300A20202020362E3333303120202020332E3530303020202020302E30303030204F202020302020302020302020302020302020302020302020302020302020302020302020300A20202020322E383636302020202D332E3530303020202020302E30303030204F202020302020302020302020312020302020302020302020302020302020302020302020300A20202020322E303030302020202D322E3030303020202020302E30303030204F202020302020302020302020302020302020302020302020302020302020302020302020300A2020322020332020312020302020302020302020300A2031312020312020312020302020302020302020300A2020312020322020312020302020302020302020300A2020312031322020322020302020302020302020300A2020322020342020312020362020302020302020300A2020352020332020312020302020302020302020300A2031302020382020312020302020302020302020300A2020352031302020312020302020302020302020300A2020382020372020312020302020302020302020300A2020372020362020312020302020302020302020300A2020362031332020312020302020302020302020300A2020362031342020322020302020302020302020300A2020372020392020312020362020302020302020300A4D2020454E44
Contributor: Kusano M, Fukushima A, Plant Science Center, RIKEN.
InstType: EI
InstName: Pegasus III TOF-MS system, Leco; GC 6890, Agilent Technologies
IoniMethod: EI
IonPolarity: pos
Date: 2010-10-09 19:48:36+02:00
Num Peaks: 136
60 14 61 13 62 1 63 1 64 1 66 5 67 1 70 26 71 5 72 27 
73 999 74 109 75 97 76 13 77 22 78 2 79 4 82 1 83 2 84 6 
85 4 86 14 87 6 88 2 89 2 90 3 91 5 92 1 93 3 98 6 
99 3 100 227 101 35 102 17 103 14 104 2 105 4 106 1 107 1 112 1 
113 2 114 25 115 71 116 34 117 15 118 4 119 3 120 9 121 1 122 1 
128 3 129 10 130 16 131 29 132 41 133 25 134 6 135 2 142 2 143 1 
144 11 145 5 146 366 147 187 148 79 149 20 150 4 151 1 158 3 159 4 
160 4 161 2 162 1 163 4 164 1 172 8 173 2 174 8 175 1 176 2 
178 21 179 5 180 4 188 13 189 3 190 3 191 1 200 1 202 3 203 7 
204 3 205 1 216 26 217 7 218 358 219 74 220 46 221 9 222 4 223 1 
231 1 232 42 233 9 234 4 248 3 249 5 250 4 251 1 252 1 260 4 
261 2 262 2 263 1 264 35 265 19 266 70 267 16 268 9 269 1 288 7 
289 5 290 2 291 2 292 1 296 8 297 24 298 6 299 4 322 2 338 3 
339 1 410 2 411 29 412 10 413 7 414 1 
