Name: D-Glucose-6-phosphate
CAS: 54010-71-8
MW: 260
Formula: C6H13O9P
Synonym: MassBank: PR010051
Synonym: D-Glucose-6-phosphate
Structure: 35343031302D37312D382E6D6F6C0A20204368656D447261773132303530363138303132440A2031362031362020302020302020302020302020302020302020302020303939392056323030300A2020202D302E303030302020202D302E3135313020202020302E303030302043202020302020302020302020302020302020302020302020302020302020302020302020300A2020202D302E303030302020202D302E3937363020202020302E303030302043202020302020302020302020302020302020302020302020302020302020302020302020300A20202020302E3731343520202020302E3236313520202020302E30303030204F202020302020302020302020302020302020302020302020302020302020302020302020300A20202020302E373134352020202D312E3338383520202020302E303030302043202020302020302020302020302020302020302020302020302020302020302020302020300A20202020312E343239302020202D302E3135313020202020302E303030302043202020302020302020302020302020302020302020302020302020302020302020302020300A20202020312E343239302020202D302E3937363020202020302E303030302043202020302020302020302020302020302020302020302020302020302020302020302020300A20202020322E3134333420202020302E3236313520202020302E30303030204F202020302020302020302020302020302020302020302020302020302020302020302020300A20202020322E313433342020202D312E3338383520202020302E30303030204F202020302020302020302020302020302020302020302020302020302020302020302020300A20202020302E373134352020202D322E3231333520202020302E30303030204F202020302020302020302020302020302020302020302020302020302020302020302020300A2020202D302E373134352020202D312E3338383520202020302E30303030204F202020302020302020302020302020302020302020302020302020302020302020302020300A2020202D302E3731343520202020302E3236313520202020302E303030302043202020302020302020302020302020302020302020302020302020302020302020302020300A2020202D302E3731343520202020312E3038363520202020302E30303030204F202020302020302020302020302020302020302020302020302020302020302020302020300A2020202D312E3432393020202020312E3439393120202020302E303030302050202020302020302020302020302020302020302020302020302020302020302020302020300A2020202D322E3134333420202020312E3931313520202020302E30303030204F202020302020302020302020302020302020302020302020302020302020302020302020300A2020202D312E3834313520202020302E3738343520202020302E30303030204F202020302020302020302020302020302020302020302020302020302020302020302020300A2020202D312E3031363520202020322E3231333520202020302E30303030204F202020302020302020302020302020302020302020302020302020302020302020302020300A2020322020312020312020302020202020200A2020332020312020312020302020202020200A2020342020322020312020302020202020200A2020352020332020312020302020202020200A2020362020342020312020302020202020200A2020362020352020312020302020202020200A2020352020372020312020302020202020200A2020362020382020312020362020202020200A2020342020392020312020312020202020200A2020322031302020312020362020202020200A2020312031312020312020312020202020200A2031312031322020312020302020202020200A2031322031332020312020302020202020200A2031332031342020312020302020202020200A2031332031352020322020302020202020200A2031332031362020312020302020202020200A4D2020454E44
Contributor: Kusano M, Fukushima A, Plant Science Center, RIKEN.
InstType: EI
InstName: Pegasus III TOF-MS system, Leco; GC 6890, Agilent Technologies
IoniMethod: EI
IonPolarity: pos
Date: 2010-10-09 19:48:36+02:00
Num Peaks: 207
60 4 61 7 66 2 67 2 69 2 70 3 71 3 72 13 73 999 74 84 
75 58 76 5 77 10 79 1 80 1 81 2 82 2 83 2 84 3 85 6 
86 2 87 3 88 1 89 48 90 4 91 3 97 3 98 1 99 4 100 8 
101 37 102 8 103 56 104 6 105 11 106 2 107 1 111 3 112 1 113 6 
114 5 115 7 116 18 117 13 118 2 119 6 121 1 125 1 126 1 127 4 
128 2 129 65 130 13 131 27 132 4 133 45 134 6 135 9 136 1 137 2 
138 1 141 2 142 3 143 9 144 2 145 4 146 1 147 107 148 17 149 13 
150 1 151 4 153 1 154 1 155 1 156 1 157 30 158 5 159 4 160 29 
161 10 162 2 163 4 165 1 168 1 169 4 170 1 171 2 172 2 173 3 
174 1 175 1 177 2 178 1 179 1 180 1 181 3 182 1 183 1 185 1 
186 1 187 1 188 1 189 7 190 2 191 9 192 1 193 5 194 1 195 4 
196 2 197 1 199 1 201 1 203 2 204 11 205 6 206 1 207 9 208 2 
209 1 210 1 211 23 212 4 213 2 214 1 215 1 216 1 217 29 218 7 
219 3 221 2 225 8 226 1 227 6 228 4 229 4 230 3 231 3 232 1 
233 1 240 1 241 1 242 1 243 4 244 1 245 1 246 1 247 8 248 2 
249 1 253 2 255 1 259 1 268 1 269 2 270 1 273 1 274 1 283 3 
284 1 285 3 286 1 291 1 298 4 299 74 300 21 301 11 302 2 303 1 
305 1 313 2 314 5 315 40 316 11 317 5 318 1 319 1 328 1 331 5 
332 1 333 1 341 4 342 1 343 1 356 2 357 24 358 7 359 4 360 1 
370 1 371 1 373 2 374 1 385 1 386 14 387 97 388 36 389 21 390 6 
391 2 403 1 470 2 471 10 472 4 473 2 474 1 
