Name: Malonic acid
CAS: 141-82-2
MW: 104
Formula: C3H4O4
Synonym: KEGG: C00383
Synonym: CID: 3673
Synonym: MassBank: PR010176
Synonym: Malonic acid
Synonym: Malonate
Synonym: Propanedioic acid
Structure: 310A31390A3C4341535F49443E203134312D38322D32093C4B4547475F49443E20433030333833093C4E414D453E204D616C6F6E617465093C464F524D554C413E20433348344F34093C45584143544D4153533E203130342E303130393538363136093C415645524147454D4153533E203130342E3036313436093C534D494C45533E204F43283D4F294343284F293D4F093C434F505952494748543E2041524D2050524F4A45435420687474703A2F2F7777772E6D657461626F6C6F6D652E6A702F0A2020372020362020302020302020302020302020302020302020302020303939392056323030300A20202020322E3836363020202020302E3235303020202020302E303030302043202020302020302020302020302020302020302020302020302020302020302020302020300A20202020332E3733323120202020302E3735303020202020302E303030302043202020302020302020302020322020302020302020302020302020302020302020302020300A20202020342E3539383120202020302E3235303020202020302E303030302043202020302020302020302020302020302020302020302020302020302020302020302020300A20202020322E3030303020202020302E3735303020202020302E30303030204F202020302020302020302020312020302020302020302020302020302020302020302020300A20202020322E383636302020202D302E3735303020202020302E30303030204F202020302020302020302020302020302020302020302020302020302020302020302020300A20202020352E3436343120202020302E3735303020202020302E30303030204F202020302020302020302020302020302020302020302020302020302020302020302020300A20202020342E353938312020202D302E3735303020202020302E30303030204F202020302020302020302020312020302020302020302020302020302020302020302020300A2020322020332020312020302020302020302020300A2020332020372020312020302020302020302020300A2020312020322020312020302020302020302020300A2020312020352020322020302020302020302020300A2020342020312020312020302020302020302020300A2020332020362020322020302020302020302020300A4D2020454E44
Contributor: Kusano M, Fukushima A, Plant Science Center, RIKEN.
InstType: EI
InstName: Pegasus III TOF-MS system, Leco; GC 6890, Agilent Technologies
IoniMethod: EI
IonPolarity: pos
Date: 2010-10-09 19:48:36+02:00
Num Peaks: 72
60 24 61 60 62 5 63 4 65 1 66 161 67 14 69 19 70 13 71 13 
72 76 73 796 74 87 75 318 76 32 77 49 78 5 79 9 83 1 84 2 
85 4 86 1 87 18 88 10 89 6 90 1 91 1 92 1 93 2 98 1 
99 58 100 6 101 25 102 7 103 13 104 2 105 7 109 12 110 1 113 2 
115 16 116 9 117 20 118 3 119 4 131 33 132 5 133 46 134 6 135 4 
143 25 144 2 145 1 146 2 147 999 148 162 149 88 150 9 151 2 159 1 
162 1 173 2 189 5 190 1 191 1 204 1 217 4 233 47 234 9 235 4 
248 6 249 1 
