Name: 3-Aminopropionitrile fumarate
CAS: 2079-89-2
MW: 70
Formula: C3H6N2
Synonym: MassBank: PR010132
Synonym: 3-Aminopropionitrile fumarate
Structure: 310A31340A20204143442F4C6162733132303430363137343932440A2020352020342020302020302020302020302020302020302020302020302020312056323030300A20202031372E393635392020202D342E3735353320202020302E30303030204E202020302020302020302020302020302020302020302020302020302020302020302020300A20202031392E313137372020202D342E3039303320202020302E303030302043202020302020302020302020302020302020302020302020302020302020302020302020300A20202032302E323639352020202D342E3735353320202020302E303030302043202020302020302020302020302020302020302020302020302020302020302020302020300A20202032312E343231352020202D342E3039303320202020302E303030302043202020302020302020302020302020302020302020302020302020302020302020302020300A20202032322E353733332020202D332E3432353220202020302E30303030204E202020302020302020302020302020302020302020302020302020302020302020302020300A2020322020312020312020302020302020302020300A2020332020322020312020302020302020302020300A2020342020332020312020302020302020302020300A2020342020352020332020302020302020302020300A4D2020454E44
Contributor: Kusano M, Fukushima A, Plant Science Center, RIKEN.
InstType: EI
InstName: Pegasus III TOF-MS system, Leco; GC 6890, Agilent Technologies
IoniMethod: EI
IonPolarity: pos
Date: 2010-10-09 19:48:36+02:00
Num Peaks: 103
60 21 61 72 62 5 63 5 64 4 65 1 66 26 67 14 68 3 69 23 
70 12 71 14 72 30 73 999 74 96 75 374 76 36 77 49 78 5 79 4 
81 7 82 18 83 175 84 74 85 32 86 5 87 6 88 1 89 9 93 2 
95 1 97 8 98 16 99 16 100 4 101 4 102 2 103 13 104 2 105 5 
111 3 112 1 113 22 114 2 115 89 116 9 117 19 118 3 119 9 120 1 
121 3 126 13 127 34 128 16 129 8 130 1 131 19 132 7 133 113 134 16 
135 11 136 1 141 3 142 7 143 206 144 25 145 11 146 2 147 616 148 91 
149 77 150 9 151 4 155 54 156 9 157 28 158 4 159 6 160 1 161 1 
170 11 171 12 172 2 173 6 174 1 185 1 201 6 202 1 203 1 215 5 
216 1 217 31 218 9 219 4 220 1 230 1 242 2 244 3 245 811 246 149 
247 67 248 8 249 1 
