Name: MassBank: PR010219
CAS: 102-32-9
MW: 168
Formula: C8H8O4
Synonym: KEGG: C01161
Synonym: CID: 4388
Synonym: MassBank: PR010219
Synonym: 3,4-dihydroxyphenylacetic acid
Synonym: 3,4-Dihydroxyphenyl acetate
Synonym: 3,4-Dihydroxyphenyl acetic acid
Synonym: 3,4-Dihydroxyphenylacetate
Synonym: Homoprotocatechuate
Structure: 310A33300A3C4341535F49443E203130322D33322D39093C4B4547475F49443E20433031313631093C4E414D453E20332C342D4469687964726F78797068656E796C61636574617465093C464F524D554C413E20433848384F34093C45584143544D4153533E203136382E3034323235383734333939393938093C415645524147454D4153533E203136382E3134363732093C534D494C45533E204F43283D4F294363286331296363284F2963284F296331093C434F505952494748543E2041524D2050524F4A45435420687474703A2F2F7777772E6D657461626F6C6F6D652E6A702F0A2031322031322020302020302020302020302020302020302020302020303939392056323030300A20202020332E3733323120202020302E3235303020202020302E303030302043202020302020302020302020302020302020302020302020302020302020302020302020300A20202020322E383636302020202D302E3235303020202020302E303030302043202020302020302020302020312020302020302020302020302020302020302020302020300A20202020322E383636302020202D312E3235303020202020302E303030302043202020302020302020302020302020302020302020302020302020302020302020302020300A20202020332E373332312020202D312E3735303020202020302E303030302043202020302020302020302020302020302020302020302020302020302020302020302020300A20202020342E353938312020202D312E3235303020202020302E303030302043202020302020302020302020312020302020302020302020302020302020302020302020300A20202020342E353938312020202D302E3235303020202020302E303030302043202020302020302020302020312020302020302020302020302020302020302020302020300A20202020332E3733323120202020312E3235303020202020302E303030302043202020302020302020302020322020302020302020302020302020302020302020302020300A20202020342E3539383120202020312E3735303020202020302E303030302043202020302020302020302020302020302020302020302020302020302020302020302020300A20202020352E3436343120202020312E3235303020202020302E30303030204F202020302020302020302020312020302020302020302020302020302020302020302020300A20202020342E3539383120202020322E3735303020202020302E30303030204F202020302020302020302020302020302020302020302020302020302020302020302020300A20202020322E303030302020202D312E3735303020202020302E30303030204F202020302020302020302020312020302020302020302020302020302020302020302020300A20202020332E373332312020202D322E3735303020202020302E30303030204F202020302020302020302020312020302020302020302020302020302020302020302020300A2020312020322020312020302020302020302020300A2020312020372020312020302020302020302020300A2020322020332020322020302020302020302020300A2020372020382020312020302020302020302020300A2020332020342020312020302020302020302020300A2020382020392020312020302020302020302020300A2020342020352020322020302020302020302020300A2020342031322020312020302020302020302020300A2020352020362020312020302020302020302020300A2020382031302020322020302020302020302020300A2020362020312020322020302020302020302020300A2020332031312020312020302020302020302020300A4D2020454E44
Contributor: Kusano M, Fukushima A, Plant Science Center, RIKEN.
InstType: EI
InstName: Pegasus III TOF-MS system, Leco; GC 6890, Agilent Technologies
IoniMethod: EI
IonPolarity: pos
Date: 2010-10-09 19:48:36+02:00
Num Peaks: 118
60 5 61 12 62 3 63 5 64 1 65 4 66 2 67 1 69 1 70 4 
71 4 72 15 73 999 74 91 75 111 76 11 77 30 78 7 79 6 81 1 
82 5 83 3 84 1 85 2 87 2 88 1 89 6 90 2 91 13 92 2 
93 2 95 3 97 2 99 3 101 1 102 2 103 11 104 34 105 15 106 1 
107 1 109 1 111 1 115 7 116 1 117 8 118 3 119 16 120 2 121 3 
123 1 131 9 132 1 133 18 134 2 135 10 136 1 137 1 145 2 147 22 
148 5 149 36 150 6 151 4 161 5 162 2 163 13 164 2 165 2 175 1 
176 1 177 7 178 10 179 263 180 41 181 13 182 1 191 2 192 1 193 9 
194 1 195 2 206 2 207 3 209 6 210 1 221 1 223 2 225 5 226 1 
235 1 236 1 237 43 238 10 239 4 251 4 252 2 253 8 254 2 265 7 
266 2 267 73 268 19 269 7 270 1 281 6 282 1 340 4 341 2 342 1 
369 10 370 4 371 1 383 5 384 52 385 18 386 8 387 2 
