Name: Palmitic acid
CAS: 57-10-3
MW: 256
Formula: C16H32O2
Synonym: KEGG: C00249
Synonym: CID: 3548
Synonym: MassBank: PR010202
Synonym: Palmitic acid
Synonym: Hexadecylic acid
Synonym: Hexadecanoate
Synonym: Cetylic acid
Synonym: Palmitate
Synonym: Hexadecanoic acid
Structure: 310A34310A3C4341535F49443E2035372D31302D33093C4B4547475F49443E20433030323439093C4E414D453E2048657861646563616E6F69632061636964093C464F524D554C413E204331364833324F32093C45584143544D4153533E203235362E323430323330323638093C415645524147454D4153533E203235362E3432343038093C534D494C45533E2043434343434343434343434343434343284F293D4F093C434F505952494748543E2041524D2050524F4A45435420687474703A2F2F7777772E6D657461626F6C6F6D652E6A702F0A2031382031372020302020302020302020302020302020302020302020303939392056323030300A20202020322E383636302020202D352E3030303020202020302E303030302043202020302020302020302020302020302020302020302020302020302020302020302020300A20202020332E373332312020202D342E3530303020202020302E303030302043202020302020302020302020322020302020302020302020302020302020302020302020300A20202020332E373332312020202D332E3530303020202020302E303030302043202020302020302020302020322020302020302020302020302020302020302020302020300A20202020342E353938312020202D332E3030303020202020302E303030302043202020302020302020302020322020302020302020302020302020302020302020302020300A20202020342E353938312020202D322E3030303020202020302E303030302043202020302020302020302020322020302020302020302020302020302020302020302020300A20202020352E343634312020202D312E3530303020202020302E303030302043202020302020302020302020322020302020302020302020302020302020302020302020300A20202020352E343634312020202D302E3530303020202020302E303030302043202020302020302020302020322020302020302020302020302020302020302020302020300A20202020362E333330312020202D302E3030303020202020302E303030302043202020302020302020302020322020302020302020302020302020302020302020302020300A20202020362E3333303120202020312E3030303020202020302E303030302043202020302020302020302020322020302020302020302020302020302020302020302020300A20202020372E3139363220202020312E3530303020202020302E303030302043202020302020302020302020322020302020302020302020302020302020302020302020300A20202020372E3139363220202020322E3530303020202020302E303030302043202020302020302020302020322020302020302020302020302020302020302020302020300A20202020382E3036323220202020332E3030303020202020302E303030302043202020302020302020302020322020302020302020302020302020302020302020302020300A20202020382E3036323220202020342E3030303020202020302E303030302043202020302020302020302020322020302020302020302020302020302020302020302020300A20202020382E3932383220202020342E3530303020202020302E303030302043202020302020302020302020322020302020302020302020302020302020302020302020300A20202020382E3932383220202020352E3530303020202020302E303030302043202020302020302020302020322020302020302020302020302020302020302020302020300A20202020392E3739343220202020362E3030303020202020302E303030302043202020302020302020302020332020302020302020302020302020302020302020302020300A20202020322E303030302020202D342E3530303020202020302E30303030204F202020302020302020302020312020302020302020302020302020302020302020302020300A20202020322E383636302020202D362E3030303020202020302E30303030204F202020302020302020302020302020302020302020302020302020302020302020302020300A2031362031352020312020302020302020302020300A2031352031342020312020302020302020302020300A2031342031332020312020302020302020302020300A2031332031322020312020302020302020302020300A2031322031312020312020302020302020302020300A2031312031302020312020302020302020302020300A2031302020392020312020302020302020302020300A2020392020382020312020302020302020302020300A2020382020372020312020302020302020302020300A2020372020362020312020302020302020302020300A2020362020352020312020302020302020302020300A2020352020342020312020302020302020302020300A2020342020332020312020302020302020302020300A2020332020322020312020302020302020302020300A2020312031372020312020302020302020302020300A2020312031382020322020302020302020302020300A2020322020312020312020302020302020302020300A4D2020454E44
Contributor: Kusano M, Fukushima A, Plant Science Center, RIKEN.
InstType: EI
InstName: Pegasus III TOF-MS system, Leco; GC 6890, Agilent Technologies
IoniMethod: EI
IonPolarity: pos
Date: 2010-10-09 19:48:36+02:00
Num Peaks: 149
60 21 61 79 62 7 63 5 64 1 65 8 66 3 67 69 68 2 69 60 
70 25 71 40 72 53 73 999 74 115 75 707 76 70 77 72 78 6 79 37 
80 4 81 60 82 9 83 64 84 26 85 29 86 13 87 9 88 7 89 25 
90 4 91 9 92 2 93 20 94 2 95 50 96 7 97 42 98 33 99 22 
100 3 101 14 102 4 103 4 105 23 106 2 107 9 108 1 109 14 110 2 
111 18 112 9 113 4 114 2 115 8 116 55 117 807 118 79 119 34 120 2 
121 7 122 1 123 4 124 2 125 5 126 3 127 4 128 3 129 363 130 48 
131 122 132 339 133 66 134 17 135 6 136 1 137 2 138 1 139 3 140 2 
141 2 142 2 143 28 144 3 145 159 146 22 147 7 148 1 149 2 153 2 
154 3 155 3 157 8 158 1 159 16 160 2 161 1 167 1 168 1 169 1 
171 15 172 2 173 5 174 3 181 1 182 2 185 20 186 3 187 13 188 4 
189 1 195 2 196 1 199 6 200 1 201 32 202 6 203 2 209 1 213 5 
214 1 215 4 216 1 227 5 228 1 229 6 230 1 241 3 243 6 244 1 
255 1 257 4 258 1 269 8 270 2 271 2 283 1 285 8 286 2 299 1 
312 6 313 138 314 37 315 10 316 1 327 1 328 16 329 4 330 1 
