Name: Phenylhydrazine
CAS: 100-63-0
MW: 108
Formula: C6H8N2
Synonym: KEGG: C02304
Synonym: CID: 5358
Synonym: MassBank: PR010185
Synonym: Phenylhydrazine
Synonym: Phenyldiazane
Synonym: Hydrazinobenzene
Structure: 310A32320A3C4341535F49443E203130302D36332D30093C4B4547475F49443E20433032333034093C4E414D453E205068656E796C68796472617A696E65093C464F524D554C413E20433648384E32093C45584143544D4153533E203130382E303638373438323636093C415645524147454D4153533E203130382E31343132093C534D494C45533E204E4E63286331296363636331093C434F505952494748543E2041524D2050524F4A45435420687474703A2F2F7777772E6D657461626F6C6F6D652E6A702F0A2020382020382020302020302020302020302020302020302020302020303939392056323030300A20202020332E3733323120202020302E3530303020202020302E303030302043202020302020302020302020302020302020302020302020302020302020302020302020300A20202020332E373332312020202D302E3530303020202020302E303030302043202020302020302020302020312020302020302020302020302020302020302020302020300A20202020322E383636302020202D312E3030303020202020302E303030302043202020302020302020302020312020302020302020302020302020302020302020302020300A20202020322E303030302020202D302E3530303020202020302E303030302043202020302020302020302020312020302020302020302020302020302020302020302020300A20202020322E3030303020202020302E3530303020202020302E303030302043202020302020302020302020312020302020302020302020302020302020302020302020300A20202020322E3836363020202020312E3030303020202020302E303030302043202020302020302020302020312020302020302020302020302020302020302020302020300A20202020342E3539383120202020312E3030303020202020302E30303030204E202020302020302020302020312020302020302020302020302020302020302020302020300A20202020352E3436343120202020302E3530303020202020302E30303030204E202020302020302020302020322020302020302020302020302020302020302020302020300A2020362020312020322020302020302020302020300A2020362020352020312020302020302020302020300A2020352020342020322020302020302020302020300A2020342020332020312020302020302020302020300A2020332020322020322020302020302020302020300A2020322020312020312020302020302020302020300A2020312020372020312020302020302020302020300A2020372020382020312020302020302020302020300A4D2020454E44
Contributor: Kusano M, Fukushima A, Plant Science Center, RIKEN.
InstType: EI
InstName: Pegasus III TOF-MS system, Leco; GC 6890, Agilent Technologies
IoniMethod: EI
IonPolarity: pos
Date: 2010-10-09 19:48:36+02:00
Num Peaks: 70
60 3 61 5 62 2 63 11 64 10 65 10 66 3 67 3 70 4 71 4 
72 10 73 999 74 88 75 39 76 4 77 12 78 3 79 3 80 3 81 1 
83 4 84 1 85 2 87 2 89 5 90 1 91 16 92 10 93 3 95 1 
102 1 103 5 104 1 105 8 106 1 107 3 108 4 109 1 115 3 117 1 
119 2 121 1 131 5 133 5 135 4 136 44 137 8 138 2 147 5 148 1 
149 5 150 1 151 55 152 7 153 2 161 1 163 1 165 1 166 31 167 5 
168 1 179 2 181 1 182 1 239 25 240 7 241 2 254 44 255 11 256 4 
