Name: D-Ribose 5-phosphate
CAS: 18265-46-8
MW: 230
Formula: C5H11O8P
Synonym: MassBank: PR010052
Synonym: D-Ribose 5-phosphate
Structure: 310A33330A20204143442F4C6162733132303230363135303432440A2031342031342020302020302020312020302020302020302020302020302020312056323030300A20202020392E3531353920202D31312E3236323520202020302E303030302043202020302020302020302020302020302020302020302020302020302020302020302020300A20202031302E3539323620202D31302E3438313720202020302E30303030204F202020302020302020302020302020302020302020302020302020302020302020302020300A20202020392E3932353820202D31322E3532373820202020302E303030302043202020302020302020302020302020302020302020302020302020302020302020302020300A20202031312E3636373920202D31312E3236343420202020302E303030302043202020302020302020302020302020302020302020302020302020302020302020302020300A20202031312E3235363020202D31322E3532383920202020302E303030302043202020302020302020302020302020302020302020302020302020302020302020302020300A20202031322E3033363920202D31332E3630353520202020302E30303030204F202020302020302020302020302020302020302020302020302020302020302020302020300A20202020392E3134333220202D31332E3630333120202020302E30303030204F202020302020302020302020302020302020302020302020302020302020302020302020300A20202031322E3933333220202D31302E3835343420202020302E30303030204F202020302020302020302020302020302020302020302020302020302020302020302020300A20202020382E3235313420202D31302E3835303420202020302E303030302043202020302020302020302020302020302020302020302020302020302020302020302020300A20202020372E393736302020202D392E3534393220202020302E30303030204F202020302020302020302020302020302020302020302020302020302020302020302020300A20202020362E373131352020202D392E3133373120202020302E303030302050202020302020302020302020302020302020302020302020302020302020302020302020300A20202020352E343436392020202D382E3732343920202020302E30303030204F202020302020302020302020302020302020302020302020302020302020302020302020300A20202020372E313233362020202D372E3837323520202020302E30303030204F202020302020302020302020302020302020302020302020302020302020302020302020300A20202020362E3239393420202D31302E3430313620202020302E30303030204F202020302020302020302020302020302020302020302020302020302020302020302020300A2020322020312020312020302020302020302020300A2020332020312020312020302020302020302020300A2020342020322020312020302020302020302020300A2020352020332020312020302020302020302020300A2020352020342020312020302020302020302020300A2020352020362020312020362020302020302020300A2020332020372020312020362020302020302020300A2020342020382020312020302020302020302020300A2020312020392020312020312020302020302020300A2020392031302020312020302020302020302020300A2031302031312020312020302020302020302020300A2031312031322020312020302020302020302020300A2031312031332020312020302020302020302020300A2031312031342020322020302020302020302020300A4D2020454E44
Contributor: Kusano M, Fukushima A, Plant Science Center, RIKEN.
InstType: EI
InstName: Pegasus III TOF-MS system, Leco; GC 6890, Agilent Technologies
IoniMethod: EI
IonPolarity: pos
Date: 2010-10-09 19:48:36+02:00
Num Peaks: 204
60 8 61 13 62 1 63 1 65 1 66 7 67 4 69 2 70 6 71 4 
72 17 73 999 74 86 75 86 76 6 77 30 78 4 79 8 82 2 83 2 
84 4 85 8 86 6 87 6 88 2 89 69 90 5 91 4 93 2 94 2 
95 1 96 1 97 1 98 4 99 9 100 8 101 50 102 9 103 18 104 2 
105 16 106 2 107 1 111 3 112 2 113 9 114 6 115 12 116 15 117 18 
118 1 119 6 121 2 123 1 125 1 126 14 127 7 128 4 129 96 130 25 
131 22 132 5 133 57 134 8 135 11 136 1 137 3 139 1 140 2 141 2 
142 8 143 10 144 2 145 5 146 1 147 144 148 20 149 20 150 3 151 6 
152 2 153 1 156 2 157 7 158 33 159 7 160 25 161 8 162 2 163 7 
164 2 165 1 167 1 168 8 169 4 170 2 172 1 173 5 174 5 175 2 
177 1 179 1 181 5 182 1 183 2 184 2 189 9 190 1 191 11 192 2 
193 7 194 1 195 5 196 1 198 7 199 1 200 5 201 2 202 1 203 2 
204 6 205 12 206 2 207 16 208 2 209 2 210 1 211 37 212 5 213 3 
214 1 215 4 216 3 217 157 218 34 219 16 220 2 221 2 225 10 226 1 
227 7 228 1 229 2 230 2 231 2 240 1 241 1 242 1 243 1 246 1 
253 2 255 1 256 5 257 2 258 2 269 1 272 8 273 1 274 1 275 1 
283 3 284 1 285 3 287 1 288 1 290 1 298 2 299 116 300 29 301 16 
302 3 303 1 305 1 306 1 313 3 314 9 315 162 316 42 317 20 318 2 
328 2 331 1 341 4 356 1 357 15 358 3 359 2 362 2 363 1 373 3 
385 1 386 1 387 5 388 1 389 1 402 1 403 13 404 4 405 1 458 2 
459 15 460 5 461 3 604 1 
