Name: alpha-Lactose
CAS: 5989-81-1
MW: 342
Formula: C12H22O11
Synonym: MassBank: PR010077
Synonym: alpha-Lactose
Structure: 310A35320A20204143442F4C6162733132303230363137353532440A2032332032342020302020302020312020302020302020302020302020302020312056323030300A20202031302E3836323420202D31342E3537333920202020302E303030302043202020302020302020302020302020302020302020302020302020302020302020302020300A20202031302E3836323420202D31352E3930333920202020302E303030302043202020302020302020302020302020302020302020302020302020302020302020302020300A20202020392E3731303520202D31332E3930383920202020302E30303030204F202020302020302020302020302020302020302020302020302020302020302020302020300A20202020392E3731303520202D31362E3536383920202020302E303030302043202020302020302020302020302020302020302020302020302020302020302020302020300A20202020382E3535383820202D31342E3537333920202020302E303030302043202020302020302020302020302020302020302020302020302020302020302020302020300A20202020382E3535383820202D31352E3930333920202020302E303030302043202020302020302020302020302020302020302020302020302020302020302020302020300A20202020372E3430363920202D31362E3536383920202020302E30303030204F202020302020302020302020302020302020302020302020302020302020302020302020300A20202020392E3731303520202D31372E3839383920202020302E30303030204F202020302020302020302020302020302020302020302020302020302020302020302020300A20202031322E3031343220202D31362E3536383920202020302E30303030204F202020302020302020302020302020302020302020302020302020302020302020302020300A20202031322E3031343220202D31332E3930383920202020302E30303030204F202020302020302020302020302020302020302020302020302020302020302020302020300A20202020372E3430363920202D31332E3930383920202020302E303030302043202020302020302020302020302020302020302020302020302020302020302020302020300A20202020362E3235353120202D31342E3537333920202020302E30303030204F202020302020302020302020302020302020302020302020302020302020302020302020300A20202031322E3031343220202D31322E3537383920202020302E303030302043202020302020302020302020302020302020302020302020302020302020302020302020300A20202031332E3136363120202D31302E3538333920202020302E303030302043202020302020302020302020302020302020302020302020302020302020302020302020300A20202031332E3136363120202D31312E3931333920202020302E303030302043202020302020302020302020302020302020302020302020302020302020302020302020300A20202031322E303134322020202D392E3931383920202020302E303030302043202020302020302020302020302020302020302020302020302020302020302020302020300A20202031302E3836323520202D31302E3538333920202020302E30303030204F202020302020302020302020302020302020302020302020302020302020302020302020300A20202031302E3836323520202D31312E3931333920202020302E303030302043202020302020302020302020302020302020302020302020302020302020302020302020300A20202031322E303134322020202D382E3538383920202020302E30303030204F202020302020302020302020302020302020302020302020302020302020302020302020300A20202031342E333137392020202D392E3931383920202020302E30303030204F202020302020302020302020302020302020302020302020302020302020302020302020300A20202031342E3331373920202D31322E3537383920202020302E30303030204F202020302020302020302020302020302020302020302020302020302020302020302020300A20202020392E3731303620202D31322E3537383920202020302E303030302043202020302020302020302020302020302020302020302020302020302020302020302020300A20202020382E3535383820202D31312E3931333920202020302E30303030204F202020302020302020302020302020302020302020302020302020302020302020302020300A2020322020312020312020302020302020302020300A2020332020312020312020302020302020302020300A2020342020322020312020302020302020302020300A2020352020332020312020302020302020302020300A2020362020342020312020302020302020302020300A2020362020352020312020302020302020302020300A2020362020372020312020312020302020302020300A2020342020382020312020312020302020302020300A2020322020392020312020362020302020302020300A2020312031302020312020312020302020302020300A2020352031312020312020312020302020302020300A2031312031322020312020302020302020302020300A2031332031302020312020362020302020302020300A2031352031342020312020302020302020302020300A2031362031342020312020302020302020302020300A2031332031352020312020302020302020302020300A2031372031362020312020302020302020302020300A2031382031332020312020302020302020302020300A2031382031372020312020302020302020302020300A2031362031392020312020362020302020302020300A2031342032302020312020362020302020302020300A2031352032312020312020312020302020302020300A2031382032322020312020312020302020302020300A2032322032332020312020302020302020302020300A4D2020454E44
Contributor: Kusano M, Fukushima A, Plant Science Center, RIKEN.
InstType: EI
InstName: Pegasus III TOF-MS system, Leco; GC 6890, Agilent Technologies
IoniMethod: EI
IonPolarity: pos
Date: 2010-10-09 19:48:36+02:00
Num Peaks: 170
60 2 61 4 66 4 67 3 69 13 70 3 71 2 72 9 73 999 74 81 
75 64 76 4 77 6 79 1 81 11 82 1 83 2 84 1 85 4 86 1 
87 3 88 2 89 43 90 3 91 2 97 7 98 1 99 3 100 9 101 10 
102 6 103 130 104 13 105 12 106 2 109 3 111 2 113 4 114 2 115 5 
116 5 117 68 118 6 119 6 126 1 127 3 128 2 129 93 130 13 131 18 
132 3 133 35 134 4 135 3 139 1 141 3 142 3 143 23 144 3 145 5 
146 1 147 187 148 30 149 21 150 2 151 1 153 2 154 1 155 13 156 3 
157 15 158 2 159 3 160 24 161 6 162 1 163 6 164 1 167 1 168 1 
169 55 170 9 171 6 172 2 173 4 174 1 175 2 177 3 178 1 183 2 
185 1 186 2 187 1 188 1 189 18 190 4 191 32 192 6 193 3 196 1 
199 1 201 2 203 6 204 222 205 80 206 26 207 9 208 1 210 1 215 2 
216 1 217 98 218 23 219 11 220 2 221 5 222 1 227 1 228 1 229 7 
230 4 231 7 232 2 233 10 234 2 235 2 241 1 242 1 243 18 244 4 
245 4 246 2 247 3 257 1 259 3 260 1 268 2 269 1 270 1 271 16 
272 4 273 4 274 1 275 1 291 2 300 4 301 1 305 4 306 1 307 1 
317 1 318 1 319 28 320 8 321 3 331 5 332 3 333 1 359 1 360 3 
361 59 362 19 363 9 364 2 390 2 409 1 451 2 452 1 598 1 599 1 
