Name: Guanosine
CAS: 118-00-3
MW: 283
Formula: C10H13N5O5
Synonym: KEGG: C00387
Synonym: CID: 3677
Synonym: MassBank: PR010162
Synonym: Guanosine
Structure: 310A34380A3C4341535F49443E203131382D30302D33093C4B4547475F49443E20433030333837093C4E414D453E204775616E6F73696E093C464F524D554C413E204331304831334E354F35093C45584143544D4153533E203238332E303931363638353531093C415645524147454D4153533E203238332E3234303932093C534D494C45533E204F435B434040485D284F31295B434040485D284F295B434040485D284F295B434040485D316E2863332963284E3D322963286E332943283D4F294E43284E2932093C434F505952494748543E2041524D2050524F4A45435420687474703A2F2F7777772E6D657461626F6C6F6D652E6A702F0A2032302032322020302020302020312020302020302020302020302020303939392056323030300A20202020332E3733323120202020332E3039373020202020302E30303030204E202020302020302020302020312020302020302020302020302020302020302020302020300A20202020342E3539383120202020322E3539373020202020302E303030302043202020302020302020302020302020302020302020302020302020302020302020302020300A20202020342E3539383120202020312E3539373020202020302E30303030204E202020302020302020302020302020302020302020302020302020302020302020302020300A20202020332E3733323120202020312E3039373020202020302E303030302043202020302020302020302020302020302020302020302020302020302020302020302020300A20202020322E3836363020202020312E3539373020202020302E303030302043202020302020302020302020302020302020302020302020302020302020302020302020300A20202020322E3836363020202020322E3539373020202020302E303030302043202020302020302020302020302020302020302020302020302020302020302020302020300A20202020322E3132323920202020302E3932373920202020302E30303030204E202020302020302020302020302020302020302020302020302020302020302020302020300A20202020322E3532393620202020302E3031343320202020302E303030302043202020302020302020302020312020302020302020302020302020302020302020302020300A20202020332E3532343120202020302E3131383820202020302E30303030204E202020302020302020302020302020302020302020302020302020302020302020302020300A20202020352E3436343120202020332E3039373020202020302E30303030204E202020302020302020302020322020302020302020302020302020302020302020302020300A20202020322E3030303020202020332E3039373020202020302E30303030204F202020302020302020302020302020302020302020302020302020302020302020302020300A20202020342E313933332020202D302E3632343320202020302E303030302043202020302020302020312020312020302020302020302020302020302020302020302020300A20202020332E393835342020202D312E3630323520202020302E303030302043202020302020302020312020312020302020302020302020302020302020302020302020300A20202020342E383531342020202D322E3130323520202020302E303030302043202020302020302020312020312020302020302020302020302020302020302020302020300A20202020352E353934352020202D312E3433333320202020302E303030302043202020302020302020312020312020302020302020302020302020302020302020302020300A20202020362E353732372020202D312E3634313220202020302E303030302043202020302020302020302020322020302020302020302020302020302020302020302020300A20202020332E303731382020202D322E3030393220202020302E30303030204F202020302020302020302020312020302020302020302020302020302020302020302020300A20202020342E393535392020202D332E3039373020202020302E30303030204F202020302020302020302020312020302020302020302020302020302020302020302020300A20202020352E313837382020202D302E3531393820202020302E30303030204F202020302020302020302020302020302020302020302020302020302020302020302020300A20202020372E323431382020202D302E3839383120202020302E30303030204F202020302020302020302020312020302020302020302020302020302020302020302020300A2020342020392020312020302020302020302020300A2020342020352020322020302020302020302020300A2020342020332020312020302020302020302020300A2031322020392020312020302020302020302020300A2020392020382020312020302020302020302020300A2020352020372020312020302020302020302020300A2020352020362020312020302020302020302020300A2020332020322020322020302020302020302020300A2031322031392020312020362020302020302020300A2031332031322020312020302020302020302020300A2020362020312020312020302020302020302020300A2020362031312020322020302020302020302020300A2020322031302020312020302020302020302020300A2031352031392020312020362020302020302020300A2031332031342020312020302020302020302020300A2031332031372020312020312020302020302020300A2031352031362020312020302020302020302020300A2031342031382020312020312020302020302020300A2020382020372020322020302020302020302020300A2020322020312020312020302020302020302020300A2031342031352020312020302020302020302020300A2031362032302020312020302020302020302020300A4D2020454E44
Contributor: Kusano M, Fukushima A, Plant Science Center, RIKEN.
InstType: EI
InstName: Pegasus III TOF-MS system, Leco; GC 6890, Agilent Technologies
IoniMethod: EI
IonPolarity: pos
Date: 2010-10-09 19:48:36+02:00
Num Peaks: 186
60 4 61 9 62 1 65 2 66 4 67 4 69 8 70 7 71 5 72 20 
73 999 74 91 75 69 76 5 77 10 79 4 81 4 83 2 84 13 85 11 
86 5 87 4 88 1 89 11 90 1 91 1 92 1 94 1 95 2 97 6 
98 2 99 9 100 4 101 18 102 4 103 98 104 9 105 6 107 1 109 1 
110 7 111 12 112 3 113 9 114 2 115 15 116 9 117 21 118 3 119 6 
120 1 123 1 124 2 125 3 126 2 127 4 128 1 129 30 130 3 131 15 
132 3 133 28 134 5 135 4 136 1 137 1 138 6 139 2 140 2 141 4 
142 4 143 15 144 3 145 7 146 1 147 78 148 13 149 11 150 3 151 1 
152 1 153 3 154 1 155 2 156 1 157 6 158 2 159 2 161 1 162 1 
163 3 164 2 165 3 166 8 167 2 168 2 169 17 170 3 171 4 172 1 
173 2 175 1 176 1 177 3 178 1 179 1 180 1 181 1 183 1 189 8 
190 2 191 3 192 3 193 57 194 8 195 3 203 1 204 2 205 3 206 3 
207 10 208 6 209 23 210 4 211 1 215 4 216 2 217 116 218 25 219 12 
220 2 221 2 222 1 229 2 230 92 231 22 232 9 233 3 234 1 235 1 
236 1 237 33 238 5 239 2 243 24 244 6 245 59 246 12 247 6 248 1 
249 1 257 2 258 5 259 33 260 9 261 3 265 7 266 2 267 2 279 2 
280 12 281 42 282 10 283 4 307 9 308 2 309 3 310 1 320 1 321 1 
322 1 323 6 324 1 335 2 338 1 339 1 347 1 348 6 349 2 363 1 
395 2 453 1 540 2 541 5 542 2 543 1 
