Name: Hypotaurine
CAS: 300-84-5
MW: 109
Formula: C2H7NO2S
Synonym: KEGG: C00519
Synonym: CID: 3802
Synonym: MassBank: PR010027
Synonym: Hypotaurine
Synonym: 2-Aminoethanesulfinic acid
Structure: 310A31370A3C4341535F49443E203330302D38342D35093C4B4547475F49443E20433030353139093C4E414D453E204879706F74617572696E65093C464F524D554C413E20433248374E4F3253093C45584143544D4153533E203130392E3031393734393136323939393939093C415645524147454D4153533E203130392E3134383532093C534D494C45533E204E434353284F293D4F093C434F505952494748543E2041524D2050524F4A45435420687474703A2F2F7777772E6D657461626F6C6F6D652E6A702F0A2020362020352020302020302020302020302020302020302020302020303939392056323030300A20202020332E373332312020202D302E3030303020202020302E303030302043202020302020302020302020322020302020302020302020302020302020302020302020300A20202020332E3733323120202020312E3030303020202020302E303030302043202020302020302020302020322020302020302020302020302020302020302020302020300A20202020342E3539383120202020312E3530303020202020302E30303030204E202020302020302020302020322020302020302020302020302020302020302020302020300A20202020322E383636302020202D302E3530303020202020302E303030302053202020302020302020302020302020302020302020302020302020302020302020302020300A20202020322E3030303020202020302E3030303020202020302E30303030204F202020302020302020302020312020302020302020302020302020302020302020302020300A20202020322E383636302020202D312E3530303020202020302E30303030204F202020302020302020302020302020302020302020302020302020302020302020302020300A2020332020322020312020302020302020302020300A2020322020312020312020302020302020302020300A2020312020342020312020302020302020302020300A2020342020352020312020302020302020302020300A2020342020362020322020302020302020302020300A4D2020454E44
Contributor: Kusano M, Fukushima A, Plant Science Center, RIKEN.
InstType: EI
InstName: Pegasus III TOF-MS system, Leco; GC 6890, Agilent Technologies
IoniMethod: EI
IonPolarity: pos
Date: 2010-10-09 19:48:36+02:00
Num Peaks: 95
60 20 61 15 62 3 63 1 64 11 66 4 70 14 71 8 72 25 73 999 
74 96 75 88 76 8 77 18 78 2 79 8 83 1 84 4 85 6 86 82 
87 11 88 5 89 2 90 1 91 3 92 1 93 1 98 4 99 5 100 629 
101 72 102 33 103 6 104 2 105 2 106 1 113 9 114 107 115 22 116 35 
117 13 118 3 119 7 120 1 121 1 122 10 123 1 124 1 129 4 130 86 
131 28 132 16 133 52 134 8 135 10 136 1 137 5 138 1 142 1 144 1 
145 1 146 19 147 156 148 28 149 16 150 2 151 1 156 1 158 3 159 1 
160 3 161 1 172 65 173 12 174 98 175 17 176 32 177 5 178 2 187 10 
188 509 189 103 190 44 191 5 192 1 194 2 209 4 220 1 222 2 248 11 
249 2 250 1 310 18 311 5 312 3 
