Name: L-Tryptophane
CAS: 73-22-3
MW: 204
Formula: C11H12N2O2
Synonym: KEGG: C00078
Synonym: CID: 3378
Synonym: MassBank: PR010037
Synonym: L-Tryptophane
Synonym: L-Tryptophan
Synonym: (S)-alpha-Amino-beta-(3-indolyl)-propionic acid
Synonym: Tryptophan
Structure: 310A33370A3C4341535F49443E2037332D32322D33093C4B4547475F49443E20433030303738093C4E414D453E204C2D54727970746F7068616E093C464F524D554C413E204331314831324E324F32093C45584143544D4153533E203230342E303839383737363338093C415645524147454D4153533E203230342E3232353236303030303030303032093C534D494C45533E204F43283D4F295B434040485D284E294363286331296328633229632863636332296E31093C434F505952494748543E2041524D2050524F4A45435420687474703A2F2F7777772E6D657461626F6C6F6D652E6A702F0A2031352031362020302020302020312020302020302020302020302020303939392056323030300A20202020352E343038372020202D312E3031343120202020302E30303030204E202020302020302020302020312020302020302020302020302020302020302020302020300A20202020352E303031392020202D302E3130303620202020302E303030302043202020302020302020302020312020302020302020302020302020302020302020302020300A20202020342E303037342020202D302E3230353120202020302E303030302043202020302020302020302020302020302020302020302020302020302020302020302020300A20202020322E393333352020202D312E3638333320202020302E303030302043202020302020302020302020312020302020302020302020302020302020302020302020300A20202020322E393333352020202D322E3638333320202020302E303030302043202020302020302020302020312020302020302020302020302020302020302020302020300A20202020332E373939352020202D332E3138333320202020302E303030302043202020302020302020302020312020302020302020302020302020302020302020302020300A20202020342E363635352020202D322E3638333320202020302E303030302043202020302020302020302020312020302020302020302020302020302020302020302020300A20202020342E363635352020202D312E3638333320202020302E303030302043202020302020302020302020302020302020302020302020302020302020302020302020300A20202020332E373939352020202D312E3138333320202020302E303030302043202020302020302020302020302020302020302020302020302020302020302020302020300A20202020332E3333383320202020302E3533383020202020302E303030302043202020302020302020302020322020302020302020302020302020302020302020302020300A20202020332E3634373320202020312E3438393120202020302E303030302043202020302020302020312020312020302020302020302020302020302020302020302020300A20202020322E3937383120202020322E3233323220202020302E303030302043202020302020302020302020302020302020302020302020302020302020302020302020300A20202020342E3632353420202020312E3639373020202020302E30303030204E202020302020302020302020322020302020302020302020302020302020302020302020300A20202020322E3030303020202020322E3032343320202020302E30303030204F202020302020302020302020312020302020302020302020302020302020302020302020300A20202020332E3238373220202020332E3138333320202020302E30303030204F202020302020302020302020302020302020302020302020302020302020302020302020300A2031302020332020312020302020302020302020300A2020392020332020312020302020302020302020300A2031322031352020322020302020302020302020300A2031312031332020312020312020302020302020300A2020332020322020322020302020302020302020300A2031342031322020312020302020302020302020300A2020322020312020312020302020302020302020300A2031322031312020312020302020302020302020300A2020312020382020312020302020302020302020300A2031312031302020312020302020302020302020300A2020392020382020322020302020302020302020300A2020382020372020312020302020302020302020300A2020372020362020322020302020302020302020300A2020362020352020312020302020302020302020300A2020352020342020322020302020302020302020300A2020342020392020312020302020302020302020300A4D2020454E44
Contributor: Kusano M, Fukushima A, Plant Science Center, RIKEN.
InstType: EI
InstName: Pegasus III TOF-MS system, Leco; GC 6890, Agilent Technologies
IoniMethod: EI
IonPolarity: pos
Date: 2010-10-09 19:48:36+02:00
Num Peaks: 104
60 3 61 3 62 1 63 2 66 1 67 1 70 4 71 3 72 15 73 999 
74 89 75 50 76 6 77 15 78 2 79 3 83 1 84 4 85 1 86 5 
87 2 89 1 91 1 93 1 100 39 101 19 102 10 103 7 104 1 105 2 
114 1 115 6 116 2 117 4 118 1 119 2 128 3 129 14 130 26 131 11 
132 13 133 8 134 3 135 1 142 1 143 2 144 3 145 8 146 4 147 31 
148 5 149 2 156 4 157 1 158 3 159 3 160 4 161 1 163 1 169 1 
170 4 171 1 172 4 173 1 174 3 184 3 185 1 186 7 187 3 188 5 
189 1 190 7 191 1 198 1 199 4 200 21 201 6 202 704 203 144 204 43 
205 6 214 1 215 2 216 1 218 27 219 5 220 2 229 1 230 5 231 1 
248 1 288 1 290 1 291 59 292 17 293 8 294 1 302 1 303 4 304 1 
377 1 378 1 405 2 406 1 
