Name: Guanosine
CAS: 118-00-3
MW: 283
Formula: C10H13N5O5
Synonym: KEGG: C00387
Synonym: CID: 3677
Synonym: MassBank: PR010163
Synonym: Guanosine
Structure: 310A34380A3C4341535F49443E203131382D30302D33093C4B4547475F49443E20433030333837093C4E414D453E204775616E6F73696E093C464F524D554C413E204331304831334E354F35093C45584143544D4153533E203238332E303931363638353531093C415645524147454D4153533E203238332E3234303932093C534D494C45533E204F435B434040485D284F31295B434040485D284F295B434040485D284F295B434040485D316E2863332963284E3D322963286E332943283D4F294E43284E2932093C434F505952494748543E2041524D2050524F4A45435420687474703A2F2F7777772E6D657461626F6C6F6D652E6A702F0A2032302032322020302020302020312020302020302020302020302020303939392056323030300A20202020332E3733323120202020332E3039373020202020302E30303030204E202020302020302020302020312020302020302020302020302020302020302020302020300A20202020342E3539383120202020322E3539373020202020302E303030302043202020302020302020302020302020302020302020302020302020302020302020302020300A20202020342E3539383120202020312E3539373020202020302E30303030204E202020302020302020302020302020302020302020302020302020302020302020302020300A20202020332E3733323120202020312E3039373020202020302E303030302043202020302020302020302020302020302020302020302020302020302020302020302020300A20202020322E3836363020202020312E3539373020202020302E303030302043202020302020302020302020302020302020302020302020302020302020302020302020300A20202020322E3836363020202020322E3539373020202020302E303030302043202020302020302020302020302020302020302020302020302020302020302020302020300A20202020322E3132323920202020302E3932373920202020302E30303030204E202020302020302020302020302020302020302020302020302020302020302020302020300A20202020322E3532393620202020302E3031343320202020302E303030302043202020302020302020302020312020302020302020302020302020302020302020302020300A20202020332E3532343120202020302E3131383820202020302E30303030204E202020302020302020302020302020302020302020302020302020302020302020302020300A20202020352E3436343120202020332E3039373020202020302E30303030204E202020302020302020302020322020302020302020302020302020302020302020302020300A20202020322E3030303020202020332E3039373020202020302E30303030204F202020302020302020302020302020302020302020302020302020302020302020302020300A20202020342E313933332020202D302E3632343320202020302E303030302043202020302020302020312020312020302020302020302020302020302020302020302020300A20202020332E393835342020202D312E3630323520202020302E303030302043202020302020302020312020312020302020302020302020302020302020302020302020300A20202020342E383531342020202D322E3130323520202020302E303030302043202020302020302020312020312020302020302020302020302020302020302020302020300A20202020352E353934352020202D312E3433333320202020302E303030302043202020302020302020312020312020302020302020302020302020302020302020302020300A20202020362E353732372020202D312E3634313220202020302E303030302043202020302020302020302020322020302020302020302020302020302020302020302020300A20202020332E303731382020202D322E3030393220202020302E30303030204F202020302020302020302020312020302020302020302020302020302020302020302020300A20202020342E393535392020202D332E3039373020202020302E30303030204F202020302020302020302020312020302020302020302020302020302020302020302020300A20202020352E313837382020202D302E3531393820202020302E30303030204F202020302020302020302020302020302020302020302020302020302020302020302020300A20202020372E323431382020202D302E3839383120202020302E30303030204F202020302020302020302020312020302020302020302020302020302020302020302020300A2020342020392020312020302020302020302020300A2020342020352020322020302020302020302020300A2020342020332020312020302020302020302020300A2031322020392020312020302020302020302020300A2020392020382020312020302020302020302020300A2020352020372020312020302020302020302020300A2020352020362020312020302020302020302020300A2020332020322020322020302020302020302020300A2031322031392020312020362020302020302020300A2031332031322020312020302020302020302020300A2020362020312020312020302020302020302020300A2020362031312020322020302020302020302020300A2020322031302020312020302020302020302020300A2031352031392020312020362020302020302020300A2031332031342020312020302020302020302020300A2031332031372020312020312020302020302020300A2031352031362020312020302020302020302020300A2031342031382020312020312020302020302020300A2020382020372020322020302020302020302020300A2020322020312020312020302020302020302020300A2031342031352020312020302020302020302020300A2031362032302020312020302020302020302020300A4D2020454E44
Contributor: Kusano M, Fukushima A, Plant Science Center, RIKEN.
InstType: EI
InstName: Pegasus III TOF-MS system, Leco; GC 6890, Agilent Technologies
IoniMethod: EI
IonPolarity: pos
Date: 2010-10-09 19:48:36+02:00
Num Peaks: 217
60 3 61 6 63 1 65 1 66 3 67 2 69 8 70 6 71 6 72 17 
73 999 74 91 75 65 76 5 77 8 78 1 79 8 80 1 81 2 83 2 
84 9 85 6 86 3 87 4 88 1 89 10 90 1 91 1 92 1 95 1 
97 4 98 2 99 17 100 9 101 14 102 3 103 102 104 10 105 5 107 1 
109 1 110 2 111 6 112 1 113 6 114 1 115 23 116 7 117 20 118 3 
119 3 123 1 124 1 125 2 126 2 127 3 128 1 129 26 130 5 131 19 
132 5 133 21 134 6 135 2 136 1 138 2 139 1 140 1 141 5 142 3 
143 12 144 3 145 4 146 8 147 88 148 14 149 10 150 2 151 1 152 1 
153 3 154 1 155 2 156 1 157 9 158 7 159 2 160 1 162 1 163 1 
164 1 165 3 166 9 167 2 168 1 169 17 170 3 171 10 172 3 173 3 
174 1 175 1 176 1 177 1 178 1 179 1 180 2 181 1 182 1 183 1 
187 1 189 7 190 5 191 4 192 2 193 1 194 1 197 1 198 1 203 1 
204 1 205 2 206 2 207 2 208 5 209 1 210 1 215 1 217 27 218 6 
219 4 220 1 221 1 222 2 223 1 229 1 230 31 231 9 232 4 233 1 
234 1 236 1 237 1 238 2 239 1 243 19 244 5 245 57 246 13 247 5 
248 1 251 2 252 1 257 1 258 1 259 10 260 2 261 1 262 1 264 14 
265 4 266 2 278 4 279 4 280 54 281 15 282 6 283 1 292 1 293 1 
294 9 295 12 296 16 297 4 298 1 306 1 308 3 309 1 320 2 321 1 
322 1 323 4 324 71 325 19 326 7 327 1 348 2 351 1 352 5 353 2 
354 1 366 1 367 3 368 17 369 6 370 3 393 1 394 7 395 3 396 1 
409 2 410 9 411 3 412 1 422 1 423 1 425 2 627 3 628 6 629 4 
630 2 631 1 642 4 643 8 644 5 645 3 646 1 
