Name: N-Formyl-L-methionine
CAS: 4289-98-9
MW: 177
Formula: C6H11NO3S
Synonym: KEGG: C03145
Synonym: CID: 6033
Synonym: MassBank: PR010201
Synonym: N-Formyl-L-methionine
Structure: 310A32370A3C4341535F49443E20343238392D39382D39093C4B4547475F49443E20433033313435093C4E414D453E204E2D466F726D796C2D4C2D6D657468696F6E696E093C464F524D554C413E2043364831314E4F3353093C45584143544D4153533E203137372E303435393633393133093C415645524147454D4153533E203137372E3232323438093C534D494C45533E204F3D434E5B434040485D28434353432943284F293D4F093C434F505952494748543E2041524D2050524F4A45435420687474703A2F2F7777772E6D657461626F6C6F6D652E6A702F0A2031312031302020302020302020312020302020302020302020302020303939392056323030300A20202020352E3436343120202020312E3235303020202020302E303030302043202020302020302020302020302020302020302020302020302020302020302020302020300A20202020342E3539383120202020302E3735303020202020302E303030302043202020302020302020322020312020302020302020302020302020302020302020302020300A20202020342E353938312020202D302E3235303020202020302E303030302043202020302020302020302020322020302020302020302020302020302020302020302020300A20202020332E373332302020202D302E3735303020202020302E303030302043202020302020302020302020322020302020302020302020302020302020302020302020300A20202020332E3733323120202020312E3235303020202020302E30303030204E202020302020302020302020312020302020302020302020302020302020302020302020300A20202020332E373332302020202D312E3735303020202020302E303030302053202020302020302020302020302020302020302020302020302020302020302020302020300A20202020322E383636302020202D322E3235303020202020302E303030302043202020302020302020302020332020302020302020302020302020302020302020302020300A20202020322E3836363020202020302E3735303020202020302E303030302043202020302020302020302020312020302020302020302020302020302020302020302020300A20202020362E3333303120202020302E3735303020202020302E30303030204F202020302020302020302020302020302020302020302020302020302020302020302020300A20202020352E3436343120202020322E3235303020202020302E30303030204F202020302020302020302020312020302020302020302020302020302020302020302020300A20202020322E3030303020202020312E3235303020202020302E30303030204F202020302020302020302020302020302020302020302020302020302020302020302020300A2020322020352020312020362020302020302020300A2020322020312020312020302020302020302020300A2020312020392020322020302020302020302020300A2020322020332020312020302020302020302020300A2020342020332020312020302020302020302020300A2020362020372020312020302020302020302020300A2020342020362020312020302020302020302020300A2020312031302020312020302020302020302020300A2020352020382020312020302020302020302020300A2020382031312020322020302020302020302020300A4D2020454E44
Contributor: Kusano M, Fukushima A, Plant Science Center, RIKEN.
InstType: EI
InstName: Pegasus III TOF-MS system, Leco; GC 6890, Agilent Technologies
IoniMethod: EI
IonPolarity: pos
Date: 2010-10-09 19:48:36+02:00
Num Peaks: 133
60 20 61 507 62 23 63 25 64 1 65 1 66 7 67 5 68 3 69 2 
70 16 71 13 72 33 73 999 74 131 75 267 76 27 77 51 78 6 79 24 
80 2 82 3 83 3 84 43 85 30 86 12 87 23 88 7 89 5 90 1 
91 7 92 2 93 2 94 1 97 3 98 24 99 11 100 152 101 24 102 68 
103 18 104 7 105 12 106 1 107 2 110 1 111 1 112 3 113 3 114 30 
115 14 116 9 117 9 118 10 119 7 120 1 121 1 124 1 126 3 127 1 
128 25 129 187 130 35 131 21 132 5 133 26 134 4 135 3 140 2 141 1 
142 66 143 9 144 16 145 3 146 1 147 87 148 14 149 16 150 2 151 1 
156 33 157 175 158 45 159 18 160 6 161 5 162 2 163 4 170 21 171 3 
172 7 173 1 174 4 175 5 176 15 177 3 178 1 186 5 187 1 188 11 
189 3 190 1 191 4 192 1 202 7 203 3 204 28 205 5 206 3 216 2 
218 7 219 1 230 14 231 4 232 4 233 1 246 1 247 100 248 21 249 10 
250 11 251 2 252 1 260 50 261 11 262 5 278 11 279 3 280 2 306 17 
307 4 308 2 321 3 
