Name: L-Asparagine
CAS: 70-47-3
MW: 132
Formula: C4H8N2O3
Synonym: KEGG: C00152
Synonym: CID: 3452
Synonym: MassBank: PR010172
Synonym: L-Asparagine
Synonym: 2-Aminosuccinamic acid
Structure: 310A32330A3C4341535F49443E2037302D34372D33093C4B4547475F49443E20433030313532093C4E414D453E204C2D41737061726167696E65093C464F524D554C413E20433448384E324F33093C45584143544D4153533E203133322E303533343932313332093C415645524147454D4153533E203133322E313138093C534D494C45533E204E43283D4F29435B4340485D284E2943284F293D4F093C434F505952494748543E2041524D2050524F4A45435420687474703A2F2F7777772E6D657461626F6C6F6D652E6A702F0A2020392020382020302020302020312020302020302020302020302020303939392056323030300A20202020342E3539383120202020312E3030303020202020302E303030302043202020302020302020302020302020302020302020302020302020302020302020302020300A20202020332E3733323120202020302E3530303020202020302E303030302043202020302020302020322020312020302020302020302020302020302020302020302020300A20202020332E373332312020202D302E3530303020202020302E303030302043202020302020302020302020322020302020302020302020302020302020302020302020300A20202020322E383636302020202D312E3030303020202020302E303030302043202020302020302020302020302020302020302020302020302020302020302020302020300A20202020322E3836363020202020312E3030303020202020302E30303030204E202020302020302020302020322020302020302020302020302020302020302020302020300A20202020322E303030302020202D302E3530303020202020302E30303030204E202020302020302020302020322020302020302020302020302020302020302020302020300A20202020342E3539383120202020322E3030303020202020302E30303030204F202020302020302020302020312020302020302020302020302020302020302020302020300A20202020352E3436343120202020302E3530303020202020302E30303030204F202020302020302020302020302020302020302020302020302020302020302020302020300A20202020322E383636302020202D322E3030303020202020302E30303030204F202020302020302020302020302020302020302020302020302020302020302020302020300A2020322020352020312020362020302020302020300A2020322020312020312020302020302020302020300A2020312020382020322020302020302020302020300A2020322020332020312020302020302020302020300A2020342020362020312020302020302020302020300A2020342020392020322020302020302020302020300A2020332020342020312020302020302020302020300A2020312020372020312020302020302020302020300A4D2020454E44
Contributor: Kusano M, Fukushima A, Plant Science Center, RIKEN.
InstType: EI
InstName: Pegasus III TOF-MS system, Leco; GC 6890, Agilent Technologies
IoniMethod: EI
IonPolarity: pos
Date: 2010-10-09 19:48:36+02:00
Num Peaks: 133
60 18 61 28 62 3 63 4 66 9 67 2 69 3 70 25 71 8 72 48 
73 999 74 145 75 210 76 23 77 50 78 5 79 13 80 2 82 2 83 3 
84 11 85 5 86 14 87 6 88 3 89 4 90 6 91 2 92 1 93 1 
96 1 97 1 98 13 99 5 100 102 101 15 102 13 103 12 104 1 105 2 
110 1 111 1 112 1 113 3 114 22 115 28 116 337 117 46 118 20 119 5 
120 1 125 8 126 2 127 2 128 15 129 6 130 25 131 54 132 151 133 45 
134 11 135 3 140 2 141 91 142 17 143 10 144 11 145 2 146 6 147 103 
148 18 149 17 150 2 151 1 153 1 154 2 156 1 157 1 158 3 159 26 
160 4 161 2 163 1 169 6 170 1 171 1 172 8 173 2 174 6 175 1 
176 2 177 1 186 1 188 74 189 15 190 12 191 2 199 2 200 1 201 1 
202 24 203 6 204 10 205 2 206 2 213 2 214 2 215 12 216 7 217 4 
218 22 219 4 220 2 229 1 230 1 231 96 232 22 233 9 234 1 242 1 
243 5 244 2 245 2 258 15 259 4 260 1 262 1 316 2 317 1 333 4 
334 1 348 3 349 1 
