Name: 5-Hydoxytryptamine
CAS: 153-98-0
MW: 176
Formula: C10H12N2O
Synonym: MassBank: PR010094
Synonym: 5-Hydoxytryptamine
Structure: 310A33320A20204143442F4C6162733132303230363039343132440A2031332031342020302020302020302020302020302020302020302020302020312056323030300A20202020382E3036323020202D31302E3335393620202020302E303030302043202020302020302020302020302020302020302020302020302020302020302020302020300A20202020382E3036323020202D31312E3638393620202020302E303030302043202020302020302020302020302020302020302020302020302020302020302020302020300A20202020392E323133392020202D392E3639343620202020302E303030302043202020302020302020302020302020302020302020302020302020302020302020302020300A20202020392E3231333920202D31322E3335343620202020302E303030302043202020302020302020302020302020302020302020302020302020302020302020302020300A20202031302E3336353720202D31302E3335393620202020302E303030302043202020302020302020302020302020302020302020302020302020302020302020302020300A20202031302E3336353720202D31312E3638393620202020302E303030302043202020302020302020302020302020302020302020302020302020302020302020302020300A20202031312E363330362020202D392E3934383620202020302E303030302043202020302020302020302020302020302020302020302020302020302020302020302020300A20202031322E3431323320202D31312E3032343620202020302E303030302043202020302020302020302020302020302020302020302020302020302020302020302020300A20202031312E3633303720202D31322E3130303620202020302E30303030204E202020302020302020302020302020302020302020302020302020302020302020302020300A20202020362E393130322020202D392E3639343620202020302E30303030204F202020302020302020302020302020302020302020302020302020302020302020302020300A20202031322E303431362020202D382E3638333720202020302E303030302043202020302020302020302020302020302020302020302020302020302020302020302020300A20202031332E333432352020202D382E3430373220202020302E303030302043202020302020302020302020302020302020302020302020302020302020302020302020300A20202031332E373533352020202D372E3134323320202020302E30303030204E202020302020302020302020302020302020302020302020302020302020302020302020300A2020322020312020312020302020302020302020300A2020332020312020322020302020302020302020300A2020342020322020322020302020302020302020300A2020352020332020312020302020302020302020300A2020362020342020312020302020302020302020300A2020362020352020322020302020302020302020300A2020372020352020312020302020302020302020300A2020382020372020322020302020302020302020300A2020392020362020312020302020302020302020300A2020392020382020312020302020302020302020300A2020312031302020312020302020302020302020300A2020372031312020312020302020302020302020300A2031312031322020312020302020302020302020300A2031322031332020312020302020302020302020300A4D2020454E44
Contributor: Kusano M, Fukushima A, Plant Science Center, RIKEN.
InstType: EI
InstName: Pegasus III TOF-MS system, Leco; GC 6890, Agilent Technologies
IoniMethod: EI
IonPolarity: pos
Date: 2010-10-09 19:48:36+02:00
Num Peaks: 125
60 8 61 5 62 1 63 1 67 1 70 4 71 3 72 10 73 999 74 83 
75 30 76 2 77 8 78 1 83 2 84 3 85 3 86 181 87 17 88 7 
89 1 91 1 99 1 100 79 101 13 102 11 103 3 105 1 113 2 114 2 
115 7 116 7 117 12 118 2 119 2 127 1 128 3 129 3 130 25 131 14 
132 4 133 3 134 1 135 1 142 2 143 2 144 6 145 3 146 9 147 5 
148 1 149 1 154 1 156 2 157 1 158 8 159 3 160 2 161 1 169 1 
170 2 171 1 172 11 173 3 174 963 175 174 176 83 177 10 178 2 184 2 
185 1 186 7 187 2 188 2 190 1 198 1 199 1 200 3 201 2 202 16 
203 3 204 2 214 1 215 1 216 3 217 3 218 4 219 1 230 3 231 1 
232 3 233 2 234 1 244 1 246 1 258 1 260 8 261 2 262 1 272 1 
273 1 274 2 275 1 276 1 287 2 288 4 289 2 290 26 291 9 292 3 
293 1 302 3 303 2 304 1 361 7 362 3 363 1 375 1 448 1 449 7 
450 3 451 1 464 5 465 3 466 1 
