Name: 2'-Deoxyadenosine
CAS: 16373-93-6
MW: 251
Formula: C10H13N5O3
Synonym: MassBank: PR010126
Synonym: 2'-Deoxyadenosine
Structure: 310A34330A20204143442F4C6162733132303230363132303032440A2031382032302020302020302020312020302020302020302020302020302020312056323030300A20202020372E3436353320202D31312E3031363620202020302E303030302043202020302020302020302020302020302020302020302020302020302020302020302020300A20202020372E3436353320202D31322E3334363620202020302E303030302043202020302020302020302020302020302020302020302020302020302020302020302020300A20202020362E3331333420202D31302E3335313620202020302E30303030204E202020302020302020302020302020302020302020302020302020302020302020302020300A20202020362E3331333420202D31332E3031313620202020302E303030302043202020302020302020302020302020302020302020302020302020302020302020302020300A20202020352E3136313720202D31312E3031363620202020302E303030302043202020302020302020302020302020302020302020302020302020302020302020302020300A20202020352E3136313720202D31322E3334363620202020302E30303030204E202020302020302020302020302020302020302020302020302020302020302020302020300A20202020382E3733303220202D31302E3630353620202020302E30303030204E202020302020302020302020302020302020302020302020302020302020302020302020300A20202020392E3531313920202D31312E3638313620202020302E303030302043202020302020302020302020302020302020302020302020302020302020302020302020300A20202020382E3733303420202D31322E3735373620202020302E30303030204E202020302020302020302020302020302020302020302020302020302020302020302020300A20202020362E3331333420202D31342E3334313620202020302E30303030204E202020302020302020302020302020302020302020302020302020302020302020302020300A20202020392E313431322020202D392E3334303720202020302E303030302043202020302020302020302020302020302020302020302020302020302020302020302020300A20202020382E333539352020202D382E3236343720202020302E30303030204F202020302020302020302020302020302020302020302020302020302020302020302020300A20202031302E343036322020202D382E3932393720202020302E303030302043202020302020302020302020302020302020302020302020302020302020302020302020300A20202020392E313431332020202D372E3138383720202020302E303030302043202020302020302020302020302020302020302020302020302020302020302020302020300A20202031302E343036322020202D372E3539393620202020302E303030302043202020302020302020302020302020302020302020302020302020302020302020302020300A20202031312E343832312020202D362E3831373720202020302E30303030204F202020302020302020302020302020302020302020302020302020302020302020302020300A20202020382E373330322020202D352E3932333820202020302E303030302043202020302020302020302020302020302020302020302020302020302020302020302020300A20202020392E363230312020202D342E3933353420202020302E30303030204F202020302020302020302020302020302020302020302020302020302020302020302020300A2020332020312020322020302020302020302020300A2020342020322020322020302020302020302020300A2020352020332020312020302020302020302020300A2020362020342020312020302020302020302020300A2020362020352020322020302020302020302020300A2020372020312020312020302020302020302020300A2020322020312020312020302020302020302020300A2020382020372020312020302020302020302020300A2020392020322020312020302020302020302020300A2020392020382020322020302020302020302020300A2020342031302020312020302020302020302020300A2031322031312020312020302020302020302020300A2031332031312020312020302020302020302020300A2031342031322020312020302020302020302020300A2031352031332020312020302020302020302020300A2031352031342020312020302020302020302020300A2031312020372020312020362020302020302020300A2031352031362020312020312020302020302020300A2031342031372020312020362020302020302020300A2031372031382020312020302020302020302020300A4D2020454E44
Contributor: Kusano M, Fukushima A, Plant Science Center, RIKEN.
InstType: EI
InstName: Pegasus III TOF-MS system, Leco; GC 6890, Agilent Technologies
IoniMethod: EI
IonPolarity: pos
Date: 2010-10-09 19:48:36+02:00
Num Peaks: 192
60 10 61 11 62 1 63 1 64 1 65 2 66 7 67 4 68 1 69 4 
70 10 71 10 72 23 73 999 74 89 75 94 76 9 77 11 78 2 79 9 
80 3 81 100 82 8 83 5 84 33 85 23 86 7 87 7 88 3 89 8 
90 1 91 1 92 2 93 2 94 2 95 4 96 5 97 5 98 5 99 24 
100 9 101 37 102 5 103 235 104 22 105 11 106 1 107 2 108 6 109 7 
110 8 111 27 112 4 113 10 114 2 115 7 116 6 117 44 118 6 119 7 
120 2 121 2 122 2 123 5 124 2 125 5 126 2 127 7 128 2 129 22 
130 4 131 10 132 2 133 22 134 4 135 9 136 5 137 6 138 8 139 2 
140 1 141 2 142 11 143 10 144 2 145 20 146 3 147 36 148 7 149 7 
150 4 151 5 152 2 153 1 155 23 156 4 157 6 158 1 159 1 161 2 
162 7 163 3 164 20 165 48 166 12 167 3 169 17 170 19 171 12 172 3 
173 1 174 2 175 2 176 10 177 5 178 3 179 3 180 28 181 8 182 2 
188 1 189 12 190 8 191 12 192 302 193 49 194 14 195 1 198 1 199 1 
200 1 201 1 202 2 203 1 204 3 205 3 206 32 207 314 208 202 209 40 
210 8 211 1 215 2 217 19 218 32 219 12 220 5 221 3 222 1 231 1 
232 2 233 4 234 17 235 5 236 113 237 38 238 8 239 2 245 3 246 2 
249 1 250 1 259 1 260 1 262 1 264 6 265 1 266 2 278 1 279 3 
280 5 281 1 282 1 288 1 306 1 322 1 334 1 335 1 348 1 349 3 
350 2 351 2 362 1 364 1 377 2 378 1 452 4 453 2 466 1 467 9 
468 4 469 2 
