Name: 2'-Deoxyinosine 5'-monophosphate
CAS: 14999-52-1
MW: 332
Formula: C10H13N4O7P
Synonym: MassBank: PR010192
Synonym: 2'-Deoxyinosine 5'-monophosphate
Structure: 310A35310A20204143442F4C6162733132303230363132333732440A2032322032342020302020302020312020302020302020302020302020302020312056323030300A20202031302E3437373920202D31342E3738323220202020302E303030302043202020302020302020302020302020302020302020302020302020302020302020302020300A20202031302E3437373920202D31362E3131323320202020302E303030302043202020302020302020302020302020302020302020302020302020302020302020302020300A20202020392E3332363020202D31342E3131373220202020302E30303030204E202020302020302020302020302020302020302020302020302020302020302020302020300A20202020392E3332363020202D31362E3737373320202020302E303030302043202020302020302020302020302020302020302020302020302020302020302020302020300A20202020382E3137343220202D31342E3738323220202020302E303030302043202020302020302020302020302020302020302020302020302020302020302020302020300A20202020382E3137343220202D31362E3131323320202020302E30303030204E202020302020302020302020302020302020302020302020302020302020302020302020300A20202031312E3734323820202D31342E3337313320202020302E30303030204E202020302020302020302020302020302020302020302020302020302020302020302020300A20202031322E3532343520202D31352E3434373320202020302E303030302043202020302020302020302020302020302020302020302020302020302020302020302020300A20202031312E3734323920202D31362E3532333320202020302E30303030204E202020302020302020302020302020302020302020302020302020302020302020302020300A20202020392E3332363020202D31382E3130373320202020302E30303030204F202020302020302020302020302020302020302020302020302020302020302020302020300A20202031322E3135333820202D31332E3130363420202020302E303030302043202020302020302020302020302020302020302020302020302020302020302020302020300A20202031312E3337323120202D31322E3033303320202020302E30303030204F202020302020302020302020302020302020302020302020302020302020302020302020300A20202031332E3431383720202D31322E3639353420202020302E303030302043202020302020302020302020302020302020302020302020302020302020302020302020300A20202031322E3135333820202D31302E3935343420202020302E303030302043202020302020302020302020302020302020302020302020302020302020302020302020300A20202031332E3431383720202D31312E3336353220202020302E303030302043202020302020302020302020302020302020302020302020302020302020302020302020300A20202031342E3439343720202D31302E3538333420202020302E30303030204F202020302020302020302020302020302020302020302020302020302020302020302020300A20202031312E373432382020202D392E3638393520202020302E303030302043202020302020302020302020302020302020302020302020302020302020302020302020300A20202031322E363332372020202D382E3730313120202020302E30303030204F202020302020302020302020302020302020302020302020302020302020302020302020300A20202031322E323231362020202D372E3433363220202020302E303030302050202020302020302020302020302020302020302020302020302020302020302020302020300A20202031312E383130362020202D362E3137313420202020302E30303030204F202020302020302020302020302020302020302020302020302020302020302020302020300A20202031332E343836352020202D372E3032353220202020302E30303030204F202020302020302020302020302020302020302020302020302020302020302020302020300A20202031302E393536382020202D372E3834373320202020302E30303030204F202020302020302020302020302020302020302020302020302020302020302020302020300A2020332020312020312020302020302020302020300A2020342020322020312020302020302020302020300A2020352020332020312020302020302020302020300A2020362020342020312020302020302020302020300A2020362020352020322020302020302020302020300A2020372020312020312020302020302020302020300A2020322020312020322020302020302020302020300A2020382020372020312020302020302020302020300A2020392020322020312020302020302020302020300A2020392020382020322020302020302020302020300A2020342031302020322020302020302020302020300A2031322031312020312020302020302020302020300A2031332031312020312020302020302020302020300A2031342031322020312020302020302020302020300A2031352031332020312020302020302020302020300A2031352031342020312020302020302020302020300A2031312020372020312020362020302020302020300A2031352031362020312020312020302020302020300A2031342031372020312020362020302020302020300A2031372031382020312020302020302020302020300A2031382031392020312020302020302020302020300A2031392032302020312020302020302020302020300A2031392032312020312020302020302020302020300A2031392032322020322020302020302020302020300A4D2020454E44
Contributor: Kusano M, Fukushima A, Plant Science Center, RIKEN.
InstType: EI
InstName: Pegasus III TOF-MS system, Leco; GC 6890, Agilent Technologies
IoniMethod: EI
IonPolarity: pos
Date: 2010-10-09 19:48:36+02:00
Num Peaks: 217
60 5 61 9 62 1 63 1 65 2 66 2 67 2 70 6 71 5 72 15 
73 458 74 43 75 50 76 4 77 17 80 3 81 999 82 59 83 6 84 14 
85 10 86 4 87 2 88 1 89 4 90 1 91 2 92 2 93 2 94 1 
95 2 96 1 97 4 98 4 99 8 100 4 101 14 102 2 103 12 104 1 
105 2 106 1 107 2 108 1 109 2 110 8 111 12 112 3 113 5 114 1 
115 6 116 2 117 4 118 1 119 6 120 2 121 2 122 1 123 2 124 2 
125 3 126 1 127 11 128 2 129 19 130 2 131 4 132 1 133 28 134 5 
135 10 136 3 137 8 138 10 139 4 140 1 141 2 142 13 143 7 144 1 
145 2 146 1 147 13 148 3 149 2 150 2 151 4 152 2 153 2 154 1 
155 11 156 2 157 2 158 1 159 1 160 1 162 1 163 4 164 2 165 4 
166 10 167 4 168 1 169 8 170 20 171 10 172 2 173 1 174 1 175 1 
176 1 177 4 178 2 179 3 180 2 181 8 182 1 183 3 184 1 185 1 
187 1 189 1 190 1 191 2 192 5 193 95 194 15 195 11 196 1 197 3 
203 1 205 2 206 2 207 16 208 6 209 54 210 9 211 58 212 9 213 6 
214 1 217 1 219 10 220 2 221 2 222 2 223 1 225 8 226 2 227 16 
228 3 229 1 231 1 233 1 234 2 235 3 236 1 237 2 239 1 241 1 
243 12 244 2 245 2 247 1 253 3 254 1 255 1 259 1 261 1 265 2 
267 1 269 1 275 1 279 2 280 1 281 5 282 2 283 2 285 3 287 1 
289 11 290 2 291 1 294 1 298 2 299 27 300 8 301 4 302 1 307 1 
309 1 313 1 314 2 315 39 316 11 317 6 318 1 322 1 323 16 324 4 
325 1 335 2 336 2 337 1 349 1 350 3 351 1 363 1 365 1 378 4 
379 2 380 1 396 1 397 2 398 1 605 1 606 1 
