Name: Glutaric acid
CAS: 110-94-1
MW: 132
Formula: C5H8O4
Synonym: KEGG: C00489
Synonym: CID: 3772
Synonym: MassBank: PR010158
Synonym: Glutaric acid
Synonym: Pentanedioic acid
Synonym: Glutarate
Synonym: 1,3-Propanedicarboxylic acid
Structure: 310A32330A3C4341535F49443E203131302D39342D31093C4B4547475F49443E20433030343839093C4E414D453E20476C75746172617465093C464F524D554C413E20433548384F34093C45584143544D4153533E203133322E3034323235383734333939393938093C415645524147454D4153533E203133322E3131343632093C534D494C45533E204F43283D4F2943434343284F293D4F093C434F505952494748543E2041524D2050524F4A45435420687474703A2F2F7777772E6D657461626F6C6F6D652E6A702F0A2020392020382020302020302020302020302020302020302020302020303939392056323030300A20202020322E383636302020202D312E3235303020202020302E303030302043202020302020302020302020302020302020302020302020302020302020302020302020300A20202020332E373332312020202D302E3735303020202020302E303030302043202020302020302020302020322020302020302020302020302020302020302020302020300A20202020332E3733323120202020302E3235303020202020302E303030302043202020302020302020302020322020302020302020302020302020302020302020302020300A20202020342E3539383120202020302E3735303020202020302E303030302043202020302020302020302020322020302020302020302020302020302020302020302020300A20202020342E3539383120202020312E3735303020202020302E303030302043202020302020302020302020302020302020302020302020302020302020302020302020300A20202020322E303030302020202D302E3735303020202020302E30303030204F202020302020302020302020302020302020302020302020302020302020302020302020300A20202020322E383636302020202D322E3235303020202020302E30303030204F202020302020302020302020312020302020302020302020302020302020302020302020300A20202020332E3733323120202020322E3235303020202020302E30303030204F202020302020302020302020302020302020302020302020302020302020302020302020300A20202020352E3436343120202020322E3235303020202020302E30303030204F202020302020302020302020312020302020302020302020302020302020302020302020300A2020312020322020312020302020302020302020300A2020312020362020322020302020302020302020300A2020312020372020312020302020302020302020300A2020322020332020312020302020302020302020300A2020332020342020312020302020302020302020300A2020342020352020312020302020302020302020300A2020352020382020322020302020302020302020300A2020352020392020312020302020302020302020300A4D2020454E44
Contributor: Kusano M, Fukushima A, Plant Science Center, RIKEN.
InstType: EI
InstName: Pegasus III TOF-MS system, Leco; GC 6890, Agilent Technologies
IoniMethod: EI
IonPolarity: pos
Date: 2010-10-09 19:48:36+02:00
Num Peaks: 108
60 31 61 105 62 10 63 8 64 1 65 2 66 27 67 6 68 2 69 20 
70 16 71 14 72 136 73 999 74 126 75 640 76 64 77 95 78 7 79 15 
80 1 81 1 83 2 84 4 85 63 86 8 87 12 88 25 89 16 90 2 
91 1 92 2 93 2 95 4 96 2 97 125 98 10 99 21 100 5 101 50 
102 8 103 11 104 2 105 4 109 1 111 3 113 9 114 1 115 20 116 118 
117 54 118 9 119 7 123 11 124 1 125 1 127 11 128 4 129 181 130 70 
131 33 132 8 133 55 134 8 135 6 142 2 143 13 144 2 145 15 146 3 
147 778 148 129 149 109 150 13 151 5 157 1 158 156 159 43 160 10 161 2 
162 6 163 3 164 1 171 5 173 1 186 49 187 21 188 4 189 14 190 3 
191 2 201 2 203 39 204 44 205 10 206 4 217 4 218 1 219 3 233 42 
234 12 235 4 236 1 260 1 261 123 262 26 263 12 264 1 
