Name: Phytol
CAS: 150-86-7
MW: 296
Formula: C20H40O
Synonym: KEGG: C01389
Synonym: CID: 4582
Synonym: MassBank: PR010114
Synonym: Phytol
Structure: 310A34360A20204143442F4C6162733132303230363130333832440A2032312032302020302020302020312020302020302020302020302020302020312056323030300A20202020392E313432312020202D392E3437303220202020302E303030302043202020302020302020302020302020302020302020302020302020302020302020302020300A20202031302E3239333920202D31302E3133353220202020302E303030302043202020302020302020302020302020302020302020302020302020302020302020302020300A20202031312E343435372020202D392E3437303220202020302E303030302043202020302020302020302020302020302020302020302020302020302020302020302020300A20202031322E3539373520202D31302E3133353220202020302E303030302043202020302020302020302020302020302020302020302020302020302020302020302020300A20202031332E373439332020202D392E3437303220202020302E303030302043202020302020302020302020302020302020302020302020302020302020302020302020300A20202031342E3930313120202D31302E3133353220202020302E303030302043202020302020302020302020302020302020302020302020302020302020302020302020300A20202031362E303533302020202D392E3437303220202020302E303030302043202020302020302020302020302020302020302020302020302020302020302020302020300A20202031372E3230343820202D31302E3133353220202020302E303030302043202020302020302020302020302020302020302020302020302020302020302020302020300A20202031382E333536362020202D392E3437303220202020302E303030302043202020302020302020302020302020302020302020302020302020302020302020302020300A20202031392E3530383420202D31302E3133353220202020302E303030302043202020302020302020302020302020302020302020302020302020302020302020302020300A20202032302E363630322020202D392E3437303220202020302E303030302043202020302020302020302020302020302020302020302020302020302020302020302020300A20202032312E3831323020202D31302E3133353220202020302E303030302043202020302020302020302020302020302020302020302020302020302020302020302020300A20202032322E393633382020202D392E3437303220202020302E303030302043202020302020302020302020302020302020302020302020302020302020302020302020300A20202032342E3131353720202D31302E3133353220202020302E303030302043202020302020302020302020302020302020302020302020302020302020302020302020300A20202032352E323637352020202D392E3437303220202020302E303030302043202020302020302020302020302020302020302020302020302020302020302020302020300A20202032362E3431393320202D31302E3133353220202020302E303030302043202020302020302020302020302020302020302020302020302020302020302020302020300A20202032372E353731312020202D392E3437303220202020302E30303030204F202020302020302020302020302020302020302020302020302020302020302020302020300A20202032342E3131353720202D31312E3436353220202020302E303030302043202020302020302020302020302020302020302020302020302020302020302020302020300A20202031392E3530383420202D31312E3436353220202020302E303030302043202020302020302020302020302020302020302020302020302020302020302020302020300A20202031342E3930313120202D31312E3436353220202020302E303030302043202020302020302020302020302020302020302020302020302020302020302020302020300A20202031302E3239333920202D31312E3436353220202020302E303030302043202020302020302020302020302020302020302020302020302020302020302020302020300A2020322020312020312020302020302020302020300A2020332020322020312020302020302020302020300A2020342020332020312020302020302020302020300A2020352020342020312020302020302020302020300A2020362020352020312020302020302020302020300A2020372020362020312020302020302020302020300A2020382020372020312020302020302020302020300A2020392020382020312020302020302020302020300A2031302020392020312020302020302020302020300A2031312031302020312020302020302020302020300A2031322031312020312020302020302020302020300A2031332031322020312020302020302020302020300A2031342031332020312020302020302020302020300A2031352031342020322020302020302020302020300A2031362031352020312020302020302020302020300A2031362031372020312020302020302020302020300A2031342031382020312020302020302020302020300A2031302031392020312020362020302020302020300A2020362032302020312020362020302020302020300A2020322032312020312020302020302020302020300A4D2020454E44
Contributor: Kusano M, Fukushima A, Plant Science Center, RIKEN.
InstType: EI
InstName: Pegasus III TOF-MS system, Leco; GC 6890, Agilent Technologies
IoniMethod: EI
IonPolarity: pos
Date: 2010-10-09 19:48:36+02:00
Num Peaks: 108
60 6 61 29 62 2 63 2 64 7 65 9 66 4 67 90 68 9 69 58 
70 35 71 81 72 12 73 594 74 57 75 375 76 34 77 26 78 2 79 32 
80 36 81 182 82 69 83 63 84 10 85 27 86 2 87 3 88 1 89 9 
90 1 91 11 92 1 93 11 94 11 95 93 96 52 97 56 98 8 99 12 
100 1 101 18 102 2 103 47 104 4 105 3 107 6 108 2 109 37 110 17 
111 34 112 8 113 16 114 2 115 4 116 7 117 9 118 1 121 3 122 16 
123 162 124 64 125 16 126 10 127 19 128 3 129 9 130 2 131 1 135 1 
136 1 137 12 138 6 139 3 140 2 141 7 142 3 143 999 144 126 145 40 
146 3 149 1 150 1 151 5 152 5 153 2 155 2 156 3 157 15 158 3 
165 3 166 1 167 1 169 2 179 2 180 1 181 1 182 6 183 1 185 3 
193 2 196 3 197 1 213 10 214 2 278 5 279 1 353 2 
