Name: Indole-3-acetaldehyde
CAS: 20095-27-6
MW: 159
Formula: C10H9NO
Synonym: MassBank: PR010168
Synonym: Indole-3-acetaldehyde
Structure: 310A33300A20204143442F4C6162733132303230363135333832440A2031322031332020302020302020302020302020302020302020302020302020312056323030300A20202031312E353139342020202D382E3236303420202020302E303030302043202020302020302020302020302020302020302020302020302020302020302020302020300A20202031312E353139342020202D392E3539303420202020302E303030302043202020302020302020302020302020302020302020302020302020302020302020302020300A20202031302E333637352020202D372E3539353420202020302E303030302043202020302020302020302020302020302020302020302020302020302020302020302020300A20202031302E3336373520202D31302E3235353420202020302E303030302043202020302020302020302020302020302020302020302020302020302020302020302020300A20202020392E323135372020202D382E3236303420202020302E303030302043202020302020302020302020302020302020302020302020302020302020302020302020300A20202020392E323135372020202D392E3539303420202020302E303030302043202020302020302020302020302020302020302020302020302020302020302020302020300A20202031322E373834332020202D372E3834393520202020302E303030302043202020302020302020302020302020302020302020302020302020302020302020302020300A20202031332E353636302020202D382E3932353420202020302E303030302043202020302020302020302020302020302020302020302020302020302020302020302020300A20202031322E3738343520202D31302E3030313420202020302E30303030204E202020302020302020302020302020302020302020302020302020302020302020302020300A20202031332E313935332020202D362E3538343620202020302E303030302043202020302020302020302020302020302020302020302020302020302020302020302020300A20202031342E343936332020202D362E3330383120202020302E303030302043202020302020302020302020302020302020302020302020302020302020302020302020300A20202031352E333836322020202D372E3239363520202020302E30303030204F202020302020302020302020302020302020302020302020302020302020302020302020300A2020332020312020322020302020302020302020300A2020342020322020322020302020302020302020300A2020352020332020312020302020302020302020300A2020362020342020312020302020302020302020300A2020362020352020322020302020302020302020300A2020372020312020312020302020302020302020300A2020322020312020312020302020302020302020300A2020382020372020322020302020302020302020300A2020392020322020312020302020302020302020300A2020392020382020312020302020302020302020300A2020372031302020312020302020302020302020300A2031302031312020312020302020302020302020300A2031312031322020322020302020302020302020300A4D2020454E44
Contributor: Kusano M, Fukushima A, Plant Science Center, RIKEN.
InstType: EI
InstName: Pegasus III TOF-MS system, Leco; GC 6890, Agilent Technologies
IoniMethod: EI
IonPolarity: pos
Date: 2010-10-09 19:48:36+02:00
Num Peaks: 123
60 5 61 6 62 6 63 19 64 4 65 5 66 4 67 5 70 7 71 5 
72 15 73 999 74 106 75 45 76 37 77 32 78 4 79 2 83 2 84 12 
85 2 86 3 87 7 88 5 89 50 90 7 91 7 92 2 93 2 94 2 
97 1 98 2 99 2 100 6 101 32 102 63 103 25 104 5 105 7 106 2 
107 1 113 2 114 4 115 18 116 5 117 10 118 2 119 6 120 1 121 1 
126 1 127 5 128 40 129 78 130 61 131 9 132 4 133 1 134 2 136 1 
140 3 141 3 142 5 143 9 144 9 145 28 146 9 151 1 152 1 153 1 
154 3 155 23 156 24 157 7 158 2 159 4 160 7 161 1 167 1 168 1 
169 5 170 13 171 4 172 10 173 2 174 2 175 1 182 2 183 1 184 6 
185 4 186 51 187 15 188 6 189 1 196 1 197 2 198 3 199 3 200 25 
201 21 202 152 203 29 204 8 205 1 211 2 212 3 213 23 214 6 215 4 
216 1 218 5 219 1 227 25 228 78 229 53 230 12 231 2 232 1 259 1 
260 92 261 18 262 5 
