Name: trans-Cinnamic acid
CAS: 140-10-3
MW: 148
Formula: C9H8O2
Synonym: KEGG: C00423
Synonym: CID: 3713
Synonym: MassBank: PR010191
Synonym: trans-Cinnamic acid
Synonym: trans-Cinnamate
Structure: 310A32380A3C4341535F49443E203134302D31302D33093C4B4547475F49443E20433030343233093C4E414D453E207472616E732D43696E6E616D617465093C464F524D554C413E20433948384F32093C45584143544D4153533E203134382E30353234323935093C415645524147454D4153533E203134382E3135383631393939393939393938093C534D494C45533E204F43283D4F29433D4363286331296363636331093C434F505952494748543E2041524D2050524F4A45435420687474703A2F2F7777772E6D657461626F6C6F6D652E6A702F0A2031312031312020302020302020302020302020302020302020302020303939392056323030300A20202020332E373332312020202D302E3530303020202020302E303030302043202020302020302020302020302020302020302020302020302020302020302020302020300A20202020322E383636302020202D312E3030303020202020302E303030302043202020302020302020302020312020302020302020302020302020302020302020302020300A20202020322E383636302020202D322E3030303020202020302E303030302043202020302020302020302020312020302020302020302020302020302020302020302020300A20202020332E373332312020202D322E3530303020202020302E303030302043202020302020302020302020312020302020302020302020302020302020302020302020300A20202020342E353938312020202D322E3030303020202020302E303030302043202020302020302020302020312020302020302020302020302020302020302020302020300A20202020342E353938312020202D312E3030303020202020302E303030302043202020302020302020302020312020302020302020302020302020302020302020302020300A20202020332E3733323120202020302E3530303020202020302E303030302043202020302020302020302020312020302020302020302020302020302020302020302020300A20202020322E3836363020202020312E3030303020202020302E303030302043202020302020302020302020312020302020302020302020302020302020302020302020300A20202020322E3836363020202020322E3030303020202020302E303030302043202020302020302020302020302020302020302020302020302020302020302020302020300A20202020322E3030303020202020322E3530303020202020302E30303030204F202020302020302020302020302020302020302020302020302020302020302020302020300A20202020332E3733323120202020322E3530303020202020302E30303030204F202020302020302020302020312020302020302020302020302020302020302020302020300A2020362020312020322020302020302020302020300A2020362020352020312020302020302020302020300A2020352020342020322020302020302020302020300A2020342020332020312020302020302020302020300A2020332020322020322020302020302020302020300A2020322020312020312020302020302020302020300A2020312020372020312020302020302020302020300A2020372020382020322020302020302020302020300A2020392031312020312020302020302020302020300A2020392031302020322020302020302020302020300A2020382020392020312020302020302020302020300A4D2020454E44
Contributor: Kusano M, Fukushima A, Plant Science Center, RIKEN.
InstType: EI
InstName: Pegasus III TOF-MS system, Leco; GC 6890, Agilent Technologies
IoniMethod: EI
IonPolarity: pos
Date: 2010-10-09 19:48:36+02:00
Num Peaks: 125
60 45 61 92 62 50 63 119 64 13 65 18 66 7 67 7 69 2 70 6 
71 7 72 29 73 248 74 172 75 695 76 271 77 999 78 85 79 44 80 3 
81 5 83 5 84 4 85 31 86 9 87 13 88 4 89 19 90 9 91 31 
92 6 93 6 94 2 95 2 96 1 97 1 98 11 99 34 100 5 101 42 
102 459 103 912 104 88 105 20 106 2 107 4 108 1 109 2 111 1 113 1 
114 1 115 27 116 9 117 13 118 9 119 6 120 2 121 7 122 1 123 1 
127 2 128 6 129 29 130 29 131 790 132 83 133 44 134 7 135 197 136 28 
137 9 138 1 141 1 142 10 143 15 144 5 145 340 146 59 147 28 148 36 
149 6 150 2 151 1 152 1 153 1 154 1 155 1 156 1 157 1 158 1 
159 53 160 12 161 597 162 97 163 27 164 3 175 1 176 17 177 4 178 1 
179 1 180 1 182 1 185 1 186 1 187 1 188 1 189 2 190 1 191 1 
192 17 193 4 194 1 201 1 203 2 204 3 205 601 206 107 207 31 208 4 
219 20 220 166 221 32 222 8 223 1 
