Name: Isonicotinic acid
CAS: 55-22-1
MW: 123
Formula: C6H5NO2
Synonym: KEGG: C07446
Synonym: CID: 9649
Synonym: MassBank: PR010171
Synonym: Isonicotinic acid
Structure: 310A32330A20204143442F4C6162733132303230363135343932440A2020392020392020302020302020302020302020302020302020302020302020312056323030300A20202020382E323636352020202D372E3639393620202020302E303030302043202020302020302020302020302020302020302020302020302020302020302020302020300A20202020382E323636352020202D392E3032393620202020302E303030302043202020302020302020302020302020302020302020302020302020302020302020302020300A20202020372E313134362020202D372E3033343620202020302E303030302043202020302020302020302020302020302020302020302020302020302020302020302020300A20202020372E313134362020202D392E3639343620202020302E30303030204E202020302020302020302020302020302020302020302020302020302020302020302020300A20202020352E393632392020202D372E3639393620202020302E303030302043202020302020302020302020302020302020302020302020302020302020302020302020300A20202020352E393632392020202D392E3032393620202020302E303030302043202020302020302020302020302020302020302020302020302020302020302020302020300A20202020372E313134362020202D352E3730343620202020302E303030302043202020302020302020302020302020302020302020302020302020302020302020302020300A20202020382E323636342020202D352E3033393620202020302E30303030204F202020302020302020302020302020302020302020302020302020302020302020302020300A20202020352E393632382020202D352E3033393620202020302E30303030204F202020302020302020302020302020302020302020302020302020302020302020302020300A2020322020312020312020302020302020302020300A2020332020312020322020302020302020302020300A2020342020322020322020302020302020302020300A2020352020332020312020302020302020302020300A2020362020342020312020302020302020302020300A2020362020352020322020302020302020302020300A2020332020372020312020302020302020302020300A2020372020382020312020302020302020302020300A2020372020392020322020302020302020302020300A4D2020454E44
Contributor: Kusano M, Fukushima A, Plant Science Center, RIKEN.
InstType: EI
InstName: Pegasus III TOF-MS system, Leco; GC 6890, Agilent Technologies
IoniMethod: EI
IonPolarity: pos
Date: 2010-10-09 19:48:36+02:00
Num Peaks: 78
60 26 61 33 62 7 63 9 64 5 65 13 66 13 67 14 68 1 69 4 
70 8 71 5 72 23 73 179 74 46 75 123 76 41 77 69 78 839 79 79 
80 5 81 5 82 3 83 21 84 6 85 3 86 2 87 1 89 1 90 53 
91 4 92 6 93 10 94 8 95 4 96 4 97 1 99 2 100 1 104 1 
105 21 106 710 107 54 108 7 109 11 110 9 111 1 119 2 120 12 121 2 
122 11 123 6 124 1 132 1 134 2 135 3 136 593 137 79 138 23 139 1 
147 1 150 3 151 2 152 2 153 1 162 1 164 3 165 1 166 1 179 4 
180 999 181 145 182 46 183 4 194 5 195 43 196 6 197 2 
