Name: MassBank: PR010128
CAS: 59-92-7
MW: 197
Formula: C9H11NO4
Synonym: KEGG: C00355
Synonym: CID: 3648
Synonym: MassBank: PR010128
Synonym: 3,4-Dihydroxy-L-phenylalanine
Synonym: L-Dopa
Synonym: Levodopa
Synonym: L-beta-(3,4-Dihydroxyphenyl)alanine
Synonym: Dihydroxy-L-phenylalanine
Synonym: 3-Hydroxy-L-tyrosine
Structure: 310A33340A3C4341535F49443E2035392D39322D37093C4B4547475F49443E20433030333535093C4E414D453E20332C342D4469687964726F78792D4C2D7068656E796C616C616E696E65093C464F524D554C413E2043394831314E4F34093C45584143544D4153533E203139372E3036383830373834343939393938093C415645524147454D4153533E203139372E3138373938093C534D494C45533E204F43283D4F295B434040485D284E294363286331296363284F2963284F296331093C434F505952494748543E2041524D2050524F4A45435420687474703A2F2F7777772E6D657461626F6C6F6D652E6A702F0A2031342031342020302020302020312020302020302020302020302020303939392056323030300A20202020332E373332312020202D302E3030303020202020302E303030302043202020302020302020302020302020302020302020302020302020302020302020302020300A20202020322E383636302020202D302E3530303020202020302E303030302043202020302020302020302020312020302020302020302020302020302020302020302020300A20202020322E383636302020202D312E3530303020202020302E303030302043202020302020302020302020302020302020302020302020302020302020302020302020300A20202020332E373332312020202D322E3030303020202020302E303030302043202020302020302020302020302020302020302020302020302020302020302020302020300A20202020342E353938312020202D312E3530303020202020302E303030302043202020302020302020302020312020302020302020302020302020302020302020302020300A20202020342E353938312020202D302E3530303020202020302E303030302043202020302020302020302020312020302020302020302020302020302020302020302020300A20202020332E3733323120202020312E3030303020202020302E303030302043202020302020302020302020322020302020302020302020302020302020302020302020300A20202020342E3539383120202020312E3530303020202020302E303030302043202020302020302020312020312020302020302020302020302020302020302020302020300A20202020342E3539383120202020322E3530303020202020302E303030302043202020302020302020302020302020302020302020302020302020302020302020302020300A20202020352E3436343120202020312E3030303020202020302E30303030204E202020302020302020302020322020302020302020302020302020302020302020302020300A20202020332E3733323120202020332E3030303020202020302E30303030204F202020302020302020302020312020302020302020302020302020302020302020302020300A20202020352E3436343120202020332E3030303020202020302E30303030204F202020302020302020302020302020302020302020302020302020302020302020302020300A20202020322E303030302020202D322E3030303020202020302E30303030204F202020302020302020302020312020302020302020302020302020302020302020302020300A20202020332E373332312020202D332E3030303020202020302E30303030204F202020302020302020302020312020302020302020302020302020302020302020302020300A2020332031332020312020302020302020302020300A2020312020362020322020302020302020302020300A2020342031342020312020302020302020302020300A2020362020352020312020302020302020302020300A2020352020342020322020302020302020302020300A2031312020392020312020302020302020302020300A2020342020332020312020302020302020302020300A2020392020382020312020302020302020302020300A2020332020322020322020302020302020302020300A2020382020372020312020302020302020302020300A2020372020312020312020302020302020302020300A2020322020312020312020302020302020302020300A2020392031322020322020302020302020302020300A2020382031302020312020312020302020302020300A4D2020454E44
Contributor: Kusano M, Fukushima A, Plant Science Center, RIKEN.
InstType: EI
InstName: Pegasus III TOF-MS system, Leco; GC 6890, Agilent Technologies
IoniMethod: EI
IonPolarity: pos
Date: 2010-10-09 19:48:36+02:00
Num Peaks: 135
60 3 61 5 63 1 65 1 66 1 67 1 70 4 71 3 72 14 73 999 
74 87 75 59 76 5 77 15 78 3 79 4 82 1 83 2 84 2 85 2 
86 7 87 2 89 2 91 4 92 1 93 1 95 1 97 1 98 1 99 1 
100 109 101 21 102 8 103 9 104 6 105 7 107 1 115 6 116 2 117 7 
118 2 119 6 120 1 121 1 122 1 128 1 129 2 130 14 131 14 132 14 
133 18 134 3 135 3 136 1 137 1 144 1 145 1 146 3 147 66 148 12 
149 15 150 3 151 2 158 1 159 2 160 3 161 3 162 1 163 6 164 1 
165 2 166 2 167 1 172 1 174 3 175 1 176 1 177 3 178 1 179 68 
180 12 181 13 182 2 188 1 190 1 191 5 192 1 193 2 195 1 202 1 
203 4 204 1 205 1 207 2 209 1 217 1 218 537 219 101 220 45 221 6 
222 1 223 1 237 2 251 1 265 2 266 1 267 57 268 19 269 7 270 1 
279 1 280 15 281 6 282 2 291 3 292 1 295 1 306 1 353 1 354 1 
367 3 368 26 369 9 370 4 371 1 380 5 381 2 382 1 442 5 443 2 
444 1 470 4 471 2 472 1 485 1 
