Name: L-Isoleucine
CAS: 73-32-5
MW: 131
Formula: C6H13NO2
Synonym: KEGG: C00407
Synonym: CID: 3697
Synonym: MassBank: PR010061
Synonym: L-Isoleucine
Synonym: 2-Amino-3-methylvaleric acid
Structure: 310A32330A3C4341535F49443E2037332D33322D35093C4B4547475F49443E20433030343037093C4E414D453E204C2D49736F6C657563696E65093C464F524D554C413E2043364831334E4F32093C45584143544D4153533E203133312E303934363238363635093C415645524147454D4153533E203133312E3137323936093C534D494C45533E2043435B4340485D2843295B4340485D284E2943284F293D4F093C434F505952494748543E2041524D2050524F4A45435420687474703A2F2F7777772E6D657461626F6C6F6D652E6A702F0A2020392020382020302020302020312020302020302020302020302020303939392056323030300A20202020332E3733323120202020312E3030303020202020302E303030302043202020302020302020302020302020302020302020302020302020302020302020302020300A20202020322E3836363020202020302E3530303020202020302E303030302043202020302020302020322020312020302020302020302020302020302020302020302020300A20202020322E383636302020202D302E3530303020202020302E303030302043202020302020302020322020312020302020302020302020302020302020302020302020300A20202020322E303030302020202D312E3030303020202020302E303030302043202020302020302020302020322020302020302020302020302020302020302020302020300A20202020322E303030302020202D322E3030303020202020302E303030302043202020302020302020302020332020302020302020302020302020302020302020302020300A20202020322E3030303020202020312E3030303020202020302E30303030204E202020302020302020302020322020302020302020302020302020302020302020302020300A20202020332E373332312020202D312E3030303020202020302E303030302043202020302020302020302020332020302020302020302020302020302020302020302020300A20202020342E3539383120202020302E3530303020202020302E30303030204F202020302020302020302020312020302020302020302020302020302020302020302020300A20202020332E3733323120202020322E3030303020202020302E30303030204F202020302020302020302020302020302020302020302020302020302020302020302020300A2020322020332020312020302020302020302020300A2020312020392020322020302020302020302020300A2020332020342020312020302020302020302020300A2020312020382020312020302020302020302020300A2020342020352020312020302020302020302020300A2020312020322020312020302020302020302020300A2020322020362020312020362020302020302020300A2020332020372020312020312020302020302020300A4D2020454E44
Contributor: Kusano M, Fukushima A, Plant Science Center, RIKEN.
InstType: EI
InstName: Pegasus III TOF-MS system, Leco; GC 6890, Agilent Technologies
IoniMethod: EI
IonPolarity: pos
Date: 2010-10-09 19:48:36+02:00
Num Peaks: 93
60 22 61 17 62 1 63 1 65 1 66 7 67 2 69 24 70 13 71 7 
73 999 74 111 75 81 76 7 77 7 80 1 81 1 82 3 83 3 84 13 
85 8 86 43 87 7 88 3 89 2 90 9 91 1 96 6 97 5 98 9 
99 7 100 139 101 26 102 44 103 22 104 3 105 4 110 1 111 1 112 4 
113 2 114 21 115 11 116 9 117 13 118 4 119 6 126 2 127 1 128 17 
129 8 130 15 131 15 132 22 133 28 134 6 135 2 142 14 143 9 144 4 
145 1 146 6 147 107 148 18 149 9 150 1 156 4 157 1 158 710 159 121 
160 41 161 4 163 3 170 12 171 2 172 1 174 3 175 1 188 1 203 6 
204 1 216 1 218 166 219 36 220 16 221 2 232 35 233 12 234 5 235 1 
246 1 260 9 261 2 
