Name: beta-Alanine
CAS: 107-95-9
MW: 89
Formula: C3H7NO2
Synonym: KEGG: C00099
Synonym: CID: 3399
Synonym: MassBank: PR010078
Synonym: beta-Alanine
Synonym: 3-Aminopropanoate
Synonym: 3-Aminopropionic acid
Structure: 310A31370A3C4341535F49443E203130372D39352D39093C4B4547475F49443E20433030303939093C4E414D453E20626574612D416C616E696E65093C464F524D554C413E20433348374E4F32093C45584143544D4153533E2038392E3034373637383437323939393939093C415645524147454D4153533E2038392E3039333232093C534D494C45533E204E434343284F293D4F093C434F505952494748543E2041524D2050524F4A45435420687474703A2F2F7777772E6D657461626F6C6F6D652E6A702F0A2020362020352020302020302020302020302020302020302020302020303939392056323030300A20202020322E383636302020202D302E3530303020202020302E303030302043202020302020302020302020302020302020302020302020302020302020302020302020300A20202020332E373332312020202D302E3030303020202020302E303030302043202020302020302020302020322020302020302020302020302020302020302020302020300A20202020332E3733323120202020312E3030303020202020302E303030302043202020302020302020302020322020302020302020302020302020302020302020302020300A20202020342E3539383120202020312E3530303020202020302E30303030204E202020302020302020302020322020302020302020302020302020302020302020302020300A20202020322E3030303020202020302E3030303020202020302E30303030204F202020302020302020302020312020302020302020302020302020302020302020302020300A20202020322E383636302020202D312E3530303020202020302E30303030204F202020302020302020302020302020302020302020302020302020302020302020302020300A2020342020332020312020302020302020302020300A2020332020322020312020302020302020302020300A2020312020352020312020302020302020302020300A2020312020362020322020302020302020302020300A2020322020312020312020302020302020302020300A4D2020454E44
Contributor: Kusano M, Fukushima A, Plant Science Center, RIKEN.
InstType: EI
InstName: Pegasus III TOF-MS system, Leco; GC 6890, Agilent Technologies
IoniMethod: EI
IonPolarity: pos
Date: 2010-10-09 19:48:36+02:00
Num Peaks: 112
60 22 61 18 62 1 63 1 66 13 67 1 69 1 70 17 71 12 72 34 
73 999 74 91 75 86 76 7 77 13 78 1 79 3 83 2 84 7 85 13 
86 310 87 34 88 14 89 2 95 5 96 1 97 1 98 2 99 33 100 210 
101 39 102 30 103 12 104 2 105 3 112 1 113 10 114 11 115 12 116 16 
117 33 118 5 119 10 120 1 126 1 128 1 129 9 130 87 131 50 132 17 
133 139 134 21 135 10 136 1 138 1 140 1 142 12 143 2 144 4 145 2 
146 32 147 322 148 50 149 26 150 3 157 1 158 5 159 1 160 26 161 5 
162 2 163 2 171 1 172 12 173 9 174 490 175 91 176 48 177 5 178 1 
187 1 188 8 189 3 190 4 191 1 200 1 202 4 203 1 204 5 205 2 
206 1 216 3 217 1 218 2 219 1 232 21 233 4 234 2 248 323 249 93 
250 47 251 9 252 2 288 5 289 2 290 88 291 25 292 12 293 2 304 8 
305 2 306 1 
