Name: Maltotriose
CAS: 1109-28-0
MW: 504
Formula: C18H32O16
Synonym: KEGG: C01835
Synonym: CID: 4954
Synonym: MassBank: PR010071
Synonym: Maltotriose
Synonym: Amylotriose
Structure: 310A37360A3C4341535F49443E20313130392D32382D30093C4B4547475F49443E20433031383335093C4E414D453E204D616C746F7472696F7365093C464F524D554C413E204331384833324F3136093C45584143544D4153533E203530342E313639303334393736093C415645524147454D4153533E203530342E3433373038303030303030303034093C534D494C45533E205B434040485D285B4340485D314F2928434F294F5B4340485D284F5B4340485D285B434040485D28434F2932295B434040485D285B4340485D285B434040485D284F5B4340485D285B434040485D28434F2933295B434040485D285B434040485D284F2943284F294F33294F294F32294F294F295B434040485D285B4340485D314F294F093C434F505952494748543E2041524D2050524F4A45435420687474703A2F2F7777772E6D657461626F6C6F6D652E6A702F0A2033342033362020302020302020312020302020302020302020302020303939392056323030300A20202020332E373332312020202D322E3030303020202020302E303030302043202020302020302020322020312020302020302020302020302020302020302020302020300A20202020322E383636302020202D322E3530303020202020302E303030302043202020302020302020312020312020302020302020302020302020302020302020302020300A20202020322E383636302020202D332E3530303020202020302E303030302043202020302020302020322020312020302020302020302020302020302020302020302020300A20202020332E373332312020202D342E3030303020202020302E303030302043202020302020302020312020312020302020302020302020302020302020302020302020300A20202020342E353938312020202D332E3530303020202020302E303030302043202020302020302020312020312020302020302020302020302020302020302020302020300A20202020352E343634312020202D342E3030303020202020302E303030302043202020302020302020302020322020302020302020302020302020302020302020302020300A20202020362E3333303120202020302E3530303020202020302E303030302043202020302020302020322020312020302020302020302020302020302020302020302020300A20202020362E333330312020202D302E3530303020202020302E303030302043202020302020302020312020312020302020302020302020302020302020302020302020300A20202020352E343634312020202D312E3030303020202020302E303030302043202020302020302020322020312020302020302020302020302020302020302020302020300A20202020342E353938312020202D302E3530303020202020302E303030302043202020302020302020312020312020302020302020302020302020302020302020302020300A20202020342E3539383120202020302E3530303020202020302E303030302043202020302020302020312020312020302020302020302020302020302020302020302020300A20202020332E3733323120202020312E3030303020202020302E303030302043202020302020302020302020322020302020302020302020302020302020302020302020300A20202020372E3139363220202020342E3030303020202020302E303030302043202020302020302020332020312020302020302020302020302020302020302020302020300A20202020382E3036323220202020332E3530303020202020302E303030302043202020302020302020312020312020302020302020302020302020302020302020302020300A20202020382E3036323220202020322E3530303020202020302E303030302043202020302020302020322020312020302020302020302020302020302020302020302020300A20202020372E3139363220202020322E3030303020202020302E303030302043202020302020302020312020312020302020302020302020302020302020302020302020300A20202020362E3333303120202020322E3530303020202020302E303030302043202020302020302020312020312020302020302020302020302020302020302020302020300A20202020352E3436343120202020322E3030303020202020302E303030302043202020302020302020302020322020302020302020302020302020302020302020302020300A20202020322E303030302020202D322E3030303020202020302E30303030204F202020302020302020302020312020302020302020302020302020302020302020302020300A20202020322E303030302020202D342E3030303020202020302E30303030204F202020302020302020302020312020302020302020302020302020302020302020302020300A20202020332E373332312020202D352E3030303020202020302E30303030204F202020302020302020302020312020302020302020302020302020302020302020302020300A20202020342E353938312020202D322E3530303020202020302E30303030204F202020302020302020302020302020302020302020302020302020302020302020302020300A20202020362E333330312020202D332E3530303020202020302E30303030204F202020302020302020302020312020302020302020302020302020302020302020302020300A20202020372E333330312020202D302E3530303020202020302E30303030204F202020302020302020302020312020302020302020302020302020302020302020302020300A20202020352E343634312020202D322E3030303020202020302E30303030204F202020302020302020302020312020302020302020302020302020302020302020302020300A20202020332E373332312020202D312E3030303020202020302E30303030204F202020302020302020302020302020302020302020302020302020302020302020302020300A20202020352E3436343120202020312E3030303020202020302E30303030204F202020302020302020302020302020302020302020302020302020302020302020302020300A20202020332E3733323120202020322E3030303020202020302E30303030204F202020302020302020302020312020302020302020302020302020302020302020302020300A20202020372E3139363220202020352E3030303020202020302E30303030204F202020302020302020302020312020302020302020302020302020302020302020302020300A20202020382E3932383220202020342E3030303020202020302E30303030204F202020302020302020302020312020302020302020302020302020302020302020302020300A20202020382E3932383220202020322E3030303020202020302E30303030204F202020302020302020302020312020302020302020302020302020302020302020302020300A20202020372E3139363220202020312E3030303020202020302E30303030204F202020302020302020302020302020302020302020302020302020302020302020302020300A20202020362E3333303120202020332E3530303020202020302E30303030204F202020302020302020302020302020302020302020302020302020302020302020302020300A20202020342E3539383120202020322E3530303020202020302E30303030204F202020302020302020302020312020302020302020302020302020302020302020302020300A2020352032322020312020362020302020302020300A2020352020342020312020302020302020302020300A2020342020332020312020302020302020302020300A2020332020322020312020302020302020302020300A2020322020312020312020302020302020302020300A2020312032322020312020302020302020302020300A2020322031392020312020312020302020302020300A2020332032302020312020362020302020302020300A2020342032312020312020312020302020302020300A2031312032372020312020312020302020302020300A2031312031302020312020302020302020302020300A2031302020392020312020302020302020302020300A2020392020382020312020302020302020302020300A2020382020372020312020302020302020302020300A2020372032372020312020302020302020302020300A2020372033322020312020362020302020302020300A2020392032352020312020312020302020302020300A2031372033332020312020312020302020302020300A2031372031362020312020302020302020302020300A2031362031352020312020302020302020302020300A2031352031342020312020302020302020302020300A2031342031332020312020302020302020302020300A2031332033332020312020302020302020302020300A2031332032392020312020342020302020302020300A2031342033302020312020362020302020302020300A2031352033312020312020312020302020302020300A2020352020362020312020302020302020302020300A2031312031322020312020302020302020302020300A2031372031382020312020302020302020302020300A2031322032382020312020302020302020302020300A2020362032332020312020302020302020302020300A2020312032362020312020312020302020302020300A2031302032362020312020362020302020302020300A2020382032342020312020362020302020302020300A2031362033322020312020362020302020302020300A2031382033342020312020302020302020302020300A4D2020454E44
Contributor: Kusano M, Fukushima A, Plant Science Center, RIKEN.
InstType: EI
InstName: Pegasus III TOF-MS system, Leco; GC 6890, Agilent Technologies
IoniMethod: EI
IonPolarity: pos
Date: 2010-10-09 19:48:36+02:00
Num Peaks: 231
60 5 61 6 65 1 66 7 67 7 68 1 69 31 70 6 71 4 72 10 
73 999 74 80 75 81 76 6 77 8 80 1 81 26 82 5 83 7 84 3 
85 6 86 2 87 3 88 2 89 41 90 4 91 3 92 1 93 1 94 1 
95 1 97 10 98 2 99 5 100 10 101 15 102 9 103 164 104 15 105 18 
106 3 107 1 109 10 110 1 111 3 113 6 114 5 115 7 116 9 117 89 
118 8 119 5 123 1 125 2 127 6 128 2 129 115 130 18 131 21 132 4 
133 40 134 6 135 3 139 4 141 5 142 8 143 23 144 3 145 8 146 2 
147 192 148 29 149 24 150 3 151 1 152 1 153 3 154 1 155 19 156 5 
157 25 158 5 159 4 160 42 161 9 162 2 163 7 164 1 167 3 168 3 
169 81 170 14 171 9 172 3 173 8 174 2 175 3 176 1 177 3 180 1 
181 2 183 7 184 1 185 3 186 3 187 2 188 2 189 26 190 7 191 55 
192 8 193 4 195 3 196 2 197 1 198 2 199 6 200 2 201 3 202 1 
203 10 204 440 205 128 206 46 207 8 208 1 210 4 211 2 214 1 215 4 
216 6 217 131 218 31 219 14 220 3 221 4 222 1 223 3 227 2 228 1 
229 7 230 7 231 20 232 6 233 7 234 2 240 1 241 4 242 3 243 34 
244 11 245 11 246 4 247 3 255 2 256 3 257 7 258 2 259 5 260 1 
262 1 268 1 269 3 270 3 271 56 272 13 273 9 274 2 275 2 276 1 
283 1 285 1 288 1 289 3 290 1 291 3 292 1 293 1 297 1 298 1 
300 4 301 2 303 1 305 6 306 2 307 2 316 1 317 2 318 2 319 14 
320 3 321 2 322 1 331 6 332 4 333 1 343 1 345 2 359 2 360 10 
361 133 362 45 363 22 364 4 365 2 373 1 378 1 389 1 390 1 394 1 
451 6 452 2 453 1 479 1 480 6 481 3 482 1 510 1 521 1 537 1 
538 1 570 1 573 1 598 1 599 1 608 1 696 1 709 1 742 1 752 1 
776 1 
