Name: S-Adenosyl-L-methionine
CAS: 24346-00-7
MW: 398
Formula: C15H22N6O5S
Synonym: MassBank: PR010025
Synonym: S-Adenosyl-L-methionine
Structure: 310A36320A20204143442F4C6162733132303430363137353832440A2032372032392020302020302020312020302020302020302020302020302020322056323030300A20202031382E3334353820202D31352E3236333020202020302E303030302043202020302020302020302020302020302020302020302020302020302020302020302020300A20202031382E3334353820202D31362E3539333020202020302E303030302043202020302020302020302020302020302020302020302020302020302020302020302020300A20202031372E3139333920202D31342E3539383020202020302E30303030204E202020302020302020302020302020302020302020302020302020302020302020302020300A20202031372E3139333920202D31372E3235383020202020302E303030302043202020302020302020302020302020302020302020302020302020302020302020302020300A20202031362E3034323020202D31352E3236333020202020302E303030302043202020302020302020302020302020302020302020302020302020302020302020302020300A20202031362E3034323020202D31362E3539333020202020302E30303030204E202020302020302020302020302020302020302020302020302020302020302020302020300A20202031392E3631303620202D31342E3835323020202020302E30303030204E202020302020302020302020302020302020302020302020302020302020302020302020300A20202032302E3339323420202D31352E3932383020202020302E303030302043202020302020302020302020302020302020302020302020302020302020302020302020300A20202031392E3631303820202D31372E3030343020202020302E30303030204E202020302020302020302020302020302020302020302020302020302020302020302020300A20202031372E3139333820202D31382E3538383020202020302E30303030204E202020302020302020302020302020302020302020302020302020302020302020302020300A20202032302E3032313620202D31332E3538373120202020302E303030302043202020302020302020302020302020302020302020302020302020302020302020302020300A20202031392E3233393920202D31322E3531313120202020302E30303030204F202020302020302020302020302020302020302020302020302020302020302020302020300A20202032312E3238363620202D31332E3137363120202020302E303030302043202020302020302020302020302020302020302020302020302020302020302020302020300A20202032302E3032313720202D31312E3433353120202020302E303030302043202020302020302020302020302020302020302020302020302020302020302020302020300A20202032312E3238363620202D31312E3834353920202020302E303030302043202020302020302020302020302020302020302020302020302020302020302020302020300A20202032322E3336323620202D31332E3935373920202020302E30303030204F202020302020302020302020302020302020302020302020302020302020302020302020300A20202032322E3336323520202D31312E3036343120202020302E30303030204F202020302020302020302020302020302020302020302020302020302020302020302020300A20202031392E3631303620202D31302E3137303220202020302E303030302043202020302020302020302020302020302020302020302020302020302020302020302020300A20202032302E353030352020202D392E3138313820202020302E303030302053202020302020332020302020302020302020302020302020302020302020302020302020300A20202032302E303839352020202D372E3931363920202020302E303030302043202020302020302020302020302020302020302020302020302020302020302020302020300A20202032302E393739342020202D362E3932383520202020302E303030302043202020302020302020302020302020302020302020302020302020302020302020302020300A20202032312E383031352020202D392E3435383320202020302E303030302043202020302020302020302020302020302020302020302020302020302020302020302020300A20202032302E353638332020202D352E3636333620202020302E303030302043202020302020302020302020302020302020302020302020302020302020302020302020300A20202032312E343538322020202D342E3637353220202020302E303030302043202020302020302020302020302020302020302020302020302020302020302020302020300A20202031392E323637342020202D352E3338373120202020302E30303030204E202020302020302020302020302020302020302020302020302020302020302020302020300A20202032322E373539322020202D342E3935313720202020302E30303030204F202020302020302020302020302020302020302020302020302020302020302020302020300A20202032312E303437322020202D332E3431303320202020302E30303030204F202020302020302020302020302020302020302020302020302020302020302020302020300A2020332020312020322020302020302020302020300A2020342020322020322020302020302020302020300A2020352020332020312020302020302020302020300A2020362020342020312020302020302020302020300A2020362020352020322020302020302020302020300A2020372020312020312020302020302020302020300A2020322020312020312020302020302020302020300A2020382020372020312020302020302020302020300A2020392020322020312020302020302020302020300A2020392020382020322020302020302020302020300A2020342031302020312020302020302020302020300A2031322031312020312020302020302020302020300A2031332031312020312020302020302020302020300A2031342031322020312020302020302020302020300A2031352031332020312020302020302020302020300A2031352031342020312020302020302020302020300A2031312020372020312020362020302020302020300A2031332031362020312020312020302020302020300A2031352031372020312020312020302020302020300A2031342031382020312020362020302020302020300A2031382031392020312020302020302020302020300A2031392032302020312020302020302020302020300A2032302032312020312020302020302020302020300A2031392032322020312020362020302020302020300A2032312032332020312020302020302020302020300A2032332032342020312020302020302020302020300A2032332032352020312020302020302020302020300A2032342032362020322020302020302020302020300A2032342032372020312020302020302020302020300A4D202043484720203120203139202020310A4D2020454E44
Contributor: Kusano M, Fukushima A, Plant Science Center, RIKEN.
InstType: EI
InstName: Pegasus III TOF-MS system, Leco; GC 6890, Agilent Technologies
IoniMethod: EI
IonPolarity: pos
Date: 2010-10-09 19:48:36+02:00
Num Peaks: 202
60 6 61 170 62 6 63 8 64 1 65 3 66 3 67 5 69 7 70 8 
71 8 72 14 73 999 74 92 75 77 76 6 77 11 78 1 79 5 80 2 
81 9 82 2 83 6 84 28 85 22 86 7 87 19 88 2 89 5 90 1 
91 3 92 1 93 2 94 1 95 3 96 2 97 10 98 4 99 22 100 7 
101 24 102 4 103 31 104 2 105 15 106 2 107 2 108 3 109 8 110 3 
111 20 112 3 113 7 114 2 115 14 116 11 117 9 118 2 119 8 120 2 
121 2 122 2 123 4 124 2 125 3 126 2 127 10 128 2 129 60 130 8 
131 15 132 4 133 20 134 4 135 6 136 4 137 4 138 7 139 2 140 2 
141 6 142 16 143 23 144 4 145 6 146 2 147 70 148 12 149 13 150 4 
151 4 152 2 153 3 154 1 155 3 156 2 157 5 158 2 159 2 160 1 
161 2 162 5 163 3 164 6 165 30 166 6 167 2 168 1 169 130 170 19 
171 12 172 2 173 6 174 2 175 185 176 34 177 20 178 3 179 3 180 8 
181 3 182 1 185 1 187 1 188 266 189 44 190 27 191 10 192 92 193 15 
194 4 201 3 202 1 203 1 204 7 205 3 206 22 207 38 208 64 209 14 
210 3 215 2 216 1 217 17 218 5 219 4 220 5 221 1 222 1 229 1 
230 2 231 3 232 2 233 1 234 5 235 3 236 337 237 60 238 17 239 2 
243 6 244 2 245 27 246 7 247 3 248 1 249 1 258 2 259 2 260 1 
262 2 263 1 264 6 265 2 266 1 277 1 278 4 279 3 280 12 281 3 
282 1 289 4 290 1 291 2 292 1 294 1 306 4 307 1 308 1 322 2 
334 4 335 1 338 3 376 2 466 2 467 1 497 2 498 9 499 4 500 2 
513 2 514 1 
