Name: Eserine
CAS: 57-47-6
MW: 275
Formula: C15H21N3O2
Synonym: KEGG: C06535
Synonym: CID: 8765
Synonym: MassBank: PR010154
Synonym: Eserine
Synonym: Physostigmine
Structure: 35372D34372D362E6D6F6C0A20204368656D447261773132303530363138303932440A2032302032322020302020302020312020302020302020302020302020303939392056323030300A20202020312E333131342020202D302E3638353020202020302E303030302043202020302020302020302020302020302020302020302020302020302020302020302020300A20202020312E393739332020202D302E3230303720202020302E303030302043202020302020302020302020302020302020302020302020302020302020302020302020300A20202020312E353635372020202D312E3436393920202020302E303030302043202020302020302020302020302020302020302020302020302020302020302020302020300A20202020322E363436332020202D302E3638363220202020302E30303030204E202020302020302020302020302020302020302020302020302020302020302020302020300A20202020322E333930382020202D312E3437303620202020302E303030302043202020302020302020302020302020302020302020302020302020302020302020302020300A20202020302E363434352020202D302E3139393520202020302E303030302043202020302020302020302020302020302020302020302020302020302020302020302020300A20202020302E3930303120202020302E3538343920202020302E303030302043202020302020302020302020302020302020302020302020302020302020302020302020300A20202020312E3732353120202020302E3538343220202020302E30303030204E202020302020302020302020302020302020302020302020302020302020302020302020300A2020202D302E313632362020202D302E3337303220202020302E303030302043202020302020302020302020302020302020302020302020302020302020302020302020300A2020202D302E3731343020202020302E3234333420202020302E303030302043202020302020302020302020302020302020302020302020302020302020302020302020300A20202020302E3334383720202020312E3139383420202020302E303030302043202020302020302020302020302020302020302020302020302020302020302020302020300A2020202D302E3435383420202020312E3032373620202020302E303030302043202020302020302020302020302020302020302020302020302020302020302020302020300A2020202D312E3532313220202020302E3037323620202020302E30303030204F202020302020302020302020302020302020302020302020302020302020302020302020300A2020202D322E3037323620202020302E3638363220202020302E303030302043202020302020302020302020302020302020302020302020302020302020302020302020300A2020202D322E3837393820202020302E3531353520202020302E30303030204E202020302020302020302020302020302020302020302020302020302020302020302020300A2020202D312E3831363920202020312E3437303620202020302E30303030204F202020302020302020302020302020302020302020302020302020302020302020302020300A20202020332E343331322020202D302E3433313920202020302E303030302043202020302020302020302020302020302020302020302020302020302020302020302020300A20202020322E3231303520202020312E3235313320202020302E303030302043202020302020302020302020302020302020302020302020302020302020302020302020300A20202020302E363433352020202D312E3136393320202020302E303030302043202020302020302020302020302020302020302020302020302020302020302020302020300A2020202D332E3433313220202020312E3132393120202020302E303030302043202020302020302020302020302020302020302020302020302020302020302020302020300A2020332020312020312020302020202020200A2020322020342020312020312020202020200A2020352020332020312020302020202020200A2020352020342020312020302020202020200A2020362020312020312020302020202020200A2020322020312020312020302020202020200A2020382020322020312020302020202020200A2020382020372020312020302020202020200A2020392020362020312020302020202020200A2020372020362020322020302020202020200A2031302020392020322020302020202020200A2031312020372020312020302020202020200A2031322031302020312020302020202020200A2031322031312020322020302020202020200A2031302031332020312020302020202020200A2031332031342020312020302020202020200A2031342031352020312020302020202020200A2031342031362020322020302020202020200A2020342031372020312020302020202020200A2020382031382020312020302020202020200A2020312031392020312020362020202020200A2031352032302020312020302020202020200A4D2020454E44
Contributor: Kusano M, Fukushima A, Plant Science Center, RIKEN.
InstType: EI
InstName: Pegasus III TOF-MS system, Leco; GC 6890, Agilent Technologies
IoniMethod: EI
IonPolarity: pos
Date: 2010-10-09 19:48:36+02:00
Num Peaks: 226
60 14 61 28 62 22 63 60 64 19 65 55 66 32 67 34 68 5 69 6 
70 34 71 22 72 31 73 999 74 110 75 103 76 35 77 115 78 41 79 54 
80 40 81 61 82 51 83 18 84 11 85 10 86 11 87 14 88 14 89 57 
90 29 91 74 92 20 93 20 94 44 95 20 96 132 97 31 98 7 99 6 
100 9 101 30 102 46 103 51 104 26 105 24 106 20 107 19 108 17 109 31 
110 6 111 4 112 1 113 8 114 18 115 130 116 75 117 75 118 37 119 15 
120 12 121 12 122 16 123 14 124 2 125 3 126 5 127 22 128 58 129 46 
130 93 131 63 132 127 133 27 134 12 135 24 136 5 137 15 138 3 139 2 
140 11 141 19 142 65 143 67 144 94 145 45 146 39 147 15 148 12 149 23 
150 14 151 12 152 4 153 4 154 20 155 18 156 51 157 45 158 76 159 42 
160 198 161 40 162 23 163 12 164 14 165 5 166 4 167 5 168 13 169 14 
170 29 171 20 172 25 173 21 174 67 175 24 176 16 177 10 178 24 179 6 
180 5 181 3 182 5 183 6 184 14 185 17 186 26 187 24 188 31 189 12 
190 37 191 10 192 19 193 4 194 6 195 4 196 4 197 2 198 9 199 7 
200 18 201 18 202 54 203 46 204 27 205 10 206 5 207 2 208 3 209 1 
210 1 211 1 212 3 213 2 214 10 215 14 216 57 217 63 218 183 219 54 
220 18 221 4 222 1 223 1 224 1 225 1 226 2 227 2 228 6 229 9 
230 31 231 25 232 374 233 386 234 138 235 34 236 6 237 1 238 1 239 1 
240 1 241 1 242 3 243 6 244 24 245 23 246 557 247 163 248 52 249 14 
250 3 251 1 252 1 254 1 255 1 256 2 257 3 258 32 259 18 260 58 
261 22 262 11 263 3 264 2 265 1 266 1 267 1 268 1 269 1 270 1 
271 1 272 2 273 5 274 8 275 49 276 12 277 4 278 1 279 1 288 2 
289 20 290 421 291 101 292 28 293 4 294 1 
