Name: Maltose
CAS: 6363-53-7
MW: 342
Formula: C12H22O11
Synonym: MassBank: PR010187
Synonym: Maltose
Structure: 310A35320A20204143442F4C6162733132303230363130303432440A2032332032342020302020302020312020302020302020302020302020302020312056323030300A20202031342E313135332020202D342E3834373320202020302E303030302043202020302020302020302020302020302020302020302020302020302020302020302020300A20202031342E313135332020202D362E3137373320202020302E303030302043202020302020302020302020302020302020302020302020302020302020302020302020300A20202031322E393633342020202D342E3138323320202020302E303030302043202020302020302020302020302020302020302020302020302020302020302020302020300A20202031322E393633342020202D362E3834323320202020302E303030302043202020302020302020302020302020302020302020302020302020302020302020302020300A20202031312E383131372020202D342E3834373320202020302E30303030204F202020302020302020302020302020302020302020302020302020302020302020302020300A20202031312E383131372020202D362E3137373320202020302E303030302043202020302020302020302020302020302020302020302020302020302020302020302020300A20202031322E393633342020202D322E3835323320202020302E30303030204F202020302020302020302020302020302020302020302020302020302020302020302020300A20202031352E323637312020202D342E3138323320202020302E30303030204F202020302020302020302020302020302020302020302020302020302020302020302020300A20202031352E323637312020202D362E3834323320202020302E30303030204F202020302020302020302020302020302020302020302020302020302020302020302020300A20202031302E363539382020202D362E3834323320202020302E303030302043202020302020302020302020302020302020302020302020302020302020302020302020300A20202031322E393633342020202D382E3137323320202020302E30303030204F202020302020302020302020302020302020302020302020302020302020302020302020300A20202031312E383039392020202D382E3833343420202020302E303030302043202020302020302020302020302020302020302020302020302020302020302020302020300A20202031312E3830393920202D31302E3136343420202020302E303030302043202020302020302020302020302020302020302020302020302020302020302020302020300A20202031302E363538302020202D382E3136393420202020302E30303030204F202020302020302020302020302020302020302020302020302020302020302020302020300A20202031302E3635383020202D31302E3832393420202020302E303030302043202020302020302020302020302020302020302020302020302020302020302020302020300A20202020392E353036322020202D382E3833343420202020302E303030302043202020302020302020302020302020302020302020302020302020302020302020302020300A20202020392E3530363220202D31302E3136343420202020302E303030302043202020302020302020302020302020302020302020302020302020302020302020302020300A20202031322E3936313720202D31302E3832393420202020302E30303030204F202020302020302020302020302020302020302020302020302020302020302020302020300A20202031302E3635383020202D31322E3135393420202020302E30303030204F202020302020302020302020302020302020302020302020302020302020302020302020300A20202020382E3335343420202D31302E3832393420202020302E30303030204F202020302020302020302020302020302020302020302020302020302020302020302020300A20202020382E333534342020202D382E3136393420202020302E303030302043202020302020302020302020302020302020302020302020302020302020302020302020300A20202020372E323032362020202D382E3833343420202020302E30303030204F202020302020302020302020302020302020302020302020302020302020302020302020300A20202020392E353038302020202D362E3137373320202020302E30303030204F202020302020302020302020302020302020302020302020302020302020302020302020300A2020322020312020312020302020302020302020300A2020332020312020312020302020302020302020300A2020342020322020312020302020302020302020300A2020352020332020312020302020302020302020300A2020362020342020312020302020302020302020300A2020362020352020312020302020302020302020300A2020332020372020312020312020302020302020300A2020312020382020312020362020302020302020300A2020322020392020312020312020302020302020300A2020362031302020312020312020302020302020300A2020342031312020312020362020302020302020300A2031322031312020312020362020302020302020300A2031332031322020312020302020302020302020300A2031342031322020312020302020302020302020300A2031352031332020312020302020302020302020300A2031362031342020312020302020302020302020300A2031372031352020312020302020302020302020300A2031372031362020312020302020302020302020300A2031332031382020312020362020302020302020300A2031352031392020312020312020302020302020300A2031372032302020312020362020302020302020300A2031362032312020312020312020302020302020300A2032312032322020312020302020302020302020300A2031302032332020312020302020302020302020300A4D2020454E44
Contributor: Kusano M, Fukushima A, Plant Science Center, RIKEN.
InstType: EI
InstName: Pegasus III TOF-MS system, Leco; GC 6890, Agilent Technologies
IoniMethod: EI
IonPolarity: pos
Date: 2010-10-09 19:48:36+02:00
Num Peaks: 197
60 5 61 7 63 1 65 1 66 7 67 5 69 9 70 4 71 4 72 14 
73 999 74 89 75 66 76 5 77 9 78 1 79 2 80 1 81 10 82 3 
83 3 84 2 85 5 86 3 87 5 88 3 89 41 90 3 91 2 95 1 
97 4 98 1 99 5 100 11 101 16 102 9 103 125 104 12 105 19 106 2 
107 1 109 4 110 1 111 4 112 1 113 5 114 6 115 7 116 7 117 76 
118 8 119 6 125 1 126 1 127 4 128 2 129 79 130 14 131 20 132 3 
133 42 134 5 135 3 139 1 140 1 141 3 142 4 143 15 144 2 145 6 
146 1 147 200 148 33 149 23 150 2 151 1 152 1 153 2 154 1 155 10 
156 2 157 14 158 4 159 3 160 36 161 7 162 2 163 6 164 1 167 1 
168 1 169 40 170 6 171 4 172 2 173 4 174 2 175 3 177 2 181 1 
183 2 184 1 185 1 186 2 187 1 189 21 190 5 191 30 192 5 193 2 
196 1 198 1 199 1 200 1 201 2 202 1 203 7 204 132 205 60 206 18 
207 7 208 1 210 4 211 1 215 3 216 6 217 88 218 21 219 10 220 2 
221 5 222 1 223 1 227 1 228 1 229 6 230 3 231 11 232 3 233 5 
234 2 235 1 240 1 241 1 242 1 243 18 244 6 245 5 246 2 247 3 
255 1 256 1 257 2 258 1 259 2 260 1 262 1 265 1 268 1 269 1 
270 1 271 17 272 4 273 3 274 2 275 1 276 1 291 2 300 3 301 1 
304 1 305 4 306 1 307 1 317 1 318 1 319 19 320 6 321 3 331 4 
332 2 333 1 345 1 359 1 360 7 361 96 362 33 363 16 364 4 365 1 
451 2 452 1 479 1 480 3 481 2 482 1 598 1 
