Name: S-ADENOSYL-L-METHIONINE
CAS: 24346-00-7
MW: 399
Formula: C15H23N6O5S
Synonym: MassBank: PR010120
Synonym: S-ADENOSYL-L-METHIONINE
Structure: 310A36320A20204143442F4C6162733132303430363137353832440A2032372032392020302020302020312020302020302020302020302020302020322056323030300A20202031382E3334353820202D31352E3236333020202020302E303030302043202020302020302020302020302020302020302020302020302020302020302020302020300A20202031382E3334353820202D31362E3539333020202020302E303030302043202020302020302020302020302020302020302020302020302020302020302020302020300A20202031372E3139333920202D31342E3539383020202020302E30303030204E202020302020302020302020302020302020302020302020302020302020302020302020300A20202031372E3139333920202D31372E3235383020202020302E303030302043202020302020302020302020302020302020302020302020302020302020302020302020300A20202031362E3034323020202D31352E3236333020202020302E303030302043202020302020302020302020302020302020302020302020302020302020302020302020300A20202031362E3034323020202D31362E3539333020202020302E30303030204E202020302020302020302020302020302020302020302020302020302020302020302020300A20202031392E3631303620202D31342E3835323020202020302E30303030204E202020302020302020302020302020302020302020302020302020302020302020302020300A20202032302E3339323420202D31352E3932383020202020302E303030302043202020302020302020302020302020302020302020302020302020302020302020302020300A20202031392E3631303820202D31372E3030343020202020302E30303030204E202020302020302020302020302020302020302020302020302020302020302020302020300A20202031372E3139333820202D31382E3538383020202020302E30303030204E202020302020302020302020302020302020302020302020302020302020302020302020300A20202032302E3032313620202D31332E3538373120202020302E303030302043202020302020302020302020302020302020302020302020302020302020302020302020300A20202031392E3233393920202D31322E3531313120202020302E30303030204F202020302020302020302020302020302020302020302020302020302020302020302020300A20202032312E3238363620202D31332E3137363120202020302E303030302043202020302020302020302020302020302020302020302020302020302020302020302020300A20202032302E3032313720202D31312E3433353120202020302E303030302043202020302020302020302020302020302020302020302020302020302020302020302020300A20202032312E3238363620202D31312E3834353920202020302E303030302043202020302020302020302020302020302020302020302020302020302020302020302020300A20202032322E3336323620202D31332E3935373920202020302E30303030204F202020302020302020302020302020302020302020302020302020302020302020302020300A20202032322E3336323520202D31312E3036343120202020302E30303030204F202020302020302020302020302020302020302020302020302020302020302020302020300A20202031392E3631303620202D31302E3137303220202020302E303030302043202020302020302020302020302020302020302020302020302020302020302020302020300A20202032302E353030352020202D392E3138313820202020302E303030302053202020302020332020302020302020302020302020302020302020302020302020302020300A20202032302E303839352020202D372E3931363920202020302E303030302043202020302020302020302020302020302020302020302020302020302020302020302020300A20202032302E393739342020202D362E3932383520202020302E303030302043202020302020302020302020302020302020302020302020302020302020302020302020300A20202032312E383031352020202D392E3435383320202020302E303030302043202020302020302020302020302020302020302020302020302020302020302020302020300A20202032302E353638332020202D352E3636333620202020302E303030302043202020302020302020302020302020302020302020302020302020302020302020302020300A20202032312E343538322020202D342E3637353220202020302E303030302043202020302020302020302020302020302020302020302020302020302020302020302020300A20202031392E323637342020202D352E3338373120202020302E30303030204E202020302020302020302020302020302020302020302020302020302020302020302020300A20202032322E373539322020202D342E3935313720202020302E30303030204F202020302020302020302020302020302020302020302020302020302020302020302020300A20202032312E303437322020202D332E3431303320202020302E30303030204F202020302020302020302020302020302020302020302020302020302020302020302020300A2020332020312020322020302020302020302020300A2020342020322020322020302020302020302020300A2020352020332020312020302020302020302020300A2020362020342020312020302020302020302020300A2020362020352020322020302020302020302020300A2020372020312020312020302020302020302020300A2020322020312020312020302020302020302020300A2020382020372020312020302020302020302020300A2020392020322020312020302020302020302020300A2020392020382020322020302020302020302020300A2020342031302020312020302020302020302020300A2031322031312020312020302020302020302020300A2031332031312020312020302020302020302020300A2031342031322020312020302020302020302020300A2031352031332020312020302020302020302020300A2031352031342020312020302020302020302020300A2031312020372020312020362020302020302020300A2031332031362020312020312020302020302020300A2031352031372020312020312020302020302020300A2031342031382020312020362020302020302020300A2031382031392020312020302020302020302020300A2031392032302020312020302020302020302020300A2032302032312020312020302020302020302020300A2031392032322020312020362020302020302020300A2032312032332020312020302020302020302020300A2032332032342020312020302020302020302020300A2032332032352020312020302020302020302020300A2032342032362020322020302020302020302020300A2032342032372020312020302020302020302020300A4D202043484720203120203139202020310A4D2020454E44
Contributor: Kusano M, Fukushima A, Plant Science Center, RIKEN.
InstType: EI
InstName: Pegasus III TOF-MS system, Leco; GC 6890, Agilent Technologies
IoniMethod: EI
IonPolarity: pos
Date: 2010-10-09 19:48:36+02:00
Num Peaks: 193
60 7 61 181 62 7 63 8 64 1 65 4 66 4 67 4 69 8 70 9 
71 8 72 16 73 999 74 96 75 78 76 6 77 9 78 1 79 5 80 1 
81 8 82 3 83 4 84 30 85 24 86 7 87 19 88 2 89 5 90 1 
91 3 92 2 93 2 94 1 95 3 96 2 97 9 98 4 99 23 100 7 
101 24 102 4 103 31 104 2 105 15 106 2 107 2 108 3 109 9 110 3 
111 21 112 3 113 6 114 2 115 14 116 11 117 9 118 2 119 7 120 2 
121 2 122 1 123 4 124 2 125 3 126 2 127 11 128 1 129 58 130 8 
131 15 132 3 133 21 134 3 135 6 136 3 137 4 138 7 139 2 140 2 
141 5 142 15 143 23 144 3 145 5 146 1 147 73 148 12 149 14 150 3 
151 3 152 1 153 3 154 1 155 2 156 2 157 6 158 2 159 2 160 1 
161 2 162 5 163 3 164 6 165 32 166 7 167 2 168 1 169 123 170 18 
171 12 172 2 173 6 174 2 175 176 176 32 177 19 178 4 179 3 180 8 
181 3 182 1 185 1 187 1 188 246 189 41 190 25 191 10 192 95 193 15 
194 4 201 3 202 1 203 1 204 7 205 3 206 22 207 35 208 61 209 13 
210 3 215 2 216 1 217 17 218 5 219 4 220 5 221 1 230 2 231 2 
232 1 234 4 235 4 236 327 237 56 238 16 239 2 243 5 244 2 245 26 
246 6 247 3 248 1 258 2 259 2 260 1 262 2 264 7 265 2 266 1 
278 4 279 3 280 11 281 3 282 1 289 3 290 1 291 1 292 1 306 5 
307 1 308 1 322 2 334 3 335 1 338 3 376 2 466 2 497 2 498 9 
499 4 500 2 513 2 
