Name: 1-Methylhistamine
CAS: 6481-48-7
MW: 125
Formula: C6H11N3
Synonym: MassBank: PR010124
Synonym: 1-Methylhistamine
Structure: 310A32330A20204143442F4C6162733132303430363137353132440A2020392020392020302020302020302020302020302020302020302020302020312056323030300A20202031392E323239302020202D382E3832373020202020302E30303030204E202020302020302020302020302020302020302020302020302020302020302020302020300A20202032302E333034382020202D382E3034353320202020302E303030302043202020302020302020302020302020302020302020302020302020302020302020302020300A20202031392E383934302020202D362E3738303520202020302E303030302043202020302020302020302020302020302020302020302020302020302020302020302020300A20202031382E313533312020202D382E3034353220202020302E303030302043202020302020302020302020302020302020302020302020302020302020302020302020300A20202031382E353634302020202D362E3738303520202020302E30303030204E202020302020302020302020302020302020302020302020302020302020302020302020300A20202031392E3232393020202D31302E3135373020202020302E303030302043202020302020302020302020302020302020302020302020302020302020302020302020300A20202032302E363735372020202D352E3730343520202020302E303030302043202020302020302020302020302020302020302020302020302020302020302020302020300A20202032302E313334382020202D342E3438393520202020302E303030302043202020302020302020302020302020302020302020302020302020302020302020302020300A20202032302E393136362020202D332E3431333520202020302E30303030204E202020302020302020302020302020302020302020302020302020302020302020302020300A2020322020312020312020302020302020302020300A2020342020312020312020302020302020302020300A2020332020322020322020302020302020302020300A2020352020332020312020302020302020302020300A2020352020342020322020302020302020302020300A2020312020362020312020302020302020302020300A2020332020372020312020302020302020302020300A2020372020382020312020302020302020302020300A2020382020392020312020302020302020302020300A4D2020454E44
Contributor: Kusano M, Fukushima A, Plant Science Center, RIKEN.
InstType: EI
InstName: Pegasus III TOF-MS system, Leco; GC 6890, Agilent Technologies
IoniMethod: EI
IonPolarity: pos
Date: 2010-10-09 19:48:36+02:00
Num Peaks: 126
60 24 61 10 64 1 65 2 66 10 67 14 68 7 69 6 70 21 71 12 
72 27 73 999 74 82 75 28 76 2 77 6 78 4 79 22 80 5 81 23 
82 9 83 13 84 23 85 16 86 487 87 46 88 19 89 1 90 1 91 1 
92 1 93 1 94 2 95 77 96 37 97 24 98 15 99 8 100 228 101 34 
102 22 103 3 104 1 107 6 108 9 109 12 110 5 111 4 112 33 113 12 
114 9 115 6 116 16 117 18 118 4 119 1 120 4 121 1 122 1 123 4 
124 3 125 4 126 21 127 9 128 3 129 3 130 62 131 15 132 9 133 2 
134 1 135 5 136 1 137 4 138 2 139 10 140 4 141 3 142 2 144 4 
145 1 146 20 147 4 148 2 149 1 150 3 151 4 152 2 153 9 154 4 
155 2 156 1 158 4 159 1 160 1 164 2 165 5 166 4 167 6 168 131 
169 21 170 7 171 1 172 8 173 2 174 718 175 129 176 63 177 7 178 2 
179 1 180 56 181 10 182 7 183 1 194 1 196 4 224 1 238 2 252 2 
253 1 254 118 255 28 256 10 257 1 268 2 
