Name: R-(-)-1-Amino-2-propanol
CAS: 2799-16-8
MW: 75
Formula: C3H9NO
Synonym: MassBank: PR010230
Synonym: R-(-)-1-Amino-2-propanol
Structure: 310A31340A323739392D31362D382E6D6F6C0A20204368656D447261773132303630363130353732440A2020352020342020302020302020302020302020302020302020302020303939392056323030300A2020202D312E3037313720202020302E3631383720202020302E30303030204F202020302020302020302020302020302020302020302020302020302020302020302020300A2020202D302E3335373320202020302E3230363320202020302E303030302043202020302020302020302020302020302020302020302020302020302020302020302020300A20202020302E3335373220202020302E3631383720202020302E303030302043202020302020302020302020302020302020302020302020302020302020302020302020300A20202020312E3037313720202020302E3230363320202020302E30303030204E202020302020302020302020302020302020302020302020302020302020302020302020300A2020202D302E333537332020202D302E3631383720202020302E303030302043202020302020302020302020302020302020302020302020302020302020302020302020300A2020322020312020312020302020202020200A2020332020322020312020302020202020200A2020342020332020312020302020202020200A2020322020352020312020312020202020200A4D2020454E44
Contributor: Kusano M, Fukushima A, Plant Science Center, RIKEN.
InstType: EI
InstName: Pegasus III TOF-MS system, Leco; GC 6890, Agilent Technologies
IoniMethod: EI
IonPolarity: pos
Date: 2010-10-09 19:48:36+02:00
Num Peaks: 79
60 22 61 18 62 1 66 8 67 1 69 1 70 14 71 11 72 27 73 999 
74 91 75 55 76 4 77 4 82 1 83 2 84 7 85 10 86 273 87 46 
88 13 89 3 98 3 99 5 100 140 101 33 102 42 103 14 104 3 105 4 
112 4 113 8 114 117 115 26 116 22 117 58 118 9 119 15 120 2 121 1 
128 21 129 6 130 48 131 39 132 11 133 122 134 18 135 9 136 1 142 1 
143 1 144 10 145 3 146 4 147 119 148 19 149 9 150 1 158 7 159 3 
160 2 172 7 173 2 174 561 175 112 176 57 177 7 178 1 186 3 187 1 
188 13 189 3 190 1 202 6 203 1 204 2 276 13 277 3 278 1 
