Name: (S)-(+)-2-(anilinomethyl)pyrrolidine
CAS: 64030-44-0
MW: 176
Formula: C11H16N2
Synonym: MassBank: PR010220
Synonym: (S)-(+)-2-(anilinomethyl)pyrrolidine
Structure: 310A33320A20204143442F4C6162733132303230363138323732440A2031332031342020302020302020302020302020302020302020302020302020312056323030300A20202031332E3337383220202D31312E3036343620202020302E303030302043202020302020302020302020302020302020302020302020302020302020302020302020300A20202031332E3337383220202D31322E3339343620202020302E303030302043202020302020302020302020302020302020302020302020302020302020302020302020300A20202031322E3232363320202D31302E3339393620202020302E303030302043202020302020302020302020302020302020302020302020302020302020302020302020300A20202031322E3232363320202D31332E3035393620202020302E303030302043202020302020302020302020302020302020302020302020302020302020302020302020300A20202031312E3037343520202D31312E3036343620202020302E303030302043202020302020302020302020302020302020302020302020302020302020302020302020300A20202031312E3037343520202D31322E3339343620202020302E303030302043202020302020302020302020302020302020302020302020302020302020302020302020300A20202020392E3932323720202D31302E3339393620202020302E30303030204E202020302020302020302020302020302020302020302020302020302020302020302020300A20202020382E3737303920202D31312E3036343620202020302E303030302043202020302020302020302020302020302020302020302020302020302020302020302020300A20202020372E3631393120202D31302E3339393620202020302E303030302043202020302020302020302020302020302020302020302020302020302020302020302020300A20202020352E3436373120202D31302E3430313520202020302E303030302043202020302020302020302020302020302020302020302020302020302020302020302020300A20202020362E3534333820202D31312E3138323320202020302E30303030204E202020302020302020302020302020302020302020302020302020302020302020302020300A20202020352E383737302020202D392E3133363220202020302E303030302043202020302020302020302020302020302020302020302020302020302020302020302020300A20202020372E323037322020202D392E3133353120202020302E303030302043202020302020302020302020302020302020302020302020302020302020302020302020300A2020322020312020312020302020302020302020300A2020332020312020322020302020302020302020300A2020342020322020322020302020302020302020300A2020352020332020312020302020302020302020300A2020362020342020312020302020302020302020300A2020362020352020322020302020302020302020300A2020352020372020312020302020302020302020300A2020372020382020312020302020302020302020300A2020382020392020312020302020302020302020300A2031312031302020312020302020302020302020300A2031322031302020312020302020302020302020300A2020392031312020312020302020302020302020300A2031332031322020312020302020302020302020300A2031332020392020312020302020302020302020300A4D2020454E44
Contributor: Kusano M, Fukushima A, Plant Science Center, RIKEN.
InstType: EI
InstName: Pegasus III TOF-MS system, Leco; GC 6890, Agilent Technologies
IoniMethod: EI
IonPolarity: pos
Date: 2010-10-09 19:48:36+02:00
Num Peaks: 101
60 8 61 4 62 1 63 3 64 2 65 4 66 2 67 5 68 1 69 4 
70 38 71 11 72 49 73 999 74 90 75 30 76 3 77 42 78 6 79 7 
80 2 81 1 82 3 83 5 84 16 85 10 86 10 87 1 88 1 91 5 
92 1 93 4 94 1 95 2 96 1 97 2 98 5 99 7 100 15 101 2 
102 1 103 1 104 21 105 18 106 8 107 6 108 1 109 1 110 1 112 2 
113 6 114 1 115 1 117 1 118 2 119 6 120 4 121 7 122 2 124 3 
126 2 127 5 128 3 130 1 131 1 132 2 133 1 134 5 135 13 136 3 
139 1 140 9 141 16 142 961 143 133 144 41 145 4 146 2 147 1 148 4 
149 3 150 3 154 3 155 1 156 1 160 1 162 7 163 2 164 5 165 1 
176 3 177 3 178 22 179 9 180 1 203 2 217 4 231 6 232 1 305 4 
306 1 
