Name: Succinic acid
CAS: 110-15-6
MW: 118
Formula: C4H6O4
Synonym: KEGG: C00042
Synonym: CID: 3344
Synonym: MassBank: PR010238
Synonym: Succinic acid
Synonym: Succinate
Synonym: Ethylenesuccinic acid
Synonym: Butanedionic acid
Structure: 310A32310A3C4341535F49443E203131302D31352D36093C4B4547475F49443E20433030303432093C4E414D453E2053756363696E617465093C464F524D554C413E20433448364F34093C45584143544D4153533E203131382E3032363630383638093C415645524147454D4153533E203131382E3038383034093C534D494C45533E204F43283D4F29434343284F293D4F093C434F505952494748543E2041524D2050524F4A45435420687474703A2F2F7777772E6D657461626F6C6F6D652E6A702F0A2020382020372020302020302020302020302020302020302020302020303939392056323030300A20202020322E383636302020202D312E3030303020202020302E303030302043202020302020302020302020302020302020302020302020302020302020302020302020300A20202020332E373332312020202D302E3530303020202020302E303030302043202020302020302020302020322020302020302020302020302020302020302020302020300A20202020332E3733323120202020302E3530303020202020302E303030302043202020302020302020302020322020302020302020302020302020302020302020302020300A20202020342E3539383120202020312E3030303020202020302E303030302043202020302020302020302020302020302020302020302020302020302020302020302020300A20202020322E303030302020202D302E3530303020202020302E30303030204F202020302020302020302020312020302020302020302020302020302020302020302020300A20202020322E383636302020202D322E3030303020202020302E30303030204F202020302020302020302020302020302020302020302020302020302020302020302020300A20202020342E3539383120202020322E3030303020202020302E30303030204F202020302020302020302020312020302020302020302020302020302020302020302020300A20202020352E3436343120202020302E3530303020202020302E30303030204F202020302020302020302020302020302020302020302020302020302020302020302020300A2020322020312020312020302020302020302020300A2020332020342020312020302020302020302020300A2020312020352020312020302020302020302020300A2020342020382020322020302020302020302020300A2020342020372020312020302020302020302020300A2020322020332020312020302020302020302020300A2020312020362020322020302020302020302020300A4D2020454E44
Contributor: Kusano M, Fukushima A, Plant Science Center, RIKEN.
InstType: EI
InstName: Pegasus III TOF-MS system, Leco; GC 6890, Agilent Technologies
IoniMethod: EI
IonPolarity: pos
Date: 2010-10-09 19:48:36+02:00
Num Peaks: 81
60 24 61 74 62 7 63 5 65 2 66 30 67 3 69 1 70 9 71 11 
72 48 73 849 74 99 75 455 76 43 77 59 78 4 79 10 82 4 83 3 
84 5 85 17 86 20 87 12 88 5 89 9 90 1 92 1 93 2 95 1 
97 1 99 8 100 2 101 10 102 3 103 10 104 1 105 5 111 1 113 13 
114 2 115 18 116 22 117 18 118 2 119 4 128 4 129 114 130 17 131 25 
132 4 133 42 134 5 135 4 143 4 145 5 146 1 147 999 148 164 149 88 
150 9 151 2 156 2 157 5 159 1 163 3 172 41 173 22 174 4 175 2 
190 1 203 3 217 2 218 7 219 1 247 90 248 18 249 8 250 1 262 4 
263 1 
