Name: Glycine
CAS: 56-40-6
MW: 75
Formula: C2H5NO2
Synonym: KEGG: C00037
Synonym: CID: 3339
Synonym: MassBank: PR010014
Synonym: Glycine
Synonym: Aminoacetic acid
Synonym: Gly
Structure: 310A31350A3C4341535F49443E2035362D34302D36093C4B4547475F49443E20433030303337093C4E414D453E20476C7963696E65093C464F524D554C413E20433248354E4F32093C45584143544D4153533E2037352E3033323032383430383939393939093C415645524147454D4153533E2037352E3036363634093C534D494C45533E204E4343284F293D4F093C434F505952494748543E2041524D2050524F4A45435420687474703A2F2F7777772E6D657461626F6C6F6D652E6A702F0A2020352020342020302020302020302020302020302020302020302020303939392056323030300A20202020322E383636302020202D302E3235303020202020302E303030302043202020302020302020302020302020302020302020302020302020302020302020302020300A20202020332E3733323120202020302E3235303020202020302E303030302043202020302020302020302020322020302020302020302020302020302020302020302020300A20202020332E3733323120202020312E3235303020202020302E30303030204E202020302020302020302020322020302020302020302020302020302020302020302020300A20202020322E3030303020202020302E3235303020202020302E30303030204F202020302020302020302020302020302020302020302020302020302020302020302020300A20202020322E383636302020202D312E3235303020202020302E30303030204F202020302020302020302020312020302020302020302020302020302020302020302020300A2020312020342020322020302020302020302020300A2020322020312020312020302020302020302020300A2020312020352020312020302020302020302020300A2020322020332020312020302020302020302020300A4D2020454E44
Contributor: Kusano M, Fukushima A, Plant Science Center, RIKEN.
InstType: EI
InstName: Pegasus III TOF-MS system, Leco; GC 6890, Agilent Technologies
IoniMethod: EI
IonPolarity: pos
Date: 2010-10-09 19:48:36+02:00
Num Peaks: 84
60 17 61 11 66 10 67 1 69 1 70 11 71 9 72 25 73 999 74 86 
75 50 76 3 77 10 83 1 84 8 85 7 86 399 87 41 88 16 89 2 
95 2 98 1 99 4 100 221 101 44 102 30 103 14 104 2 105 4 113 6 
114 6 115 9 116 13 117 38 118 7 119 12 120 1 121 1 128 1 129 3 
130 39 131 42 132 12 133 116 134 17 135 9 136 1 142 1 143 1 144 10 
145 3 146 5 147 319 148 49 149 24 150 2 158 12 159 4 160 7 161 2 
172 7 173 2 174 750 175 148 176 73 177 15 178 2 188 7 189 2 190 2 
202 3 203 1 204 4 205 1 246 11 247 4 248 146 249 42 250 20 251 4 
276 49 277 13 278 6 279 1 
