Name: epsilon-Amino-n-caproic acid
CAS: 60-32-2
MW: 131
Formula: C6H13NO2
Synonym: KEGG: C02378
Synonym: CID: 5420
Synonym: MassBank: PR010218
Synonym: epsilon-Amino-n-caproic acid
Synonym: Epsilcapramine
Synonym: 6-Aminohexanoate
Synonym: 6-Aminohexanoic acid
Synonym: 6-Aminocaproic acid
Structure: 310A32330A3C4341535F49443E2036302D33322D32093C4B4547475F49443E20433032333738093C4E414D453E20362D416D696E6F686578616E6F617465093C464F524D554C413E2043364831334E4F32093C45584143544D4153533E203133312E303934363238363635093C415645524147454D4153533E203133312E3137323936093C534D494C45533E204E434343434343284F293D4F093C434F505952494748543E2041524D2050524F4A45435420687474703A2F2F7777772E6D657461626F6C6F6D652E6A702F0A2020392020382020302020302020302020302020302020302020302020303939392056323030300A20202020322E383636302020202D312E3735303020202020302E303030302043202020302020302020302020302020302020302020302020302020302020302020302020300A20202020332E373332312020202D312E3235303020202020302E303030302043202020302020302020302020322020302020302020302020302020302020302020302020300A20202020332E373332312020202D302E3235303020202020302E303030302043202020302020302020302020322020302020302020302020302020302020302020302020300A20202020342E3539383120202020302E3235303020202020302E303030302043202020302020302020302020322020302020302020302020302020302020302020302020300A20202020342E3539383120202020312E3235303020202020302E303030302043202020302020302020302020322020302020302020302020302020302020302020302020300A20202020352E3436343120202020312E3735303020202020302E303030302043202020302020302020302020322020302020302020302020302020302020302020302020300A20202020352E3436343120202020322E3735303020202020302E30303030204E202020302020302020302020322020302020302020302020302020302020302020302020300A20202020322E303030302020202D312E3235303020202020302E30303030204F202020302020302020302020302020302020302020302020302020302020302020302020300A20202020322E383636302020202D322E3735303020202020302E30303030204F202020302020302020302020312020302020302020302020302020302020302020302020300A2020342020332020312020302020302020302020300A2020362020352020312020302020302020302020300A2020332020322020312020302020302020302020300A2020372020362020312020302020302020302020300A2020322020312020312020302020302020302020300A2020352020342020312020302020302020302020300A2020312020392020312020302020302020302020300A2020312020382020322020302020302020302020300A4D2020454E44
Contributor: Kusano M, Fukushima A, Plant Science Center, RIKEN.
InstType: EI
InstName: Pegasus III TOF-MS system, Leco; GC 6890, Agilent Technologies
IoniMethod: EI
IonPolarity: pos
Date: 2010-10-09 19:48:36+02:00
Num Peaks: 123
60 25 61 30 62 2 63 2 65 2 66 4 67 18 68 1 69 26 70 15 
71 11 72 29 73 999 74 106 75 233 76 23 77 27 78 2 79 25 80 2 
81 3 82 3 83 4 84 6 85 19 86 221 87 27 88 14 89 5 90 1 
92 1 93 1 94 5 95 4 96 224 97 21 98 7 99 13 100 119 101 23 
102 29 103 9 104 2 105 2 110 2 111 2 112 8 113 9 114 9 115 11 
116 17 117 24 118 5 119 5 120 1 122 1 124 1 125 1 126 6 127 2 
128 6 129 68 130 52 131 39 132 12 133 35 134 5 135 3 138 1 140 15 
141 4 142 6 143 4 144 6 145 2 146 20 147 103 148 18 149 14 150 2 
151 1 152 1 154 1 156 2 157 2 158 8 159 4 160 3 161 1 162 3 
163 1 168 13 169 3 170 11 171 7 172 13 173 4 174 763 175 145 176 71 
177 9 178 1 184 6 185 1 186 2 188 1 190 1 200 6 201 1 202 1 
214 1 216 1 221 1 242 12 243 3 244 1 258 2 274 1 331 1 332 22 
333 7 334 3 347 1 
