Name: beta-D-(+)-Glucose
CAS: 492-61-5
MW: 180
Formula: C6H12O6
Synonym: KEGG: C00221
Synonym: CID: 3521
Synonym: MassBank: PR010080
Synonym: beta-D-(+)-Glucose
Synonym: beta-D-Glucose
Structure: 310A32390A20204143442F4C6162733132303230363137353832440A2031322031322020302020302020312020302020302020302020302020302020312056323030300A20202031302E353039392020202D362E3635383020202020302E303030302043202020302020302020302020302020302020302020302020302020302020302020302020300A20202031302E353039392020202D372E3938383020202020302E303030302043202020302020302020302020302020302020302020302020302020302020302020302020300A20202020392E333538302020202D352E3939333020202020302E30303030204F202020302020302020302020302020302020302020302020302020302020302020302020300A20202020392E333538302020202D382E3635333020202020302E303030302043202020302020302020302020302020302020302020302020302020302020302020302020300A20202020382E323036322020202D362E3635383020202020302E303030302043202020302020302020302020302020302020302020302020302020302020302020302020300A20202020382E323036322020202D372E3938383020202020302E303030302043202020302020302020302020302020302020302020302020302020302020302020302020300A20202020372E303534342020202D352E3939333020202020302E30303030204F202020302020302020302020302020302020302020302020302020302020302020302020300A20202020372E323934342020202D382E3935363220202020302E30303030204F202020302020302020302020302020302020302020302020302020302020302020302020300A20202020392E333538302020202D392E3938333020202020302E30303030204F202020302020302020302020302020302020302020302020302020302020302020302020300A20202031312E363631372020202D382E3635333020202020302E30303030204F202020302020302020302020302020302020302020302020302020302020302020302020300A20202031312E363631372020202D352E3939333020202020302E303030302043202020302020302020302020302020302020302020302020302020302020302020302020300A20202031312E363631372020202D342E3636333020202020302E30303030204F202020302020302020302020302020302020302020302020302020302020302020302020300A2020322020312020312020302020302020302020300A2020332020312020312020302020302020302020300A2020342020322020312020302020302020302020300A2020352020332020312020302020302020302020300A2020362020342020312020302020302020302020300A2020362020352020312020302020302020302020300A2020352020372020312020362020302020302020300A2020362020382020312020312020302020302020300A2020342020392020312020362020302020302020300A2020322031302020312020312020302020302020300A2020312031312020312020362020302020302020300A2031312031322020312020302020302020302020300A4D2020454E44
Contributor: Kusano M, Fukushima A, Plant Science Center, RIKEN.
InstType: EI
InstName: Pegasus III TOF-MS system, Leco; GC 6890, Agilent Technologies
IoniMethod: EI
IonPolarity: pos
Date: 2010-10-09 19:48:36+02:00
Num Peaks: 138
60 4 61 5 66 4 67 2 69 2 70 3 71 3 72 15 73 999 74 83 
75 54 76 4 77 4 81 1 82 2 83 12 84 2 85 3 86 2 87 3 
88 3 89 57 90 5 91 3 96 2 97 3 98 1 99 3 100 13 101 12 
102 7 103 151 104 15 105 15 106 2 111 2 113 3 114 3 115 4 116 4 
117 59 118 6 119 7 126 1 127 2 128 1 129 79 130 13 131 20 132 3 
133 54 134 7 135 4 141 1 142 2 143 9 144 1 145 2 146 1 147 198 
148 32 149 19 150 2 151 1 154 1 157 54 158 8 159 5 160 81 161 16 
162 4 163 6 164 1 169 3 172 2 173 2 174 1 175 3 177 5 178 1 
186 3 187 1 188 1 189 17 190 5 191 8 192 1 196 1 201 4 202 1 
203 3 204 16 205 124 206 25 207 12 208 2 210 1 214 3 215 1 216 1 
217 51 218 11 219 5 220 1 221 3 222 1 229 15 230 4 231 3 232 1 
233 8 234 2 235 4 236 1 242 1 243 1 244 1 245 1 246 1 247 1 
268 1 269 1 273 1 274 1 277 3 278 1 291 4 292 1 300 1 305 2 
306 1 307 3 308 1 318 2 319 93 320 29 321 14 322 2 
