Name: Sarcosine
CAS: 107-97-1
MW: 89
Formula: C3H7NO2
Synonym: KEGG: C00213
Synonym: CID: 3513
Synonym: MassBank: PR010146
Synonym: Sarcosine
Synonym: N-Methylglycine
Structure: 310A31370A3C4341535F49443E203130372D39372D31093C4B4547475F49443E20433030323133093C4E414D453E20536172636F73696E65093C464F524D554C413E20433348374E4F32093C45584143544D4153533E2038392E3034373637383437323939393939093C415645524147454D4153533E2038392E3039333232093C534D494C45533E20434E4343284F293D4F093C434F505952494748543E2041524D2050524F4A45435420687474703A2F2F7777772E6D657461626F6C6F6D652E6A702F0A2020362020352020302020302020302020302020302020302020302020303939392056323030300A20202020322E383636302020202D302E3530303020202020302E303030302043202020302020302020302020302020302020302020302020302020302020302020302020300A20202020332E373332312020202D302E3030303020202020302E303030302043202020302020302020302020322020302020302020302020302020302020302020302020300A20202020332E3733323120202020312E3030303020202020302E30303030204E202020302020302020302020312020302020302020302020302020302020302020302020300A20202020342E3539383120202020312E3530303020202020302E303030302043202020302020302020302020332020302020302020302020302020302020302020302020300A20202020322E3030303020202020302E3030303020202020302E30303030204F202020302020302020302020302020302020302020302020302020302020302020302020300A20202020322E383636302020202D312E3530303020202020302E30303030204F202020302020302020302020312020302020302020302020302020302020302020302020300A2020342020332020312020302020302020302020300A2020332020322020312020302020302020302020300A2020322020312020312020302020302020302020300A2020312020352020322020302020302020302020300A2020312020362020312020302020302020302020300A4D2020454E44
Contributor: Kusano M, Fukushima A, Plant Science Center, RIKEN.
InstType: EI
InstName: Pegasus III TOF-MS system, Leco; GC 6890, Agilent Technologies
IoniMethod: EI
IonPolarity: pos
Date: 2010-10-09 19:48:36+02:00
Num Peaks: 89
60 46 61 6 62 2 66 7 67 12 70 7 71 26 72 57 73 999 74 123 
75 56 77 27 78 2 82 3 83 1 84 7 85 13 86 47 88 6 90 2 
93 1 94 2 96 2 97 3 101 23 105 2 106 1 108 2 109 1 113 6 
114 12 116 863 117 86 118 17 121 4 129 1 130 6 131 5 134 3 141 1 
142 2 144 7 147 177 148 40 149 9 159 2 163 1 166 5 169 1 171 1 
173 1 174 2 175 10 176 3 177 4 182 1 185 3 187 2 188 2 190 46 
191 1 192 9 195 1 202 1 206 2 208 1 213 2 214 1 218 29 219 2 
226 1 227 1 230 1 233 18 234 1 368 1 464 1 475 1 528 1 538 1 
542 1 639 1 683 1 704 1 707 2 715 1 753 1 766 1 768 1 
