Name: 7-Hydroxy-4-methylcoumarin
CAS: 90-33-5
MW: 176
Formula: C10H8O3
Synonym: KEGG: C03081
Synonym: CID: 5979
Synonym: MassBank: PR010104
Synonym: 7-Hydroxy-4-methylcoumarin
Synonym: Hymecromone
Synonym: 4-Methylumbelliferone
Structure: 310A33320A20204143442F4C6162733132303230363039333733440A2031332031342020302020302020302020302020302020302020302020302020312056323030300A20202032312E323330302020202D382E3035323120202020302E303030302043202020302020302020302020302020302020302020302020302020302020302020302020300A20202032312E323330302020202D392E3338323120202020302E303030302043202020302020302020302020302020302020302020302020302020302020302020302020300A20202032302E303738312020202D372E3338373120202020302E303030302043202020302020302020302020302020302020302020302020302020302020302020302020300A20202032302E3037383120202D31302E3034373120202020302E303030302043202020302020302020302020302020302020302020302020302020302020302020302020300A20202031382E393236332020202D382E3035323120202020302E303030302043202020302020302020302020302020302020302020302020302020302020302020302020300A20202031382E393236332020202D392E3338323120202020302E303030302043202020302020302020302020302020302020302020302020302020302020302020302020300A20202031372E373734362020202D372E333837322020202D302E30303030204F202020302020302020302020302020302020302020302020302020302020302020302020300A20202031362E363232382020202D382E303532332020202D302E303030302043202020302020302020302020302020302020302020302020302020302020302020302020300A20202031372E3737343620202D31302E303437312020202D302E303030302043202020302020302020302020302020302020302020302020302020302020302020302020300A20202031362E363232392020202D392E333832322020202D302E303030302043202020302020302020302020302020302020302020302020302020302020302020302020300A20202031352E343731302020202D372E333837332020202D302E30303030204F202020302020302020302020302020302020302020302020302020302020302020302020300A20202032322E333831382020202D372E3338373120202020302E30303030204F202020302020302020302020302020302020302020302020302020302020302020302020300A20202031372E3737343720202D31312E333737312020202D302E303030302043202020302020302020302020302020302020302020302020302020302020302020302020300A2020322020312020312020302020302020302020300A2020332020312020322020302020302020302020300A2020342020322020322020302020302020302020300A2020352020332020312020302020302020302020300A2020362020342020312020302020302020302020300A2020372020352020312020302020302020302020300A2020362020352020322020302020302020302020300A2020382020372020312020302020302020302020300A2020392020362020312020302020302020302020300A2031302020382020312020302020302020302020300A2031302020392020322020302020302020302020300A2020382031312020322020302020302020302020300A2020312031322020312020302020302020302020300A2020392031332020312020302020302020302020300A4D2020454E44
Contributor: Kusano M, Fukushima A, Plant Science Center, RIKEN.
InstType: EI
InstName: Pegasus III TOF-MS system, Leco; GC 6890, Agilent Technologies
IoniMethod: EI
IonPolarity: pos
Date: 2010-10-09 19:48:36+02:00
Num Peaks: 174
60 18 61 64 62 79 63 184 64 39 65 184 66 31 67 111 68 2 69 43 
70 16 71 23 72 26 73 924 74 150 75 260 76 110 77 434 78 61 79 99 
80 12 81 19 82 9 83 44 84 7 85 37 86 20 87 122 88 147 89 85 
90 29 91 206 92 24 93 39 94 22 95 60 96 8 97 12 98 10 99 60 
100 9 101 40 102 595 103 314 104 29 105 46 106 8 107 21 108 4 109 26 
110 5 111 8 112 1 113 4 114 4 115 125 116 25 117 48 118 13 119 54 
120 9 121 24 122 5 123 11 124 2 125 4 126 2 127 10 128 18 129 35 
130 15 131 88 132 13 133 25 134 7 135 44 136 9 137 13 138 2 139 1 
141 2 143 8 144 6 145 50 146 12 147 86 148 17 149 94 150 16 151 41 
152 6 153 2 155 1 157 3 158 2 159 42 160 8 161 53 162 32 163 40 
164 8 165 292 166 46 167 15 168 2 169 1 170 1 171 3 172 1 173 20 
174 9 175 49 176 14 177 518 178 86 179 27 180 4 181 1 185 3 186 1 
187 6 188 2 189 83 190 22 191 11 192 3 193 1 194 1 195 1 196 1 
197 1 198 1 199 1 201 2 202 2 203 31 204 15 205 390 206 80 207 23 
208 3 209 1 210 1 211 1 212 1 213 1 214 1 215 2 216 2 217 6 
218 6 219 14 220 283 221 69 222 19 223 3 231 2 232 7 233 999 234 187 
235 57 236 7 237 1 238 1 239 1 240 1 241 1 242 1 243 1 247 6 
248 837 249 164 250 47 251 5 
