Name: L-Serine
CAS: 56-45-1
MW: 105
Formula: C3H7NO3
Synonym: KEGG: C00065
Synonym: CID: 3365
Synonym: MassBank: PR010156
Synonym: L-Serine
Synonym: L-3-Hydroxy-alanine
Synonym: L-2-Amino-3-hydroxypropionic acid
Structure: 310A31390A3C4341535F49443E2035362D34352D31093C4B4547475F49443E20433030303635093C4E414D453E204C2D536572696E65093C464F524D554C413E20433348374E4F33093C45584143544D4153533E203130352E303432353933303935093C415645524147454D4153533E203130352E3039323632093C534D494C45533E204F435B4340485D284E2943284F293D4F093C434F505952494748543E2041524D2050524F4A45435420687474703A2F2F7777772E6D657461626F6C6F6D652E6A702F0A2020372020362020302020302020312020302020302020302020302020303939392056323030300A20202020332E3733323120202020302E3530303020202020302E303030302043202020302020302020302020302020302020302020302020302020302020302020302020300A20202020322E383636302020202D302E3030303020202020302E303030302043202020302020302020322020312020302020302020302020302020302020302020302020300A20202020322E383636302020202D312E3030303020202020302E303030302043202020302020302020302020322020302020302020302020302020302020302020302020300A20202020322E3030303020202020302E3530303020202020302E30303030204E202020302020302020302020322020302020302020302020302020302020302020302020300A20202020342E353938312020202D302E3030303020202020302E30303030204F202020302020302020302020302020302020302020302020302020302020302020302020300A20202020332E3733323120202020312E3530303020202020302E30303030204F202020302020302020302020312020302020302020302020302020302020302020302020300A20202020322E303030302020202D312E3530303020202020302E30303030204F202020302020302020302020312020302020302020302020302020302020302020302020300A2020312020362020312020302020302020302020300A2020322020312020312020302020302020302020300A2020322020342020312020362020302020302020300A2020322020332020312020302020302020302020300A2020312020352020322020302020302020302020300A2020332020372020312020302020302020302020300A4D2020454E44
Contributor: Kusano M, Fukushima A, Plant Science Center, RIKEN.
InstType: EI
InstName: Pegasus III TOF-MS system, Leco; GC 6890, Agilent Technologies
IoniMethod: EI
IonPolarity: pos
Date: 2010-10-09 19:48:36+02:00
Num Peaks: 98
60 14 61 18 62 2 63 2 66 9 67 1 69 1 70 16 71 7 72 31 
73 999 74 99 75 112 76 10 77 24 78 2 79 6 82 1 83 1 84 7 
85 5 86 15 87 8 88 18 89 12 90 1 91 1 92 1 98 3 99 3 
100 189 101 32 102 16 103 37 104 4 105 5 113 2 114 23 115 20 116 59 
117 29 118 7 119 8 120 1 121 1 128 2 129 3 130 16 131 22 132 29 
133 53 134 10 135 6 142 1 143 1 144 7 145 1 146 5 147 121 148 21 
149 13 150 1 158 4 159 5 160 3 161 1 162 1 163 6 164 1 172 5 
173 1 174 10 175 3 176 1 177 1 188 46 189 17 190 8 191 3 202 1 
203 8 204 310 205 64 206 28 207 4 216 9 217 3 218 158 219 31 220 14 
221 4 222 1 278 16 279 5 280 2 306 8 307 2 308 1 
