Name: 2'-Deoxyadenosine 5'-monophosphate
CAS: 653-63-4
MW: 331
Formula: C10H14N5O6P
Synonym: KEGG: C00360
Synonym: CID: 3651
Synonym: MassBank: PR010127
Synonym: 2'-Deoxyadenosine 5'-monophosphate
Synonym: 2'-Deoxyadenosine 5'-phosphate
Synonym: Deoxyadenosine monophosphate
Synonym: Deoxyadenylic acid
Synonym: dAMP
Structure: 310A35320A3C4341535F49443E203635332D36332D34093C4B4547475F49443E20433030333630093C4E414D453E2064414D50093C464F524D554C413E204331304831344E354F3650093C45584143544D4153533E203333312E3036383136393731343939393935093C415645524147454D4153533E203333312E3232323032313030303030303034093C534D494C45533E204E63286E332963286E322963286E6333296E286332295B434040485D284331294F5B4340485D28434F50284F29284F293D4F295B434040485D284F2931093C434F505952494748543E2041524D2050524F4A45435420687474703A2F2F7777772E6D657461626F6C6F6D652E6A702F0A2032322032342020302020302020312020302020302020302020302020303939392056323030300A20202020332E3733323120202020332E3039373020202020302E30303030204E202020302020302020302020302020302020302020302020302020302020302020302020300A20202020342E3539383120202020322E3539373020202020302E303030302043202020302020302020302020312020302020302020302020302020302020302020302020300A20202020342E3539383120202020312E3539373020202020302E30303030204E202020302020302020302020302020302020302020302020302020302020302020302020300A20202020332E3733323120202020312E3039373020202020302E303030302043202020302020302020302020302020302020302020302020302020302020302020302020300A20202020322E3836363020202020312E3539373020202020302E303030302043202020302020302020302020302020302020302020302020302020302020302020302020300A20202020322E3836363020202020322E3539373020202020302E303030302043202020302020302020302020302020302020302020302020302020302020302020302020300A20202020322E3132323920202020302E3932373920202020302E30303030204E202020302020302020302020302020302020302020302020302020302020302020302020300A20202020322E3532393620202020302E3031343320202020302E303030302043202020302020302020302020312020302020302020302020302020302020302020302020300A20202020332E3532343120202020302E3131383820202020302E30303030204E202020302020302020302020302020302020302020302020302020302020302020302020300A20202020322E3030303020202020332E3039373020202020302E30303030204E202020302020302020302020322020302020302020302020302020302020302020302020300A20202020342E313933332020202D302E3632343320202020302E303030302043202020302020302020312020312020302020302020302020302020302020302020302020300A20202020332E393835342020202D312E3630323520202020302E303030302043202020302020302020302020322020302020302020302020302020302020302020302020300A20202020342E383531342020202D322E3130323520202020302E303030302043202020302020302020312020312020302020302020302020302020302020302020302020300A20202020352E353934352020202D312E3433333320202020302E303030302043202020302020302020312020312020302020302020302020302020302020302020302020300A20202020362E353732372020202D312E3634313220202020302E303030302043202020302020302020302020322020302020302020302020302020302020302020302020300A20202020342E393535392020202D332E3039373020202020302E30303030204F202020302020302020302020312020302020302020302020302020302020302020302020300A20202020352E313837382020202D302E3531393820202020302E30303030204F202020302020302020302020302020302020302020302020302020302020302020302020300A20202020372E323431382020202D302E3839383120202020302E30303030204F202020302020302020302020302020302020302020302020302020302020302020302020300A20202020382E323230302020202D312E3130363020202020302E303030302050202020302020302020302020302020302020302020302020302020302020302020302020300A20202020382E303132302020202D322E3038343220202020302E30303030204F202020302020302020302020312020302020302020302020302020302020302020302020300A20202020382E343237392020202D302E3132373920202020302E30303030204F202020302020302020302020302020302020302020302020302020302020302020302020300A20202020392E313938312020202D312E3331333920202020302E30303030204F202020302020302020302020312020302020302020302020302020302020302020302020300A2031392032322020312020302020302020302020300A2031392032312020322020302020302020302020300A2031382031392020312020302020302020302020300A2031392032302020312020302020302020302020300A2020352020362020312020302020302020302020300A2020332020322020322020302020302020302020300A2031332031362020312020312020302020302020300A2020362020312020322020302020302020302020300A2020362031302020312020302020302020302020300A2020352020372020312020302020302020302020300A2031332031342020312020302020302020302020300A2020322020312020312020302020302020302020300A2031312020392020312020302020302020302020300A2020392020342020312020302020302020302020300A2020392020382020312020302020302020302020300A2031312031322020312020302020302020302020300A2031312031372020312020362020302020302020300A2020342020352020322020302020302020302020300A2020342020332020312020302020302020302020300A2020382020372020322020302020302020302020300A2031322031332020312020302020302020302020300A2031342031372020312020362020302020302020300A2031342031352020312020302020302020302020300A2031352031382020312020302020302020302020300A4D2020454E44
Contributor: Kusano M, Fukushima A, Plant Science Center, RIKEN.
InstType: EI
InstName: Pegasus III TOF-MS system, Leco; GC 6890, Agilent Technologies
IoniMethod: EI
IonPolarity: pos
Date: 2010-10-09 19:48:36+02:00
Num Peaks: 172
60 3 61 4 63 1 65 1 66 1 67 1 70 3 71 4 72 8 73 360 
74 38 75 31 76 3 77 12 79 2 80 2 81 999 82 59 83 5 84 12 
85 11 86 3 87 2 88 1 89 2 91 1 92 1 93 1 95 1 96 1 
97 2 98 2 99 9 100 3 101 11 102 1 103 8 104 1 105 1 107 1 
108 1 109 3 110 2 111 9 112 1 113 4 115 3 116 1 117 2 119 2 
121 1 122 1 123 2 124 1 125 1 127 10 128 2 129 15 130 2 131 2 
133 18 134 3 135 9 136 5 137 5 138 3 139 1 141 1 142 19 143 7 
144 1 145 1 147 12 148 2 149 3 150 1 151 4 152 1 153 1 155 7 
156 1 157 1 162 3 163 1 164 6 165 20 166 4 167 2 169 5 170 15 
171 8 172 1 176 3 177 2 178 1 179 1 180 3 181 5 182 1 183 2 
189 1 190 1 191 4 192 84 193 16 194 4 195 4 196 1 197 1 204 1 
205 2 206 15 207 29 208 34 209 6 210 2 211 32 212 5 213 3 218 10 
219 2 220 2 221 4 222 1 225 5 226 1 227 7 228 1 229 1 232 1 
233 3 234 4 235 5 236 17 237 3 243 2 246 1 253 2 260 1 264 3 
277 1 278 2 279 3 280 1 285 1 286 1 288 4 289 1 294 1 299 14 
300 4 301 1 314 1 315 35 316 9 317 4 318 1 323 14 324 3 325 1 
334 1 335 1 336 1 349 3 350 1 362 1 377 2 378 3 387 1 397 1 
604 2 605 1 
