Name: N-6-(delta-2-Isopentenyl)adenosinehemihydrate
CAS: 33156-15-9
MW: 335
Formula: C15H21N5O4
Synonym: MassBank: PR010204
Synonym: N-6-(delta-2-Isopentenyl)adenosinehemihydrate
Structure: 310A35350A20204143442F4C6162733132303230363039303732440A2032342032362020302020302020312020302020302020302020302020302020312056323030300A20202020382E393037352020202D372E3734373720202020302E303030302043202020302020302020302020302020302020302020302020302020302020302020302020300A20202020382E393037352020202D392E3037373720202020302E303030302043202020302020302020302020302020302020302020302020302020302020302020302020300A20202020372E373535362020202D372E3038323720202020302E30303030204E202020302020302020302020302020302020302020302020302020302020302020302020300A20202020372E373535362020202D392E3734323720202020302E303030302043202020302020302020302020302020302020302020302020302020302020302020302020300A20202020362E363033382020202D372E3734373720202020302E303030302043202020302020302020302020302020302020302020302020302020302020302020302020300A20202020362E363033382020202D392E3037373720202020302E30303030204E202020302020302020302020302020302020302020302020302020302020302020302020300A20202031302E313732342020202D372E3333363720202020302E30303030204E202020302020302020302020302020302020302020302020302020302020302020302020300A20202031302E393534312020202D382E3431323720202020302E303030302043202020302020302020302020302020302020302020302020302020302020302020302020300A20202031302E313732352020202D392E3438383720202020302E30303030204E202020302020302020302020302020302020302020302020302020302020302020302020300A20202020372E3735353620202D31312E3037323720202020302E30303030204E202020302020302020302020302020302020302020302020302020302020302020302020300A20202020362E3630333720202D31312E3733373620202020302E303030302043202020302020302020302020302020302020302020302020302020302020302020302020300A20202020362E3630333720202D31332E3036373620202020302E303030302043202020302020302020302020302020302020302020302020302020302020302020302020300A20202020352E3435313820202D31332E3733323620202020302E303030302043202020302020302020302020302020302020302020302020302020302020302020302020300A20202020352E3435313820202D31352E3036323620202020302E303030302043202020302020302020302020302020302020302020302020302020302020302020302020300A20202020342E3330303120202D31332E3036373520202020302E303030302043202020302020302020302020302020302020302020302020302020302020302020302020300A20202031302E353833342020202D362E3037313820202020302E303030302043202020302020302020302020302020302020302020302020302020302020302020302020300A20202020392E383031372020202D342E3939353720202020302E30303030204F202020302020302020302020302020302020302020302020302020302020302020302020300A20202031302E353833362020202D332E3931393820202020302E303030302043202020302020302020302020302020302020302020302020302020302020302020302020300A20202031312E383438352020202D342E3333303920202020302E303030302043202020302020302020302020302020302020302020302020302020302020302020302020300A20202031312E383438352020202D352E3636303920202020302E303030302043202020302020302020302020302020302020302020302020302020302020302020302020300A20202031302E313732382020202D322E3635343820202020302E303030302043202020302020302020302020302020302020302020302020302020302020302020302020300A20202031312E303632392020202D312E3636363620202020302E30303030204F202020302020302020302020302020302020302020302020302020302020302020302020300A20202031322E393234352020202D332E3534393320202020302E30303030204F202020302020302020302020302020302020302020302020302020302020302020302020300A20202031322E393234342020202D362E3434323720202020302E30303030204F202020302020302020302020302020302020302020302020302020302020302020302020300A2020332020312020322020302020302020302020300A2020342020322020322020302020302020302020300A2020352020332020312020302020302020302020300A2020362020342020312020302020302020302020300A2020362020352020322020302020302020302020300A2020372020312020312020302020302020302020300A2020322020312020312020302020302020302020300A2020382020372020312020302020302020302020300A2020392020322020312020302020302020302020300A2020392020382020322020302020302020302020300A2020342031302020312020302020302020302020300A2031302031312020312020302020302020302020300A2031312031322020312020302020302020302020300A2031322031332020322020302020302020302020300A2031332031342020312020302020302020302020300A2031332031352020312020302020302020302020300A2031362020372020312020362020302020302020300A2031382031372020312020302020302020302020300A2031362031372020312020302020302020302020300A2031392031382020312020302020302020302020300A2032302031362020312020302020302020302020300A2032302031392020312020302020302020302020300A2031382032312020312020362020302020302020300A2032312032322020312020302020302020302020300A2031392032332020312020312020302020302020300A2032302032342020312020312020302020302020300A4D2020454E44
Contributor: Kusano M, Fukushima A, Plant Science Center, RIKEN.
InstType: EI
InstName: Pegasus III TOF-MS system, Leco; GC 6890, Agilent Technologies
IoniMethod: EI
IonPolarity: pos
Date: 2010-10-09 19:48:36+02:00
Num Peaks: 213
60 4 61 6 62 1 63 1 64 1 65 7 66 10 67 22 68 1 69 21 
70 10 71 5 72 17 73 999 74 90 75 55 76 5 77 7 78 2 79 5 
80 5 81 7 82 4 83 3 84 18 85 7 86 2 87 5 88 2 89 13 
90 1 91 2 92 6 93 9 94 7 95 3 96 1 97 5 98 2 99 9 
100 2 101 23 102 4 103 140 104 15 105 10 106 4 107 3 108 15 109 4 
110 1 111 6 112 1 113 9 114 2 115 27 116 10 117 24 118 5 119 25 
120 10 121 7 122 1 123 1 125 2 126 1 127 5 128 1 129 35 130 5 
131 18 132 6 133 34 134 9 135 42 136 30 137 3 138 1 140 1 141 4 
142 4 143 15 144 4 145 8 146 5 147 96 148 28 149 14 150 3 151 2 
152 1 153 4 154 1 155 1 156 1 157 8 158 4 159 9 160 159 161 22 
162 4 163 2 164 21 165 4 166 1 167 1 169 20 170 3 171 5 172 4 
173 6 174 5 175 8 176 5 177 2 178 1 179 1 180 1 185 15 186 8 
187 6 188 58 189 18 190 4 191 6 192 9 193 2 194 1 198 1 200 2 
201 3 202 65 203 89 204 39 205 6 206 8 207 4 208 5 209 1 214 2 
215 3 216 2 217 47 218 11 219 7 220 3 221 1 229 2 230 89 231 24 
232 126 233 20 234 8 235 2 236 1 242 1 243 22 244 6 245 46 246 11 
247 5 248 2 249 1 250 3 257 2 258 4 259 18 260 9 261 3 262 5 
263 1 265 1 274 16 275 7 276 12 277 3 278 1 288 1 289 1 290 2 
291 1 302 5 303 1 304 1 306 1 316 1 317 1 318 9 319 2 320 2 
322 1 330 1 333 3 334 1 348 3 349 1 390 1 420 1 448 1 507 1 
508 6 509 5 510 3 511 1 535 2 536 8 537 5 538 2 550 4 551 18 
552 9 553 4 554 1 
