Name: N-acetyl putrescine
CAS: 18233-70-0
MW: 130
Formula: C6H14N2O
Synonym: KEGG: C02714
Synonym: CID: 5677
Synonym: MassBank: PR010223
Synonym: N-acetyl putrescine
Synonym: N-Acetylputrescine
Structure: 310A32330A3C4341535F49443E2031383233332D37302D30093C4B4547475F49443E20433032373134093C4E414D453E204E2D41636574796C70757472657363696E093C464F524D554C413E2043364831344E324F093C45584143544D4153533E203133302E3131303631333038093C415645524147454D4153533E203133302E3138383234093C534D494C45533E204E434343434E432843293D4F093C434F505952494748543E2041524D2050524F4A45435420687474703A2F2F7777772E6D657461626F6C6F6D652E6A702F0A2020392020382020302020302020302020302020302020302020302020303939392056323030300A20202020352E3436343120202020312E3735303020202020302E303030302043202020302020302020302020322020302020302020302020302020302020302020302020300A20202020342E3539383120202020312E3235303020202020302E303030302043202020302020302020302020322020302020302020302020302020302020302020302020300A20202020342E3539383120202020302E3235303020202020302E303030302043202020302020302020302020322020302020302020302020302020302020302020302020300A20202020332E373332312020202D302E3235303020202020302E303030302043202020302020302020302020322020302020302020302020302020302020302020302020300A20202020332E373332312020202D312E3235303020202020302E30303030204E202020302020302020302020312020302020302020302020302020302020302020302020300A20202020352E3436343120202020322E3735303020202020302E30303030204E202020302020302020302020322020302020302020302020302020302020302020302020300A20202020322E383636302020202D312E3735303020202020302E303030302043202020302020302020302020302020302020302020302020302020302020302020302020300A20202020322E303030302020202D312E3235303020202020302E303030302043202020302020302020302020332020302020302020302020302020302020302020302020300A20202020322E383636302020202D322E3735303020202020302E30303030204F202020302020302020302020302020302020302020302020302020302020302020302020300A2020372020382020312020302020302020302020300A2020372020352020312020302020302020302020300A2020352020342020312020302020302020302020300A2020372020392020322020302020302020302020300A2020342020332020312020302020302020302020300A2020332020322020312020302020302020302020300A2020322020312020312020302020302020302020300A2020312020362020312020302020302020302020300A4D2020454E44
Contributor: Kusano M, Fukushima A, Plant Science Center, RIKEN.
InstType: EI
InstName: Pegasus III TOF-MS system, Leco; GC 6890, Agilent Technologies
IoniMethod: EI
IonPolarity: pos
Date: 2010-10-09 19:48:36+02:00
Num Peaks: 130
60 22 61 19 62 2 63 2 65 1 66 4 67 2 68 3 69 7 70 42 
71 14 72 42 73 999 74 108 75 96 76 10 77 21 78 4 79 25 80 2 
81 1 82 10 83 5 84 163 85 22 86 174 87 22 88 10 89 2 94 2 
95 1 96 8 97 3 98 10 99 19 100 111 101 25 102 78 103 13 104 4 
105 1 109 2 110 2 111 1 112 11 113 8 114 20 115 13 116 51 117 36 
118 6 119 5 121 1 124 1 126 10 127 2 128 43 129 26 130 56 131 33 
132 13 133 39 134 6 135 3 140 5 141 2 142 53 143 11 144 51 145 11 
146 33 147 60 148 11 149 5 150 1 154 1 156 7 157 4 158 26 159 120 
160 20 161 6 162 1 168 1 169 1 170 7 171 2 172 44 173 11 174 344 
175 63 176 31 177 4 178 1 183 22 184 9 185 4 186 33 187 7 188 4 
189 1 190 5 191 1 200 36 201 35 202 11 203 5 204 2 213 2 214 7 
215 2 216 7 217 1 218 1 230 1 243 5 244 1 245 1 248 4 249 1 
273 10 274 2 275 1 330 1 331 20 332 6 333 3 346 6 347 2 348 1 
