Name: (R)-(-)-Phenylephrine
CAS: 61-76-7
MW: 167
Formula: C9H13NO2
Synonym: KEGG: C07442
Synonym: CID: 9646
Synonym: MassBank: PR010006
Synonym: (R)-(-)-Phenylephrine
Synonym: Transferred to D00511
Structure: 310A32390A20204143442F4C6162733132303230363039323232440A2031322031322020302020302020312020302020302020302020302020302020312056323030300A20202020372E3836393720202D31302E3731323120202020302E303030302043202020302020302020302020302020302020302020302020302020302020302020302020300A20202020372E3836393720202D31322E3034323120202020302E303030302043202020302020302020302020302020302020302020302020302020302020302020302020300A20202020392E3032313620202D31302E3034373120202020302E303030302043202020302020302020302020302020302020302020302020302020302020302020302020300A20202020392E3032313620202D31322E3730373120202020302E303030302043202020302020302020302020302020302020302020302020302020302020302020302020300A20202031302E3137333420202D31302E3731323120202020302E303030302043202020302020302020302020302020302020302020302020302020302020302020302020300A20202031302E3137333420202D31322E3034323120202020302E303030302043202020302020302020302020302020302020302020302020302020302020302020302020300A20202020392E303231372020202D382E3731373120202020302E303030302043202020302020302020302020302020302020302020302020302020302020302020302020300A20202031302E313733352020202D382E3035323120202020302E303030302043202020302020302020302020302020302020302020302020302020302020302020302020300A20202020372E383639392020202D382E3035323120202020302E30303030204F202020302020302020302020302020302020302020302020302020302020302020302020300A20202031302E313733352020202D362E3732323120202020302E30303030204E202020302020302020302020302020302020302020302020302020302020302020302020300A20202020362E3731373920202D31322E3730373120202020302E30303030204F202020302020302020302020302020302020302020302020302020302020302020302020300A20202031312E333235342020202D362E3035373220202020302E303030302043202020302020302020302020302020302020302020302020302020302020302020302020300A2020322020312020312020302020302020302020300A2020332020312020322020302020302020302020300A2020342020322020322020302020302020302020300A2020352020332020312020302020302020302020300A2020362020342020312020302020302020302020300A2020362020352020322020302020302020302020300A2020332020372020312020302020302020302020300A2020372020382020312020302020302020302020300A2020372020392020312020312020302020302020300A2020382031302020312020302020302020302020300A2020322031312020312020302020302020302020300A2031302031322020312020302020302020302020300A4D2020454E44
Contributor: Kusano M, Fukushima A, Plant Science Center, RIKEN.
InstType: EI
InstName: Pegasus III TOF-MS system, Leco; GC 6890, Agilent Technologies
IoniMethod: EI
IonPolarity: pos
Date: 2010-10-09 19:48:36+02:00
Num Peaks: 102
60 4 61 5 63 1 65 2 66 2 70 3 71 3 72 12 73 751 74 64 
75 42 76 3 77 12 78 1 79 2 83 1 84 1 85 1 86 12 87 3 
88 3 89 4 90 1 91 10 92 1 93 1 95 2 100 6 101 4 102 3 
103 5 104 2 105 7 107 1 114 2 115 5 116 999 117 129 118 45 119 7 
120 1 121 2 130 2 131 7 132 2 133 12 134 2 135 6 136 1 137 1 
145 2 146 2 147 70 148 12 149 11 150 1 151 6 152 1 159 1 160 1 
161 5 162 1 163 8 164 1 165 2 174 1 175 1 176 1 177 9 178 2 
179 8 180 1 181 1 190 1 191 2 192 1 193 6 194 1 195 1 204 2 
205 1 206 2 207 2 209 1 220 3 221 2 222 1 223 1 237 6 238 1 
251 4 252 2 264 1 265 1 267 9 268 8 269 2 280 1 294 1 368 8 
369 3 370 1 
