Name: L-Phenylalanine
CAS: 63-91-2
MW: 165
Formula: C9H11NO2
Synonym: KEGG: C00079
Synonym: CID: 3379
Synonym: MassBank: PR010036
Synonym: L-Phenylalanine
Synonym: (S)-alpha-Amino-beta-phenylpropionic acid
Structure: 310A33300A3C4341535F49443E2036332D39312D32093C4B4547475F49443E20433030303739093C4E414D453E204C2D5068656E796C616C616E696E65093C464F524D554C413E2043394831314E4F32093C45584143544D4153533E203136352E303738393738363031093C415645524147454D4153533E203136352E3138393138093C534D494C45533E204F43283D4F295B434040485D284E294363286331296363636331093C434F505952494748543E2041524D2050524F4A45435420687474703A2F2F7777772E6D657461626F6C6F6D652E6A702F0A2031322031322020302020302020312020302020302020302020302020303939392056323030300A20202020332E373332312020202D302E3530303020202020302E303030302043202020302020302020302020302020302020302020302020302020302020302020302020300A20202020342E353938312020202D312E3030303020202020302E303030302043202020302020302020302020312020302020302020302020302020302020302020302020300A20202020342E353938312020202D322E3030303020202020302E303030302043202020302020302020302020312020302020302020302020302020302020302020302020300A20202020332E373332312020202D322E3530303020202020302E303030302043202020302020302020302020312020302020302020302020302020302020302020302020300A20202020322E383636302020202D322E3030303020202020302E303030302043202020302020302020302020312020302020302020302020302020302020302020302020300A20202020322E383636302020202D312E3030303020202020302E303030302043202020302020302020302020312020302020302020302020302020302020302020302020300A20202020332E3733323120202020302E3530303020202020302E303030302043202020302020302020302020322020302020302020302020302020302020302020302020300A20202020322E3836363020202020312E3030303020202020302E303030302043202020302020302020312020312020302020302020302020302020302020302020302020300A20202020322E3836363020202020322E3030303020202020302E303030302043202020302020302020302020302020302020302020302020302020302020302020302020300A20202020322E3030303020202020302E3530303020202020302E30303030204E202020302020302020302020322020302020302020302020302020302020302020302020300A20202020332E3733323120202020322E3530303020202020302E30303030204F202020302020302020302020302020302020302020302020302020302020302020302020300A20202020322E3030303020202020322E3530303020202020302E30303030204F202020302020302020302020312020302020302020302020302020302020302020302020300A2020382020372020312020302020302020302020300A2031312020392020322020302020302020302020300A2020392020382020312020302020302020302020300A2020382031302020312020362020302020302020300A2020312020322020312020302020302020302020300A2020322020332020322020302020302020302020300A2020332020342020312020302020302020302020300A2020342020352020322020302020302020302020300A2020352020362020312020302020302020302020300A2020362020312020322020302020302020302020300A2020372020312020312020302020302020302020300A2020392031322020312020302020302020302020300A4D2020454E44
Contributor: Kusano M, Fukushima A, Plant Science Center, RIKEN.
InstType: EI
InstName: Pegasus III TOF-MS system, Leco; GC 6890, Agilent Technologies
IoniMethod: EI
IonPolarity: pos
Date: 2010-10-09 19:48:36+02:00
Num Peaks: 98
60 9 61 12 62 3 63 8 64 2 65 36 66 6 67 1 70 7 71 5 
72 21 73 999 74 95 75 83 76 8 77 25 78 5 79 4 80 1 83 1 
84 6 85 2 86 14 87 4 88 1 89 8 90 4 91 84 92 14 93 4 
95 1 98 1 99 1 100 210 101 28 102 14 103 23 104 5 105 6 107 2 
115 7 116 3 117 14 118 7 119 7 120 16 121 8 122 1 128 1 129 1 
130 30 131 20 132 23 133 25 134 5 135 7 136 1 144 2 145 3 146 11 
147 128 148 22 149 11 150 1 158 2 159 3 160 12 161 4 162 4 163 8 
164 1 174 4 175 1 176 8 177 11 178 2 188 1 190 3 191 3 192 265 
193 46 194 12 195 1 202 1 203 4 204 9 205 2 217 1 218 384 219 74 
220 32 221 4 222 1 266 21 267 8 268 3 294 6 295 1 
