Name: (+-)-3-Methyl-2-oxovaleric acid
CAS: 66872-74-0
MW: 129
Formula: C6H9O3
Synonym: MassBank: PR010088
Synonym: (+-)-3-Methyl-2-oxovaleric acid
Structure: 310A32330A20204143442F4C6162733132303430363137353332440A2020392020382020302020302020302020302020302020302020302020302020322056323030300A20202031382E373034312020202D342E3734373220202020302E303030302043202020302020302020302020302020302020302020302020302020302020302020302020300A20202031392E383535392020202D352E3431323220202020302E303030302043202020302020302020302020302020302020302020302020302020302020302020302020300A20202032312E303037372020202D342E3734373220202020302E303030302043202020302020302020302020302020302020302020302020302020302020302020302020300A20202032322E313539352020202D352E3431323220202020302E303030302043202020302020302020302020302020302020302020302020302020302020302020302020300A20202032332E333131332020202D342E3734373220202020302E303030302043202020302020302020302020302020302020302020302020302020302020302020302020300A20202031372E353532332020202D352E3431323320202020302E30303030204F202020302020352020302020302020302020302020302020302020302020302020302020300A20202031382E373034312020202D332E3431373220202020302E30303030204F202020302020302020302020302020302020302020302020302020302020302020302020300A20202032312E303037362020202D332E3431373220202020302E303030302043202020302020302020302020302020302020302020302020302020302020302020302020300A20202031392E383536302020202D362E3734323220202020302E30303030204F202020302020302020302020302020302020302020302020302020302020302020302020300A2020322020312020312020302020302020302020300A2020332020322020312020302020302020302020300A2020342020332020312020302020302020302020300A2020352020342020312020302020302020302020300A2020312020362020312020302020302020302020300A2020312020372020322020302020302020302020300A2020332020382020312020302020302020302020300A2020322020392020322020302020302020302020300A4D20204348472020312020203620202D310A4D2020454E44
Contributor: Kusano M, Fukushima A, Plant Science Center, RIKEN.
InstType: EI
InstName: Pegasus III TOF-MS system, Leco; GC 6890, Agilent Technologies
IoniMethod: EI
IonPolarity: pos
Date: 2010-10-09 19:48:36+02:00
Num Peaks: 84
60 15 61 17 62 1 63 1 64 2 65 1 66 3 67 5 68 2 69 2 
70 20 71 10 72 23 73 999 74 96 75 98 76 8 77 10 78 1 79 2 
80 3 81 6 82 77 83 18 84 58 85 42 86 28 87 4 88 2 89 182 
90 16 91 9 92 1 93 1 96 1 97 3 98 8 99 13 100 13 101 3 
102 1 103 3 105 3 110 39 111 3 112 6 113 55 114 41 115 26 116 4 
117 8 118 1 126 6 127 3 128 9 129 26 130 3 131 1 140 10 141 7 
142 4 143 2 144 1 154 2 156 9 157 3 158 2 160 2 172 25 173 4 
174 2 184 1 187 1 189 53 190 7 191 2 200 59 201 9 202 3 203 24 
204 3 216 54 217 8 218 2 
