Name: Mesaconic acid
CAS: 498-24-8
MW: 130
Formula: C5H6O4
Synonym: KEGG: C01732
Synonym: CID: 4868
Synonym: MassBank: PR010190
Synonym: Mesaconic acid
Synonym: Mesaconate
Synonym: Methylfumaric acid
Synonym: 2-Methylfumarate
Structure: 310A32330A3C4341535F49443E203439382D32342D38093C4B4547475F49443E20433031373332093C4E414D453E204D657361636F6E617465093C464F524D554C413E20433548364F34093C45584143544D4153533E203133302E3032363630383637393939393938093C415645524147454D4153533E203133302E3039383734093C534D494C45533E204343283D4343284F293D4F2943284F293D4F093C434F505952494748543E2041524D2050524F4A45435420687474703A2F2F7777772E6D657461626F6C6F6D652E6A702F0A2020392020382020302020302020302020302020302020302020302020303939392056323030300A20202020342E3539383120202020312E3030303020202020302E303030302043202020302020302020302020302020302020302020302020302020302020302020302020300A20202020332E3733323120202020302E3530303020202020302E303030302043202020302020302020302020302020302020302020302020302020302020302020302020300A20202020332E373332312020202D302E3530303020202020302E303030302043202020302020302020302020312020302020302020302020302020302020302020302020300A20202020322E383636302020202D312E3030303020202020302E303030302043202020302020302020302020302020302020302020302020302020302020302020302020300A20202020322E3836363020202020312E3030303020202020302E303030302043202020302020302020302020332020302020302020302020302020302020302020302020300A20202020352E3436343120202020302E3530303020202020302E30303030204F202020302020302020302020312020302020302020302020302020302020302020302020300A20202020342E3539383120202020322E3030303020202020302E30303030204F202020302020302020302020302020302020302020302020302020302020302020302020300A20202020322E303030302020202D302E3530303020202020302E30303030204F202020302020302020302020302020302020302020302020302020302020302020302020300A20202020322E383636302020202D322E3030303020202020302E30303030204F202020302020302020302020312020302020302020302020302020302020302020302020300A2020322020352020312020302020302020302020300A2020322020332020322020302020302020302020300A2020312020362020312020302020302020302020300A2020312020372020322020302020302020302020300A2020322020312020312020302020302020302020300A2020342020392020312020302020302020302020300A2020342020382020322020302020302020302020300A2020332020342020312020302020302020302020300A4D2020454E44
Contributor: Kusano M, Fukushima A, Plant Science Center, RIKEN.
InstType: EI
InstName: Pegasus III TOF-MS system, Leco; GC 6890, Agilent Technologies
IoniMethod: EI
IonPolarity: pos
Date: 2010-10-09 19:48:36+02:00
Num Peaks: 103
60 17 61 48 62 4 63 3 64 1 65 3 66 34 67 145 68 5 69 12 
70 9 71 14 72 29 73 999 74 102 75 313 76 30 77 36 78 3 79 8 
80 1 81 7 82 10 83 42 84 7 85 10 86 1 87 6 88 1 89 5 
92 1 93 1 94 1 95 7 96 8 97 117 98 32 99 26 100 4 101 4 
102 2 103 8 104 1 105 3 111 3 112 22 113 14 114 2 115 9 116 2 
117 15 118 2 119 4 122 29 123 2 125 4 126 1 127 9 128 1 129 2 
131 11 132 3 133 44 134 6 135 4 140 8 141 45 142 10 143 5 144 1 
145 1 147 429 148 69 149 50 150 6 151 2 155 2 156 12 157 19 158 3 
159 2 163 3 169 15 170 2 171 5 172 1 173 1 184 244 185 40 186 12 
187 2 199 2 215 3 229 1 231 11 232 3 233 1 258 1 259 145 260 31 
261 13 262 2 274 2 
