Name: L-Cysteine
CAS: 52-90-4
MW: 121
Formula: C3H7NO2S
Synonym: KEGG: C00097
Synonym: CID: 3397
Synonym: MassBank: PR010015
Synonym: L-Cysteine
Synonym: L-2-Amino-3-mercaptopropionic acid
Structure: 310A31390A3C4341535F49443E2035322D39302D34093C4B4547475F49443E20433030303937093C4E414D453E204C2D4379737465696E65093C464F524D554C413E20433348374E4F3253093C45584143544D4153533E203132312E3031393734393136323939393939093C415645524147454D4153533E203132312E3135393232093C534D494C45533E204E5B434040485D2843532943284F293D4F093C434F505952494748543E2041524D2050524F4A45435420687474703A2F2F7777772E6D657461626F6C6F6D652E6A702F0A2020372020362020302020302020312020302020302020302020302020303939392056323030300A20202020332E3733323120202020302E3530303020202020302E303030302043202020302020302020302020302020302020302020302020302020302020302020302020300A20202020322E383636302020202D302E3030303020202020302E303030302043202020302020302020322020312020302020302020302020302020302020302020302020300A20202020322E383636302020202D312E3030303020202020302E303030302043202020302020302020302020322020302020302020302020302020302020302020302020300A20202020322E3030303020202020302E3530303020202020302E30303030204E202020302020302020302020322020302020302020302020302020302020302020302020300A20202020322E303030302020202D312E3530303020202020302E303030302053202020302020302020302020312020302020302020302020302020302020302020302020300A20202020342E353938312020202D302E3030303020202020302E30303030204F202020302020302020302020302020302020302020302020302020302020302020302020300A20202020332E3733323120202020312E3530303020202020302E30303030204F202020302020302020302020312020302020302020302020302020302020302020302020300A2020312020372020312020302020302020302020300A2020322020312020312020302020302020302020300A2020322020342020312020362020302020302020300A2020322020332020312020302020302020302020300A2020312020362020322020302020302020302020300A2020332020352020312020302020302020302020300A4D2020454E44
Contributor: Kusano M, Fukushima A, Plant Science Center, RIKEN.
InstType: EI
InstName: Pegasus III TOF-MS system, Leco; GC 6890, Agilent Technologies
IoniMethod: EI
IonPolarity: pos
Date: 2010-10-09 19:48:36+02:00
Num Peaks: 139
60 13 61 12 62 1 63 1 64 1 66 6 67 1 70 26 71 5 72 26 
73 999 74 110 75 101 76 15 77 25 78 2 79 4 82 1 83 2 84 6 
85 5 86 14 87 7 88 2 89 3 90 3 91 6 92 1 93 2 95 1 
98 6 99 3 100 221 101 35 102 17 103 14 104 2 105 4 106 1 107 1 
112 1 113 2 114 26 115 68 116 33 117 15 118 4 119 3 120 10 121 1 
122 1 128 3 129 11 130 16 131 30 132 42 133 25 134 6 135 2 142 2 
143 1 144 11 145 5 146 359 147 190 148 87 149 21 150 5 151 1 158 3 
159 4 160 4 161 2 162 1 163 4 164 1 172 8 173 2 174 9 175 2 
176 2 178 19 179 4 180 4 181 1 188 14 189 4 190 3 191 1 200 1 
202 4 203 7 204 3 205 1 206 1 216 27 217 8 218 359 219 74 220 47 
221 9 222 4 223 1 231 2 232 42 233 9 234 4 248 3 249 5 250 4 
251 1 252 1 260 4 261 2 262 2 263 1 264 34 265 19 266 69 267 15 
268 8 269 1 288 7 289 5 290 2 291 2 292 1 296 8 297 23 298 6 
299 4 322 2 338 3 339 1 410 2 411 26 412 9 413 6 414 1 
