Name: 5-Methylcytosine
CAS: 58366-64-6
MW: 125
Formula: C5H7N3O
Synonym: MassBank: PR010009
Synonym: 5-Methylcytosine
Structure: 310A32330A20204143442F4C6162733132303230363039343332440A2020392020392020302020302020302020302020302020302020302020302020312056323030300A20202031332E383236392020202D372E3935363020202020302E30303030204E202020302020302020302020302020302020302020302020302020302020302020302020300A20202031332E383236392020202D392E3238363020202020302E303030302043202020302020302020302020302020302020302020302020302020302020302020302020300A20202031322E363735302020202D372E3239313020202020302E303030302043202020302020302020302020302020302020302020302020302020302020302020302020300A20202031322E363735302020202D392E3935313020202020302E30303030204E202020302020302020302020302020302020302020302020302020302020302020302020300A20202031312E353233322020202D372E3935363020202020302E303030302043202020302020302020302020302020302020302020302020302020302020302020302020300A20202031312E353233322020202D392E3238363020202020302E303030302043202020302020302020302020302020302020302020302020302020302020302020302020300A20202031302E333731342020202D372E3239313020202020302E303030302043202020302020302020302020302020302020302020302020302020302020302020302020300A20202031302E333731342020202D392E3935313020202020302E30303030204E202020302020302020302020302020302020302020302020302020302020302020302020300A20202031342E393738372020202D392E3935313020202020302E30303030204F202020302020302020302020302020302020302020302020302020302020302020302020300A2020322020312020312020302020302020302020300A2020332020312020322020302020302020302020300A2020342020322020312020302020302020302020300A2020352020332020312020302020302020302020300A2020362020342020312020302020302020302020300A2020362020352020322020302020302020302020300A2020352020372020312020302020302020302020300A2020362020382020312020302020302020302020300A2020322020392020322020302020302020302020300A4D2020454E44
Contributor: Kusano M, Fukushima A, Plant Science Center, RIKEN.
InstType: EI
InstName: Pegasus III TOF-MS system, Leco; GC 6890, Agilent Technologies
IoniMethod: EI
IonPolarity: pos
Date: 2010-10-09 19:48:36+02:00
Num Peaks: 168
60 31 61 25 62 3 63 2 64 2 65 1 66 14 67 8 68 1 69 17 
70 69 71 33 72 98 73 999 74 176 75 73 76 10 77 25 78 9 79 51 
80 10 81 11 82 23 83 23 84 107 85 55 86 82 87 15 88 9 89 2 
90 2 91 1 92 1 93 2 94 2 95 8 96 24 97 19 98 45 99 30 
100 190 101 25 102 15 103 6 104 2 105 7 106 5 107 3 108 4 109 14 
110 26 111 29 112 327 113 51 114 25 115 12 116 19 117 13 118 4 119 8 
120 59 121 5 122 1 123 8 124 6 125 7 126 25 127 14 128 15 129 4 
130 64 131 42 132 23 133 37 134 7 135 3 136 1 137 14 138 17 139 136 
140 20 141 15 142 6 143 5 144 4 145 1 146 91 147 295 148 52 149 22 
150 5 151 3 152 4 153 15 154 9 155 4 156 3 157 18 158 11 159 3 
160 1 164 34 165 5 166 7 167 3 168 3 169 5 170 5 171 4 172 7 
173 2 174 1 178 2 179 1 180 6 181 8 182 37 183 7 184 166 185 35 
186 14 187 2 194 2 195 2 196 35 197 12 198 6 199 2 200 1 208 1 
209 1 210 1 211 27 212 7 213 3 222 1 224 7 225 7 226 3 227 17 
228 4 229 1 237 1 238 114 239 33 240 12 241 2 246 1 247 1 250 1 
252 4 253 6 254 912 255 216 256 89 257 14 258 2 260 1 261 1 262 1 
263 1 264 1 265 1 268 21 269 202 270 49 271 19 272 3 
