Name: N-acetyl putrescine
CAS: 18233-70-0
MW: 130
Formula: C6H14N2O
Synonym: KEGG: C02714
Synonym: CID: 5677
Synonym: MassBank: PR010224
Synonym: N-acetyl putrescine
Synonym: N-Acetylputrescine
Structure: 310A32330A3C4341535F49443E2031383233332D37302D30093C4B4547475F49443E20433032373134093C4E414D453E204E2D41636574796C70757472657363696E093C464F524D554C413E2043364831344E324F093C45584143544D4153533E203133302E3131303631333038093C415645524147454D4153533E203133302E3138383234093C534D494C45533E204E434343434E432843293D4F093C434F505952494748543E2041524D2050524F4A45435420687474703A2F2F7777772E6D657461626F6C6F6D652E6A702F0A2020392020382020302020302020302020302020302020302020302020303939392056323030300A20202020352E3436343120202020312E3735303020202020302E303030302043202020302020302020302020322020302020302020302020302020302020302020302020300A20202020342E3539383120202020312E3235303020202020302E303030302043202020302020302020302020322020302020302020302020302020302020302020302020300A20202020342E3539383120202020302E3235303020202020302E303030302043202020302020302020302020322020302020302020302020302020302020302020302020300A20202020332E373332312020202D302E3235303020202020302E303030302043202020302020302020302020322020302020302020302020302020302020302020302020300A20202020332E373332312020202D312E3235303020202020302E30303030204E202020302020302020302020312020302020302020302020302020302020302020302020300A20202020352E3436343120202020322E3735303020202020302E30303030204E202020302020302020302020322020302020302020302020302020302020302020302020300A20202020322E383636302020202D312E3735303020202020302E303030302043202020302020302020302020302020302020302020302020302020302020302020302020300A20202020322E303030302020202D312E3235303020202020302E303030302043202020302020302020302020332020302020302020302020302020302020302020302020300A20202020322E383636302020202D322E3735303020202020302E30303030204F202020302020302020302020302020302020302020302020302020302020302020302020300A2020372020382020312020302020302020302020300A2020372020352020312020302020302020302020300A2020352020342020312020302020302020302020300A2020372020392020322020302020302020302020300A2020342020332020312020302020302020302020300A2020332020322020312020302020302020302020300A2020322020312020312020302020302020302020300A2020312020362020312020302020302020302020300A4D2020454E44
Contributor: Kusano M, Fukushima A, Plant Science Center, RIKEN.
InstType: EI
InstName: Pegasus III TOF-MS system, Leco; GC 6890, Agilent Technologies
IoniMethod: EI
IonPolarity: pos
Date: 2010-10-09 19:48:36+02:00
Num Peaks: 219
60 39 61 21 62 2 65 1 66 4 67 3 68 4 69 3 70 184 71 24 
72 63 73 999 74 118 75 71 76 8 77 10 78 3 79 34 80 3 81 1 
82 7 83 6 84 196 85 33 86 382 87 50 88 24 89 5 90 2 91 2 
92 1 94 2 95 1 96 18 97 5 98 17 99 19 100 223 101 37 102 40 
103 9 104 4 105 2 106 1 107 1 108 1 109 1 110 5 111 4 112 44 
113 16 114 20 115 18 116 42 117 28 118 8 119 5 120 1 121 1 122 11 
123 1 124 2 125 2 126 7 127 2 128 24 129 14 130 70 131 32 132 27 
133 17 134 4 135 3 137 1 138 1 139 1 140 3 141 5 142 43 143 10 
144 29 145 14 146 34 147 74 148 16 149 8 150 2 151 1 152 1 153 1 
154 1 155 1 156 4 157 2 158 12 159 4 160 3 161 2 162 1 163 1 
164 1 166 1 167 1 168 2 169 3 170 7 171 5 172 19 173 36 174 702 
175 130 176 72 177 10 178 3 179 1 180 1 181 1 183 1 184 2 185 3 
186 5 187 2 188 1 189 1 190 1 191 1 192 1 195 1 196 1 197 1 
199 2 200 3 201 41 202 9 203 2 204 1 209 1 214 1 215 1 216 4 
217 1 218 5 219 2 220 1 227 1 229 1 236 1 240 1 243 2 248 1 
250 1 252 1 259 25 260 6 261 2 262 1 263 1 264 1 265 1 271 1 
274 3 275 1 276 1 282 1 299 1 302 1 308 1 311 1 340 1 344 1 
352 1 360 1 365 1 367 1 377 1 388 1 390 1 392 1 393 1 395 1 
398 1 399 1 404 1 408 1 423 1 485 1 486 1 497 1 503 1 510 1 
516 1 547 1 552 1 559 1 564 1 574 1 583 1 585 1 590 1 594 1 
600 1 656 1 658 1 663 1 667 1 669 1 672 1 676 1 681 1 685 1 
687 1 688 1 693 1 695 1 696 1 730 1 734 1 770 1 793 1 
