Name: 7-Hydroxy-4-methylcoumarin
CAS: 90-33-5
MW: 176
Formula: C10H8O3
Synonym: KEGG: C03081
Synonym: CID: 5979
Synonym: MassBank: PR010093
Synonym: 7-Hydroxy-4-methylcoumarin
Synonym: Hymecromone
Synonym: 4-Methylumbelliferone
Structure: 310A33320A20204143442F4C6162733132303230363039333733440A2031332031342020302020302020302020302020302020302020302020302020312056323030300A20202032312E323330302020202D382E3035323120202020302E303030302043202020302020302020302020302020302020302020302020302020302020302020302020300A20202032312E323330302020202D392E3338323120202020302E303030302043202020302020302020302020302020302020302020302020302020302020302020302020300A20202032302E303738312020202D372E3338373120202020302E303030302043202020302020302020302020302020302020302020302020302020302020302020302020300A20202032302E3037383120202D31302E3034373120202020302E303030302043202020302020302020302020302020302020302020302020302020302020302020302020300A20202031382E393236332020202D382E3035323120202020302E303030302043202020302020302020302020302020302020302020302020302020302020302020302020300A20202031382E393236332020202D392E3338323120202020302E303030302043202020302020302020302020302020302020302020302020302020302020302020302020300A20202031372E373734362020202D372E333837322020202D302E30303030204F202020302020302020302020302020302020302020302020302020302020302020302020300A20202031362E363232382020202D382E303532332020202D302E303030302043202020302020302020302020302020302020302020302020302020302020302020302020300A20202031372E3737343620202D31302E303437312020202D302E303030302043202020302020302020302020302020302020302020302020302020302020302020302020300A20202031362E363232392020202D392E333832322020202D302E303030302043202020302020302020302020302020302020302020302020302020302020302020302020300A20202031352E343731302020202D372E333837332020202D302E30303030204F202020302020302020302020302020302020302020302020302020302020302020302020300A20202032322E333831382020202D372E3338373120202020302E30303030204F202020302020302020302020302020302020302020302020302020302020302020302020300A20202031372E3737343720202D31312E333737312020202D302E303030302043202020302020302020302020302020302020302020302020302020302020302020302020300A2020322020312020312020302020302020302020300A2020332020312020322020302020302020302020300A2020342020322020322020302020302020302020300A2020352020332020312020302020302020302020300A2020362020342020312020302020302020302020300A2020372020352020312020302020302020302020300A2020362020352020322020302020302020302020300A2020382020372020312020302020302020302020300A2020392020362020312020302020302020302020300A2031302020382020312020302020302020302020300A2031302020392020322020302020302020302020300A2020382031312020322020302020302020302020300A2020312031322020312020302020302020302020300A2020392031332020312020302020302020302020300A4D2020454E44
Contributor: Kusano M, Fukushima A, Plant Science Center, RIKEN.
InstType: EI
InstName: Pegasus III TOF-MS system, Leco; GC 6890, Agilent Technologies
IoniMethod: EI
IonPolarity: pos
Date: 2010-10-09 19:48:36+02:00
Num Peaks: 175
60 18 61 64 62 77 63 179 64 37 65 181 66 32 67 112 68 2 69 43 
70 15 71 22 72 25 73 915 74 144 75 256 76 108 77 456 78 64 79 105 
80 12 81 18 82 9 83 45 84 7 85 37 86 18 87 118 88 146 89 82 
90 29 91 204 92 25 93 38 94 22 95 59 96 8 97 13 98 10 99 59 
100 9 101 40 102 591 103 308 104 30 105 46 106 8 107 21 108 4 109 26 
110 5 111 8 112 1 113 5 114 4 115 124 116 25 117 49 118 12 119 55 
120 9 121 24 122 5 123 12 124 2 125 4 126 2 127 10 128 18 129 34 
130 15 131 86 132 14 133 25 134 7 135 45 136 9 137 12 138 2 139 1 
141 2 142 1 143 7 144 6 145 50 146 11 147 83 148 16 149 91 150 15 
151 39 152 6 153 2 155 1 157 2 158 2 159 42 160 8 161 52 162 31 
163 40 164 8 165 292 166 46 167 14 168 2 169 1 171 3 172 1 173 19 
174 10 175 50 176 13 177 512 178 84 179 26 180 3 181 1 185 3 186 1 
187 7 188 2 189 83 190 22 191 11 192 3 193 2 194 1 195 1 196 1 
197 1 199 1 200 1 201 3 202 2 203 31 204 16 205 389 206 79 207 23 
208 3 209 1 210 1 211 1 212 1 213 1 214 1 215 2 216 2 217 6 
218 7 219 14 220 286 221 70 222 19 223 3 231 2 232 7 233 999 234 187 
235 56 236 7 237 1 238 1 239 1 240 1 241 1 242 1 243 1 247 6 
248 828 249 164 250 47 251 5 252 1 
