Name: D-Fructose 6-phosphate
CAS: 26177-86-6
MW: 260
Formula: C6H13O9P
Synonym: MassBank: PR010049
Synonym: D-Fructose 6-phosphate
Structure: 310A33360A20204143442F4C6162733132303230363134333232440A2031362031352020302020302020312020302020302020302020302020302020312056323030300A20202031302E393830342020202D372E3936383020202020302E303030302043202020302020302020302020302020302020302020302020302020302020302020302020300A20202031322E313332322020202D382E3633333020202020302E303030302043202020302020302020302020302020302020302020302020302020302020302020302020300A20202031332E323833392020202D372E3936383020202020302E303030302043202020302020302020302020302020302020302020302020302020302020302020302020300A20202031342E343335382020202D382E3633333020202020302E303030302043202020302020302020302020302020302020302020302020302020302020302020302020300A20202031352E353837362020202D372E3936383020202020302E303030302043202020302020302020302020302020302020302020302020302020302020302020302020300A20202031362E373339342020202D382E3633333020202020302E30303030204F202020302020302020302020302020302020302020302020302020302020302020302020300A20202031342E343335372020202D392E3936333020202020302E30303030204F202020302020302020302020302020302020302020302020302020302020302020302020300A20202031332E323833392020202D362E3633383020202020302E30303030204F202020302020302020302020302020302020302020302020302020302020302020302020300A20202020392E383238362020202D382E3633333020202020302E303030302043202020302020302020302020302020302020302020302020302020302020302020302020300A20202031322E313332322020202D392E3936333020202020302E30303030204F202020302020302020302020302020302020302020302020302020302020302020302020300A20202031302E393830332020202D362E3633383020202020302E30303030204F202020302020302020302020302020302020302020302020302020302020302020302020300A20202020382E363736372020202D372E3936383120202020302E30303030204F202020302020302020302020302020302020302020302020302020302020302020302020300A20202020372E353234392020202D382E3633333120202020302E303030302050202020302020302020302020302020302020302020302020302020302020302020302020300A20202020362E333733312020202D392E3239383120202020302E30303030204F202020302020302020302020302020302020302020302020302020302020302020302020300A20202020362E383539392020202D372E3438313320202020302E30303030204F202020302020302020302020302020302020302020302020302020302020302020302020300A20202020382E313930302020202D392E3738343920202020302E30303030204F202020302020302020302020302020302020302020302020302020302020302020302020300A2020322020312020312020302020302020302020300A2020332020322020312020302020302020302020300A2020342020332020312020302020302020302020300A2020352020342020312020302020302020302020300A2020352020362020312020302020302020302020300A2020342020372020322020302020302020302020300A2020332020382020312020362020302020302020300A2020312020392020312020302020302020302020300A2020322031302020312020362020302020302020300A2020312031312020312020312020302020302020300A2020392031322020312020302020302020302020300A2031322031332020312020302020302020302020300A2031332031342020312020302020302020302020300A2031332031352020312020302020302020302020300A2031332031362020322020302020302020302020300A4D2020454E44
Contributor: Kusano M, Fukushima A, Plant Science Center, RIKEN.
InstType: EI
InstName: Pegasus III TOF-MS system, Leco; GC 6890, Agilent Technologies
IoniMethod: EI
IonPolarity: pos
Date: 2010-10-09 19:48:36+02:00
Num Peaks: 201
60 4 61 7 63 1 66 3 67 2 69 1 70 4 71 4 72 14 73 999 
74 85 75 58 76 4 77 15 78 1 79 7 80 1 81 1 82 4 83 2 
84 24 85 5 86 2 87 4 88 3 89 51 90 4 91 2 94 1 98 2 
99 5 100 9 101 35 102 6 103 81 104 8 105 9 106 1 107 1 111 2 
112 1 113 7 114 17 115 7 116 13 117 19 118 2 119 6 121 1 126 3 
127 3 128 3 129 73 130 11 131 17 132 3 133 51 134 7 135 8 136 1 
137 2 138 1 140 1 141 1 142 5 143 6 144 1 145 2 146 1 147 113 
148 18 149 14 150 2 151 4 152 1 153 1 154 1 155 1 156 3 157 8 
158 2 159 2 161 1 163 4 165 1 168 2 170 1 171 1 172 6 173 6 
174 2 175 1 177 1 179 1 180 2 181 3 182 1 183 1 186 1 187 1 
188 1 189 5 190 1 191 8 192 2 193 4 194 1 195 4 196 2 197 1 
198 1 200 1 201 2 202 1 203 2 204 7 205 6 206 1 207 9 208 2 
209 2 210 1 211 26 212 4 213 2 214 2 215 2 216 3 217 121 218 26 
219 11 220 1 221 2 225 9 226 1 227 7 228 2 229 1 230 2 231 2 
232 1 240 1 241 1 242 1 243 1 244 2 245 1 247 1 253 2 254 1 
255 1 256 2 260 2 262 2 268 2 269 2 270 2 283 2 284 1 285 3 
286 2 298 3 299 71 300 22 301 11 302 3 303 1 313 1 314 5 315 162 
316 43 317 23 318 4 319 2 328 1 329 1 341 3 342 1 343 1 356 1 
357 17 358 5 359 3 360 1 369 1 373 2 374 1 386 1 387 10 388 4 
389 3 390 1 402 1 403 5 404 2 405 1 458 2 459 18 460 7 461 5 
462 1 
