Name: Nicotinamide
CAS: 98-92-0
MW: 122
Formula: C6H6N2O
Synonym: KEGG: C00153
Synonym: CID: 3453
Synonym: MassBank: PR010181
Synonym: Nicotinamide
Synonym: Nicotinic acid amide
Synonym: Vitamin PP
Synonym: Niacinamide
Structure: 310A32340A3C4341535F49443E2039382D39322D30093C4B4547475F49443E20433030313533093C4E414D453E204E69636F74696E616D696465093C464F524D554C413E20433648364E324F093C45584143544D4153533E203132322E303438303132383234093C415645524147454D4153533E203132322E3132343732093C534D494C45533E204E43283D4F296328633129636E636331093C434F505952494748543E2041524D2050524F4A45435420687474703A2F2F7777772E6D657461626F6C6F6D652E6A702F0A2020392020392020302020302020302020302020302020302020302020303939392056323030300A20202020332E3733323120202020312E3235303020202020302E30303030204E202020302020302020302020302020302020302020302020302020302020302020302020300A20202020332E3733323120202020302E3235303020202020302E303030302043202020302020302020302020312020302020302020302020302020302020302020302020300A20202020322E383636302020202D302E3235303020202020302E303030302043202020302020302020302020302020302020302020302020302020302020302020302020300A20202020322E3030303020202020302E3235303020202020302E303030302043202020302020302020302020312020302020302020302020302020302020302020302020300A20202020322E3030303020202020312E3235303020202020302E303030302043202020302020302020302020312020302020302020302020302020302020302020302020300A20202020322E3836363020202020312E3735303020202020302E303030302043202020302020302020302020312020302020302020302020302020302020302020302020300A20202020322E383636302020202D312E3235303020202020302E303030302043202020302020302020302020302020302020302020302020302020302020302020302020300A20202020332E373332312020202D312E3735303020202020302E30303030204E202020302020302020302020322020302020302020302020302020302020302020302020300A20202020322E303030302020202D312E3735303020202020302E30303030204F202020302020302020302020302020302020302020302020302020302020302020302020300A2020362020312020322020302020302020302020300A2020362020352020312020302020302020302020300A2020352020342020322020302020302020302020300A2020342020332020312020302020302020302020300A2020332020322020322020302020302020302020300A2020322020312020312020302020302020302020300A2020372020392020322020302020302020302020300A2020372020382020312020302020302020302020300A2020332020372020312020302020302020302020300A4D2020454E44
Contributor: Kusano M, Fukushima A, Plant Science Center, RIKEN.
InstType: EI
InstName: Pegasus III TOF-MS system, Leco; GC 6890, Agilent Technologies
IoniMethod: EI
IonPolarity: pos
Date: 2010-10-09 19:48:36+02:00
Num Peaks: 88
60 31 61 72 62 9 63 9 64 9 65 10 66 8 67 10 68 1 69 2 
70 52 71 8 72 57 73 121 74 61 75 999 76 158 77 165 78 265 79 64 
80 10 81 3 82 15 83 9 84 5 85 4 86 9 87 1 88 1 89 4 
90 5 91 2 92 5 93 10 94 8 95 2 96 1 100 26 101 3 102 3 
103 7 104 94 105 137 106 30 107 5 108 4 109 3 110 3 116 1 118 1 
119 11 120 7 121 2 122 6 123 1 131 1 132 1 133 1 134 3 135 3 
136 209 137 28 138 9 147 2 148 1 149 3 150 4 151 3 152 1 161 2 
162 1 163 7 164 2 165 4 166 1 175 5 176 1 177 1 178 2 179 507 
180 75 181 23 182 2 184 1 193 35 194 24 195 5 196 1 
