Name: (S)-1-Aminoethylphosphonic acid
CAS: 66068-76-6
MW: 125
Formula: C2H8NO3P
Synonym: MassBank: PR010123
Synonym: (S)-1-Aminoethylphosphonic acid
Structure: 310A31380A36363036382D37362D362E6D6F6C0A20204368656D447261773132303530363138333032440A2020372020362020302020302020302020302020302020302020302020303939392056323030300A2020202D312E303731372020202D302E3236313520202020302E30303030204E202020302020302020302020302020302020302020302020302020302020302020302020300A2020202D302E3335373220202020302E3135313020202020302E303030302043202020302020302020302020302020302020302020302020302020302020302020302020300A20202020302E333537322020202D302E3236313520202020302E303030302050202020302020302020302020302020302020302020302020302020302020302020302020300A2020202D302E3335373220202020302E3937363020202020302E303030302043202020302020302020302020302020302020302020302020302020302020302020302020300A20202020312E303731372020202D302E3637343020202020302E30303030204F202020302020302020302020302020302020302020302020302020302020302020302020300A20202020302E3736393720202020302E3435323920202020302E30303030204F202020302020302020302020302020302020302020302020302020302020302020302020300A2020202D302E303535332020202D302E3937363020202020302E30303030204F202020302020302020302020302020302020302020302020302020302020302020302020300A2020322020312020312020302020202020200A2020322020332020312020362020202020200A2020322020342020312020302020202020200A2020332020352020312020302020202020200A2020332020362020312020302020202020200A2020332020372020322020302020202020200A4D2020454E44
Contributor: Kusano M, Fukushima A, Plant Science Center, RIKEN.
InstType: EI
InstName: Pegasus III TOF-MS system, Leco; GC 6890, Agilent Technologies
IoniMethod: EI
IonPolarity: pos
Date: 2010-10-09 19:48:36+02:00
Num Peaks: 106
60 21 61 33 62 2 63 3 66 3 67 1 69 1 70 16 71 7 72 23 
73 827 74 68 75 47 76 4 77 47 78 4 79 14 80 1 82 1 83 2 
84 5 85 2 86 14 87 4 88 1 89 3 90 1 91 5 92 1 93 1 
96 2 98 3 99 2 100 99 101 14 102 7 103 9 104 2 105 7 106 1 
107 4 113 1 114 19 115 34 116 999 117 109 118 38 119 10 120 2 121 34 
122 3 123 2 130 1 131 14 132 4 133 47 134 7 135 62 136 7 137 5 
147 62 148 10 149 10 150 1 151 7 152 1 164 2 165 2 174 1 177 4 
178 1 179 2 181 2 190 3 191 5 192 1 193 2 194 1 195 44 196 7 
197 5 207 58 208 12 209 11 210 5 211 24 212 4 213 1 221 1 223 1 
225 7 226 3 227 3 283 20 284 7 285 3 297 2 298 133 299 36 300 19 
301 3 326 6 327 1 328 1 341 5 342 1 
