Name: D-(-)-Fructose
CAS: 57-48-7
MW: 180
Formula: C6H12O6
Synonym: KEGG: C00095
Synonym: CID: 3395
Synonym: MassBank: PR010041
Synonym: D-(-)-Fructose
Synonym: Levulose
Synonym: Fruit sugar
Synonym: D-arabino-Hexulose
Synonym: D-Fructose
Structure: 310A33300A3C4341535F49443E2035372D34382D37093C4B4547475F49443E20433030303935093C4E414D453E20442D46727563746F7365093C464F524D554C413E2043364831324F36093C45584143544D4153533E203138302E303633333838313136093C415645524147454D4153533E203138302E3135353838093C534D494C45533E204F435B434040485D284F31295B434040485D284F295B4340485D284F2943284F2928434F2931093C434F505952494748543E2041524D2050524F4A45435420687474703A2F2F7777772E6D657461626F6C6F6D652E6A702F0A2031322031322020302020302020312020302020302020302020302020303939392056323030300A20202020332E3236303120202020312E3531393420202020302E303030302043202020302020302020302020322020302020302020302020302020302020302020302020300A20202020332E3236303120202020302E3531393420202020302E303030302043202020302020302020332020302020302020302020302020302020302020302020302020300A20202020322E393531312020202D302E3433313620202020302E303030302043202020302020302020322020312020302020302020302020302020302020302020302020300A20202020332E373630312020202D312E3031393420202020302E303030302043202020302020302020312020312020302020302020302020302020302020302020302020300A20202020342E353639312020202D302E3433313620202020302E303030302043202020302020302020312020312020302020302020302020302020302020302020302020300A20202020352E353230312020202D302E3734303720202020302E303030302043202020302020302020302020322020302020302020302020302020302020302020302020300A20202020342E3132363120202020322E3031393420202020302E30303030204F202020302020302020302020312020302020302020302020302020302020302020302020300A20202020322E3330393020202020302E3832383420202020302E30303030204F202020302020302020302020312020302020302020302020302020302020302020302020300A20202020322E303030302020202D302E3734303720202020302E30303030204F202020302020302020302020312020302020302020302020302020302020302020302020300A20202020332E373630312020202D322E3031393420202020302E30303030204F202020302020302020302020312020302020302020302020302020302020302020302020300A20202020342E3236303120202020302E3531393420202020302E30303030204F202020302020302020302020302020302020302020302020302020302020302020302020300A20202020362E323633332020202D302E3037313520202020302E30303030204F202020302020302020302020312020302020302020302020302020302020302020302020300A2020352031312020312020362020302020302020300A2020352020342020312020302020302020302020300A2031312020322020312020302020302020302020300A2020342020332020312020302020302020302020300A2020322020332020312020302020302020302020300A2020322020312020312020302020302020302020300A2020312020372020312020302020302020302020300A2020352020362020312020302020302020302020300A2020362031322020312020302020302020302020300A2020342031302020312020312020302020302020300A2020332020392020312020362020302020302020300A2020322020382020312020342020302020302020300A4D2020454E44
Contributor: Kusano M, Fukushima A, Plant Science Center, RIKEN.
InstType: EI
InstName: Pegasus III TOF-MS system, Leco; GC 6890, Agilent Technologies
IoniMethod: EI
IonPolarity: pos
Date: 2010-10-09 19:48:36+02:00
Num Peaks: 138
60 4 61 6 66 4 67 1 69 1 70 4 71 4 72 18 73 999 74 86 
75 51 76 3 77 8 82 4 83 1 84 19 85 4 86 1 87 5 88 5 
89 62 90 5 91 2 98 1 99 3 100 11 101 14 102 5 103 501 104 48 
105 22 106 1 111 1 113 4 114 12 115 7 116 5 117 53 118 7 119 7 
126 2 127 1 128 3 129 36 130 7 131 20 132 3 133 68 134 8 135 4 
140 1 141 1 142 4 143 7 144 2 145 5 146 1 147 173 148 26 149 16 
150 2 151 1 156 1 157 6 158 2 159 2 161 1 163 7 164 1 168 1 
172 14 173 17 174 3 175 5 176 1 177 4 186 1 187 1 188 2 189 26 
190 6 191 15 192 2 193 1 200 1 201 8 202 5 203 4 204 12 205 19 
206 4 207 5 214 2 216 4 217 233 218 47 219 21 220 3 221 5 222 1 
229 1 230 2 231 5 232 1 233 1 235 1 244 2 246 1 247 1 256 3 
260 1 261 1 262 2 263 6 264 1 276 1 277 16 278 6 279 2 288 1 
291 3 292 1 302 1 305 1 306 1 307 79 308 23 309 11 310 2 318 1 
330 1 333 1 334 2 335 5 336 1 364 10 365 3 366 1 
