Name: Taurine
CAS: 107-35-7
MW: 125
Formula: C2H7NO3S
Synonym: KEGG: C00245
Synonym: CID: 3544
Synonym: MassBank: PR010028
Synonym: Taurine
Synonym: 2-Aminoethanesulfonic acid
Synonym: Aminoethylsulfonic acid
Structure: 310A31390A3C4341535F49443E203130372D33352D37093C4B4547475F49443E20433030323435093C4E414D453E2054617572696E65093C464F524D554C413E20433248374E4F3353093C45584143544D4153533E203132352E303134363633373835093C415645524147454D4153533E203132352E3134373932093C534D494C45533E204E434353284F29283D4F293D4F093C434F505952494748543E2041524D2050524F4A45435420687474703A2F2F7777772E6D657461626F6C6F6D652E6A702F0A2020372020362020302020302020302020302020302020302020302020303939392056323030300A20202020332E373332312020202D302E3036373020202020302E303030302043202020302020302020302020322020302020302020302020302020302020302020302020300A20202020332E3733323120202020302E3933333020202020302E303030302043202020302020302020302020322020302020302020302020302020302020302020302020300A20202020342E3539383120202020312E3433333020202020302E30303030204E202020302020302020302020322020302020302020302020302020302020302020302020300A20202020322E383636302020202D302E3536373020202020302E303030302053202020302020302020302020302020302020302020302020302020302020302020302020300A20202020322E3336363020202020302E3239393020202020302E30303030204F202020302020302020302020312020302020302020302020302020302020302020302020300A20202020332E333636302020202D312E3433333020202020302E30303030204F202020302020302020302020302020302020302020302020302020302020302020302020300A20202020322E303030302020202D312E3036373020202020302E30303030204F202020302020302020302020302020302020302020302020302020302020302020302020300A2020312020342020312020302020302020302020300A2020342020352020312020302020302020302020300A2020322020312020312020302020302020302020300A2020342020362020322020302020302020302020300A2020332020322020312020302020302020302020300A2020342020372020322020302020302020302020300A4D2020454E44
Contributor: Kusano M, Fukushima A, Plant Science Center, RIKEN.
InstType: EI
InstName: Pegasus III TOF-MS system, Leco; GC 6890, Agilent Technologies
IoniMethod: EI
IonPolarity: pos
Date: 2010-10-09 19:48:36+02:00
Num Peaks: 103
60 17 61 11 62 1 63 2 64 12 65 2 66 14 67 1 70 13 71 7 
72 29 73 999 74 92 75 50 76 4 77 27 78 2 79 5 83 1 84 3 
85 7 86 84 87 13 88 5 89 2 92 1 93 8 95 4 98 3 99 4 
100 152 101 20 102 13 103 7 104 1 105 3 113 8 114 37 115 15 116 13 
117 14 118 2 119 8 120 1 122 1 123 1 129 3 130 76 131 36 132 13 
133 92 134 14 135 8 136 1 137 1 144 1 145 1 146 12 147 374 148 57 
149 30 150 3 151 1 152 1 153 2 158 3 160 22 161 4 162 2 172 29 
173 6 174 154 175 28 176 13 177 2 187 1 188 77 189 15 190 6 191 1 
196 2 197 1 204 1 211 6 212 1 225 45 226 8 227 6 238 22 239 4 
240 3 241 1 248 11 249 2 250 1 252 1 254 1 325 3 326 224 327 61 
328 40 329 8 330 2 
