Name: (S)-(+)-2-(anilinomethyl)pyrrolidine
CAS: 64030-44-0
MW: 176
Formula: C11H16N2
Synonym: MassBank: PR010221
Synonym: (S)-(+)-2-(anilinomethyl)pyrrolidine
Structure: 310A33320A20204143442F4C6162733132303230363138323732440A2031332031342020302020302020302020302020302020302020302020302020312056323030300A20202031332E3337383220202D31312E3036343620202020302E303030302043202020302020302020302020302020302020302020302020302020302020302020302020300A20202031332E3337383220202D31322E3339343620202020302E303030302043202020302020302020302020302020302020302020302020302020302020302020302020300A20202031322E3232363320202D31302E3339393620202020302E303030302043202020302020302020302020302020302020302020302020302020302020302020302020300A20202031322E3232363320202D31332E3035393620202020302E303030302043202020302020302020302020302020302020302020302020302020302020302020302020300A20202031312E3037343520202D31312E3036343620202020302E303030302043202020302020302020302020302020302020302020302020302020302020302020302020300A20202031312E3037343520202D31322E3339343620202020302E303030302043202020302020302020302020302020302020302020302020302020302020302020302020300A20202020392E3932323720202D31302E3339393620202020302E30303030204E202020302020302020302020302020302020302020302020302020302020302020302020300A20202020382E3737303920202D31312E3036343620202020302E303030302043202020302020302020302020302020302020302020302020302020302020302020302020300A20202020372E3631393120202D31302E3339393620202020302E303030302043202020302020302020302020302020302020302020302020302020302020302020302020300A20202020352E3436373120202D31302E3430313520202020302E303030302043202020302020302020302020302020302020302020302020302020302020302020302020300A20202020362E3534333820202D31312E3138323320202020302E30303030204E202020302020302020302020302020302020302020302020302020302020302020302020300A20202020352E383737302020202D392E3133363220202020302E303030302043202020302020302020302020302020302020302020302020302020302020302020302020300A20202020372E323037322020202D392E3133353120202020302E303030302043202020302020302020302020302020302020302020302020302020302020302020302020300A2020322020312020312020302020302020302020300A2020332020312020322020302020302020302020300A2020342020322020322020302020302020302020300A2020352020332020312020302020302020302020300A2020362020342020312020302020302020302020300A2020362020352020322020302020302020302020300A2020352020372020312020302020302020302020300A2020372020382020312020302020302020302020300A2020382020392020312020302020302020302020300A2031312031302020312020302020302020302020300A2031322031302020312020302020302020302020300A2020392031312020312020302020302020302020300A2031332031322020312020302020302020302020300A2031332020392020312020302020302020302020300A4D2020454E44
Contributor: Kusano M, Fukushima A, Plant Science Center, RIKEN.
InstType: EI
InstName: Pegasus III TOF-MS system, Leco; GC 6890, Agilent Technologies
IoniMethod: EI
IonPolarity: pos
Date: 2010-10-09 19:48:36+02:00
Num Peaks: 112
60 9 61 3 62 1 63 12 64 6 65 22 66 6 67 4 68 4 69 6 
70 63 71 8 72 78 73 999 74 95 75 30 76 7 77 217 78 25 79 45 
80 3 81 1 82 10 83 7 84 13 85 13 86 11 88 2 89 2 90 3 
91 11 92 4 93 6 94 2 96 1 97 2 98 8 99 10 100 20 101 4 
102 2 103 1 104 27 105 17 106 159 107 25 108 2 110 1 111 1 112 3 
113 5 114 2 115 4 116 1 117 5 118 5 119 1 120 3 121 2 124 1 
126 2 127 4 128 5 129 1 130 3 132 5 133 1 134 5 135 1 136 1 
139 1 140 12 141 8 142 950 143 125 144 40 145 5 146 1 150 15 151 3 
152 1 154 3 155 1 158 2 160 2 162 2 171 1 175 1 203 2 213 1 
225 1 226 1 231 1 233 7 234 1 248 3 263 1 346 1 373 1 394 1 
434 1 464 1 481 1 528 1 567 1 582 1 583 1 653 1 677 1 679 1 
730 1 739 1 
