Name: Histamine
CAS: 51-45-6
MW: 111
Formula: C5H9N3
Synonym: KEGG: C00388
Synonym: CID: 3678
Synonym: MassBank: PR010122
Synonym: Histamine
Synonym: 2-(4-Imidazolyl)ethylamine
Synonym: 1H-Imidazole-4-ethanamine
Structure: 310A32320A3C4341535F49443E2035312D34352D36093C4B4547475F49443E20433030333838093C4E414D453E2031482D496D6964617A6F6C652D342D657468616E616D696E65093C464F524D554C413E20433548394E33093C45584143544D4153533E203131312E303739363437333033093C415645524147454D4153533E203131312E3134353138303030303030303031093C534D494C45533E204E434363286331296E636E31093C434F505952494748543E2041524D2050524F4A45435420687474703A2F2F7777772E6D657461626F6C6F6D652E6A702F0A2020382020382020302020302020302020302020302020302020302020303939392056323030300A20202020352E343739312020202D302E3933383420202020302E30303030204E202020302020302020302020302020302020302020302020302020302020302020302020300A20202020342E363730312020202D312E3532363220202020302E303030302043202020302020302020302020312020302020302020302020302020302020302020302020300A20202020332E383631312020202D302E3933383420202020302E30303030204E202020302020302020302020312020302020302020302020302020302020302020302020300A20202020342E3137303120202020302E3031323720202020302E303030302043202020302020302020302020302020302020302020302020302020302020302020302020300A20202020352E3137303120202020302E3031323720202020302E303030302043202020302020302020302020312020302020302020302020302020302020302020302020300A20202020332E3538323320202020302E3832313720202020302E303030302043202020302020302020302020322020302020302020302020302020302020302020302020300A20202020322E3538373820202020302E3731373220202020302E303030302043202020302020302020302020322020302020302020302020302020302020302020302020300A20202020322E3030303020202020312E3532363220202020302E30303030204E202020302020302020302020322020302020302020302020302020302020302020302020300A2020322020312020322020302020302020302020300A2020362020372020312020302020302020302020300A2020342020362020312020302020302020302020300A2020372020382020312020302020302020302020300A2020332020322020312020302020302020302020300A2020312020352020312020302020302020302020300A2020352020342020322020302020302020302020300A2020342020332020312020302020302020302020300A4D2020454E44
Contributor: Kusano M, Fukushima A, Plant Science Center, RIKEN.
InstType: EI
InstName: Pegasus III TOF-MS system, Leco; GC 6890, Agilent Technologies
IoniMethod: EI
IonPolarity: pos
Date: 2010-10-09 19:48:36+02:00
Num Peaks: 126
60 12 61 5 66 1 67 2 69 3 70 15 71 8 72 20 73 999 74 79 
75 27 76 2 77 8 78 2 79 15 80 2 81 5 82 3 83 8 84 24 
85 11 86 271 87 26 88 10 89 1 95 2 96 2 97 2 98 8 99 4 
100 133 101 19 102 12 103 2 109 1 110 3 111 5 112 11 113 6 114 4 
115 4 116 11 117 10 118 2 119 1 123 2 124 1 125 3 126 2 127 2 
128 1 129 2 130 49 131 12 132 6 133 1 135 1 136 1 137 3 138 3 
139 4 140 2 141 2 142 2 143 1 144 2 145 1 146 7 147 2 148 1 
149 2 150 3 151 3 152 2 153 11 154 13 155 4 156 1 158 3 160 1 
164 2 165 1 166 10 167 3 168 3 170 4 171 1 172 6 173 2 174 727 
175 119 176 58 177 6 178 1 180 1 181 1 182 1 184 2 185 1 195 1 
197 2 198 1 208 1 210 1 211 3 212 2 222 1 223 1 224 28 225 9 
226 96 227 22 228 8 229 1 238 5 239 2 240 7 241 1 254 2 310 1 
311 2 312 59 313 18 314 8 315 1 326 1 
