Name: D-(+)-Glucose
CAS: 50-99-7
MW: 180
Formula: C6H12O6
Synonym: KEGG: C00031
Synonym: CID: 3333
Synonym: MassBank: PR010032
Synonym: D-(+)-Glucose
Synonym: Grape sugar
Synonym: Dextrose
Synonym: D-Glucose
Structure: 310A33300A3C4341535F49443E2035302D39392D37093C4B4547475F49443E20433030303331093C4E414D453E20442D476C75636F7365093C464F524D554C413E2043364831324F36093C45584143544D4153533E203138302E303633333838313136093C415645524147454D4153533E203138302E3135353838093C534D494C45533E204F435B434040485D284F31295B434040485D284F295B4340485D284F295B434040485D284F2943284F2931093C434F505952494748543E2041524D2050524F4A45435420687474703A2F2F7777772E6D657461626F6C6F6D652E6A702F0A2031322031322020302020302020312020302020302020302020302020303939392056323030300A20202020332E3733323120202020312E3030303020202020302E303030302043202020302020302020332020312020302020302020302020302020302020302020302020300A20202020322E3836363020202020302E3530303020202020302E303030302043202020302020302020312020312020302020302020302020302020302020302020302020300A20202020322E383636302020202D302E3530303020202020302E303030302043202020302020302020322020312020302020302020302020302020302020302020302020300A20202020332E373332312020202D312E3030303020202020302E303030302043202020302020302020312020312020302020302020302020302020302020302020302020300A20202020342E353938312020202D302E3530303020202020302E303030302043202020302020302020312020312020302020302020302020302020302020302020302020300A20202020352E343634312020202D312E3030303020202020302E303030302043202020302020302020302020322020302020302020302020302020302020302020302020300A20202020332E3733323120202020322E3030303020202020302E30303030204F202020302020302020302020312020302020302020302020302020302020302020302020300A20202020322E3030303020202020312E3030303020202020302E30303030204F202020302020302020302020312020302020302020302020302020302020302020302020300A20202020322E303030302020202D312E3030303020202020302E30303030204F202020302020302020302020312020302020302020302020302020302020302020302020300A20202020332E373332312020202D322E3030303020202020302E30303030204F202020302020302020302020312020302020302020302020302020302020302020302020300A20202020342E3539383120202020302E3530303020202020302E30303030204F202020302020302020302020302020302020302020302020302020302020302020302020300A20202020362E333330312020202D302E3530303020202020302E30303030204F202020302020302020302020312020302020302020302020302020302020302020302020300A2031322020362020312020302020302020302020300A2020352031312020312020362020302020302020300A2031312020312020312020302020302020302020300A2020312020322020312020302020302020302020300A2020322020332020312020302020302020302020300A2020332020342020312020302020302020302020300A2020342020352020312020302020302020302020300A2020352020362020312020302020302020302020300A2020312020372020312020342020302020302020300A2020322020382020312020312020302020302020300A2020332020392020312020362020302020302020300A2020342031302020312020312020302020302020300A4D2020454E44
Contributor: Kusano M, Fukushima A, Plant Science Center, RIKEN.
InstType: EI
InstName: Pegasus III TOF-MS system, Leco; GC 6890, Agilent Technologies
IoniMethod: EI
IonPolarity: pos
Date: 2010-10-09 19:48:36+02:00
Num Peaks: 132
60 4 61 5 66 4 67 2 69 2 70 3 71 3 72 15 73 999 74 83 
75 55 76 4 77 3 81 1 82 2 83 12 84 2 85 3 86 2 87 4 
88 3 89 58 90 5 91 2 96 2 97 3 98 1 99 2 100 13 101 12 
102 7 103 155 104 15 105 16 106 2 111 1 113 3 114 3 115 4 116 4 
117 60 118 6 119 7 126 1 127 2 128 1 129 80 130 13 131 20 132 3 
133 54 134 7 135 4 141 1 142 1 143 9 144 1 145 2 146 1 147 201 
148 32 149 19 150 2 151 1 154 1 157 56 158 8 159 5 160 81 161 17 
162 4 163 6 164 1 169 3 172 2 173 2 174 1 175 3 177 5 178 1 
186 2 187 1 188 1 189 17 190 5 191 8 192 1 201 5 202 1 203 2 
204 16 205 127 206 25 207 13 208 1 214 3 215 1 216 1 217 52 218 11 
219 5 220 1 221 3 229 15 230 4 231 4 232 1 233 8 234 2 235 4 
242 1 243 1 244 1 245 1 246 1 247 1 268 1 273 1 274 1 277 3 
278 1 291 4 292 1 300 1 305 3 306 1 307 3 318 2 319 94 320 29 
321 14 322 2 
