Name: 1-Aminocyclopropane-1-carboxylic acid
CAS: 22059-21-8
MW: 101
Formula: C4H7NO2
Synonym: KEGG: C01234
Synonym: CID: 4455
Synonym: MassBank: PR010007
Synonym: 1-Aminocyclopropane-1-carboxylic acid
Synonym: 1-Aminocyclopropane-1-carboxylate
Structure: 310A32300A3C4341535F49443E2032323035392D32312D38093C4B4547475F49443E20433031323334093C4E414D453E20312D416D696E6F6379636C6F70726F70616E652D312D636172626F78796C617465093C464F524D554C413E20433448374E4F32093C45584143544D4153533E203130312E3034373637383437323939393939093C415645524147454D4153533E203130312E3130333932093C534D494C45533E204F43283D4F2943284E29284331294331093C434F505952494748543E2041524D2050524F4A45435420687474703A2F2F7777772E6D657461626F6C6F6D652E6A702F0A2020372020372020302020302020302020302020302020302020302020303939392056323030300A20202020332E3733323120202020302E3235303020202020302E303030302043202020302020302020302020302020302020302020302020302020302020302020302020300A20202020342E323332312020202D302E3631363020202020302E303030302043202020302020302020302020322020302020302020302020302020302020302020302020300A20202020342E3733323120202020302E3235303020202020302E303030302043202020302020302020302020322020302020302020302020302020302020302020302020300A20202020322E383636302020202D302E3235303020202020302E303030302043202020302020302020302020302020302020302020302020302020302020302020302020300A20202020332E3733323120202020312E3235303020202020302E30303030204E202020302020302020302020322020302020302020302020302020302020302020302020300A20202020322E383636302020202D312E3235303020202020302E30303030204F202020302020302020302020312020302020302020302020302020302020302020302020300A20202020322E3030303020202020302E3235303020202020302E30303030204F202020302020302020302020302020302020302020302020302020302020302020302020300A2020322020332020312020302020302020302020300A2020322020312020312020302020302020302020300A2020332020312020312020302020302020302020300A2020342020362020312020302020302020302020300A2020342020372020322020302020302020302020300A2020312020342020312020302020302020302020300A2020312020352020312020302020302020302020300A4D2020454E44
Contributor: Kusano M, Fukushima A, Plant Science Center, RIKEN.
InstType: EI
InstName: Pegasus III TOF-MS system, Leco; GC 6890, Agilent Technologies
IoniMethod: EI
IonPolarity: pos
Date: 2010-10-09 19:48:36+02:00
Num Peaks: 95
60 15 61 17 62 1 63 1 66 26 67 3 69 1 70 15 71 9 72 45 
73 999 74 104 75 91 76 8 77 22 78 1 82 2 83 24 84 22 85 17 
86 15 87 7 88 2 89 1 94 3 96 3 97 2 98 22 99 7 100 32 
101 6 102 5 103 8 104 1 105 2 110 3 111 1 112 39 113 11 114 12 
115 8 116 6 117 10 118 2 119 3 126 14 127 28 128 233 129 30 130 13 
131 27 132 21 133 41 134 7 135 3 140 2 142 1 143 1 144 2 146 5 
147 533 148 88 149 45 150 4 151 1 156 2 157 2 158 7 159 2 160 1 
172 5 173 4 174 9 175 5 176 1 186 17 187 3 188 4 189 1 190 7 
191 1 202 186 203 43 204 17 205 2 214 1 216 7 217 6 218 1 230 47 
231 11 232 4 245 25 246 5 247 2 
