Name: Methylmalonic acid
CAS: 516-05-2
MW: 118
Formula: C4H6O4
Synonym: KEGG: C02170
Synonym: CID: 5245
Synonym: MassBank: PR010112
Synonym: Methylmalonic acid
Synonym: Methylmalonate
Structure: 310A32310A3C4341535F49443E203531362D30352D32093C4B4547475F49443E20433032313730093C4E414D453E204D657468796C6D616C6F6E617465093C464F524D554C413E20433448364F34093C45584143544D4153533E203131382E3032363630383638093C415645524147454D4153533E203131382E3038383034093C534D494C45533E2043432843284F293D4F2943284F293D4F093C434F505952494748543E2041524D2050524F4A45435420687474703A2F2F7777772E6D657461626F6C6F6D652E6A702F0A2020382020372020302020302020302020302020302020302020302020303939392056323030300A20202020332E3733323120202020302E3530303020202020302E303030302043202020302020302020302020302020302020302020302020302020302020302020302020300A20202020322E3836363020202020302E3030303020202020302E303030302043202020302020302020302020312020302020302020302020302020302020302020302020300A20202020322E383636302020202D312E3030303020202020302E303030302043202020302020302020302020302020302020302020302020302020302020302020302020300A20202020322E3030303020202020302E3530303020202020302E303030302043202020302020302020302020332020302020302020302020302020302020302020302020300A20202020342E3539383120202020302E3030303020202020302E30303030204F202020302020302020302020302020302020302020302020302020302020302020302020300A20202020332E3733323120202020312E3530303020202020302E30303030204F202020302020302020302020312020302020302020302020302020302020302020302020300A20202020322E303030302020202D312E3530303020202020302E30303030204F202020302020302020302020312020302020302020302020302020302020302020302020300A20202020332E373332312020202D312E3530303020202020302E30303030204F202020302020302020302020302020302020302020302020302020302020302020302020300A2020332020372020312020302020302020302020300A2020332020382020322020302020302020302020300A2020332020322020312020302020302020302020300A2020322020342020312020302020302020302020300A2020322020312020312020302020302020302020300A2020312020352020322020302020302020302020300A2020312020362020312020302020302020302020300A4D2020454E44
Contributor: Kusano M, Fukushima A, Plant Science Center, RIKEN.
InstType: EI
InstName: Pegasus III TOF-MS system, Leco; GC 6890, Agilent Technologies
IoniMethod: EI
IonPolarity: pos
Date: 2010-10-09 19:48:36+02:00
Num Peaks: 80
60 15 61 38 62 3 63 2 65 1 66 128 67 11 69 2 70 7 71 9 
72 42 73 815 74 77 75 186 76 18 77 26 78 1 79 3 81 1 83 46 
84 5 85 9 86 24 87 10 88 2 89 4 93 3 94 17 95 2 99 4 
100 1 101 3 102 3 103 9 104 1 105 5 113 32 114 3 115 19 116 17 
117 23 118 3 119 5 129 20 130 12 131 34 132 6 133 47 134 6 135 4 
143 1 145 1 146 1 147 999 148 160 149 83 150 8 151 2 157 14 158 1 
159 1 163 4 172 5 173 1 175 1 190 2 191 1 203 12 204 2 205 1 
217 1 218 41 219 8 220 3 231 4 232 1 247 46 248 9 249 4 262 4 
