Name: Harmaline
CAS: 6027-98-1
MW: 214
Formula: C13H14N2O
Synonym: MassBank: PR010121
Synonym: Harmaline
Structure: 310A33390A20204143442F4C6162733132303230363131333233440A2031362031382020302020302020302020302020302020302020302020302020312056323030300A20202031322E373638382020202D392E3436373820202020302E303030302043202020302020302020302020302020302020302020302020302020302020302020302020300A20202031332E383435352020202D382E3638373020202020302E30303030204E202020302020302020302020302020302020302020302020302020302020302020302020300A20202031332E3137383720202D31302E3733333120202020302E303030302043202020302020302020302020302020302020302020302020302020302020302020302020300A20202031342E393230382020202D392E3436393720202020302E303030302043202020302020302020302020302020302020302020302020302020302020302020302020300A20202031342E3530383920202D31302E3733343220202020302E303030302043202020302020302020302020302020302020302020302020302020302020302020302020300A20202031312E343638322020202D392E313930322020202D302E303030302043202020302020302020302020302020302020302020302020302020302020302020302020300A20202031302E3537373420202D31302E313737392020202D302E303030302043202020302020302020302020302020302020302020302020302020302020302020302020300A20202031322E3238383020202D31312E373230372020202D302E303030302043202020302020302020302020302020302020302020302020302020302020302020302020300A20202031302E3938373320202D31312E343433302020202D302E303030302043202020302020302020302020302020302020302020302020302020302020302020302020300A20202031362E323231382020202D392E3139343220202020302E303030302043202020302020302020302020302020302020302020302020302020302020302020302020300A20202031372E3131303920202D31302E3138333320202020302E30303030204E202020302020302020302020302020302020302020302020302020302020302020302020300A20202031352E3339373920202D31312E3732333220202020302E303030302043202020302020302020302020302020302020302020302020302020302020302020302020300A20202031362E3639393020202D31312E3434373720202020302E303030302043202020302020302020302020302020302020302020302020302020302020302020302020300A20202031362E363333392020202D372E3932393620202020302E303030302043202020302020302020302020302020302020302020302020302020302020302020302020300A20202020392E323736372020202D392E393030332020202D302E30303030204F202020302020302020302020302020302020302020302020302020302020302020302020300A20202020382E3338353920202D31302E383837392020202D302E303030302043202020302020302020302020302020302020302020302020302020302020302020302020300A2020322020312020322020302020302020302020300A2020342020322020312020302020302020302020300A2020352020332020322020302020302020302020300A2020362020312020312020302020302020302020300A2020332020312020312020302020302020302020300A2020372020362020322020302020302020302020300A2020382020332020312020302020302020302020300A2020392020372020312020302020302020302020300A2020392020382020322020302020302020302020300A2031302020342020322020302020302020302020300A2020352020342020312020302020302020302020300A2031312031302020312020302020302020302020300A2031322020352020312020302020302020302020300A2031332031312020312020302020302020302020300A2031332031322020312020302020302020302020300A2031302031342020312020302020302020302020300A2020372031352020312020302020302020302020300A2031352031362020312020302020302020302020300A4D2020454E44
Contributor: Kusano M, Fukushima A, Plant Science Center, RIKEN.
InstType: EI
InstName: Pegasus III TOF-MS system, Leco; GC 6890, Agilent Technologies
IoniMethod: EI
IonPolarity: pos
Date: 2010-10-09 19:48:36+02:00
Num Peaks: 121
60 11 61 6 62 2 63 6 64 1 65 2 70 4 71 3 72 9 73 541 
74 52 75 23 76 4 77 10 78 3 79 2 83 1 84 3 85 3 86 253 
87 24 88 12 89 43 90 6 91 2 92 1 98 1 99 2 100 106 101 21 
102 21 103 9 104 2 105 1 108 1 113 2 114 6 115 13 116 22 117 17 
118 3 119 2 126 1 127 3 128 7 129 9 130 29 131 13 132 6 133 2 
134 1 140 2 141 3 142 10 143 6 144 11 145 5 146 4 147 2 148 1 
154 2 155 4 156 6 157 12 158 14 159 18 160 10 161 1 162 1 168 2 
169 4 170 9 171 4 172 10 173 5 174 999 175 157 176 75 177 9 178 1 
183 1 184 5 185 19 186 7 187 2 188 1 189 1 190 33 191 6 192 3 
198 4 199 7 200 26 201 9 202 6 203 1 204 1 212 1 213 15 214 4 
215 3 216 9 217 4 218 1 228 1 229 1 230 1 231 2 232 1 243 2 
244 1 245 1 257 3 258 2 259 2 273 1 286 1 289 1 374 1 405 5 
406 2 
