Name: 1-Amino-1-cyclopentanecarboxylic acid
CAS: 52-52-8
MW: 129
Formula: C6H11NO2
Synonym: KEGG: C03969
Synonym: CID: 6689
Synonym: MassBank: PR010081
Synonym: 1-Amino-1-cyclopentanecarboxylic acid
Synonym: 1-Aminocyclopentanecarboxylate
Synonym: 1-Aminocyclopentanecarboxylic acid
Structure: 310A32330A20204143442F4C6162733132303230363039303132440A2020392020392020302020302020302020302020302020302020302020302020312056323030300A20202020382E383130392020202D382E3236363020202020302E303030302043202020302020302020302020302020302020302020302020302020302020302020302020300A20202020392E383837362020202D372E3438353220202020302E303030302043202020302020302020302020302020302020302020302020302020302020302020302020300A20202020392E323230382020202D392E3533313320202020302E303030302043202020302020302020302020302020302020302020302020302020302020302020302020300A20202031302E393632392020202D382E3236373920202020302E303030302043202020302020302020302020302020302020302020302020302020302020302020302020300A20202031302E353530392020202D392E3533323420202020302E303030302043202020302020302020302020302020302020302020302020302020302020302020302020300A20202031302E353532362020202D362E3333333420202020302E303030302043202020302020302020302020302020302020302020302020302020302020302020302020300A20202020392E323232352020202D362E3333333420202020302E30303030204E202020302020302020302020302020302020302020302020302020302020302020302020300A20202031312E383832362020202D362E3333333420202020302E30303030204F202020302020302020302020302020302020302020302020302020302020302020302020300A20202020392E383837362020202D352E3138313520202020302E30303030204F202020302020302020302020302020302020302020302020302020302020302020302020300A2020322020312020312020302020302020302020300A2020332020312020312020302020302020302020300A2020342020322020312020302020302020302020300A2020352020332020312020302020302020302020300A2020352020342020312020302020302020302020300A2020362020322020312020302020302020302020300A2020372020322020312020302020302020302020300A2020362020382020312020302020302020302020300A2020362020392020322020302020302020302020300A4D2020454E44
Contributor: Kusano M, Fukushima A, Plant Science Center, RIKEN.
InstType: EI
InstName: Pegasus III TOF-MS system, Leco; GC 6890, Agilent Technologies
IoniMethod: EI
IonPolarity: pos
Date: 2010-10-09 19:48:36+02:00
Num Peaks: 112
60 20 61 19 62 2 63 1 65 8 66 19 67 32 68 1 69 2 70 12 
71 10 72 26 73 999 74 113 75 95 76 10 77 13 78 1 79 3 80 7 
81 4 82 29 83 10 84 75 85 15 86 11 87 6 88 2 89 2 90 2 
91 1 92 1 93 2 94 8 95 9 96 5 97 5 98 16 99 8 100 20 
101 7 102 3 103 8 104 1 105 2 106 1 107 1 108 2 109 1 110 6 
111 3 112 11 113 5 114 10 115 6 116 3 117 9 118 2 119 3 123 1 
124 5 125 3 126 22 127 5 128 6 129 3 130 3 131 14 132 8 133 28 
134 5 135 2 138 4 139 1 140 32 141 8 142 3 143 2 144 1 146 6 
147 94 148 16 149 10 150 2 152 1 154 17 155 7 156 972 157 147 158 46 
159 10 160 1 168 45 169 11 170 3 172 1 174 2 175 1 182 1 184 1 
186 1 200 1 202 1 214 5 215 1 216 1 230 56 231 16 232 7 233 1 
258 6 259 1 
