Name: L-Valine
CAS: 72-18-4
MW: 117
Formula: C5H11NO2
Synonym: KEGG: C00183
Synonym: CID: 3483
Synonym: MassBank: PR010070
Synonym: L-Valine
Synonym: 2-Amino-3-methylbutyric acid
Structure: 310A32310A3C4341535F49443E2037322D31382D34093C4B4547475F49443E20433030313833093C4E414D453E204C2D56616C696E65093C464F524D554C413E2043354831314E4F32093C45584143544D4153533E203131372E3037383937383630303939393939093C415645524147454D4153533E203131372E3134363338303030303030303031093C534D494C45533E2043432843295B4340485D284E2943284F293D4F093C434F505952494748543E2041524D2050524F4A45435420687474703A2F2F7777772E6D657461626F6C6F6D652E6A702F0A2020382020372020302020302020312020302020302020302020302020303939392056323030300A20202020332E373332302020202D312E3030303020202020302E303030302043202020302020302020302020302020302020302020302020302020302020302020302020300A20202020332E3733323120202020302E3030303020202020302E303030302043202020302020302020322020312020302020302020302020302020302020302020302020300A20202020322E3836363020202020302E3530303020202020302E303030302043202020302020302020302020312020302020302020302020302020302020302020302020300A20202020322E3836363020202020312E3530303020202020302E303030302043202020302020302020302020332020302020302020302020302020302020302020302020300A20202020322E3030303020202020302E3030303020202020302E303030302043202020302020302020302020332020302020302020302020302020302020302020302020300A20202020342E3539383120202020302E3530303020202020302E30303030204E202020302020302020302020322020302020302020302020302020302020302020302020300A20202020322E383636302020202D312E3530303020202020302E30303030204F202020302020302020302020302020302020302020302020302020302020302020302020300A20202020342E353938312020202D312E3530303020202020302E30303030204F202020302020302020302020312020302020302020302020302020302020302020302020300A2020322020332020312020302020302020302020300A2020332020342020312020302020302020302020300A2020372020312020322020302020302020302020300A2020312020322020312020302020302020302020300A2020322020362020312020362020302020302020300A2020332020352020312020302020302020302020300A2020312020382020312020302020302020302020300A4D2020454E44
Contributor: Kusano M, Fukushima A, Plant Science Center, RIKEN.
InstType: EI
InstName: Pegasus III TOF-MS system, Leco; GC 6890, Agilent Technologies
IoniMethod: EI
IonPolarity: pos
Date: 2010-10-09 19:48:36+02:00
Num Peaks: 78
60 20 61 16 62 1 66 7 67 2 69 2 70 19 71 8 72 45 73 999 
74 100 75 79 76 7 77 11 80 1 81 1 82 7 83 4 84 6 85 7 
86 16 87 5 88 2 89 2 90 1 96 2 97 1 98 6 99 4 100 118 
101 20 102 10 103 21 104 2 105 2 110 2 112 6 113 3 114 15 115 8 
116 3 117 11 118 3 119 4 126 1 128 19 129 12 130 9 131 13 132 17 
133 23 134 4 135 2 142 5 143 4 144 820 145 122 146 45 147 121 148 21 
149 12 150 1 156 17 157 3 158 2 159 2 160 2 161 1 163 3 172 1 
174 2 203 4 218 144 219 35 220 15 221 2 246 8 247 1 
