Name: 4-Hydroxyphenylpyruvic acid
CAS: 156-39-8
MW: 180
Formula: C9H8O4
Synonym: MassBank: PR010083
Synonym: 4-Hydroxyphenylpyruvic acid
Structure: 310A33310A20204143442F4C6162733132303230363039303332440A2031332031332020302020302020302020302020302020302020302020302020312056323030300A20202020392E363132362020202D392E3635343520202020302E303030302043202020302020302020302020302020302020302020302020302020302020302020302020300A20202020392E3631323620202D31302E3938343520202020302E303030302043202020302020302020302020302020302020302020302020302020302020302020302020300A20202020382E343630372020202D382E3938393520202020302E303030302043202020302020302020302020302020302020302020302020302020302020302020302020300A20202020382E3436303720202D31312E3634393520202020302E303030302043202020302020302020302020302020302020302020302020302020302020302020302020300A20202020372E333038392020202D392E3635343520202020302E303030302043202020302020302020302020302020302020302020302020302020302020302020302020300A20202020372E3330383920202D31302E3938343520202020302E303030302043202020302020302020302020302020302020302020302020302020302020302020302020300A20202020382E3436303620202D31322E3937393520202020302E30303030204F202020302020302020302020302020302020302020302020302020302020302020302020300A20202020382E343630362020202D372E3635393520202020302E303030302043202020302020302020302020302020302020302020302020302020302020302020302020300A20202020392E363132342020202D362E3939343520202020302E303030302043202020302020302020302020302020302020302020302020302020302020302020302020300A20202020392E363132342020202D352E3636343520202020302E303030302043202020302020302020302020302020302020302020302020302020302020302020302020300A20202031302E373634332020202D372E3635393520202020302E30303030204F202020302020302020302020302020302020302020302020302020302020302020302020300A20202031302E373634322020202D342E3939393520202020302E30303030204F202020302020302020302020302020302020302020302020302020302020302020302020300A20202020382E343630362020202D342E3939393520202020302E30303030204F202020302020302020302020302020302020302020302020302020302020302020302020300A2020322020312020312020302020302020302020300A2020332020312020322020302020302020302020300A2020342020322020322020302020302020302020300A2020352020332020312020302020302020302020300A2020362020342020312020302020302020302020300A2020362020352020322020302020302020302020300A2020342020372020312020302020302020302020300A2020332020382020312020302020302020302020300A2020382020392020312020302020302020302020300A2020392031302020312020302020302020302020300A2020392031312020322020302020302020302020300A2031302031322020312020302020302020302020300A2031302031332020322020302020302020302020300A4D2020454E44
Contributor: Kusano M, Fukushima A, Plant Science Center, RIKEN.
InstType: EI
InstName: Pegasus III TOF-MS system, Leco; GC 6890, Agilent Technologies
IoniMethod: EI
IonPolarity: pos
Date: 2010-10-09 19:48:36+02:00
Num Peaks: 113
60 3 61 8 62 2 63 5 64 1 65 4 66 8 67 2 69 1 70 4 
71 4 72 11 73 999 74 84 75 67 76 7 77 34 78 3 79 5 81 1 
83 3 84 1 85 3 87 2 88 1 89 8 90 2 91 19 92 2 93 3 
95 10 96 1 97 1 99 1 101 1 102 2 103 8 104 4 105 11 106 1 
107 2 109 1 115 5 116 1 117 8 118 2 119 6 120 1 121 4 123 2 
131 16 132 2 133 36 134 5 135 16 136 2 137 2 145 2 146 1 147 124 
148 21 149 16 150 2 151 17 152 3 153 1 161 9 162 3 163 16 164 3 
165 2 175 1 176 1 177 10 178 7 179 22 180 3 181 2 191 4 192 4 
193 41 194 8 195 3 206 3 207 2 209 3 219 1 221 1 223 2 225 1 
235 1 236 1 237 9 238 2 239 1 251 13 252 6 253 4 265 6 266 5 
267 480 268 114 269 46 270 7 271 1 281 1 340 1 341 24 342 10 343 4 
344 1 369 5 370 2 
