Name: Allantoin
CAS: 97-59-6
MW: 158
Formula: C4H6N4O3
Synonym: KEGG: C01551
Synonym: CID: 4709
Synonym: MassBank: PR010136
Synonym: Allantoin
Synonym: Glyoxyldiureide
Synonym: 5-Ureidohydantoin
Structure: 310A32380A3C4341535F49443E206E756C6C093C4B4547475F49443E20433032333438093C4E414D453E20285229282D292D416C6C616E746F696E093C464F524D554C413E20433448364E344F33093C45584143544D4153533E203135382E303433393930303738093C415645524147454D4153533E203135382E31313536093C534D494C45533E204E43283D4F294E5B4340485D284E312943283D4F294E43283D4F2931093C434F505952494748543E2041524D2050524F4A45435420687474703A2F2F7777772E6D657461626F6C6F6D652E6A702F0A2031312031312020302020302020312020302020302020302020302020303939392056323030300A20202020332E323630312020202D302E3439363420202020302E30303030204E202020302020302020302020312020302020302020302020302020302020302020302020300A20202020322E393531312020202D312E3434373420202020302E303030302043202020302020302020302020302020302020302020302020302020302020302020302020300A20202020332E373630312020202D322E3033353220202020302E30303030204E202020302020302020302020312020302020302020302020302020302020302020302020300A20202020342E353639312020202D312E3434373420202020302E303030302043202020302020302020302020302020302020302020302020302020302020302020302020300A20202020342E323630312020202D302E3439363420202020302E303030302043202020302020302020322020312020302020302020302020302020302020302020302020300A20202020342E3834373920202020302E3331323620202020302E30303030204E202020302020302020302020312020302020302020302020302020302020302020302020300A20202020342E3434313120202020312E3232363220202020302E303030302043202020302020302020302020302020302020302020302020302020302020302020302020300A20202020332E3434363620202020312E3333303720202020302E30303030204E202020302020302020302020322020302020302020302020302020302020302020302020300A20202020322E303030302020202D312E3735363420202020302E30303030204F202020302020302020302020302020302020302020302020302020302020302020302020300A20202020352E353230312020202D312E3735363420202020302E30303030204F202020302020302020302020302020302020302020302020302020302020302020302020300A20202020352E3032383920202020322E3033353220202020302E30303030204F202020302020302020302020302020302020302020302020302020302020302020302020300A2020352020342020312020302020302020302020300A2020332020322020312020302020302020302020300A2020322020312020312020302020302020302020300A2020312020352020312020302020302020302020300A2020342020332020312020302020302020302020300A2020352020362020312020312020302020302020300A2020362020372020312020302020302020302020300A2020372020382020312020302020302020302020300A2020372031312020322020302020302020302020300A2020322020392020322020302020302020302020300A2020342031302020322020302020302020302020300A4D2020454E44
Contributor: Kusano M, Fukushima A, Plant Science Center, RIKEN.
InstType: EI
InstName: Pegasus III TOF-MS system, Leco; GC 6890, Agilent Technologies
IoniMethod: EI
IonPolarity: pos
Date: 2010-10-09 19:48:36+02:00
Num Peaks: 141
60 5 61 6 63 1 64 1 66 2 69 2 70 24 71 11 72 60 73 999 
74 98 75 66 76 5 77 13 78 2 79 6 84 10 85 9 86 17 87 5 
88 2 89 2 90 1 98 3 99 33 100 152 101 25 102 17 103 4 105 1 
111 1 113 3 114 5 115 14 116 26 117 10 118 3 119 1 126 1 127 5 
128 2 129 2 130 32 131 27 132 21 133 15 134 3 135 1 141 4 142 3 
143 9 144 3 145 2 146 33 147 119 148 21 149 10 150 1 154 1 155 2 
156 1 157 12 158 9 159 8 160 3 161 1 168 1 169 1 170 1 171 25 
172 14 173 29 174 19 175 5 176 1 185 1 186 3 187 56 188 74 189 38 
190 10 191 2 198 2 199 2 200 5 201 29 202 8 203 4 204 5 205 1 
213 1 214 1 215 3 216 2 217 2 228 2 229 1 230 1 231 1 241 1 
242 3 243 32 244 7 245 10 246 4 247 1 257 1 258 7 259 4 260 2 
261 14 262 4 263 2 285 1 288 2 302 1 314 1 315 2 316 12 317 4 
318 2 329 1 330 9 331 92 332 29 333 13 334 3 356 5 357 7 358 2 
359 1 430 2 431 20 432 8 433 4 434 1 445 2 446 16 447 7 448 3 
449 1 
