Name: o-Coumaric acid
CAS: 614-60-8
MW: 164
Formula: C9H8O3
Synonym: KEGG: C01772
Synonym: CID: 4905
Synonym: MassBank: PR010184
Synonym: o-Coumaric acid
Synonym: trans-2-Hydroxycinnamate
Synonym: trans-2-Hydroxycinnamic acid
Structure: 310A33300A3C4341535F49443E203631342D36302D38093C4B4547475F49443E20433031373732093C4E414D453E20322D436F756D6172617465093C464F524D554C413E20433948384F33093C45584143544D4153533E203136342E303437333434313232093C415645524147454D4153533E203136342E3135383032093C534D494C45533E204F43283D4F29433D43632863312963284F2963636331093C434F505952494748543E2041524D2050524F4A45435420687474703A2F2F7777772E6D657461626F6C6F6D652E6A702F0A2031322031322020302020302020302020302020302020302020302020303939392056323030300A20202020332E373332312020202D302E3530303020202020302E303030302043202020302020302020302020302020302020302020302020302020302020302020302020300A20202020322E383636302020202D312E3030303020202020302E303030302043202020302020302020302020302020302020302020302020302020302020302020302020300A20202020322E383636302020202D322E3030303020202020302E303030302043202020302020302020302020312020302020302020302020302020302020302020302020300A20202020332E373332312020202D322E3530303020202020302E303030302043202020302020302020302020312020302020302020302020302020302020302020302020300A20202020342E353938312020202D322E3030303020202020302E303030302043202020302020302020302020312020302020302020302020302020302020302020302020300A20202020342E353938312020202D312E3030303020202020302E303030302043202020302020302020302020312020302020302020302020302020302020302020302020300A20202020332E3733323120202020302E3530303020202020302E303030302043202020302020302020302020312020302020302020302020302020302020302020302020300A20202020342E3539383120202020312E3030303020202020302E303030302043202020302020302020302020312020302020302020302020302020302020302020302020300A20202020342E3539383120202020322E3030303020202020302E303030302043202020302020302020302020302020302020302020302020302020302020302020302020300A20202020332E3733323120202020322E3530303020202020302E30303030204F202020302020302020302020312020302020302020302020302020302020302020302020300A20202020352E3436343120202020322E3530303020202020302E30303030204F202020302020302020302020302020302020302020302020302020302020302020302020300A20202020322E303030302020202D302E3530303020202020302E30303030204F202020302020302020302020312020302020302020302020302020302020302020302020300A2020322020332020322020302020302020302020300A2020322020312020312020302020302020302020300A2020312020362020322020302020302020302020300A2020362020352020312020302020302020302020300A2020352020342020322020302020302020302020300A2020342020332020312020302020302020302020300A2020322031322020312020302020302020302020300A2020312020372020312020302020302020302020300A2020372020382020322020302020302020302020300A2020392031302020312020302020302020302020300A2020392031312020322020302020302020302020300A2020382020392020312020302020302020302020300A4D2020454E44
Contributor: Kusano M, Fukushima A, Plant Science Center, RIKEN.
InstType: EI
InstName: Pegasus III TOF-MS system, Leco; GC 6890, Agilent Technologies
IoniMethod: EI
IonPolarity: pos
Date: 2010-10-09 19:48:36+02:00
Num Peaks: 131
60 8 61 20 62 9 63 29 64 8 65 13 66 19 67 6 69 2 70 6 
71 6 72 23 73 999 74 105 75 122 76 20 77 40 78 7 79 16 80 2 
81 2 82 1 83 8 84 2 85 10 86 2 87 8 88 4 89 50 90 32 
91 46 92 6 93 3 94 1 95 2 96 1 97 3 98 1 99 2 100 1 
101 17 102 16 103 18 104 4 105 14 106 2 107 2 109 1 110 2 111 1 
113 2 114 2 115 43 116 10 117 12 118 59 119 11 120 2 121 6 123 1 
127 1 128 2 129 3 130 2 131 17 132 3 133 30 134 5 135 53 136 7 
137 4 139 4 142 1 143 2 144 8 145 14 146 22 147 570 148 99 149 58 
150 7 151 7 152 1 159 9 160 3 161 115 162 18 163 10 164 2 165 1 
166 1 173 1 174 1 175 25 176 5 177 11 178 2 179 7 180 1 181 3 
189 1 190 38 191 8 192 7 193 2 195 1 203 2 205 5 206 1 209 8 
210 1 217 2 218 1 219 46 220 12 221 3 235 3 249 2 251 3 265 3 
266 1 292 2 293 83 294 24 295 9 296 1 307 3 308 52 309 15 310 5 
311 1 
