Name: Thymine
CAS: 65-71-4
MW: 126
Formula: C5H6N2O2
Synonym: KEGG: C00178
Synonym: CID: 3478
Synonym: MassBank: PR010239
Synonym: Thymine
Structure: 310A32340A3C4341535F49443E2036352D37312D34093C4B4547475F49443E20433030313738093C4E414D453E205468796D696E093C464F524D554C413E20433548364E324F32093C45584143544D4153533E203132362E303432393237343436093C415645524147454D4153533E203132362E3131333432093C534D494C45533E204343283D43312943283D4F294E43283D4F294E31093C434F505952494748543E2041524D2050524F4A45435420687474703A2F2F7777772E6D657461626F6C6F6D652E6A702F0A2020392020392020302020302020302020302020302020302020302020303939392056323030300A20202020332E3733323120202020312E3530303020202020302E30303030204E202020302020302020302020312020302020302020302020302020302020302020302020300A20202020322E3836363020202020312E3030303020202020302E303030302043202020302020302020302020302020302020302020302020302020302020302020302020300A20202020322E383636302020202D302E3030303020202020302E30303030204E202020302020302020302020312020302020302020302020302020302020302020302020300A20202020332E373332312020202D302E3530303020202020302E303030302043202020302020302020302020302020302020302020302020302020302020302020302020300A20202020342E3539383120202020302E3030303020202020302E303030302043202020302020302020302020302020302020302020302020302020302020302020302020300A20202020342E3539383120202020312E3030303020202020302E303030302043202020302020302020302020312020302020302020302020302020302020302020302020300A20202020322E3030303020202020312E3530303020202020302E30303030204F202020302020302020302020302020302020302020302020302020302020302020302020300A20202020332E373332312020202D312E3530303020202020302E30303030204F202020302020302020302020302020302020302020302020302020302020302020302020300A20202020352E343634312020202D302E3530303020202020302E303030302043202020302020302020302020332020302020302020302020302020302020302020302020300A2020312020322020312020302020302020302020300A2020312020362020312020302020302020302020300A2020322020332020312020302020302020302020300A2020322020372020322020302020302020302020300A2020362020352020322020302020302020302020300A2020332020342020312020302020302020302020300A2020342020382020322020302020302020302020300A2020352020342020312020302020302020302020300A2020352020392020312020302020302020302020300A4D2020454E44
Contributor: Kusano M, Fukushima A, Plant Science Center, RIKEN.
InstType: EI
InstName: Pegasus III TOF-MS system, Leco; GC 6890, Agilent Technologies
IoniMethod: EI
IonPolarity: pos
Date: 2010-10-09 19:48:36+02:00
Num Peaks: 156
60 33 61 30 62 3 63 4 64 3 65 2 66 27 67 11 68 1 69 14 
70 106 71 36 72 160 73 999 74 100 75 91 76 9 77 33 78 11 79 43 
80 10 81 9 82 18 83 27 84 77 85 49 86 69 87 22 88 5 89 6 
90 1 91 4 92 2 93 9 94 3 95 7 96 9 97 10 98 18 99 44 
100 184 101 27 102 15 103 16 104 3 105 15 106 54 107 13 108 2 109 7 
110 20 111 19 112 29 113 582 114 68 115 40 116 9 117 30 118 5 119 6 
120 113 121 11 122 1 123 11 124 4 125 5 126 7 127 28 128 11 129 6 
130 6 131 102 132 19 133 50 134 7 135 3 137 2 138 3 139 22 140 113 
141 16 142 11 143 5 144 8 145 2 146 3 147 377 148 62 149 32 150 3 
151 2 152 2 153 3 154 13 155 5 156 3 157 10 158 46 159 9 160 5 
161 1 167 3 168 1 169 10 170 5 171 2 172 2 173 1 174 6 175 1 
180 3 181 7 182 14 183 14 184 9 185 28 186 5 187 3 188 1 195 1 
196 3 197 14 198 6 199 3 200 1 210 1 211 3 212 6 213 3 214 1 
225 4 226 2 227 1 239 37 240 12 241 4 242 1 253 2 254 6 255 639 
256 153 257 64 258 10 259 2 260 1 261 1 262 1 263 1 264 1 265 1 
266 1 269 10 270 191 271 46 272 19 273 3 
