Name: DL-Isocitric acid
CAS: 1637-73-6
MW: 192
Formula: C6H8O7
Synonym: MassBank: PR010151
Synonym: DL-Isocitric acid
Structure: 310A33300A20204143442F4C6162733132303230363134353232440A2031332031322020302020302020302020302020302020302020302020302020312056323030300A20202020382E353535302020202D372E3135343820202020302E303030302043202020302020302020302020302020302020302020302020302020302020302020302020300A20202020382E353535302020202D382E3438343820202020302E303030302043202020302020302020302020302020302020302020302020302020302020302020302020300A20202020372E343033312020202D362E3438393820202020302E303030302043202020302020302020302020302020302020302020302020302020302020302020302020300A20202020372E343033312020202D392E3134393820202020302E303030302043202020302020302020302020302020302020302020302020302020302020302020302020300A20202020362E323531332020202D382E3438343820202020302E30303030204F202020302020302020302020302020302020302020302020302020302020302020302020300A20202020372E343033302020202D352E3135393820202020302E30303030204F202020302020302020302020302020302020302020302020302020302020302020302020300A20202020362E323531332020202D372E3135343820202020302E30303030204F202020302020302020302020302020302020302020302020302020302020302020302020300A20202020372E3430333020202D31302E3437393820202020302E30303030204F202020302020302020302020302020302020302020302020302020302020302020302020300A20202020392E373036382020202D362E3438393720202020302E303030302043202020302020302020302020302020302020302020302020302020302020302020302020300A20202031302E383538362020202D372E3135343720202020302E303030302043202020302020302020302020302020302020302020302020302020302020302020302020300A20202020392E373036382020202D352E3135393720202020302E30303030204F202020302020302020302020302020302020302020302020302020302020302020302020300A20202031302E383538362020202D382E3438343720202020302E30303030204F202020302020302020302020302020302020302020302020302020302020302020302020300A20202031322E303130342020202D362E3438393720202020302E30303030204F202020302020302020302020302020302020302020302020302020302020302020302020300A2020322020312020312020302020302020302020300A2020332020312020312020302020302020302020300A2020342020322020312020302020302020302020300A2020352020342020322020302020302020302020300A2020332020362020322020302020302020302020300A2020332020372020312020302020302020302020300A2020342020382020312020302020302020302020300A2020312020392020312020302020302020302020300A2020392031302020312020302020302020302020300A2020392031312020312020302020302020302020300A2031302031322020322020302020302020302020300A2031302031332020312020302020302020302020300A4D2020454E44
Contributor: Kusano M, Fukushima A, Plant Science Center, RIKEN.
InstType: EI
InstName: Pegasus III TOF-MS system, Leco; GC 6890, Agilent Technologies
IoniMethod: EI
IonPolarity: pos
Date: 2010-10-09 19:48:36+02:00
Num Peaks: 159
60 6 61 14 62 2 63 2 65 1 66 9 67 20 69 2 70 6 71 5 
72 37 73 999 74 94 75 112 76 10 77 32 78 3 79 8 81 2 82 2 
83 51 84 5 85 8 86 1 87 4 88 3 89 3 92 1 93 1 95 12 
96 1 97 3 98 1 99 6 100 1 101 6 102 3 103 8 104 1 105 2 
111 2 112 1 113 17 114 2 115 6 116 12 117 17 118 2 119 5 127 3 
128 4 129 28 130 4 131 22 132 4 133 52 134 7 135 6 139 3 141 3 
142 1 143 22 144 3 145 2 147 259 148 42 149 42 150 5 151 2 155 1 
156 2 157 14 158 2 159 2 161 2 162 1 163 1 169 2 171 3 173 1 
177 5 183 1 185 5 187 1 189 3 190 1 191 12 192 2 193 1 201 1 
203 5 204 14 205 4 206 1 207 4 208 1 211 16 212 2 213 7 214 1 
215 3 216 1 217 12 218 2 219 2 220 1 221 13 222 3 223 1 229 2 
230 1 231 3 232 1 243 1 245 75 246 22 247 9 248 1 257 1 259 4 
260 1 261 1 265 1 272 4 273 81 274 19 275 8 276 1 285 6 286 1 
287 2 301 1 303 3 304 1 305 6 306 2 318 2 319 28 320 11 321 5 
322 1 346 1 347 16 348 5 349 3 362 1 363 11 364 3 365 1 374 2 
375 18 376 6 377 3 390 2 391 1 464 2 465 9 466 4 467 2 
