Name: Protocatechuic acid
CAS: 99-50-3
MW: 154
Formula: C7H6O4
Synonym: KEGG: C00230
Synonym: CID: 3529
Synonym: MassBank: PR010227
Synonym: Protocatechuic acid
Synonym: Protocatechuate
Synonym: 3,4-Dihydroxybenzoate
Synonym: 3,4-Dihydroxybenzoic acid
Structure: 310A32380A3C4341535F49443E2039392D35302D33093C4B4547475F49443E20433030323330093C4E414D453E20332C342D4469687964726F787962656E7A6F617465093C464F524D554C413E20433748364F34093C45584143544D4153533E203135342E3032363630383637393939393938093C415645524147454D4153533E203135342E3132303134093C534D494C45533E204F43283D4F2963286331296363284F2963284F296331093C434F505952494748543E2041524D2050524F4A45435420687474703A2F2F7777772E6D657461626F6C6F6D652E6A702F0A2031312031312020302020302020302020302020302020302020302020303939392056323030300A20202020332E3733323120202020302E3735303020202020302E303030302043202020302020302020302020302020302020302020302020302020302020302020302020300A20202020322E3836363020202020302E3235303020202020302E303030302043202020302020302020302020312020302020302020302020302020302020302020302020300A20202020322E383636302020202D302E3735303020202020302E303030302043202020302020302020302020302020302020302020302020302020302020302020302020300A20202020332E373332312020202D312E3235303020202020302E303030302043202020302020302020302020302020302020302020302020302020302020302020302020300A20202020342E353938312020202D302E3735303020202020302E303030302043202020302020302020302020312020302020302020302020302020302020302020302020300A20202020342E3539383120202020302E3235303020202020302E303030302043202020302020302020302020312020302020302020302020302020302020302020302020300A20202020332E3733323120202020312E3735303020202020302E303030302043202020302020302020302020302020302020302020302020302020302020302020302020300A20202020322E3836363020202020322E3235303020202020302E30303030204F202020302020302020302020302020302020302020302020302020302020302020302020300A20202020342E3539383120202020322E3235303020202020302E30303030204F202020302020302020302020312020302020302020302020302020302020302020302020300A20202020322E303030302020202D312E3235303020202020302E30303030204F202020302020302020302020312020302020302020302020302020302020302020302020300A20202020332E373332312020202D322E3235303020202020302E30303030204F202020302020302020302020312020302020302020302020302020302020302020302020300A2020322020312020322020302020302020302020300A2020312020362020312020302020302020302020300A2020312020372020312020302020302020302020300A2020362020352020322020302020302020302020300A2020372020382020322020302020302020302020300A2020352020342020312020302020302020302020300A2020342031312020312020302020302020302020300A2020342020332020322020302020302020302020300A2020372020392020312020302020302020302020300A2020332020322020312020302020302020302020300A2020332031302020312020302020302020302020300A4D2020454E44
Contributor: Kusano M, Fukushima A, Plant Science Center, RIKEN.
InstType: EI
InstName: Pegasus III TOF-MS system, Leco; GC 6890, Agilent Technologies
IoniMethod: EI
IonPolarity: pos
Date: 2010-10-09 19:48:36+02:00
Num Peaks: 146
60 5 61 8 62 5 63 14 64 2 65 3 66 4 67 4 69 3 70 7 
71 7 72 21 73 999 74 90 75 52 76 6 77 29 78 7 79 20 80 1 
81 5 82 1 83 37 84 5 85 5 86 1 87 3 88 1 89 20 90 5 
91 18 92 4 93 10 94 1 95 7 96 1 97 2 98 3 99 2 101 1 
102 1 103 12 104 7 105 23 106 3 107 17 108 2 109 18 110 2 111 3 
112 1 113 1 115 5 116 1 117 6 118 2 119 16 120 2 121 8 122 2 
123 7 124 1 126 5 127 1 129 1 131 11 132 2 133 31 134 5 135 18 
136 5 137 75 138 10 139 3 143 2 145 2 146 1 147 31 148 6 149 14 
150 5 151 6 152 1 153 1 157 1 159 1 161 2 162 1 163 15 164 7 
165 63 166 12 167 4 177 4 178 2 179 14 180 3 181 3 191 4 192 3 
193 557 194 84 195 33 196 4 197 1 205 1 207 10 208 2 209 3 210 1 
211 3 221 2 222 2 223 53 224 12 225 5 237 5 238 1 239 1 251 1 
265 2 266 1 267 25 268 6 269 2 279 1 280 1 281 20 282 7 283 3 
297 1 310 2 311 42 312 17 313 9 314 2 354 3 355 49 356 20 357 9 
358 2 369 6 370 75 371 26 372 12 373 2 
