Name: L-Norvaline
CAS: 6600-40-4
MW: 117
Formula: C5H11NO2
Synonym: KEGG: C01826
Synonym: CID: 4949
Synonym: MassBank: PR010065
Synonym: L-Norvaline
Synonym: (S)-2-Aminopentanoic acid
Synonym: L-2-Aminopentanoic acid
Synonym: L-2-Aminovaleric acid
Structure: 310A32310A3C4341535F49443E20363630302D34302D34093C4B4547475F49443E20433031383236093C4E414D453E204C2D4E6F7276616C696E65093C464F524D554C413E2043354831314E4F32093C45584143544D4153533E203131372E3037383937383630303939393939093C415645524147454D4153533E203131372E3134363338303030303030303031093C534D494C45533E204343435B4340485D284E2943284F293D4F093C434F505952494748543E2041524D2050524F4A45435420687474703A2F2F7777772E6D657461626F6C6F6D652E6A702F0A2020382020372020302020302020312020302020302020302020302020303939392056323030300A20202020342E353938312020202D302E3530303020202020302E303030302043202020302020302020302020302020302020302020302020302020302020302020302020300A20202020342E3539383120202020302E3530303020202020302E303030302043202020302020302020322020312020302020302020302020302020302020302020302020300A20202020332E3733323120202020312E3030303020202020302E303030302043202020302020302020302020322020302020302020302020302020302020302020302020300A20202020322E3836363020202020302E3530303020202020302E303030302043202020302020302020302020322020302020302020302020302020302020302020302020300A20202020322E3030303020202020312E3030303020202020302E303030302043202020302020302020302020332020302020302020302020302020302020302020302020300A20202020352E3436343120202020312E3030303020202020302E30303030204E202020302020302020302020322020302020302020302020302020302020302020302020300A20202020332E373332302020202D312E3030303020202020302E30303030204F202020302020302020302020312020302020302020302020302020302020302020302020300A20202020352E343634312020202D312E3030303020202020302E30303030204F202020302020302020302020302020302020302020302020302020302020302020302020300A2020322020362020312020362020302020302020300A2020322020332020312020302020302020302020300A2020312020372020312020302020302020302020300A2020312020382020322020302020302020302020300A2020322020312020312020302020302020302020300A2020332020342020312020302020302020302020300A2020342020352020312020302020302020302020300A4D2020454E44
Contributor: Kusano M, Fukushima A, Plant Science Center, RIKEN.
InstType: EI
InstName: Pegasus III TOF-MS system, Leco; GC 6890, Agilent Technologies
IoniMethod: EI
IonPolarity: pos
Date: 2010-10-09 19:48:36+02:00
Num Peaks: 84
60 23 61 19 62 2 63 1 66 16 67 2 69 1 70 18 71 7 72 43 
73 999 74 103 75 81 76 7 77 15 78 1 80 2 81 7 82 6 83 3 
84 5 85 7 86 12 87 6 88 3 89 2 94 3 95 1 96 1 97 1 
98 6 99 5 100 68 101 14 102 21 103 26 104 3 105 5 110 1 112 3 
113 2 114 17 115 19 116 6 117 13 118 3 119 4 126 1 128 19 129 7 
130 8 131 13 132 11 133 25 134 5 135 2 142 3 143 2 144 811 145 128 
146 45 147 111 148 18 149 10 150 1 156 15 157 3 158 4 159 2 160 1 
163 1 172 2 174 3 175 1 202 3 203 1 204 1 218 67 219 19 220 8 
221 1 246 13 247 2 248 1 
