Name: Uracil
CAS: 66-22-8
MW: 112
Formula: C4H4N2O2
Synonym: KEGG: C00106
Synonym: CID: 3406
Synonym: MassBank: PR010100
Synonym: Uracil
Structure: 310A32320A3C4341535F49443E2036362D32322D38093C4B4547475F49443E20433030313036093C4E414D453E205572616369093C464F524D554C413E20433448344E324F32093C45584143544D4153533E203131322E303237323737333832093C415645524147454D4153533E203131322E3038363834303030303030303031093C534D494C45533E204F3D4328433D31294E43283D4F294E4331093C434F505952494748543E2041524D2050524F4A45435420687474703A2F2F7777772E6D657461626F6C6F6D652E6A702F0A2020382020382020302020302020302020302020302020302020302020303939392056323030300A20202020322E303030302020202D302E3030303020202020302E30303030204E202020302020302020302020312020302020302020302020302020302020302020302020300A20202020322E3836363020202020302E3530303020202020302E303030302043202020302020302020302020302020302020302020302020302020302020302020302020300A20202020332E3733323120202020302E3030303020202020302E30303030204E202020302020302020302020312020302020302020302020302020302020302020302020300A20202020332E373332312020202D312E3030303020202020302E303030302043202020302020302020302020302020302020302020302020302020302020302020302020300A20202020322E383636302020202D312E3530303020202020302E303030302043202020302020302020302020312020302020302020302020302020302020302020302020300A20202020322E303030302020202D312E3030303020202020302E303030302043202020302020302020302020312020302020302020302020302020302020302020302020300A20202020322E3836363020202020312E3530303020202020302E30303030204F202020302020302020302020302020302020302020302020302020302020302020302020300A20202020342E353938312020202D312E3530303020202020302E30303030204F202020302020302020302020302020302020302020302020302020302020302020302020300A2020312020322020312020302020302020302020300A2020312020362020312020302020302020302020300A2020322020332020312020302020302020302020300A2020322020372020322020302020302020302020300A2020362020352020322020302020302020302020300A2020332020342020312020302020302020302020300A2020342020382020322020302020302020302020300A2020352020342020312020302020302020302020300A4D2020454E44
Contributor: Kusano M, Fukushima A, Plant Science Center, RIKEN.
InstType: EI
InstName: Pegasus III TOF-MS system, Leco; GC 6890, Agilent Technologies
IoniMethod: EI
IonPolarity: pos
Date: 2010-10-09 19:48:36+02:00
Num Peaks: 143
60 13 61 16 62 4 63 3 64 1 65 3 66 37 67 18 68 2 69 19 
70 98 71 45 72 118 73 794 74 77 75 63 76 22 77 20 78 4 79 19 
80 3 81 1 82 8 83 12 84 27 85 79 86 35 87 19 88 3 89 4 
90 1 91 3 92 3 93 3 94 4 95 8 96 26 97 14 98 43 99 999 
100 207 101 80 102 17 103 16 104 3 105 31 106 7 107 1 108 1 109 34 
110 8 111 15 112 9 113 260 114 28 115 18 116 6 117 29 118 5 119 6 
120 5 121 1 123 1 124 6 125 5 126 227 127 35 128 14 129 4 130 3 
131 86 132 17 133 45 134 7 135 3 137 1 138 2 139 4 140 6 141 7 
142 7 143 3 144 4 145 1 146 1 147 536 148 81 149 42 150 4 151 1 
152 1 153 17 154 3 155 2 156 9 157 14 158 15 159 4 160 2 161 1 
166 5 167 7 168 3 169 18 170 4 171 3 172 4 173 2 174 6 175 1 
181 2 182 6 183 16 184 8 185 17 186 4 187 2 195 1 196 1 197 3 
198 3 199 3 200 1 211 4 212 4 213 3 214 1 225 4 226 1 227 1 
239 20 240 8 241 501 242 107 243 46 244 7 245 1 254 2 255 251 256 225 
257 61 258 19 259 3 
