Name: DL-Homocystine
CAS: 870-93-9
MW: 268
Formula: C8H16N2O4S2
Synonym: MassBank: PR010119
Synonym: DL-Homocystine
Structure: 4331302E6D6F6C0A20204368656D447261773132303630363131333932440A2031362031352020302020302020302020302020302020302020302020303939392056323030300A20202020302E3335373320202020302E3230363220202020302E303030302053202020302020302020302020302020302020302020302020302020302020302020302020300A2020202D302E333537322020202D302E3230363320202020302E303030302053202020302020302020302020302020302020302020302020302020302020302020302020300A2020202D302E333537322020202D312E3033313320202020302E303030302043202020302020302020302020302020302020302020302020302020302020302020302020300A2020202D312E303731372020202D312E3434333820202020302E303030302043202020302020302020302020302020302020302020302020302020302020302020302020300A2020202D312E303731372020202D322E3236383820202020302E303030302043202020302020302020302020302020302020302020302020302020302020302020302020300A2020202D312E373836322020202D322E3638313220202020302E303030302043202020302020302020302020302020302020302020302020302020302020302020302020300A2020202D302E333537332020202D322E3638313320202020302E30303030204E202020302020302020302020302020302020302020302020302020302020302020302020300A2020202D322E353030372020202D322E3236383720202020302E30303030204F202020302020302020302020302020302020302020302020302020302020302020302020300A2020202D312E373836332020202D332E3530363220202020302E30303030204F202020302020302020302020302020302020302020302020302020302020302020302020300A20202020302E3335373320202020312E3033313220202020302E303030302043202020302020302020302020302020302020302020302020302020302020302020302020300A20202020312E3037313720202020312E3434333720202020302E303030302043202020302020302020302020302020302020302020302020302020302020302020302020300A20202020312E3037313720202020322E3236383720202020302E303030302043202020302020302020302020302020302020302020302020302020302020302020302020300A20202020312E3738363220202020322E3638313220202020302E303030302043202020302020302020302020302020302020302020302020302020302020302020302020300A20202020302E3335373320202020322E3638313220202020302E30303030204E202020302020302020302020302020302020302020302020302020302020302020302020300A20202020322E3530303720202020322E3236383720202020302E30303030204F202020302020302020302020302020302020302020302020302020302020302020302020300A20202020312E3738363220202020332E3530363220202020302E30303030204F202020302020302020302020302020302020302020302020302020302020302020302020300A2020322020312020312020302020202020200A2020332020322020312020302020202020200A2020342020332020312020302020202020200A2020352020342020312020302020202020200A2020352020362020312020302020202020200A2020352020372020312020362020202020200A2020362020382020322020302020202020200A2020362020392020312020302020202020200A2020312031302020312020302020202020200A2031302031312020312020302020202020200A2031312031322020312020302020202020200A2031322031332020312020302020202020200A2031322031342020312020362020202020200A2031332031352020312020302020202020200A2031332031362020322020302020202020200A4D2020454E440A33360A20204143442F4C6162733034313231303137343032440A2031362031352020302020302020302020302020302020302020302020302020312056323030300A20202020342E3035343120202D31332E3331363020202020302E30303030204F202020302020302020302020302020302020302020302020302020302020302020302020300A20202020352E3230353920202D31332E3938313020202020302E303030302043202020302020302020302020302020302020302020302020302020302020302020302020300A20202020362E3335373720202D31332E3331363020202020302E303030302043202020302020302020302020302020302020302020302020302020302020302020302020300A20202020372E3530393520202D31332E3938313020202020302E303030302043202020302020302020302020302020302020302020302020302020302020302020302020300A20202020382E3636313420202D31332E3331363020202020302E303030302043202020302020302020302020302020302020302020302020302020302020302020302020300A20202020392E3831333220202D31332E3938313020202020302E303030302053202020302020302020302020302020302020302020302020302020302020302020302020300A20202031302E3936353020202D31332E3331363020202020302E303030302053202020302020302020302020302020302020302020302020302020302020302020302020300A20202031322E3131363820202D31332E3938313020202020302E303030302043202020302020302020302020302020302020302020302020302020302020302020302020300A20202031332E3236383620202D31332E3331363020202020302E303030302043202020302020302020302020302020302020302020302020302020302020302020302020300A20202031342E3432303420202D31332E3938313020202020302E303030302043202020302020302020302020302020302020302020302020302020302020302020302020300A20202031352E3537323220202D31332E3331363020202020302E303030302043202020302020302020302020302020302020302020302020302020302020302020302020300A20202031362E3732343020202D31332E3938313020202020302E30303030204F202020302020302020302020302020302020302020302020302020302020302020302020300A20202020352E3230353920202D31352E3331313020202020302E30303030204F202020302020302020302020302020302020302020302020302020302020302020302020300A20202020362E3335373720202D31312E3938363020202020302E30303030204E202020302020302020302020302020302020302020302020302020302020302020302020300A20202031342E3432303420202D31352E3331313020202020302E30303030204E202020302020302020302020302020302020302020302020302020302020302020302020300A20202031352E3537323220202D31312E3938363020202020302E30303030204F202020302020302020302020302020302020302020302020302020302020302020302020300A2020322020312020312020302020302020302020300A2020332020322020312020302020302020302020300A2020342020332020312020302020302020302020300A2020352020342020312020302020302020302020300A2020362020352020312020302020302020302020300A2020372020362020312020302020302020302020300A2020382020372020312020302020302020302020300A2020392020382020312020302020302020302020300A2031302020392020312020302020302020302020300A2031312031302020312020302020302020302020300A2031322031312020312020302020302020302020300A2020322031332020322020302020302020302020300A2020332031342020312020302020302020302020300A2031302031352020312020302020302020302020300A2031312031362020322020302020302020302020300A4D2020454E44
Contributor: Kusano M, Fukushima A, Plant Science Center, RIKEN.
InstType: EI
InstName: Pegasus III TOF-MS system, Leco; GC 6890, Agilent Technologies
IoniMethod: EI
IonPolarity: pos
Date: 2010-10-09 19:48:36+02:00
Num Peaks: 145
60 18 61 16 62 1 63 1 64 1 66 3 67 1 69 1 70 7 71 5 
72 20 73 999 74 94 75 93 76 9 77 21 78 2 79 4 82 3 83 2 
84 7 85 7 86 13 87 6 88 68 89 6 90 9 91 11 92 2 93 3 
95 1 96 1 97 2 98 10 99 3 100 115 101 17 102 10 103 22 104 3 
105 15 106 1 107 1 110 1 112 10 113 2 114 40 115 19 116 6 117 10 
118 11 119 12 120 2 121 1 122 1 126 7 127 2 128 874 129 120 130 47 
131 18 132 20 133 26 134 5 135 3 141 1 142 1 144 3 145 1 146 10 
147 98 148 17 149 12 150 1 151 1 156 2 157 1 158 3 159 2 160 291 
161 72 162 60 163 9 164 3 165 1 172 7 173 2 174 5 175 1 176 1 
186 1 188 15 189 3 190 5 191 2 192 1 193 1 194 3 198 1 202 22 
203 6 204 3 205 1 206 5 207 1 212 1 216 2 217 1 218 100 219 24 
220 10 221 3 222 4 223 2 229 1 230 1 232 1 234 5 235 1 236 1 
244 2 245 1 246 3 247 1 248 1 260 1 261 1 262 2 274 2 277 7 
278 213 279 57 280 32 281 6 282 1 291 7 292 1 312 18 313 4 314 3 
336 1 338 2 351 2 439 1 556 1 
