Name: Adonitol
CAS: 488-81-3
MW: 152
Formula: C5H12O5
Synonym: KEGG: C00474
Synonym: CID: 3757
Synonym: MassBank: PR010134
Synonym: Adonitol
Synonym: Ribitol
Structure: 310A32350A3C4341535F49443E203438382D38312D33093C4B4547475F49443E20433030343734093C4E414D453E2052696269746F6C093C464F524D554C413E2043354831324F35093C45584143544D4153533E203135322E303638343733343934093C415645524147454D4153533E203135322E3134353738093C534D494C45533E204F435B434040485D284F295B434040485D284F295B434040485D284F29434F093C434F505952494748543E2041524D2050524F4A45435420687474703A2F2F7777772E6D657461626F6C6F6D652E6A702F0A2031302020392020302020302020312020302020302020302020302020303939392056323030300A20202020332E3733323120202020312E3735303020202020302E303030302043202020302020302020302020322020302020302020302020302020302020302020302020300A20202020332E3733323120202020302E3735303020202020302E303030302043202020302020302020312020312020302020302020302020302020302020302020302020300A20202020322E3836363020202020302E3235303020202020302E303030302043202020302020302020312020312020302020302020302020302020302020302020302020300A20202020322E383636302020202D302E3735303020202020302E303030302043202020302020302020312020312020302020302020302020302020302020302020302020300A20202020322E303030302020202D312E3235303020202020302E303030302043202020302020302020302020322020302020302020302020302020302020302020302020300A20202020342E3539383120202020322E3235303020202020302E30303030204F202020302020302020302020312020302020302020302020302020302020302020302020300A20202020342E3539383120202020302E3235303020202020302E30303030204F202020302020302020302020312020302020302020302020302020302020302020302020300A20202020322E3030303020202020302E3735303020202020302E30303030204F202020302020302020302020312020302020302020302020302020302020302020302020300A20202020332E373332312020202D312E3235303020202020302E30303030204F202020302020302020302020312020302020302020302020302020302020302020302020300A20202020322E303030302020202D322E3235303020202020302E30303030204F202020302020302020302020312020302020302020302020302020302020302020302020300A2020352020342020312020302020302020302020300A2020342020332020312020302020302020302020300A2020332020322020312020302020302020302020300A2020322020312020312020302020302020302020300A2020352031302020312020302020302020302020300A2020342020392020312020362020302020302020300A2020332020382020312020312020302020302020300A2020322020372020312020362020302020302020300A2020312020362020312020302020302020302020300A4D2020454E44
Contributor: Kusano M, Fukushima A, Plant Science Center, RIKEN.
InstType: EI
InstName: Pegasus III TOF-MS system, Leco; GC 6890, Agilent Technologies
IoniMethod: EI
IonPolarity: pos
Date: 2010-10-09 19:48:36+02:00
Num Peaks: 118
60 4 61 6 66 4 67 1 69 2 70 3 71 3 72 19 73 999 74 85 
75 51 76 3 77 4 81 7 83 4 84 1 85 3 87 5 88 4 89 25 
90 2 91 1 97 1 99 3 101 23 102 4 103 281 104 25 105 12 111 2 
113 5 115 6 116 9 117 94 118 10 119 9 120 1 127 2 129 127 130 15 
131 29 132 4 133 59 134 8 135 5 141 1 142 2 143 9 144 1 145 3 
146 1 147 292 148 42 149 26 150 3 151 1 153 1 155 4 157 19 158 2 
159 2 161 3 163 4 169 1 170 2 171 2 173 1 175 5 176 1 177 3 
189 49 190 11 191 22 192 4 193 2 201 1 203 12 204 42 205 99 206 21 
207 12 208 2 215 1 217 235 218 57 219 22 220 4 221 7 222 1 223 1 
229 5 230 1 231 1 243 14 244 3 245 2 277 10 278 4 279 2 291 3 
292 1 305 1 306 2 307 31 308 9 309 4 317 5 318 2 319 54 320 16 
321 7 322 1 332 9 333 3 334 1 395 1 422 3 423 1 
