Name: L-Alanine
CAS: 56-41-7
MW: 89
Formula: C3H7NO2
Synonym: KEGG: C00041
Synonym: CID: 3343
Synonym: MassBank: PR010056
Synonym: L-Alanine
Synonym: L-2-Aminopropionic acid
Synonym: L-alpha-Alanine
Structure: 310A31370A3C4341535F49443E2035362D34312D37093C4B4547475F49443E20433030303431093C4E414D453E204C2D416C616E696E65093C464F524D554C413E20433348374E4F32093C45584143544D4153533E2038392E3034373637383437323939393939093C415645524147454D4153533E2038392E3039333232093C534D494C45533E20435B4340485D284E2943284F293D4F093C434F505952494748543E2041524D2050524F4A45435420687474703A2F2F7777772E6D657461626F6C6F6D652E6A702F0A2020362020352020302020302020312020302020302020302020302020303939392056323030300A20202020332E3733323120202020302E3235303020202020302E303030302043202020302020302020302020302020302020302020302020302020302020302020302020300A20202020322E383636302020202D302E3235303020202020302E303030302043202020302020302020322020312020302020302020302020302020302020302020302020300A20202020322E383636302020202D312E3235303020202020302E303030302043202020302020302020302020332020302020302020302020302020302020302020302020300A20202020322E3030303020202020302E3235303020202020302E30303030204E202020302020302020302020322020302020302020302020302020302020302020302020300A20202020332E3733323120202020312E3235303020202020302E30303030204F202020302020302020302020302020302020302020302020302020302020302020302020300A20202020342E353938312020202D302E3235303020202020302E30303030204F202020302020302020302020312020302020302020302020302020302020302020302020300A2020322020312020312020302020302020302020300A2020312020362020312020302020302020302020300A2020322020342020312020302020302020302020300A2020312020352020322020302020302020302020300A2020322020332020312020362020302020302020300A4D2020454E44
Contributor: Kusano M, Fukushima A, Plant Science Center, RIKEN.
InstType: EI
InstName: Pegasus III TOF-MS system, Leco; GC 6890, Agilent Technologies
IoniMethod: EI
IonPolarity: pos
Date: 2010-10-09 19:48:36+02:00
Num Peaks: 63
60 18 61 26 62 2 63 1 66 23 67 3 69 1 70 12 71 5 72 20 
73 813 74 81 75 71 76 7 77 11 78 1 79 3 83 1 84 4 85 2 
86 18 87 6 88 6 89 2 93 1 94 17 95 2 98 1 99 1 100 47 
101 12 102 12 103 36 104 3 105 3 113 1 114 9 115 10 116 999 117 127 
118 45 119 5 128 13 129 2 130 3 131 12 132 5 133 19 134 3 135 1 
144 2 146 2 147 177 148 29 149 16 150 1 174 1 190 36 191 8 192 3 
218 12 219 2 220 1 
