Name: Uridine 5'-diphospho-N-acetylglucosamine
CAS: 91183-98-1
MW: 607
Formula: C17H27N3O17P2
Synonym: MassBank: PR010241
Synonym: Uridine 5'-diphospho-N-acetylglucosamine
Structure: 39313138332D39382D312E6D6F6C0A20204368656D447261773132303630363131313532440A2033392034312020302020302020312020302020302020302020302020303939392056323030300A2020202D332E3237333220202020302E3433323320202020302E303030302043202020302020302020302020302020302020302020302020302020302020302020302020300A2020202D332E3630383720202020312E3138363120202020302E30303030204E202020302020302020302020302020302020302020302020302020302020302020302020300A2020202D342E3432393220202020312E3237323420202020302E303030302043202020302020302020302020302020302020302020302020302020302020302020302020300A2020202D332E3132333720202020312E3835333520202020302E303030302043202020302020302020302020302020302020302020302020302020302020302020302020300A2020202D342E3736343620202020322E3032363120202020302E303030302043202020302020302020302020302020302020302020302020302020302020302020302020300A2020202D332E3435393120202020322E3630373220202020302E30303030204E202020302020302020302020302020302020302020302020302020302020302020302020300A2020202D342E3237393620202020322E3639333520202020302E303030302043202020302020302020302020302020302020302020302020302020302020302020302020300A2020202D342E3631353120202020332E3434373220202020302E30303030204F202020302020302020302020302020302020302020302020302020302020302020302020300A2020202D312E363635362020202D302E3937323320202020302E303030302043202020302020302020302020302020302020302020302020302020302020302020302020300A2020202D322E333830312020202D302E3535393820202020302E303030302043202020302020302020302020302020302020302020302020302020302020302020302020300A2020202D322E3436363220202020302E3236303820202020302E30303030204F202020302020302020302020302020302020302020302020302020302020302020302020300A2020202D332E313333382020202D302E3839353320202020302E303030302043202020302020302020302020302020302020302020302020302020302020302020302020300A2020202D332E363835392020202D302E3238323120202020302E303030302043202020302020302020302020302020302020302020302020302020302020302020302020300A2020202D332E333035342020202D312E3730323220202020302E30303030204F202020302020302020302020302020302020302020302020302020302020302020302020300A2020202D342E353036332020202D302E3336383220202020302E30303030204F202020302020302020302020302020302020302020302020302020302020302020302020300A2020202D322E3330333220202020312E3736373120202020302E30303030204F202020302020302020302020302020302020302020302020302020302020302020302020300A2020202D302E393531322020202D302E3535393820202020302E30303030204F202020302020302020302020302020302020302020302020302020302020302020302020300A2020202D302E323336372020202D302E3937323220202020302E303030302050202020302020302020302020302020302020302020302020302020302020302020302020300A20202020302E343737382020202D312E3338343720202020302E30303030204F202020302020302020302020302020302020302020302020302020302020302020302020300A2020202D302E363439322020202D312E3638363720202020302E30303030204F202020302020302020302020302020302020302020302020302020302020302020302020300A20202020302E313735382020202D302E3235373720202020302E30303030204F202020302020302020302020302020302020302020302020302020302020302020302020300A20202020312E313932322020202D302E3937323220202020302E303030302050202020302020302020302020302020302020302020302020302020302020302020302020300A20202020312E393036372020202D302E3535393720202020302E30303030204F202020302020302020302020302020302020302020302020302020302020302020302020300A20202020312E363034372020202D312E3638363720202020302E30303030204F202020302020302020302020302020302020302020302020302020302020302020302020300A20202020302E373739372020202D302E3235373720202020302E30303030204F202020302020302020302020302020302020302020302020302020302020302020302020300A20202020322E363231322020202D302E3937323220202020302E303030302043202020302020302020302020302020302020302020302020302020302020302020302020300A20202020322E363231322020202D312E3739373220202020302E30303030204F202020302020302020302020302020302020302020302020302020302020302020302020300A20202020332E333335372020202D302E3535393720202020302E303030302043202020302020302020302020302020302020302020302020302020302020302020302020300A20202020332E333335372020202D322E3230393720202020302E303030302043202020302020302020302020302020302020302020302020302020302020302020302020300A20202020342E303530322020202D302E3937323220202020302E303030302043202020302020302020302020302020302020302020302020302020302020302020302020300A20202020342E303530322020202D312E3739373220202020302E303030302043202020302020302020302020302020302020302020302020302020302020302020302020300A20202020332E333335372020202D332E3033343720202020302E303030302043202020302020302020302020302020302020302020302020302020302020302020302020300A20202020342E373634362020202D322E3230393720202020302E30303030204F202020302020302020302020302020302020302020302020302020302020302020302020300A20202020342E373634362020202D302E3535393720202020302E30303030204F202020302020302020302020302020302020302020302020302020302020302020302020300A20202020322E363231322020202D332E3434373220202020302E30303030204F202020302020302020302020302020302020302020302020302020302020302020302020300A20202020332E3333353720202020302E3236353320202020302E30303030204E202020302020302020302020302020302020302020302020302020302020302020302020300A20202020322E3632313220202020302E3637373920202020302E303030302043202020302020302020302020302020302020302020302020302020302020302020302020300A20202020322E3632313320202020312E3530323920202020302E303030302043202020302020302020302020302020302020302020302020302020302020302020302020300A20202020312E3930363820202020302E3236353420202020302E30303030204F202020302020302020302020302020302020302020302020302020302020302020302020300A2020312020322020312020362020202020200A2020322020332020312020302020202020200A2020322020342020312020302020202020200A2020332020352020322020302020202020200A2020342020362020312020302020202020200A2020362020372020312020302020202020200A2020372020352020312020302020202020200A2020372020382020322020302020202020200A2031312031302020312020302020202020200A2031322031302020312020302020202020200A2020312031312020312020302020202020200A2031332031322020312020302020202020200A2031332020312020312020302020202020200A2031302020392020312020362020202020200A2031322031342020312020312020202020200A2031332031352020312020312020202020200A2020342031362020322020302020202020200A2031372031382020312020302020202020200A2031382031392020312020302020202020200A2031382032302020312020302020202020200A2031382032312020322020302020202020200A2031392032322020312020302020202020200A2032322032332020312020302020202020200A2032322032342020322020302020202020200A2032322032352020312020302020202020200A2031372020392020312020302020202020200A2032362032332020312020362020202020200A2032372032362020312020302020202020200A2032382032362020312020302020202020200A2032392032372020312020302020202020200A2033302032382020312020302020202020200A2033312032392020312020302020202020200A2033312033302020312020302020202020200A2032392033322020312020312020202020200A2033312033332020312020362020202020200A2033302033342020312020312020202020200A2033322033352020312020302020202020200A2032382033362020312020362020202020200A2033362033372020312020302020202020200A2033372033382020312020302020202020200A2033372033392020322020302020202020200A4D2020454E44
Contributor: Kusano M, Fukushima A, Plant Science Center, RIKEN.
InstType: EI
InstName: Pegasus III TOF-MS system, Leco; GC 6890, Agilent Technologies
IoniMethod: EI
IonPolarity: pos
Date: 2010-10-09 19:48:36+02:00
Num Peaks: 183
60 9 61 18 62 1 63 1 65 1 66 9 67 4 68 1 69 8 70 9 
71 7 72 22 73 999 74 91 75 106 76 9 77 13 78 1 79 6 80 4 
81 6 82 5 83 29 84 69 85 12 86 4 87 8 88 4 89 36 90 3 
91 2 94 2 95 1 96 8 97 2 98 3 99 10 100 15 101 28 102 7 
103 68 104 7 105 5 108 4 109 2 110 2 111 7 112 3 113 19 114 9 
115 18 116 24 117 99 118 11 119 11 120 1 121 1 122 2 124 2 125 1 
126 2 127 3 128 14 129 52 130 12 131 30 132 7 133 50 134 7 135 6 
136 3 138 1 140 1 141 2 142 5 143 12 144 7 145 4 146 1 147 159 
148 25 149 28 150 5 151 2 152 1 153 1 154 2 155 2 156 26 157 12 
158 7 159 15 160 9 161 2 162 1 163 10 164 1 165 1 168 6 169 4 
170 15 171 2 172 2 173 15 174 5 175 5 176 1 177 6 178 1 181 1 
182 6 183 2 184 6 185 2 186 2 187 1 189 26 190 6 191 42 192 8 
193 4 194 1 196 4 197 3 198 12 199 2 200 1 201 2 202 10 203 24 
204 42 205 14 206 4 207 1 210 5 211 3 212 1 215 4 216 1 217 55 
218 51 219 13 220 4 221 1 224 3 225 1 226 28 227 5 228 2 229 1 
230 5 231 23 232 5 233 13 234 2 235 1 239 3 240 1 243 1 244 1 
245 1 246 4 247 1 257 1 258 2 272 2 273 1 274 1 275 1 284 1 
300 4 301 1 314 2 316 3 317 1 318 4 319 3 320 1 329 12 330 3 
331 1 404 3 405 1 
