Name: Oxalic acid
CAS: 6153-56-6
MW: 89
Formula: C2H2O4
Synonym: MassBank: PR010022
Synonym: Oxalic acid
Structure: 310A31360A20204143442F4C6162733132303230363130313832440A2020362020352020302020302020302020302020302020302020302020302020312056323030300A20202020392E363137332020202D362E3935383520202020302E30303030204F202020302020302020302020302020302020302020302020302020302020302020302020300A20202031302E373639312020202D372E3632333520202020302E303030302043202020302020302020302020302020302020302020302020302020302020302020302020300A20202031312E393230392020202D362E3935383520202020302E303030302043202020302020302020302020302020302020302020302020302020302020302020302020300A20202031332E303732382020202D372E3632333520202020302E30303030204F202020302020302020302020302020302020302020302020302020302020302020302020300A20202031302E373639312020202D382E3935333520202020302E30303030204F202020302020302020302020302020302020302020302020302020302020302020302020300A20202031312E393230392020202D352E3632383520202020302E30303030204F202020302020302020302020302020302020302020302020302020302020302020302020300A2020322020312020312020302020302020302020300A2020332020322020312020302020302020302020300A2020342020332020312020302020302020302020300A2020322020352020322020302020302020302020300A2020332020362020322020302020302020302020300A4D2020454E44
Contributor: Kusano M, Fukushima A, Plant Science Center, RIKEN.
InstType: EI
InstName: Pegasus III TOF-MS system, Leco; GC 6890, Agilent Technologies
IoniMethod: EI
IonPolarity: pos
Date: 2010-10-09 19:48:36+02:00
Num Peaks: 80
60 4 61 9 62 1 63 11 64 1 65 10 66 80 67 2 69 3 70 9 
71 15 72 63 73 999 74 46 75 68 76 5 77 134 78 19 79 38 80 1 
84 9 86 24 87 11 88 2 89 1 92 4 93 44 94 1 95 11 98 1 
99 2 100 15 101 4 102 17 103 16 105 1 107 1 108 2 110 1 114 3 
115 9 116 3 117 11 118 2 119 3 126 1 127 3 128 1 129 1 130 1 
131 38 132 4 133 32 134 4 135 5 144 1 145 1 146 6 147 712 148 50 
158 2 161 1 172 2 173 1 174 5 175 10 176 4 190 23 191 5 196 1 
197 1 217 1 218 32 219 16 233 2 542 1 588 1 734 1 770 1 795 1 
