Name: Glycolic acid
CAS: 79-14-1
MW: 76
Formula: C2H4O3
Synonym: KEGG: C00160
Synonym: CID: 3460
Synonym: MassBank: PR010159
Synonym: Glycolic acid
Synonym: Glycolate
Synonym: Hydroxyacetic acid
Structure: 310A31350A3C4341535F49443E2037392D31342D31093C4B4547475F49443E20433030313630093C4E414D453E20476C79636F6C617465093C464F524D554C413E20433248344F33093C45584143544D4153533E2037362E303136303433393934093C415645524147454D4153533E2037362E3035313335393939393939393939093C534D494C45533E204F4343284F293D4F093C434F505952494748543E2041524D2050524F4A45435420687474703A2F2F7777772E6D657461626F6C6F6D652E6A702F0A2020352020342020302020302020302020302020302020302020302020303939392056323030300A20202020322E383636302020202D302E3235303020202020302E303030302043202020302020302020302020302020302020302020302020302020302020302020302020300A20202020332E3733323120202020302E3235303020202020302E303030302043202020302020302020302020322020302020302020302020302020302020302020302020300A20202020332E3733323120202020312E3235303020202020302E30303030204F202020302020302020302020312020302020302020302020302020302020302020302020300A20202020322E3030303020202020302E3235303020202020302E30303030204F202020302020302020302020312020302020302020302020302020302020302020302020300A20202020322E383636302020202D312E3235303020202020302E30303030204F202020302020302020302020302020302020302020302020302020302020302020302020300A2020322020312020312020302020302020302020300A2020332020322020312020302020302020302020300A2020312020342020312020302020302020302020300A2020312020352020322020302020302020302020300A4D2020454E44
Contributor: Kusano M, Fukushima A, Plant Science Center, RIKEN.
InstType: EI
InstName: Pegasus III TOF-MS system, Leco; GC 6890, Agilent Technologies
IoniMethod: EI
IonPolarity: pos
Date: 2010-10-09 19:48:36+02:00
Num Peaks: 71
60 17 61 26 62 3 63 3 65 1 66 197 67 17 69 1 70 6 71 10 
72 41 73 999 74 90 75 102 76 9 77 36 78 4 79 12 81 29 82 1 
84 2 85 2 87 14 88 34 89 19 90 3 91 1 92 1 93 1 95 5 
99 1 101 9 102 11 103 42 104 5 105 11 106 1 107 1 113 1 115 12 
116 3 117 27 118 3 119 8 120 1 130 1 131 32 132 5 133 70 134 10 
135 5 146 2 147 630 148 102 149 60 150 7 151 2 161 33 162 5 163 2 
174 8 175 1 176 1 177 104 178 17 179 7 180 1 190 2 205 61 206 11 
207 5 
