Name: L-Leucine
CAS: 61-90-5
MW: 131
Formula: C6H13NO2
Synonym: KEGG: C00123
Synonym: CID: 3423
Synonym: MassBank: PR010034
Synonym: L-Leucine
Synonym: 2-Amino-4-methylvaleric acid
Synonym: (2S)-alpha-Leucine
Synonym: (2S)-alpha-2-Amino-4-methylvaleric acid
Structure: 310A32330A3C4341535F49443E2036312D39302D35093C4B4547475F49443E20433030313233093C4E414D453E204C2D4C657563696E65093C464F524D554C413E2043364831334E4F32093C45584143544D4153533E203133312E303934363238363635093C415645524147454D4153533E203133312E3137323936093C534D494C45533E204343284329435B4340485D284E2943284F293D4F093C434F505952494748543E2041524D2050524F4A45435420687474703A2F2F7777772E6D657461626F6C6F6D652E6A702F0A2020392020382020302020302020312020302020302020302020302020303939392056323030300A20202020342E3539383120202020312E3030303020202020302E303030302043202020302020302020302020302020302020302020302020302020302020302020302020300A20202020332E3733323120202020302E3530303020202020302E303030302043202020302020302020322020312020302020302020302020302020302020302020302020300A20202020332E373332312020202D302E3530303020202020302E303030302043202020302020302020302020322020302020302020302020302020302020302020302020300A20202020322E383636302020202D312E3030303020202020302E303030302043202020302020302020302020312020302020302020302020302020302020302020302020300A20202020322E303030302020202D302E3530303020202020302E303030302043202020302020302020302020332020302020302020302020302020302020302020302020300A20202020322E383636302020202D322E3030303020202020302E303030302043202020302020302020302020332020302020302020302020302020302020302020302020300A20202020322E3836363020202020312E3030303020202020302E30303030204E202020302020302020302020322020302020302020302020302020302020302020302020300A20202020352E3436343120202020302E3530303020202020302E30303030204F202020302020302020302020312020302020302020302020302020302020302020302020300A20202020342E3539383120202020322E3030303020202020302E30303030204F202020302020302020302020302020302020302020302020302020302020302020302020300A2020322020332020312020302020302020302020300A2020312020392020322020302020302020302020300A2020332020342020312020302020302020302020300A2020312020382020312020302020302020302020300A2020342020352020312020302020302020302020300A2020312020322020312020302020302020302020300A2020342020362020312020302020302020302020300A2020322020372020312020362020302020302020300A4D2020454E44
Contributor: Kusano M, Fukushima A, Plant Science Center, RIKEN.
InstType: EI
InstName: Pegasus III TOF-MS system, Leco; GC 6890, Agilent Technologies
IoniMethod: EI
IonPolarity: pos
Date: 2010-10-09 19:48:36+02:00
Num Peaks: 95
60 21 61 19 62 1 63 1 66 7 67 3 69 3 70 16 71 7 72 24 
73 999 74 104 75 86 76 8 77 13 78 1 79 1 80 1 81 1 82 3 
83 2 84 12 85 5 86 30 87 6 88 3 89 2 93 1 94 1 95 1 
96 4 97 2 98 4 99 8 100 94 101 16 102 208 103 40 104 9 105 5 
110 1 112 2 113 2 114 5 115 29 116 43 117 18 118 4 119 5 126 2 
128 19 129 7 130 30 131 17 132 17 133 33 134 7 135 3 142 15 143 4 
144 3 145 1 146 3 147 104 148 16 149 8 156 2 157 2 158 824 159 132 
160 41 161 3 163 1 170 9 171 2 172 1 174 4 175 1 176 2 177 3 
186 1 188 1 203 2 204 1 216 1 218 32 219 8 220 3 231 2 232 40 
233 11 234 4 260 14 261 3 262 1 
