Name: L-Iditol
CAS: 488-45-9
MW: 182
Formula: C6H14O6
Synonym: KEGG: C01507
Synonym: CID: 4675
Synonym: MassBank: PR010084
Synonym: L-Iditol
Structure: 310A32390A3C4341535F49443E203438382D34352D39093C4B4547475F49443E20433031353037093C4E414D453E204C2D496469746F093C464F524D554C413E2043364831344F36093C45584143544D4153533E203138322E3037393033383138093C415645524147454D4153533E203138322E3137313736093C534D494C45533E204F435B4340485D284F295B434040485D284F295B4340485D284F295B434040485D284F29434F093C434F505952494748543E2041524D2050524F4A45435420687474703A2F2F7777772E6D657461626F6C6F6D652E6A702F0A2031322031312020302020302020312020302020302020302020302020303939392056323030300A20202020342E3539383120202020322E3030303020202020302E303030302043202020302020302020302020322020302020302020302020302020302020302020302020300A20202020342E3539383120202020312E3030303020202020302E303030302043202020302020302020312020312020302020302020302020302020302020302020302020300A20202020332E3733323120202020302E3530303020202020302E303030302043202020302020302020322020312020302020302020302020302020302020302020302020300A20202020332E373332312020202D302E3530303020202020302E303030302043202020302020302020312020312020302020302020302020302020302020302020302020300A20202020322E383636302020202D312E3030303020202020302E303030302043202020302020302020322020312020302020302020302020302020302020302020302020300A20202020322E383636302020202D322E3030303020202020302E303030302043202020302020302020302020322020302020302020302020302020302020302020302020300A20202020352E3436343120202020322E3530303020202020302E30303030204F202020302020302020302020312020302020302020302020302020302020302020302020300A20202020352E3436343120202020302E3530303020202020302E30303030204F202020302020302020302020312020302020302020302020302020302020302020302020300A20202020322E3836363020202020312E3030303020202020302E30303030204F202020302020302020302020312020302020302020302020302020302020302020302020300A20202020342E353938312020202D312E3030303020202020302E30303030204F202020302020302020302020312020302020302020302020302020302020302020302020300A20202020322E303030302020202D302E3530303020202020302E30303030204F202020302020302020302020312020302020302020302020302020302020302020302020300A20202020322E303030302020202D322E3530303020202020302E30303030204F202020302020302020302020312020302020302020302020302020302020302020302020300A2020362031322020312020302020302020302020300A2020362020352020312020302020302020302020300A2020352020342020312020302020302020302020300A2020352031312020312020362020302020302020300A2020342020332020312020302020302020302020300A2020342031302020312020362020302020302020300A2020332020322020312020302020302020302020300A2020332020392020312020362020302020302020300A2020322020312020312020302020302020302020300A2020322020382020312020362020302020302020300A2020312020372020312020302020302020302020300A4D2020454E44
Contributor: Kusano M, Fukushima A, Plant Science Center, RIKEN.
InstType: EI
InstName: Pegasus III TOF-MS system, Leco; GC 6890, Agilent Technologies
IoniMethod: EI
IonPolarity: pos
Date: 2010-10-09 19:48:36+02:00
Num Peaks: 162
60 4 61 7 65 1 66 6 67 3 69 9 70 4 71 4 72 17 73 999 
74 83 75 96 76 8 77 9 78 1 81 9 82 1 83 3 84 1 85 5 
86 1 87 6 88 4 89 31 90 3 91 1 95 1 97 4 98 1 99 5 
100 2 101 36 102 4 103 102 104 9 105 5 109 1 111 9 113 4 114 1 
115 9 116 30 117 135 118 14 119 11 120 1 125 1 127 3 129 95 130 11 
131 22 132 3 133 61 134 8 135 7 141 2 142 5 143 19 144 2 145 4 
146 1 147 264 148 43 149 36 150 4 151 2 155 9 156 2 157 18 158 3 
159 5 160 1 161 3 163 4 167 4 168 1 169 4 170 5 171 19 172 3 
173 4 174 3 175 17 176 3 177 6 178 1 183 23 184 11 185 8 186 1 
187 1 188 9 189 60 190 12 191 29 192 4 193 5 203 9 204 35 205 267 
206 53 207 36 208 6 209 3 215 1 217 13 218 3 219 4 221 17 222 4 
223 2 229 2 230 3 231 10 232 2 233 1 239 1 243 3 244 2 245 4 
246 1 247 1 249 1 255 2 256 1 257 13 258 4 259 11 260 2 261 1 
262 1 263 6 264 1 265 1 272 3 273 13 274 3 275 2 284 6 285 26 
286 6 287 2 298 1 299 1 317 1 332 1 333 5 334 1 346 1 347 4 
348 1 362 6 363 22 364 6 365 3 373 1 374 5 375 18 376 6 377 2 
388 2 389 1 
