Name: Linoleic acid
CAS: 60-33-3
MW: 278
Formula: C18H30O2
Synonym: KEGG: C01595
Synonym: CID: 4750
Synonym: MassBank: PR010199
Synonym: Linoleic acid
Synonym: 9-cis,12-cis-Octadecadienoic acid
Synonym: (9Z,12Z)-Octadecadienoic acid
Synonym: Linoleate
Synonym: 9-cis,12-cis-Octadecadienoate
Structure: 310A34350A3C4341535F49443E2036302D33332D33093C4B4547475F49443E20433031353935093C4E414D453E2028395A2C31325A292D4F637461646563616469656E6F69632061636964093C464F524D554C413E204331384833304F32093C45584143544D4153533E203237382E323234353830323034093C415645524147454D4153533E203237382E34323936093C534D494C45533E204343434343433D4343433D4343433D434343434343284F293D4F093C434F505952494748543E2041524D2050524F4A45435420687474703A2F2F7777772E6D657461626F6C6F6D652E6A702F0A2032302031392020302020302020302020302020302020302020302020303939392056323030300A20202020322E383636302020202D352E3735303020202020302E303030302043202020302020302020302020302020302020302020302020302020302020302020302020300A20202020332E373332312020202D352E3235303020202020302E303030302043202020302020302020302020322020302020302020302020302020302020302020302020300A20202020332E373332312020202D342E3235303020202020302E303030302043202020302020302020302020322020302020302020302020302020302020302020302020300A20202020342E353938312020202D332E3735303020202020302E303030302043202020302020302020302020322020302020302020302020302020302020302020302020300A20202020342E353938312020202D322E3735303020202020302E303030302043202020302020302020302020322020302020302020302020302020302020302020302020300A20202020352E343634312020202D322E3235303020202020302E303030302043202020302020302020302020312020302020302020302020302020302020302020302020300A20202020352E343634312020202D312E3235303020202020302E303030302043202020302020302020302020312020302020302020302020302020302020302020302020300A20202020362E333330312020202D302E3735303020202020302E303030302043202020302020302020302020322020302020302020302020302020302020302020302020300A20202020362E3333303120202020302E3235303020202020302E303030302043202020302020302020302020312020302020302020302020302020302020302020302020300A20202020372E3139363220202020302E3735303020202020302E303030302043202020302020302020302020312020302020302020302020302020302020302020302020300A20202020372E3139363220202020312E3735303020202020302E303030302043202020302020302020302020322020302020302020302020302020302020302020302020300A20202020382E3036323220202020322E3235303020202020302E303030302043202020302020302020302020312020302020302020302020302020302020302020302020300A20202020382E3036323220202020332E3235303020202020302E303030302043202020302020302020302020312020302020302020302020302020302020302020302020300A20202020382E3932383220202020332E3735303020202020302E303030302043202020302020302020302020322020302020302020302020302020302020302020302020300A20202020382E3932383220202020342E3735303020202020302E303030302043202020302020302020302020322020302020302020302020302020302020302020302020300A20202020392E3739343220202020352E3235303020202020302E303030302043202020302020302020302020322020302020302020302020302020302020302020302020300A20202020392E3739343220202020362E3235303020202020302E303030302043202020302020302020302020322020302020302020302020302020302020302020302020300A20202031302E3636303320202020362E3735303020202020302E303030302043202020302020302020302020332020302020302020302020302020302020302020302020300A20202020322E303030302020202D352E3235303020202020302E30303030204F202020302020302020302020312020302020302020302020302020302020302020302020300A20202020322E383636302020202D362E3735303020202020302E30303030204F202020302020302020302020302020302020302020302020302020302020302020302020300A2031352031362020312020302020302020302020300A2031342031332020312020302020302020302020300A2020312020322020312020302020302020302020300A2031342031352020312020302020302020302020300A2020322020332020312020302020302020302020300A2031322031332020322020302020302020302020300A2020332020342020312020302020302020302020300A2031362031372020312020302020302020302020300A2020342020352020312020302020302020302020300A2031312031322020312020302020302020302020300A2020352020362020312020302020302020302020300A2031312031302020312020302020302020302020300A2031372031382020312020302020302020302020300A2020372020382020312020302020302020302020300A2020382020392020312020302020302020302020300A2020392031302020322020302020302020302020300A2020362020372020322020302020302020302020300A2020312031392020312020302020302020302020300A2020312032302020322020302020302020302020300A4D2020454E44
Contributor: Kusano M, Fukushima A, Plant Science Center, RIKEN.
InstType: EI
InstName: Pegasus III TOF-MS system, Leco; GC 6890, Agilent Technologies
IoniMethod: EI
IonPolarity: pos
Date: 2010-10-09 19:48:36+02:00
Num Peaks: 188
60 20 61 84 62 11 63 16 64 4 65 96 66 68 67 741 68 31 69 93 
70 25 71 26 72 52 73 999 74 114 75 814 76 82 77 219 78 64 79 419 
80 201 81 525 82 209 83 106 84 30 85 32 86 13 87 8 88 7 89 26 
90 4 91 133 92 32 93 164 94 124 95 281 96 168 97 83 98 21 99 20 
100 3 101 11 102 3 103 9 104 8 105 53 106 22 107 93 108 76 109 123 
110 89 111 36 112 6 113 5 114 1 115 8 116 40 117 203 118 26 119 39 
120 18 121 101 122 51 123 58 124 41 125 19 126 3 127 4 128 4 129 258 
130 35 131 76 132 27 133 31 134 12 135 89 136 65 137 32 138 25 139 11 
140 2 141 5 142 3 143 25 144 4 145 48 146 11 147 14 148 5 149 53 
150 81 151 23 152 13 153 7 154 2 155 12 156 4 157 13 158 4 159 16 
160 4 161 7 162 3 163 25 164 37 165 11 166 8 167 5 168 2 169 6 
170 3 171 12 172 4 173 18 174 5 175 4 176 1 177 14 178 47 179 12 
180 3 181 4 182 2 183 8 184 2 185 9 186 3 187 14 188 3 189 2 
191 6 192 5 193 1 194 1 195 2 196 1 197 2 198 1 199 10 200 2 
201 10 202 2 203 1 205 4 206 4 207 1 208 1 209 1 211 3 212 1 
213 4 214 1 215 6 216 2 217 1 218 2 219 2 220 22 221 5 225 2 
226 1 227 3 228 1 229 4 230 1 233 2 234 7 235 1 239 2 240 1 
241 2 243 3 244 1 245 1 253 1 255 1 257 1 261 1 262 49 263 11 
264 1 267 1 336 5 337 59 338 17 339 4 352 5 353 1 
