Name: N-Acetyl-D-glucosamine
CAS: 7512-17-6
MW: 221
Formula: C8H15NO6
Synonym: KEGG: C00140
Synonym: CID: 3440
Synonym: MassBank: PR010178
Synonym: N-Acetyl-D-glucosamine
Synonym: GlcNAc
Synonym: N-Acetylchitosamine
Synonym: 2-Acetamido-2-deoxy-D-glucose
Structure: 310A33360A3C4341535F49443E20373531322D31372D36093C4B4547475F49443E20433030313430093C4E414D453E204E2D41636574796C2D442D676C75636F73616D696E65093C464F524D554C413E2043384831354E4F36093C45584143544D4153533E203232312E303839393337323137093C415645524147454D4153533E203232312E3230373834093C534D494C45533E204F435B434040485D284F31295B434040485D284F295B4340485D284F295B434040485D284E432843293D4F2943284F2931093C434F505952494748543E2041524D2050524F4A45435420687474703A2F2F7777772E6D657461626F6C6F6D652E6A702F0A2031352031352020302020302020312020302020302020302020302020303939392056323030300A20202020342E3539383120202020302E3735303020202020302E303030302043202020302020302020332020312020302020302020302020302020302020302020302020300A20202020332E3733323120202020302E3235303020202020302E303030302043202020302020302020312020312020302020302020302020302020302020302020302020300A20202020332E373332312020202D302E3735303020202020302E303030302043202020302020302020322020312020302020302020302020302020302020302020302020300A20202020342E353938312020202D312E3235303020202020302E303030302043202020302020302020312020312020302020302020302020302020302020302020302020300A20202020352E343634312020202D302E3735303020202020302E303030302043202020302020302020312020312020302020302020302020302020302020302020302020300A20202020362E333330312020202D312E3235303020202020302E303030302043202020302020302020302020322020302020302020302020302020302020302020302020300A20202020322E3836363020202020302E3735303020202020302E30303030204E202020302020302020302020312020302020302020302020302020302020302020302020300A20202020322E3836363020202020312E3735303020202020302E303030302043202020302020302020302020302020302020302020302020302020302020302020302020300A20202020332E3733323120202020322E3235303020202020302E303030302043202020302020302020302020332020302020302020302020302020302020302020302020300A20202020342E3539383120202020312E3735303020202020302E30303030204F202020302020302020302020312020302020302020302020302020302020302020302020300A20202020322E3030303020202020322E3235303020202020302E30303030204F202020302020302020302020302020302020302020302020302020302020302020302020300A20202020322E383636302020202D312E3235303020202020302E30303030204F202020302020302020302020312020302020302020302020302020302020302020302020300A20202020342E353938312020202D322E3235303020202020302E30303030204F202020302020302020302020312020302020302020302020302020302020302020302020300A20202020352E3436343120202020302E3235303020202020302E30303030204F202020302020302020302020302020302020302020302020302020302020302020302020300A20202020372E313936322020202D302E3735303020202020302E30303030204F202020302020302020302020312020302020302020302020302020302020302020302020300A2031342020312020312020302020302020302020300A2020312020322020312020302020302020302020300A2020322020332020312020302020302020302020300A2020332020342020312020302020302020302020300A2020342020352020312020302020302020302020300A2020352020362020312020302020302020302020300A2020312031302020312020342020302020302020300A2020322020372020312020312020302020302020300A2020332031322020312020362020302020302020300A2020342031332020312020312020302020302020300A2020372020382020312020302020302020302020300A2031352020362020312020302020302020302020300A2020382031312020322020302020302020302020300A2020352031342020312020362020302020302020300A2020382020392020312020302020302020302020300A4D2020454E44
Contributor: Kusano M, Fukushima A, Plant Science Center, RIKEN.
InstType: EI
InstName: Pegasus III TOF-MS system, Leco; GC 6890, Agilent Technologies
IoniMethod: EI
IonPolarity: pos
Date: 2010-10-09 19:48:36+02:00
Num Peaks: 179
60 6 61 7 62 1 63 1 65 1 66 7 67 3 68 1 69 1 70 6 
71 4 72 17 73 999 74 90 75 74 76 6 77 17 78 2 79 10 80 2 
81 3 82 6 83 12 84 5 85 4 86 5 87 4 88 3 89 45 90 4 
91 2 92 1 94 1 95 2 96 3 97 2 98 2 99 5 100 14 101 18 
102 9 103 74 104 7 105 8 106 1 109 1 110 1 111 2 112 3 113 9 
114 10 115 6 116 19 117 74 118 8 119 6 120 1 125 1 126 2 127 5 
128 4 129 77 130 13 131 19 132 4 133 34 134 5 135 3 137 1 139 1 
140 1 141 3 142 4 143 9 144 6 145 2 146 1 147 190 148 30 149 19 
150 2 151 1 152 1 153 1 154 2 155 3 156 6 157 49 158 10 159 43 
160 6 161 3 162 1 163 4 167 1 168 2 169 5 170 3 171 8 172 3 
173 8 174 2 175 2 177 1 181 1 182 1 183 2 184 1 185 2 186 3 
187 1 188 1 189 11 190 4 191 13 192 2 193 1 195 1 196 1 199 1 
201 53 202 22 203 6 204 19 205 118 206 24 207 12 208 2 210 1 213 4 
214 2 215 1 216 2 217 25 218 6 219 2 220 1 221 3 222 1 227 1 
228 1 229 16 230 8 231 4 232 1 242 1 243 5 244 3 245 2 246 3 
247 1 257 1 258 2 259 1 274 3 275 1 277 2 278 1 284 1 285 2 
286 1 291 3 292 1 303 2 305 2 307 1 315 9 316 2 317 1 318 3 
319 81 320 25 321 12 322 2 489 1 594 1 595 3 596 2 597 1 
