Name: Caffeine
CAS: 58-08-2
MW: 194
Formula: C8H10N4O2
Synonym: KEGG: C07481
Synonym: CID: 9684
Synonym: MassBank: PR010011
Synonym: Caffeine
Structure: 310A33340A20204143442F4C6162733132303230363130303132440A2031342031352020302020302020302020302020302020302020302020302020312056323030300A20202020382E323636352020202D382E3530303820202020302E303030302043202020302020302020302020302020302020302020302020302020302020302020302020300A20202020382E323636352020202D392E3833303820202020302E303030302043202020302020302020302020302020302020302020302020302020302020302020302020300A20202020372E313134362020202D372E3833353820202020302E303030302043202020302020302020302020302020302020302020302020302020302020302020302020300A20202020372E3131343620202D31302E3439353820202020302E30303030204E202020302020302020302020302020302020302020302020302020302020302020302020300A20202020352E393632392020202D382E3530303820202020302E30303030204E202020302020302020302020302020302020302020302020302020302020302020302020300A20202020352E393632392020202D392E3833303820202020302E303030302043202020302020302020302020302020302020302020302020302020302020302020302020300A20202020392E353331342020202D382E3038393820202020302E30303030204E202020302020302020302020302020302020302020302020302020302020302020302020300A20202031302E333133312020202D392E3136353820202020302E303030302043202020302020302020302020302020302020302020302020302020302020302020302020300A20202020392E3533313620202D31302E3234313820202020302E30303030204E202020302020302020302020302020302020302020302020302020302020302020302020300A20202020372E3131343620202D31312E3832353820202020302E303030302043202020302020302020302020302020302020302020302020302020302020302020302020300A20202020342E3831313020202D31302E3439353820202020302E30303030204F202020302020302020302020302020302020302020302020302020302020302020302020300A20202020342E383131302020202D372E3833353820202020302E303030302043202020302020302020302020302020302020302020302020302020302020302020302020300A20202020372E313134362020202D362E3530353820202020302E30303030204F202020302020302020302020302020302020302020302020302020302020302020302020300A20202020392E393432342020202D362E3832343920202020302E303030302043202020302020302020302020302020302020302020302020302020302020302020302020300A2020332020312020312020302020302020302020300A2020342020322020312020302020302020302020300A2020352020332020312020302020302020302020300A2020362020342020312020302020302020302020300A2020362020352020312020302020302020302020300A2020372020312020312020302020302020302020300A2020322020312020322020302020302020302020300A2020382020372020312020302020302020302020300A2020392020322020312020302020302020302020300A2020392020382020322020302020302020302020300A2020342031302020312020302020302020302020300A2020362031312020322020302020302020302020300A2020352031322020312020302020302020302020300A2020332031332020322020302020302020302020300A2020372031342020312020302020302020302020300A4D2020454E44
Contributor: Kusano M, Fukushima A, Plant Science Center, RIKEN.
InstType: EI
InstName: Pegasus III TOF-MS system, Leco; GC 6890, Agilent Technologies
IoniMethod: EI
IonPolarity: pos
Date: 2010-10-09 19:48:36+02:00
Num Peaks: 65
64 5 65 18 66 93 67 733 68 12 69 15 70 67 71 3 72 1 75 1 
76 2 77 10 78 11 79 41 80 35 81 120 82 540 83 53 84 5 91 1 
92 4 93 12 94 62 95 18 96 10 97 35 98 1 106 2 107 8 108 57 
109 973 110 113 111 17 112 1 120 3 121 4 122 15 123 7 124 10 125 1 
132 1 133 1 134 1 135 6 136 60 137 82 138 28 139 3 140 1 148 1 
149 7 150 11 151 4 152 6 163 2 164 5 165 61 166 13 167 1 179 2 
192 1 193 172 194 999 195 101 196 9 
