Name: Maltose
CAS: 6363-53-7
MW: 342
Formula: C12H22O11
Synonym: MassBank: PR010188
Synonym: Maltose
Structure: 310A35320A20204143442F4C6162733132303230363130303432440A2032332032342020302020302020312020302020302020302020302020302020312056323030300A20202031342E313135332020202D342E3834373320202020302E303030302043202020302020302020302020302020302020302020302020302020302020302020302020300A20202031342E313135332020202D362E3137373320202020302E303030302043202020302020302020302020302020302020302020302020302020302020302020302020300A20202031322E393633342020202D342E3138323320202020302E303030302043202020302020302020302020302020302020302020302020302020302020302020302020300A20202031322E393633342020202D362E3834323320202020302E303030302043202020302020302020302020302020302020302020302020302020302020302020302020300A20202031312E383131372020202D342E3834373320202020302E30303030204F202020302020302020302020302020302020302020302020302020302020302020302020300A20202031312E383131372020202D362E3137373320202020302E303030302043202020302020302020302020302020302020302020302020302020302020302020302020300A20202031322E393633342020202D322E3835323320202020302E30303030204F202020302020302020302020302020302020302020302020302020302020302020302020300A20202031352E323637312020202D342E3138323320202020302E30303030204F202020302020302020302020302020302020302020302020302020302020302020302020300A20202031352E323637312020202D362E3834323320202020302E30303030204F202020302020302020302020302020302020302020302020302020302020302020302020300A20202031302E363539382020202D362E3834323320202020302E303030302043202020302020302020302020302020302020302020302020302020302020302020302020300A20202031322E393633342020202D382E3137323320202020302E30303030204F202020302020302020302020302020302020302020302020302020302020302020302020300A20202031312E383039392020202D382E3833343420202020302E303030302043202020302020302020302020302020302020302020302020302020302020302020302020300A20202031312E3830393920202D31302E3136343420202020302E303030302043202020302020302020302020302020302020302020302020302020302020302020302020300A20202031302E363538302020202D382E3136393420202020302E30303030204F202020302020302020302020302020302020302020302020302020302020302020302020300A20202031302E3635383020202D31302E3832393420202020302E303030302043202020302020302020302020302020302020302020302020302020302020302020302020300A20202020392E353036322020202D382E3833343420202020302E303030302043202020302020302020302020302020302020302020302020302020302020302020302020300A20202020392E3530363220202D31302E3136343420202020302E303030302043202020302020302020302020302020302020302020302020302020302020302020302020300A20202031322E3936313720202D31302E3832393420202020302E30303030204F202020302020302020302020302020302020302020302020302020302020302020302020300A20202031302E3635383020202D31322E3135393420202020302E30303030204F202020302020302020302020302020302020302020302020302020302020302020302020300A20202020382E3335343420202D31302E3832393420202020302E30303030204F202020302020302020302020302020302020302020302020302020302020302020302020300A20202020382E333534342020202D382E3136393420202020302E303030302043202020302020302020302020302020302020302020302020302020302020302020302020300A20202020372E323032362020202D382E3833343420202020302E30303030204F202020302020302020302020302020302020302020302020302020302020302020302020300A20202020392E353038302020202D362E3137373320202020302E30303030204F202020302020302020302020302020302020302020302020302020302020302020302020300A2020322020312020312020302020302020302020300A2020332020312020312020302020302020302020300A2020342020322020312020302020302020302020300A2020352020332020312020302020302020302020300A2020362020342020312020302020302020302020300A2020362020352020312020302020302020302020300A2020332020372020312020312020302020302020300A2020312020382020312020362020302020302020300A2020322020392020312020312020302020302020300A2020362031302020312020312020302020302020300A2020342031312020312020362020302020302020300A2031322031312020312020362020302020302020300A2031332031322020312020302020302020302020300A2031342031322020312020302020302020302020300A2031352031332020312020302020302020302020300A2031362031342020312020302020302020302020300A2031372031352020312020302020302020302020300A2031372031362020312020302020302020302020300A2031332031382020312020362020302020302020300A2031352031392020312020312020302020302020300A2031372032302020312020362020302020302020300A2031362032312020312020312020302020302020300A2032312032322020312020302020302020302020300A2031302032332020312020302020302020302020300A4D2020454E44
Contributor: Kusano M, Fukushima A, Plant Science Center, RIKEN.
InstType: EI
InstName: Pegasus III TOF-MS system, Leco; GC 6890, Agilent Technologies
IoniMethod: EI
IonPolarity: pos
Date: 2010-10-09 19:48:36+02:00
Num Peaks: 182
60 4 61 6 65 1 66 6 67 4 69 9 70 3 71 4 72 12 73 999 
74 88 75 62 76 4 77 5 81 10 82 2 83 3 84 2 85 4 86 2 
87 5 88 2 89 46 90 4 91 2 95 1 97 5 98 1 99 4 100 12 
101 15 102 8 103 159 104 15 105 14 106 2 109 4 110 1 111 4 112 1 
113 6 114 3 115 5 116 7 117 73 118 8 119 7 120 1 125 1 126 1 
127 4 128 2 129 78 130 11 131 19 132 3 133 39 134 5 135 3 139 1 
141 3 142 3 143 14 144 2 145 4 146 1 147 186 148 30 149 21 150 2 
151 1 153 2 154 1 155 10 156 2 157 12 158 2 159 4 160 25 161 6 
162 2 163 6 164 1 167 1 168 1 169 41 170 6 171 4 172 2 173 5 
174 2 175 3 176 1 177 3 178 1 181 1 183 2 185 1 186 1 187 1 
189 19 190 4 191 28 192 4 193 2 195 1 196 1 199 1 200 1 201 2 
202 1 203 7 204 131 205 58 206 18 207 7 208 1 210 1 215 3 216 1 
217 80 218 19 219 10 220 1 221 6 222 1 223 1 227 1 229 6 230 3 
231 9 232 3 233 8 234 2 235 3 241 1 242 1 243 17 244 5 245 5 
246 2 247 2 248 1 257 2 258 1 259 3 260 1 265 1 268 1 269 1 
270 1 271 16 272 4 273 4 274 1 275 1 291 2 300 3 301 1 304 1 
305 3 306 1 307 1 317 1 318 1 319 16 320 5 321 2 331 4 332 2 
333 1 345 1 360 8 361 86 362 30 363 14 364 3 365 1 390 1 451 2 
598 1 599 1 
