Name: Stearic acid
CAS: 57-11-4
MW: 284
Formula: C18H36O2
Synonym: KEGG: C01530
Synonym: CID: 4692
Synonym: MassBank: PR010237
Synonym: Stearic acid
Synonym: Stearate
Synonym: Octadecanoic acid
Structure: 310A34350A3C4341535F49443E2035372D31312D34093C4B4547475F49443E20433031353330093C4E414D453E204F637461646563616E6F69632061636964093C464F524D554C413E204331384833364F32093C45584143544D4153533E203238342E323731353330333936093C415645524147454D4153533E203238342E3437373234093C534D494C45533E20434343434343434343434343434343434343284F293D4F093C434F505952494748543E2041524D2050524F4A45435420687474703A2F2F7777772E6D657461626F6C6F6D652E6A702F0A2032302031392020302020302020302020302020302020302020302020303939392056323030300A20202020322E383636302020202D352E3735303020202020302E303030302043202020302020302020302020302020302020302020302020302020302020302020302020300A20202020332E373332312020202D352E3235303020202020302E303030302043202020302020302020302020322020302020302020302020302020302020302020302020300A20202020332E373332312020202D342E3235303020202020302E303030302043202020302020302020302020322020302020302020302020302020302020302020302020300A20202020342E353938312020202D332E3735303020202020302E303030302043202020302020302020302020322020302020302020302020302020302020302020302020300A20202020342E353938312020202D322E3735303020202020302E303030302043202020302020302020302020322020302020302020302020302020302020302020302020300A20202020352E343634312020202D322E3235303020202020302E303030302043202020302020302020302020322020302020302020302020302020302020302020302020300A20202020352E343634312020202D312E3235303020202020302E303030302043202020302020302020302020322020302020302020302020302020302020302020302020300A20202020362E333330312020202D302E3735303020202020302E303030302043202020302020302020302020322020302020302020302020302020302020302020302020300A20202020362E3333303120202020302E3235303020202020302E303030302043202020302020302020302020322020302020302020302020302020302020302020302020300A20202020372E3139363220202020302E3735303020202020302E303030302043202020302020302020302020322020302020302020302020302020302020302020302020300A20202020372E3139363220202020312E3735303020202020302E303030302043202020302020302020302020322020302020302020302020302020302020302020302020300A20202020382E3036323220202020322E3235303020202020302E303030302043202020302020302020302020322020302020302020302020302020302020302020302020300A20202020382E3036323220202020332E3235303020202020302E303030302043202020302020302020302020322020302020302020302020302020302020302020302020300A20202020382E3932383220202020332E3735303020202020302E303030302043202020302020302020302020322020302020302020302020302020302020302020302020300A20202020382E3932383220202020342E3735303020202020302E303030302043202020302020302020302020322020302020302020302020302020302020302020302020300A20202020392E3739343220202020352E3235303020202020302E303030302043202020302020302020302020322020302020302020302020302020302020302020302020300A20202020392E3739343220202020362E3235303020202020302E303030302043202020302020302020302020322020302020302020302020302020302020302020302020300A20202031302E3636303320202020362E3735303020202020302E303030302043202020302020302020302020332020302020302020302020302020302020302020302020300A20202020322E303030302020202D352E3235303020202020302E30303030204F202020302020302020302020312020302020302020302020302020302020302020302020300A20202020322E383636302020202D362E3735303020202020302E30303030204F202020302020302020302020302020302020302020302020302020302020302020302020300A2031342031332020312020302020302020302020300A2031332031322020312020302020302020302020300A2031322031312020312020302020302020302020300A2031312031302020312020302020302020302020300A2031302020392020312020302020302020302020300A2020392020382020312020302020302020302020300A2020382020372020312020302020302020302020300A2020372020362020312020302020302020302020300A2020362020352020312020302020302020302020300A2020352020342020312020302020302020302020300A2020342020332020312020302020302020302020300A2020332020322020312020302020302020302020300A2031342031352020312020302020302020302020300A2031352031362020312020302020302020302020300A2031362031372020312020302020302020302020300A2031372031382020312020302020302020302020300A2020312031392020312020302020302020302020300A2020312032302020322020302020302020302020300A2020322020312020312020302020302020302020300A4D2020454E44
Contributor: Kusano M, Fukushima A, Plant Science Center, RIKEN.
InstType: EI
InstName: Pegasus III TOF-MS system, Leco; GC 6890, Agilent Technologies
IoniMethod: EI
IonPolarity: pos
Date: 2010-10-09 19:48:36+02:00
Num Peaks: 157
60 17 61 68 62 6 63 5 64 1 65 7 66 4 67 76 68 3 69 70 
70 32 71 59 72 50 73 999 74 112 75 671 76 66 77 71 78 6 79 35 
80 5 81 64 82 12 83 77 84 28 85 34 86 12 87 9 88 6 89 25 
90 4 91 10 92 2 93 20 94 3 95 52 96 8 97 50 98 38 99 21 
100 3 101 13 102 4 103 4 105 21 106 2 107 10 108 1 109 16 110 3 
111 23 112 11 113 5 114 1 115 8 116 51 117 795 118 79 119 35 120 2 
121 9 122 1 123 6 124 2 125 6 126 3 127 4 128 3 129 362 130 47 
131 112 132 351 133 77 134 19 135 8 136 1 137 2 138 1 139 3 140 2 
141 3 142 2 143 29 144 4 145 180 146 25 147 9 148 1 149 3 151 1 
153 2 154 4 155 3 156 1 157 8 158 1 159 18 160 3 161 1 163 1 
167 2 168 1 169 1 171 15 172 2 173 5 174 3 181 1 185 22 186 4 
187 14 188 5 189 1 195 1 199 6 200 1 201 39 202 7 203 2 210 1 
213 5 214 1 215 5 216 1 223 2 227 5 228 1 229 3 230 1 241 6 
242 1 243 5 244 1 255 3 256 1 257 9 258 2 269 1 271 3 283 1 
285 1 297 7 298 2 299 2 311 1 313 7 314 2 327 1 340 8 341 109 
342 34 343 9 344 1 355 1 356 17 357 5 358 1 
