Name: Benzocaine
CAS: 94-09-7
MW: 165
Formula: C9H11NO2
Synonym: KEGG: C07527
Synonym: CID: 9730
Synonym: MassBank: PR010193
Synonym: Benzocaine
Synonym: Ethyl aminobenzoate
Structure: 310A32390A20204143442F4C6162733132303230363133333332440A2031322031322020302020302020302020302020302020302020302020302020312056323030300A20202031322E3937373620202D31302E3136373320202020302E303030302043202020302020302020302020302020302020302020302020302020302020302020302020300A20202031322E3937373620202D31312E3439373320202020302E303030302043202020302020302020302020302020302020302020302020302020302020302020302020300A20202031312E383235372020202D392E3530323320202020302E303030302043202020302020302020302020302020302020302020302020302020302020302020302020300A20202031312E3832353720202D31322E3136323320202020302E303030302043202020302020302020302020302020302020302020302020302020302020302020302020300A20202031302E3637333920202D31302E3136373320202020302E303030302043202020302020302020302020302020302020302020302020302020302020302020302020300A20202031302E3637333920202D31312E3439373320202020302E303030302043202020302020302020302020302020302020302020302020302020302020302020302020300A20202031312E3832353720202D31332E3439323320202020302E30303030204E202020302020302020302020302020302020302020302020302020302020302020302020300A20202031312E383235372020202D382E3137323320202020302E303030302043202020302020302020302020302020302020302020302020302020302020302020302020300A20202031322E393737352020202D372E3530373320202020302E30303030204F202020302020302020302020302020302020302020302020302020302020302020302020300A20202031302E363733392020202D372E3530373320202020302E30303030204F202020302020302020302020302020302020302020302020302020302020302020302020300A20202031322E393737352020202D362E3137373320202020302E303030302043202020302020302020302020302020302020302020302020302020302020302020302020300A20202031342E313239332020202D352E3531323220202020302E303030302043202020302020302020302020302020302020302020302020302020302020302020302020300A2020322020312020312020302020302020302020300A2020332020312020322020302020302020302020300A2020342020322020322020302020302020302020300A2020352020332020312020302020302020302020300A2020362020342020312020302020302020302020300A2020362020352020322020302020302020302020300A2020342020372020312020302020302020302020300A2020332020382020312020302020302020302020300A2020382020392020312020302020302020302020300A2020382031302020322020302020302020302020300A2020392031312020312020302020302020302020300A2031312031322020312020302020302020302020300A4D2020454E44
Contributor: Kusano M, Fukushima A, Plant Science Center, RIKEN.
InstType: EI
InstName: Pegasus III TOF-MS system, Leco; GC 6890, Agilent Technologies
IoniMethod: EI
IonPolarity: pos
Date: 2010-10-09 19:48:36+02:00
Num Peaks: 102
63 14 64 12 70 6 72 6 73 166 82 1 96 1 99 3 102 5 122 3 
124 1 130 4 131 3 132 10 133 17 134 44 136 11 138 5 141 1 142 1 
143 4 145 1 146 28 147 6 148 141 149 325 150 253 151 22 152 4 154 1 
155 1 160 11 162 63 163 46 164 34 165 15 166 43 167 11 168 3 169 2 
170 4 172 1 174 4 175 1 176 255 177 36 178 53 179 14 180 5 185 1 
187 2 190 5 192 417 193 89 194 263 195 61 196 9 197 3 199 2 203 1 
204 5 206 3 207 4 208 3 209 45 210 13 212 1 215 1 217 2 220 4 
221 4 222 999 223 146 224 36 225 5 226 3 228 3 231 3 234 1 236 8 
237 628 238 128 239 13 243 5 244 2 245 4 247 1 248 1 250 3 252 2 
253 2 255 1 256 2 257 2 259 2 260 1 261 3 262 1 265 1 268 1 
326 1 722 1 
