Name: 3-Aminopropionitrile fumarate
CAS: 2079-89-2
MW: 70
Formula: C3H6N2
Synonym: MassBank: PR010131
Synonym: 3-Aminopropionitrile fumarate
Structure: 310A31340A20204143442F4C6162733132303430363137343932440A2020352020342020302020302020302020302020302020302020302020302020312056323030300A20202031372E393635392020202D342E3735353320202020302E30303030204E202020302020302020302020302020302020302020302020302020302020302020302020300A20202031392E313137372020202D342E3039303320202020302E303030302043202020302020302020302020302020302020302020302020302020302020302020302020300A20202032302E323639352020202D342E3735353320202020302E303030302043202020302020302020302020302020302020302020302020302020302020302020302020300A20202032312E343231352020202D342E3039303320202020302E303030302043202020302020302020302020302020302020302020302020302020302020302020302020300A20202032322E353733332020202D332E3432353220202020302E30303030204E202020302020302020302020302020302020302020302020302020302020302020302020300A2020322020312020312020302020302020302020300A2020332020322020312020302020302020302020300A2020342020332020312020302020302020302020300A2020342020352020332020302020302020302020300A4D2020454E44
Contributor: Kusano M, Fukushima A, Plant Science Center, RIKEN.
InstType: EI
InstName: Pegasus III TOF-MS system, Leco; GC 6890, Agilent Technologies
IoniMethod: EI
IonPolarity: pos
Date: 2010-10-09 19:48:36+02:00
Num Peaks: 94
60 41 61 18 63 1 64 1 65 1 66 2 67 4 68 3 69 8 70 172 
71 34 72 52 73 999 74 83 75 27 76 1 77 6 78 11 79 1 81 5 
82 6 83 8 84 56 85 26 86 676 87 61 88 23 89 2 92 25 93 2 
95 1 96 1 97 6 98 152 99 31 100 220 101 43 102 22 103 5 104 2 
110 1 111 18 112 4 113 16 114 17 115 24 116 19 117 21 118 4 119 1 
125 8 126 7 128 2 129 11 130 72 131 30 132 8 133 2 140 2 141 9 
142 5 143 2 144 3 145 1 146 26 147 4 148 2 154 2 155 3 156 11 
157 3 158 6 159 1 160 1 169 2 170 545 171 103 172 122 173 24 174 598 
175 96 176 46 177 5 183 2 184 1 185 1 197 1 198 4 199 229 200 45 
201 20 202 2 214 6 215 1 
