Name: L-Ascorbic acid
CAS: 50-81-7
MW: 176
Formula: C6H8O6
Synonym: KEGG: C00072
Synonym: CID: 3372
Synonym: MassBank: PR010207
Synonym: L-Ascorbic acid
Synonym: Ascorbic acid
Synonym: Ascorbate
Synonym: L-Ascorbate
Synonym: Vitamin C
Structure: 310A33300A3C4341535F49443E2035302D38312D37093C4B4547475F49443E20433030303732093C4E414D453E204173636F7262617465093C464F524D554C413E20433648384F36093C45584143544D4153533E203137362E303332303837393838093C415645524147454D4153533E203137362E3132343132093C534D494C45533E204F435B4340485D284F295B434040485D284F312943284F293D43284F2943283D4F2931093C434F505952494748543E2041524D2050524F4A45435420687474703A2F2F7777772E6D657461626F6C6F6D652E6A702F0A2031322031322020302020302020312020302020302020302020302020303939392056323030300A20202020332E3236303120202020302E3836343920202020302E303030302043202020302020302020302020302020302020302020302020302020302020302020302020300A20202020322E393531312020202D302E3038363120202020302E303030302043202020302020302020302020302020302020302020302020302020302020302020302020300A20202020332E373630312020202D302E3637333920202020302E303030302043202020302020302020302020302020302020302020302020302020302020302020302020300A20202020342E353639312020202D302E3038363120202020302E303030302043202020302020302020312020312020302020302020302020302020302020302020302020300A20202020352E353230312020202D302E3339353220202020302E303030302043202020302020302020322020312020302020302020302020302020302020302020302020300A20202020362E3236333320202020302E3237343020202020302E303030302043202020302020302020302020322020302020302020302020302020302020302020302020300A20202020322E3637323320202020312E3637333920202020302E30303030204F202020302020302020302020302020302020302020302020302020302020302020302020300A20202020322E303030302020202D302E3339353220202020302E30303030204F202020302020302020302020312020302020302020302020302020302020302020302020300A20202020332E373630312020202D312E3637333920202020302E30303030204F202020302020302020302020312020302020302020302020302020302020302020302020300A20202020342E3236303120202020302E3836343920202020302E30303030204F202020302020302020302020302020302020302020302020302020302020302020302020300A20202020352E373238312020202D312E3337333320202020302E30303030204F202020302020302020302020312020302020302020302020302020302020302020302020300A20202020372E323134332020202D302E3033353020202020302E30303030204F202020302020302020302020312020302020302020302020302020302020302020302020300A2020342020332020312020302020302020302020300A2031302020312020312020302020302020302020300A2020332020322020322020302020302020302020300A2020312020322020312020302020302020302020300A2020312020372020322020302020302020302020300A2020342020352020312020302020302020302020300A2020352020362020312020302020302020302020300A2020332020392020312020302020302020302020300A2020322020382020312020302020302020302020300A2020352031312020312020362020302020302020300A2020342031302020312020362020302020302020300A2020362031322020312020302020302020302020300A4D2020454E44
Contributor: Kusano M, Fukushima A, Plant Science Center, RIKEN.
InstType: EI
InstName: Pegasus III TOF-MS system, Leco; GC 6890, Agilent Technologies
IoniMethod: EI
IonPolarity: pos
Date: 2010-10-09 19:48:36+02:00
Num Peaks: 122
60 9 61 8 63 1 66 5 67 1 70 6 71 4 72 17 73 999 74 90 
75 55 76 4 77 11 79 1 83 1 84 25 85 5 86 3 87 3 88 3 
89 119 90 10 91 5 98 2 99 2 100 34 101 13 102 5 103 66 104 6 
105 7 107 1 111 1 112 1 113 2 114 1 115 3 116 3 117 76 118 7 
119 7 125 4 126 3 127 1 128 9 129 7 130 6 131 15 132 3 133 76 
134 9 135 4 141 1 142 1 143 1 144 5 145 2 147 161 148 27 149 14 
150 1 154 1 155 1 157 1 158 3 159 6 160 1 161 1 163 6 171 1 
172 28 173 5 174 3 175 3 177 3 183 1 185 15 186 2 187 1 188 1 
189 4 190 6 191 5 192 1 200 1 201 2 203 1 204 3 205 39 206 7 
207 3 211 1 217 5 218 1 219 1 221 2 243 7 244 2 258 1 271 6 
272 1 273 3 276 3 289 3 291 1 302 1 303 30 304 8 305 3 334 4 
335 1 344 1 345 1 347 1 375 1 405 1 406 5 407 2 408 1 435 1 
523 2 524 1 
