Name: L-(-)-Malic acid
CAS: 97-67-6
MW: 134
Formula: C4H6O5
Synonym: KEGG: C00149
Synonym: CID: 3449
Synonym: MassBank: PR010055
Synonym: L-(-)-Malic acid
Synonym: L-Malic acid
Synonym: L-Apple acid
Synonym: L-Malate
Synonym: (S)-Malate
Synonym: L-2-Hydroxybutanedioic acid
Structure: 310A32330A3C4341535F49443E2039372D36372D36093C4B4547475F49443E20433030313439093C4E414D453E202853292D4D616C617465093C464F524D554C413E20433448364F35093C45584143544D4153533E203133342E303231353233333032093C415645524147454D4153533E203133342E3038373434303030303030303032093C534D494C45533E204F43283D4F29435B4340485D284F2943284F293D4F093C434F505952494748543E2041524D2050524F4A45435420687474703A2F2F7777772E6D657461626F6C6F6D652E6A702F0A2020392020382020302020302020312020302020302020302020302020303939392056323030300A20202020322E383636302020202D312E3235303020202020302E303030302043202020302020302020302020302020302020302020302020302020302020302020302020300A20202020322E383636302020202D302E3235303020202020302E303030302043202020302020302020322020312020302020302020302020302020302020302020302020300A20202020332E3733323120202020302E3235303020202020302E303030302043202020302020302020302020322020302020302020302020302020302020302020302020300A20202020332E3733323120202020312E3235303020202020302E303030302043202020302020302020302020302020302020302020302020302020302020302020302020300A20202020332E373332312020202D312E3735303020202020302E30303030204F202020302020302020302020312020302020302020302020302020302020302020302020300A20202020322E303030302020202D312E3735303020202020302E30303030204F202020302020302020302020302020302020302020302020302020302020302020302020300A20202020322E3030303020202020302E3235303020202020302E30303030204F202020302020302020302020312020302020302020302020302020302020302020302020300A20202020322E3836363020202020312E3735303020202020302E30303030204F202020302020302020302020312020302020302020302020302020302020302020302020300A20202020342E3539383120202020312E3735303020202020302E30303030204F202020302020302020302020302020302020302020302020302020302020302020302020300A2020332020322020312020302020302020302020300A2020312020352020312020302020302020302020300A2020312020362020322020302020302020302020300A2020322020312020312020302020302020302020300A2020322020372020312020312020302020302020300A2020342020382020312020302020302020302020300A2020342020392020322020302020302020302020300A2020332020342020312020302020302020302020300A4D2020454E44
Contributor: Kusano M, Fukushima A, Plant Science Center, RIKEN.
InstType: EI
InstName: Pegasus III TOF-MS system, Leco; GC 6890, Agilent Technologies
IoniMethod: EI
IonPolarity: pos
Date: 2010-10-09 19:48:36+02:00
Num Peaks: 104
60 8 61 18 62 1 66 9 67 2 70 4 71 8 72 28 73 999 74 94 
75 95 76 7 77 8 83 1 84 1 85 5 86 1 87 4 88 1 89 2 
99 6 100 1 101 72 102 9 103 10 104 1 105 4 113 1 115 10 116 11 
117 45 118 5 119 8 120 1 129 9 130 1 131 30 132 5 133 100 134 14 
135 11 136 1 143 17 144 2 145 3 146 1 147 389 148 63 149 43 150 5 
151 5 157 1 159 1 161 1 163 1 171 18 172 3 173 3 175 36 176 8 
177 13 178 1 185 1 189 48 190 41 191 35 192 8 193 2 203 4 204 2 
205 2 207 1 217 18 218 4 219 2 221 9 222 2 223 1 233 90 234 19 
235 9 236 1 245 48 246 10 247 7 248 1 260 1 263 10 264 3 265 14 
266 4 267 2 305 2 306 5 307 15 308 7 309 3 310 1 319 5 320 1 
321 1 335 17 336 5 337 2 
