Name: Diethanolamine
CAS: 111-42-2
MW: 105
Formula: C4H11NO2
Synonym: KEGG: C06772
Synonym: CID: 8992
Synonym: MassBank: PR010147
Synonym: Diethanolamine
Structure: 310A31380A20204143442F4C6162733132303230363134333632440A2020372020362020302020302020302020302020302020302020302020302020312056323030300A20202020382E343634362020202D372E3832333820202020302E303030302043202020302020302020302020302020302020302020302020302020302020302020302020300A20202020392E363136342020202D382E3438383720202020302E30303030204E202020302020302020302020302020302020302020302020302020302020302020302020300A20202031302E373638312020202D372E3832333820202020302E303030302043202020302020302020302020302020302020302020302020302020302020302020302020300A20202031312E393230302020202D382E3438383720202020302E303030302043202020302020302020302020302020302020302020302020302020302020302020302020300A20202031332E303731382020202D372E3832333820202020302E30303030204F202020302020302020302020302020302020302020302020302020302020302020302020300A20202020372E333132382020202D382E3438383820202020302E303030302043202020302020302020302020302020302020302020302020302020302020302020302020300A20202020362E313631302020202D372E3832333920202020302E30303030204F202020302020302020302020302020302020302020302020302020302020302020302020300A2020322020312020312020302020302020302020300A2020332020322020312020302020302020302020300A2020342020332020312020302020302020302020300A2020352020342020312020302020302020302020300A2020312020362020312020302020302020302020300A2020362020372020312020302020302020302020300A4D2020454E44
Contributor: Kusano M, Fukushima A, Plant Science Center, RIKEN.
InstType: EI
InstName: Pegasus III TOF-MS system, Leco; GC 6890, Agilent Technologies
IoniMethod: EI
IonPolarity: pos
Date: 2010-10-09 19:48:36+02:00
Num Peaks: 86
60 20 61 24 62 2 63 2 66 10 67 1 68 1 69 1 70 195 71 21 
72 29 73 999 74 93 75 90 76 8 77 26 78 2 79 5 83 1 84 4 
85 5 86 76 87 18 88 28 89 22 90 2 91 1 92 1 98 3 99 3 
100 45 101 45 102 29 103 42 104 5 105 5 112 1 113 1 114 10 115 15 
116 18 117 19 118 3 119 12 120 1 121 1 126 1 128 11 129 5 130 187 
131 41 132 14 133 50 134 8 135 4 140 1 142 12 143 2 144 25 145 4 
146 15 147 99 148 16 149 9 150 1 158 4 159 1 160 2 163 1 172 2 
174 6 175 1 188 2 189 1 202 1 216 2 217 1 218 479 219 100 220 44 
221 7 222 1 232 1 233 2 306 2 321 1 
