Name: Citric acid
CAS: 77-92-9
MW: 192
Formula: C6H8O7
Synonym: KEGG: C00158
Synonym: CID: 3458
Synonym: MassBank: PR010003
Synonym: Citric acid
Synonym: 2-Hydroxytricarballylic acid
Synonym: Citrate
Synonym: 2-Hydroxy-1,2,3-propanetricarboxylic acid
Structure: 310A33310A3C4341535F49443E2037372D39322D39093C4B4547475F49443E20433030313538093C4E414D453E2043697472617465093C464F524D554C413E20433648384F37093C45584143544D4153533E203139322E3032373030323631093C415645524147454D4153533E203139322E3132333531393939393939393938093C534D494C45533E204F43283D4F294343284F29284343284F293D4F2943284F293D4F093C434F505952494748543E2041524D2050524F4A45435420687474703A2F2F7777772E6D657461626F6C6F6D652E6A702F0A2031332031322020302020302020302020302020302020302020302020303939392056323030300A20202020342E333232302020202D312E3934343020202020302E303030302043202020302020302020302020302020302020302020302020302020302020302020302020300A20202020342E383232302020202D312E3037373920202020302E303030302043202020302020302020302020322020302020302020302020302020302020302020302020300A20202020332E3733323120202020302E3831303020202020302E303030302043202020302020302020302020302020302020302020302020302020302020302020302020300A20202020342E3539383120202020312E3331303020202020302E303030302043202020302020302020302020322020302020302020302020302020302020302020302020300A20202020342E3539383120202020322E3331303020202020302E303030302043202020302020302020302020302020302020302020302020302020302020302020302020300A20202020322E3836363020202020302E3331303020202020302E303030302043202020302020302020302020302020302020302020302020302020302020302020302020300A20202020332E333232302020202D312E3934343020202020302E30303030204F202020302020302020302020302020302020302020302020302020302020302020302020300A20202020342E383232302020202D322E3831303020202020302E30303030204F202020302020302020302020312020302020302020302020302020302020302020302020300A20202020332E3233323120202020312E3637363020202020302E30303030204F202020302020302020302020312020302020302020302020302020302020302020302020300A20202020332E3733323120202020322E3831303020202020302E30303030204F202020302020302020302020302020302020302020302020302020302020302020302020300A20202020352E3436343120202020322E3831303020202020302E30303030204F202020302020302020302020312020302020302020302020302020302020302020302020300A20202020322E383636302020202D302E3639303020202020302E30303030204F202020302020302020302020302020302020302020302020302020302020302020302020300A20202020322E3030303020202020302E3831303020202020302E30303030204F202020302020302020302020312020302020302020302020302020302020302020302020300A2020342020352020312020302020302020302020300A2020322020332020312020302020302020302020300A2020352031302020322020302020302020302020300A2020352031312020312020302020302020302020300A2020332020342020312020302020302020302020300A2020332020362020312020302020302020302020300A2020312020322020312020302020302020302020300A2020332020392020312020302020302020302020300A2020312020372020322020302020302020302020300A2020362031322020322020302020302020302020300A2020382020312020312020302020302020302020300A2020362031332020312020302020302020302020300A4D2020454E44
Contributor: Kusano M, Fukushima A, Plant Science Center, RIKEN.
InstType: EI
InstName: Pegasus III TOF-MS system, Leco; GC 6890, Agilent Technologies
IoniMethod: EI
IonPolarity: pos
Date: 2010-10-09 19:48:36+02:00
Num Peaks: 167
60 4 61 12 62 1 63 2 65 2 66 9 67 78 68 1 69 10 70 6 
71 5 72 36 73 999 74 88 75 124 76 11 77 25 78 2 79 4 81 1 
82 1 83 3 84 2 85 3 86 1 87 3 88 2 89 3 92 1 93 4 
95 7 96 1 97 6 98 1 99 18 100 2 101 6 102 2 103 9 104 1 
105 2 111 10 112 1 113 3 114 1 115 23 116 10 117 18 118 2 119 5 
127 1 129 40 130 5 131 31 132 5 133 59 134 8 135 7 139 6 141 10 
142 2 143 23 144 3 145 3 146 1 147 383 148 60 149 62 150 8 151 4 
155 1 156 1 157 7 158 1 159 2 161 2 163 6 164 1 169 4 170 1 
171 5 172 1 173 3 175 1 177 1 183 45 184 7 185 14 186 2 187 1 
189 5 190 4 191 5 192 1 193 1 201 3 203 1 204 3 205 3 206 1 
207 8 208 1 209 1 211 63 212 10 213 11 214 1 215 9 216 2 217 16 
218 3 219 2 221 25 222 6 223 3 229 7 230 2 231 13 232 2 233 1 
243 1 244 1 245 2 257 27 258 6 259 6 260 1 272 1 273 243 274 54 
275 24 276 3 285 6 286 1 287 2 301 4 302 1 303 5 304 2 305 12 
306 3 307 2 319 3 320 1 331 1 333 2 334 1 346 1 347 43 348 13 
349 7 350 1 362 1 363 35 364 11 365 5 366 1 374 1 375 31 376 10 
377 5 378 1 464 1 465 16 466 6 467 3 468 1 
