Name: D-(-)-Penicillamine
CAS: 52-67-5
MW: 149
Formula: C5H11NO2S
Synonym: KEGG: C07418
Synonym: CID: 9622
Synonym: MassBank: PR010141
Synonym: D-(-)-Penicillamine
Synonym: Penicillamine
Structure: 310A32320A35322D36372D352E6D6F6C0A20204368656D447261773132303530363138333132440A2020392020382020302020302020302020302020302020302020302020303939392056323030300A2020202D312E343239302020202D302E3230363320202020302E30303030204F202020302020302020302020302020302020302020302020302020302020302020302020300A2020202D302E3731343520202020302E3230363220202020302E303030302043202020302020302020302020302020302020302020302020302020302020302020302020300A2020202D302E303030302020202D302E3230363320202020302E303030302043202020302020302020302020302020302020302020302020302020302020302020302020300A20202020302E3731343520202020302E3230363220202020302E303030302043202020302020302020302020302020302020302020302020302020302020302020302020300A2020202D302E3731343520202020312E3033313220202020302E30303030204F202020302020302020302020302020302020302020302020302020302020302020302020300A2020202D302E303030312020202D312E3033313220202020302E30303030204E202020302020302020302020302020302020302020302020302020302020302020302020300A20202020312E3432393020202020302E3631383720202020302E303030302053202020302020302020302020302020302020302020302020302020302020302020302020300A20202020302E3330323220202020302E3932303820202020302E303030302043202020302020302020302020302020302020302020302020302020302020302020302020300A20202020312E313236382020202D302E3530383320202020302E303030302043202020302020302020302020302020302020302020302020302020302020302020302020300A2020322020312020312020302020202020200A2020332020322020312020302020202020200A2020342020332020312020302020202020200A2020322020352020322020302020202020200A2020332020362020312020312020202020200A2020342020372020312020302020202020200A2020342020382020312020302020202020200A2020342020392020312020302020202020200A4D2020454E44
Contributor: Kusano M, Fukushima A, Plant Science Center, RIKEN.
InstType: EI
InstName: Pegasus III TOF-MS system, Leco; GC 6890, Agilent Technologies
IoniMethod: EI
IonPolarity: pos
Date: 2010-10-09 19:48:36+02:00
Num Peaks: 101
60 12 61 8 62 1 63 1 66 2 67 1 69 2 70 17 71 7 72 15 
73 999 74 88 75 67 76 6 77 20 78 1 79 2 82 2 83 4 84 4 
85 5 86 11 87 4 88 1 89 1 90 5 91 17 92 2 93 2 96 1 
97 2 98 3 99 4 100 78 101 98 102 15 103 8 104 1 105 2 106 2 
110 1 111 1 112 6 113 3 114 3 115 5 116 2 117 4 118 1 119 2 
126 4 127 1 128 38 129 38 130 26 131 12 132 14 133 12 134 2 135 1 
142 51 143 29 144 11 145 6 146 4 147 193 148 27 149 17 150 2 156 1 
157 1 158 1 159 3 160 4 161 2 163 5 164 1 172 2 174 3 175 1 
176 1 190 2 203 5 204 2 216 2 217 1 218 106 219 57 220 15 221 5 
232 1 244 1 248 25 249 5 250 3 260 1 291 56 292 15 293 7 294 1 
322 2 
