Name: Fusaric acid
CAS: 536-69-6
MW: 179
Formula: C10H13NO2
Synonym: KEGG: C10146
Synonym: CID: 12332
Synonym: MassBank: PR010196
Synonym: Fusaric acid
Structure: 310A33310A20204143442F4C6162733132303230363135313432440A2031332031332020302020302020302020302020302020302020302020302020312056323030300A20202020382E303133392020202D392E3730323620202020302E303030302043202020302020302020302020302020302020302020302020302020302020302020302020300A20202020382E3031333920202D31312E3033323620202020302E303030302043202020302020302020302020302020302020302020302020302020302020302020302020300A20202020392E313635382020202D392E3033373620202020302E303030302043202020302020302020302020302020302020302020302020302020302020302020302020300A20202020392E3136353820202D31312E3639373620202020302E30303030204E202020302020302020302020302020302020302020302020302020302020302020302020300A20202031302E333137362020202D392E3730323620202020302E303030302043202020302020302020302020302020302020302020302020302020302020302020302020300A20202031302E3331373620202D31312E3033323620202020302E303030302043202020302020302020302020302020302020302020302020302020302020302020302020300A20202020362E3836323120202D31312E3639373620202020302E303030302043202020302020302020302020302020302020302020302020302020302020302020302020300A20202031312E343639342020202D392E3033373620202020302E303030302043202020302020302020302020302020302020302020302020302020302020302020302020300A20202031322E363231332020202D392E3730323620202020302E303030302043202020302020302020302020302020302020302020302020302020302020302020302020300A20202031332E373733312020202D392E3033373620202020302E303030302043202020302020302020302020302020302020302020302020302020302020302020302020300A20202031342E393234392020202D392E3730323720202020302E303030302043202020302020302020302020302020302020302020302020302020302020302020302020300A20202020352E3731303320202D31312E3033323620202020302E30303030204F202020302020302020302020302020302020302020302020302020302020302020302020300A20202020362E3836323220202D31332E3032373620202020302E30303030204F202020302020302020302020302020302020302020302020302020302020302020302020300A2020322020312020312020302020302020302020300A2020332020312020322020302020302020302020300A2020342020322020322020302020302020302020300A2020352020332020312020302020302020302020300A2020362020342020312020302020302020302020300A2020362020352020322020302020302020302020300A2020322020372020312020302020302020302020300A2020352020382020312020302020302020302020300A2020382020392020312020302020302020302020300A2020392031302020312020302020302020302020300A2031302031312020312020302020302020302020300A2020372031322020312020302020302020302020300A2020372031332020322020302020302020302020300A4D2020454E44
Contributor: Kusano M, Fukushima A, Plant Science Center, RIKEN.
InstType: EI
InstName: Pegasus III TOF-MS system, Leco; GC 6890, Agilent Technologies
IoniMethod: EI
IonPolarity: pos
Date: 2010-10-09 19:48:36+02:00
Num Peaks: 148
60 23 61 37 62 29 63 110 64 177 65 244 66 43 67 28 68 1 69 6 
70 15 71 10 72 37 73 618 74 74 75 159 76 43 77 250 78 124 79 137 
80 28 81 13 82 6 83 30 84 26 85 12 86 9 87 4 88 4 89 19 
90 23 91 499 92 192 93 45 94 14 95 33 96 12 97 8 98 3 99 2 
100 3 101 2 102 15 103 17 104 110 105 39 106 108 107 81 108 17 109 13 
110 9 111 5 112 1 114 1 115 14 116 15 117 26 118 30 119 125 120 35 
121 17 122 19 123 8 124 4 125 1 128 1 129 1 130 7 131 3 132 26 
133 9 134 149 135 42 136 33 137 8 138 2 139 1 144 1 145 1 146 5 
147 3 148 17 149 323 150 68 151 17 152 4 153 1 159 1 160 4 161 2 
162 47 163 13 164 17 165 78 166 18 167 5 168 1 174 2 175 1 176 8 
177 2 178 23 179 18 180 25 181 201 182 31 183 9 184 1 190 2 191 1 
192 98 193 334 194 117 195 31 196 6 197 1 204 1 205 11 206 73 207 92 
208 79 209 17 210 5 211 2 212 1 213 1 214 1 215 1 217 1 218 3 
219 1 220 4 221 2 222 12 223 48 224 12 225 3 234 4 235 9 236 999 
237 189 238 55 239 6 240 1 250 7 251 13 252 2 253 1 
