Name: Tyramine
CAS: 51-67-2
MW: 137
Formula: C8H11NO
Synonym: KEGG: C00483
Synonym: CID: 3766
Synonym: MassBank: PR010240
Synonym: Tyramine
Synonym: 2-(p-Hydroxyphenyl)ethylamine
Structure: 310A32360A3C4341535F49443E2035312D36372D32093C4B4547475F49443E20433030343833093C4E414D453E20547972616D696E65093C464F524D554C413E2043384831314E4F093C45584143544D4153533E203133372E303834303633393739093C415645524147454D4153533E203133372E3137393038093C534D494C45533E204E43436328633129636363284F296331093C434F505952494748543E2041524D2050524F4A45435420687474703A2F2F7777772E6D657461626F6C6F6D652E6A702F0A2031302031302020302020302020302020302020302020302020302020303939392056323030300A20202020322E3836363020202020302E3235303020202020302E303030302043202020302020302020302020302020302020302020302020302020302020302020302020300A20202020322E303030302020202D302E3235303020202020302E303030302043202020302020302020302020312020302020302020302020302020302020302020302020300A20202020322E303030302020202D312E3235303020202020302E303030302043202020302020302020302020312020302020302020302020302020302020302020302020300A20202020322E383636302020202D312E3735303020202020302E303030302043202020302020302020302020302020302020302020302020302020302020302020302020300A20202020332E373332312020202D312E3235303020202020302E303030302043202020302020302020302020312020302020302020302020302020302020302020302020300A20202020332E373332312020202D302E3235303020202020302E303030302043202020302020302020302020312020302020302020302020302020302020302020302020300A20202020322E3836363020202020312E3235303020202020302E303030302043202020302020302020302020322020302020302020302020302020302020302020302020300A20202020322E3030303020202020312E3735303020202020302E303030302043202020302020302020302020322020302020302020302020302020302020302020302020300A20202020322E3030303020202020322E3735303020202020302E30303030204E202020302020302020302020322020302020302020302020302020302020302020302020300A20202020322E383636302020202D322E3735303020202020302E30303030204F202020302020302020302020312020302020302020302020302020302020302020302020300A2020322020332020312020302020302020302020300A2020332020342020322020302020302020302020300A2020342020352020312020302020302020302020300A2020352020362020322020302020302020302020300A2020362020312020312020302020302020302020300A2020312020372020312020302020302020302020300A2020342031302020312020302020302020302020300A2020372020382020312020302020302020302020300A2020322020312020322020302020302020302020300A2020382020392020312020302020302020302020300A4D2020454E44
Contributor: Kusano M, Fukushima A, Plant Science Center, RIKEN.
InstType: EI
InstName: Pegasus III TOF-MS system, Leco; GC 6890, Agilent Technologies
IoniMethod: EI
IonPolarity: pos
Date: 2010-10-09 19:48:36+02:00
Num Peaks: 117
60 16 61 10 62 2 63 5 64 1 65 5 66 1 67 3 69 1 70 9 
71 7 72 17 73 999 74 91 75 35 76 3 77 15 78 8 79 6 81 1 
82 4 83 4 84 4 85 8 86 277 87 28 88 11 89 15 90 12 91 21 
92 2 93 2 95 3 97 1 99 3 100 128 101 22 102 22 103 12 104 5 
105 12 106 1 107 4 109 2 113 4 114 3 115 8 116 15 117 25 118 5 
119 6 120 1 121 6 122 1 123 1 125 1 129 2 130 31 131 22 132 6 
133 11 134 3 135 11 136 1 137 1 143 1 144 8 145 6 146 5 147 9 
148 3 149 28 150 5 151 5 158 7 159 3 160 3 161 4 162 5 163 12 
164 10 165 6 166 1 172 6 173 2 174 650 175 125 176 63 177 13 178 2 
179 27 180 5 181 1 190 6 191 2 192 2 193 5 194 1 195 1 207 5 
208 1 209 1 221 1 223 3 237 1 248 3 249 1 250 10 251 2 252 1 
264 8 265 2 266 1 337 1 338 23 339 8 340 3 
