Name: Melibiose
CAS: 585-99-9
MW: 342
Formula: C12H22O11
Synonym: KEGG: C05402
Synonym: CID: 7769
Synonym: MassBank: PR010074
Synonym: Melibiose
Synonym: D-Gal-alpha1->6D-Glucose
Synonym: 6-O-(alpha-D-Galactopyranosyl)-D-glucopyranose
Structure: 310A35330A3C4341535F49443E203538352D39392D39093C4B4547475F49443E20433035343032093C4E414D453E204D656C6962696F7365093C464F524D554C413E204331324832324F3131093C45584143544D4153533E203334322E313136323131353436093C415645524147454D4153533E203334322E3239363438093C534D494C45533E204F435B434040485D284F31295B4340485D284F295B4340485D284F295B434040485D284F295B434040485D284F435B434040485D284F32295B434040485D284F295B4340485D284F295B434040485D284F2943284F29322931093C434F505952494748543E2041524D2050524F4A45435420687474703A2F2F7777772E6D657461626F6C6F6D652E6A702F0A2032332032342020302020302020312020302020302020302020302020303939392056323030300A20202020332E373332312020202D312E3235303020202020302E303030302043202020302020302020322020312020302020302020302020302020302020302020302020300A20202020322E383636302020202D312E3735303020202020302E303030302043202020302020302020312020312020302020302020302020302020302020302020302020300A20202020322E383636302020202D322E3735303020202020302E303030302043202020302020302020322020312020302020302020302020302020302020302020302020300A20202020332E373332312020202D332E3235303020202020302E303030302043202020302020302020322020312020302020302020302020302020302020302020302020300A20202020342E353938312020202D322E3735303020202020302E303030302043202020302020302020312020312020302020302020302020302020302020302020302020300A20202020352E343634312020202D332E3235303020202020302E303030302043202020302020302020302020322020302020302020302020302020302020302020302020300A20202020352E3436343120202020322E3735303020202020302E303030302043202020302020302020332020312020302020302020302020302020302020302020302020300A20202020342E3539383120202020332E3235303020202020302E303030302043202020302020302020312020312020302020302020302020302020302020302020302020300A20202020332E3733323120202020322E3735303020202020302E303030302043202020302020302020322020312020302020302020302020302020302020302020302020300A20202020332E3733323120202020312E3735303020202020302E303030302043202020302020302020312020312020302020302020302020302020302020302020302020300A20202020342E3539383120202020312E3235303020202020302E303030302043202020302020302020312020312020302020302020302020302020302020302020302020300A20202020342E3539383120202020302E3235303020202020302E303030302043202020302020302020302020322020302020302020302020302020302020302020302020300A20202020322E303030302020202D312E3235303020202020302E30303030204F202020302020302020302020312020302020302020302020302020302020302020302020300A20202020322E303030302020202D332E3235303020202020302E30303030204F202020302020302020302020312020302020302020302020302020302020302020302020300A20202020332E373332312020202D342E3235303020202020302E30303030204F202020302020302020302020312020302020302020302020302020302020302020302020300A20202020342E353938312020202D312E3735303020202020302E30303030204F202020302020302020302020302020302020302020302020302020302020302020302020300A20202020362E333330312020202D322E3735303020202020302E30303030204F202020302020302020302020312020302020302020302020302020302020302020302020300A20202020362E3333303120202020332E3235303020202020302E30303030204F202020302020302020302020312020302020302020302020302020302020302020302020300A20202020342E3539383120202020342E3235303020202020302E30303030204F202020302020302020302020312020302020302020302020302020302020302020302020300A20202020322E3836363020202020332E3235303020202020302E30303030204F202020302020302020302020312020302020302020302020302020302020302020302020300A20202020322E3836363020202020312E3235303020202020302E30303030204F202020302020302020302020312020302020302020302020302020302020302020302020300A20202020352E3436343120202020312E3735303020202020302E30303030204F202020302020302020302020302020302020302020302020302020302020302020302020300A20202020332E373332312020202D302E3235303020202020302E30303030204F202020302020302020302020302020302020302020302020302020302020302020302020300A2032322020372020312020302020302020302020300A2020372020382020312020302020302020302020300A2020382020392020312020302020302020302020300A2020392031302020312020302020302020302020300A2031302031312020312020302020302020302020300A2020382031392020312020312020302020302020300A2020392032302020312020362020302020302020300A2031312031322020312020302020302020302020300A2020372031382020312020342020302020302020300A2031312032322020312020362020302020302020300A2031372020362020312020302020302020302020300A2020352031362020312020362020302020302020300A2020312031362020312020302020302020302020300A2020312020322020312020302020302020302020300A2020322020332020312020302020302020302020300A2020332020342020312020302020302020302020300A2020342020352020312020302020302020302020300A2020352020362020312020302020302020302020300A2020322031332020312020312020302020302020300A2020332031342020312020362020302020302020300A2020342031352020312020362020302020302020300A2020312032332020312020312020302020302020300A2031322032332020312020302020302020302020300A2031302032312020312020312020302020302020300A4D2020454E44
Contributor: Kusano M, Fukushima A, Plant Science Center, RIKEN.
InstType: EI
InstName: Pegasus III TOF-MS system, Leco; GC 6890, Agilent Technologies
IoniMethod: EI
IonPolarity: pos
Date: 2010-10-09 19:48:36+02:00
Num Peaks: 173
60 3 61 5 66 5 67 4 69 9 70 2 71 3 72 11 73 999 74 85 
75 61 76 4 77 4 81 13 82 2 83 3 84 1 85 5 86 1 87 4 
88 2 89 39 90 3 91 2 97 4 98 1 99 3 100 14 101 28 102 9 
103 169 104 16 105 15 106 2 109 5 111 4 113 6 114 3 115 5 116 13 
117 53 118 6 119 6 125 1 127 4 128 2 129 121 130 17 131 24 132 4 
133 59 134 8 135 4 139 1 141 3 142 3 143 17 144 2 145 6 146 1 
147 169 148 25 149 21 150 2 151 1 153 2 154 1 155 17 156 4 157 15 
158 4 159 4 160 63 161 34 162 5 163 7 167 1 169 78 170 11 171 8 
172 2 173 5 174 2 175 3 177 4 178 1 183 2 184 1 185 1 186 1 
187 2 188 1 189 20 190 6 191 44 192 8 193 3 196 1 197 1 199 2 
201 4 202 1 203 9 204 232 205 62 206 23 207 6 210 1 214 1 215 2 
216 1 217 109 218 27 219 12 220 2 221 5 222 1 227 1 228 1 229 6 
230 4 231 7 232 2 233 12 234 2 235 4 241 2 242 1 243 23 244 7 
245 7 246 2 247 4 255 1 256 1 257 2 259 4 260 1 268 1 269 1 
270 1 271 20 272 5 273 10 274 3 275 2 277 1 291 4 292 1 300 1 
305 6 306 2 307 4 308 1 315 1 317 2 318 1 319 16 320 5 321 2 
331 6 332 3 333 1 337 1 360 4 361 89 362 28 363 18 364 4 365 1 
409 1 451 3 452 1 
