Name: Indole-3-carboxyaldehyde
CAS: 487-89-8
MW: 145
Formula: C9H7NO
Synonym: KEGG: C08493
Synonym: CID: 10686
Synonym: MassBank: PR010110
Synonym: Indole-3-carboxyaldehyde
Synonym: Indole-3-carboxaldehyde
Synonym: Indole-3-carbaldehyde
Structure: 310A32380A20204143442F4C6162733132303230363130333532440A2031312031322020302020302020302020302020302020302020302020302020312056323030300A20202020372E393134302020202D372E3930373920202020302E303030302043202020302020302020302020302020302020302020302020302020302020302020302020300A20202020372E393134302020202D392E3233373920202020302E303030302043202020302020302020302020302020302020302020302020302020302020302020302020300A20202020362E373632312020202D372E3234323920202020302E303030302043202020302020302020302020302020302020302020302020302020302020302020302020300A20202020362E373632312020202D392E3930323920202020302E303030302043202020302020302020302020302020302020302020302020302020302020302020302020300A20202020352E363130332020202D372E3930373920202020302E303030302043202020302020302020302020302020302020302020302020302020302020302020302020300A20202020352E363130332020202D392E3233373920202020302E303030302043202020302020302020302020302020302020302020302020302020302020302020302020300A20202020392E313738392020202D372E3439363920202020302E303030302043202020302020302020302020302020302020302020302020302020302020302020302020300A20202020392E393630362020202D382E3537323920202020302E303030302043202020302020302020302020302020302020302020302020302020302020302020302020300A20202020392E313739302020202D392E3634383920202020302E30303030204E202020302020302020302020302020302020302020302020302020302020302020302020300A20202020392E353839392020202D362E3233323020202020302E303030302043202020302020302020302020302020302020302020302020302020302020302020302020300A20202020382E373030302020202D352E3234333620202020302E30303030204F202020302020302020302020302020302020302020302020302020302020302020302020300A2020332020312020322020302020302020302020300A2020342020322020322020302020302020302020300A2020352020332020312020302020302020302020300A2020362020342020312020302020302020302020300A2020362020352020322020302020302020302020300A2020372020312020312020302020302020302020300A2020322020312020312020302020302020302020300A2020382020372020322020302020302020302020300A2020392020322020312020302020302020302020300A2020392020382020312020302020302020302020300A2020372031302020312020302020302020302020300A2031302031312020322020302020302020302020300A4D2020454E44
Contributor: Kusano M, Fukushima A, Plant Science Center, RIKEN.
InstType: EI
InstName: Pegasus III TOF-MS system, Leco; GC 6890, Agilent Technologies
IoniMethod: EI
IonPolarity: pos
Date: 2010-10-09 19:48:36+02:00
Num Peaks: 121
60 7 61 8 62 20 63 24 64 8 65 7 66 4 67 5 69 1 70 7 
71 5 72 10 73 999 74 89 75 55 76 14 77 18 78 5 79 7 80 1 
81 1 83 3 84 17 85 4 86 5 87 10 88 29 89 72 90 10 91 16 
92 4 93 3 94 1 95 1 98 1 99 1 100 3 101 20 102 11 103 28 
104 9 105 11 106 2 107 1 113 1 114 30 115 81 116 37 117 16 118 4 
119 5 120 2 127 2 128 14 129 9 130 44 131 14 132 11 133 4 134 3 
135 1 140 1 141 5 142 41 143 33 144 17 145 11 146 17 147 5 148 2 
154 1 155 3 156 11 157 4 158 13 159 4 160 7 161 2 162 2 168 1 
169 4 170 8 171 6 172 10 173 13 174 12 175 2 176 1 181 1 182 1 
183 1 184 5 185 4 186 15 187 5 188 22 189 19 190 4 195 1 197 2 
198 1 199 8 200 2 201 2 202 1 204 31 205 5 206 1 213 5 214 16 
215 116 216 32 217 7 218 1 219 2 231 1 245 2 246 245 247 50 248 13 
249 1 
