Name: Allantoin
CAS: 97-59-6
MW: 158
Formula: C4H6N4O3
Synonym: KEGG: C01551
Synonym: CID: 4709
Synonym: MassBank: PR010137
Synonym: Allantoin
Synonym: Glyoxyldiureide
Synonym: 5-Ureidohydantoin
Structure: 310A32380A3C4341535F49443E206E756C6C093C4B4547475F49443E20433032333438093C4E414D453E20285229282D292D416C6C616E746F696E093C464F524D554C413E20433448364E344F33093C45584143544D4153533E203135382E303433393930303738093C415645524147454D4153533E203135382E31313536093C534D494C45533E204E43283D4F294E5B4340485D284E312943283D4F294E43283D4F2931093C434F505952494748543E2041524D2050524F4A45435420687474703A2F2F7777772E6D657461626F6C6F6D652E6A702F0A2031312031312020302020302020312020302020302020302020302020303939392056323030300A20202020332E323630312020202D302E3439363420202020302E30303030204E202020302020302020302020312020302020302020302020302020302020302020302020300A20202020322E393531312020202D312E3434373420202020302E303030302043202020302020302020302020302020302020302020302020302020302020302020302020300A20202020332E373630312020202D322E3033353220202020302E30303030204E202020302020302020302020312020302020302020302020302020302020302020302020300A20202020342E353639312020202D312E3434373420202020302E303030302043202020302020302020302020302020302020302020302020302020302020302020302020300A20202020342E323630312020202D302E3439363420202020302E303030302043202020302020302020322020312020302020302020302020302020302020302020302020300A20202020342E3834373920202020302E3331323620202020302E30303030204E202020302020302020302020312020302020302020302020302020302020302020302020300A20202020342E3434313120202020312E3232363220202020302E303030302043202020302020302020302020302020302020302020302020302020302020302020302020300A20202020332E3434363620202020312E3333303720202020302E30303030204E202020302020302020302020322020302020302020302020302020302020302020302020300A20202020322E303030302020202D312E3735363420202020302E30303030204F202020302020302020302020302020302020302020302020302020302020302020302020300A20202020352E353230312020202D312E3735363420202020302E30303030204F202020302020302020302020302020302020302020302020302020302020302020302020300A20202020352E3032383920202020322E3033353220202020302E30303030204F202020302020302020302020302020302020302020302020302020302020302020302020300A2020352020342020312020302020302020302020300A2020332020322020312020302020302020302020300A2020322020312020312020302020302020302020300A2020312020352020312020302020302020302020300A2020342020332020312020302020302020302020300A2020352020362020312020312020302020302020300A2020362020372020312020302020302020302020300A2020372020382020312020302020302020302020300A2020372031312020322020302020302020302020300A2020322020392020322020302020302020302020300A2020342031302020322020302020302020302020300A4D2020454E44
Contributor: Kusano M, Fukushima A, Plant Science Center, RIKEN.
InstType: EI
InstName: Pegasus III TOF-MS system, Leco; GC 6890, Agilent Technologies
IoniMethod: EI
IonPolarity: pos
Date: 2010-10-09 19:48:36+02:00
Num Peaks: 116
60 2 61 2 66 1 70 8 71 4 72 40 73 999 74 89 75 47 76 3 
77 5 79 3 84 6 85 4 86 6 87 3 98 2 99 7 100 67 101 8 
102 5 103 2 113 1 114 3 115 5 116 9 117 5 118 1 119 1 127 2 
128 1 129 1 130 12 131 17 132 6 133 10 134 1 141 4 142 1 143 1 
144 1 145 1 146 3 147 61 148 10 149 4 155 1 156 1 157 5 158 6 
159 2 160 1 161 1 170 1 171 13 172 14 173 7 174 10 175 1 185 1 
186 2 187 4 188 119 189 29 190 12 191 2 198 1 199 2 200 1 201 1 
202 2 204 2 213 1 214 1 215 2 216 1 231 1 241 1 242 1 243 10 
244 2 245 5 246 2 247 1 261 1 273 4 274 1 314 1 315 1 316 1 
330 5 331 5 332 4 333 1 356 1 357 3 358 1 388 1 402 1 403 11 
404 5 405 2 427 2 428 16 429 8 430 5 431 2 503 3 504 1 505 1 
517 4 518 21 519 13 520 7 521 2 522 1 
