Name: cysteamine
CAS: 60-23-1
MW: 77
Formula: C2H7NS
Synonym: KEGG: C01678
Synonym: CID: 4821
Synonym: MassBank: PR010225
Synonym: cysteamine
Synonym: Cysteamine
Synonym: beta-Mercaptoethylamine
Synonym: Thioethanolamine
Synonym: beta-Aminoethanethiol
Synonym: Mercaptamine
Synonym: 2-Aminoethanethiol
Structure: 310A31330A3C4341535F49443E2036302D32332D31093C4B4547475F49443E20433031363738093C4E414D453E204379737465616D696E65093C464F524D554C413E20433248374E53093C45584143544D4153533E2037372E303239393139393139093C415645524147454D4153533E2037372E3134393732093C534D494C45533E204E434353093C434F505952494748543E2041524D2050524F4A45435420687474703A2F2F7777772E6D657461626F6C6F6D652E6A702F0A2020342020332020302020302020302020302020302020302020302020303939392056323030300A20202020322E3836363020202020302E3530303020202020302E303030302043202020302020302020302020322020302020302020302020302020302020302020302020300A20202020322E383636302020202D302E3530303020202020302E303030302043202020302020302020302020322020302020302020302020302020302020302020302020300A20202020322E303030302020202D312E3030303020202020302E30303030204E202020302020302020302020322020302020302020302020302020302020302020302020300A20202020332E3733323120202020312E3030303020202020302E303030302053202020302020302020302020312020302020302020302020302020302020302020302020300A2020342020312020312020302020302020302020300A2020312020322020312020302020302020302020300A2020322020332020312020302020302020302020300A4D2020454E44
Contributor: Kusano M, Fukushima A, Plant Science Center, RIKEN.
InstType: EI
InstName: Pegasus III TOF-MS system, Leco; GC 6890, Agilent Technologies
IoniMethod: EI
IonPolarity: pos
Date: 2010-10-09 19:48:36+02:00
Num Peaks: 90
60 27 61 14 63 1 66 1 67 1 69 1 70 21 71 11 72 33 73 999 
74 98 75 36 76 3 77 9 78 1 79 1 83 1 84 6 85 9 86 272 
87 27 88 12 89 4 90 2 91 11 92 1 93 1 98 5 99 6 100 251 
101 38 102 23 103 4 104 3 105 14 106 1 107 1 113 9 114 28 115 11 
116 44 117 16 118 15 119 3 120 1 128 1 129 4 130 87 131 25 132 32 
133 7 134 3 135 1 142 1 143 1 144 4 145 1 146 21 147 7 148 11 
149 5 150 1 151 1 158 7 159 1 160 1 161 1 163 1 172 30 173 6 
174 863 175 163 176 82 177 10 178 2 187 1 188 49 189 10 190 51 191 10 
192 7 193 1 204 6 205 2 206 2 219 1 220 68 221 14 222 8 223 1 
