Name: Hypoxanthine
CAS: 68-94-0
MW: 136
Formula: C5H4N4O
Synonym: KEGG: C00262
Synonym: CID: 3560
Synonym: MassBank: PR010165
Synonym: Hypoxanthine
Synonym: Purine-6-ol
Structure: 310A32370A3C4341535F49443E2036382D39342D30093C4B4547475F49443E20433030323632093C4E414D453E204879706F78616E7468696E65093C464F524D554C413E20433548344E344F093C45584143544D4153533E203133362E3033383531303737303030303032093C415645524147454D4153533E203133362E3131313632303030303030303032093C534D494C45533E204F3D43284E322963286E312963284E3D4332296E6331093C434F505952494748543E2041524D2050524F4A45435420687474703A2F2F7777772E6D657461626F6C6F6D652E6A702F0A2031302031312020302020302020302020302020302020302020302020303939392056323030300A20202020342E3437353220202020312E3034313320202020302E30303030204E202020302020302020302020312020302020302020302020302020302020302020302020300A20202020332E3630393220202020312E3534313320202020302E303030302043202020302020302020302020312020302020302020302020302020302020302020302020300A20202020322E3734333120202020312E3034313320202020302E30303030204E202020302020302020302020302020302020302020302020302020302020302020302020300A20202020322E3734333120202020302E3034313320202020302E303030302043202020302020302020302020302020302020302020302020302020302020302020302020300A20202020332E363039322020202D302E3435383720202020302E303030302043202020302020302020302020302020302020302020302020302020302020302020302020300A20202020342E3437353220202020302E3034313320202020302E303030302043202020302020302020302020302020302020302020302020302020302020302020302020300A20202020332E343031332020202D312E3433363820202020302E30303030204E202020302020302020302020302020302020302020302020302020302020302020302020300A20202020322E343036372020202D312E3534313320202020302E303030302043202020302020302020302020312020302020302020302020302020302020302020302020300A20202020322E303030302020202D302E3632373820202020302E30303030204E202020302020302020302020312020302020302020302020302020302020302020302020300A20202020352E333431322020202D302E3435383720202020302E30303030204F202020302020302020302020302020302020302020302020302020302020302020302020300A2020312020362020312020302020302020302020300A2020312020322020312020302020302020302020300A2020322020332020322020302020302020302020300A2020332020342020312020302020302020302020300A2020352020362020312020302020302020302020300A2020352020342020322020302020302020302020300A2020392020382020312020302020302020302020300A2020382020372020322020302020302020302020300A2020372020352020312020302020302020302020300A2020342020392020312020302020302020302020300A2020362031302020322020302020302020302020300A4D2020454E44
Contributor: Kusano M, Fukushima A, Plant Science Center, RIKEN.
InstType: EI
InstName: Pegasus III TOF-MS system, Leco; GC 6890, Agilent Technologies
IoniMethod: EI
IonPolarity: pos
Date: 2010-10-09 19:48:36+02:00
Num Peaks: 166
60 13 61 15 62 3 63 4 64 6 65 14 66 20 67 8 68 2 69 13 
70 65 71 26 72 68 73 999 74 99 75 70 76 8 77 39 78 11 79 46 
80 8 81 7 82 5 83 8 84 168 85 53 86 28 87 7 88 2 89 3 
90 2 91 3 92 6 93 9 94 6 95 23 96 12 97 9 98 19 99 22 
100 49 101 9 102 5 103 3 104 1 105 2 106 2 107 4 108 2 109 4 
110 19 111 35 112 14 113 5 114 3 115 5 116 3 117 5 118 2 119 5 
120 1 121 2 122 3 123 20 124 12 125 44 126 7 127 2 128 6 129 1 
130 4 131 26 132 8 133 9 134 2 135 1 136 4 137 4 138 13 139 11 
140 3 141 3 142 3 143 3 144 2 147 32 148 8 149 3 150 7 151 4 
152 13 153 7 154 3 155 2 156 3 157 3 158 30 159 7 160 2 163 3 
164 3 165 12 166 41 167 8 168 3 169 2 170 3 171 3 172 33 173 15 
174 4 175 2 177 9 178 2 179 4 180 11 181 30 182 6 183 3 184 1 
185 1 191 10 192 12 193 41 194 7 195 3 196 1 197 5 198 1 205 2 
206 54 207 30 208 13 209 3 210 1 211 6 212 2 213 1 221 1 222 7 
223 6 224 4 225 1 235 4 236 2 237 3 238 16 239 8 240 3 249 10 
250 3 251 2 252 2 253 1 263 1 264 7 265 410 266 99 267 39 268 6 
269 1 279 15 280 134 281 34 282 12 283 2 
