Name: L-Threonine
CAS: 72-19-5
MW: 119
Formula: C4H9NO3
Synonym: KEGG: C00188
Synonym: CID: 3488
Synonym: MassBank: PR010069
Synonym: L-Threonine
Synonym: 2-Amino-3-hydroxybutyric acid
Structure: 310A32310A3C4341535F49443E2037322D31392D35093C4B4547475F49443E20433030313838093C4E414D453E204C2D546872656F6E696E65093C464F524D554C413E20433448394E4F33093C45584143544D4153533E203131392E303538323433313539093C415645524147454D4153533E203131392E31313932093C534D494C45533E20435B4340485D284F295B4340485D284E2943284F293D4F093C434F505952494748543E2041524D2050524F4A45435420687474703A2F2F7777772E6D657461626F6C6F6D652E6A702F0A2020382020372020302020302020312020302020302020302020302020303939392056323030300A20202020332E3733323120202020302E3530303020202020302E303030302043202020302020302020302020302020302020302020302020302020302020302020302020300A20202020322E3836363020202020302E3030303020202020302E303030302043202020302020302020322020312020302020302020302020302020302020302020302020300A20202020322E383636302020202D312E3030303020202020302E303030302043202020302020302020322020312020302020302020302020302020302020302020302020300A20202020332E373332312020202D312E3530303020202020302E303030302043202020302020302020302020332020302020302020302020302020302020302020302020300A20202020322E3030303020202020302E3530303020202020302E30303030204E202020302020302020302020322020302020302020302020302020302020302020302020300A20202020342E3539383120202020302E3030303020202020302E30303030204F202020302020302020302020312020302020302020302020302020302020302020302020300A20202020332E3733323120202020312E3530303020202020302E30303030204F202020302020302020302020302020302020302020302020302020302020302020302020300A20202020322E303030302020202D312E3530303020202020302E30303030204F202020302020302020302020312020302020302020302020302020302020302020302020300A2020322020332020312020302020302020302020300A2020312020362020312020302020302020302020300A2020312020372020322020302020302020302020300A2020322020312020312020302020302020302020300A2020322020352020312020362020302020302020300A2020332020342020312020362020302020302020300A2020332020382020312020302020302020302020300A4D2020454E44
Contributor: Kusano M, Fukushima A, Plant Science Center, RIKEN.
InstType: EI
InstName: Pegasus III TOF-MS system, Leco; GC 6890, Agilent Technologies
IoniMethod: EI
IonPolarity: pos
Date: 2010-10-09 19:48:36+02:00
Num Peaks: 110
60 15 61 16 62 1 63 1 66 6 67 1 69 2 70 8 71 6 72 25 
73 999 74 95 75 100 76 9 77 18 78 1 79 2 82 1 83 1 84 14 
85 8 86 23 87 19 88 3 89 2 93 1 96 1 97 1 98 5 99 4 
100 106 101 238 102 35 103 21 104 2 105 3 112 4 113 2 114 24 115 19 
116 9 117 300 118 33 119 17 120 1 126 1 127 1 128 70 129 79 130 40 
131 42 132 37 133 45 134 8 135 4 142 1 143 1 144 5 145 2 146 7 
147 134 148 22 149 15 150 1 156 2 157 1 158 5 159 10 160 8 161 2 
162 1 163 3 172 4 173 1 174 5 175 1 176 3 177 3 186 4 187 1 
188 3 189 1 190 2 191 6 192 1 202 22 203 25 204 9 205 3 206 1 
216 1 217 2 218 196 219 206 220 47 221 20 222 3 230 5 231 2 232 1 
248 1 276 1 291 56 292 36 293 14 294 4 295 1 320 9 321 2 322 1 
