Name: MassBank: PR010001
CAS: 10517-44-9
MW: 74
Formula: C3H10N2
Synonym: MassBank: PR010001
Synonym: 1,3-Diaminopropane
Structure: 310A31340A20204143442F4C6162733132303430363137353232440A2020352020342020302020302020302020302020302020302020302020302020312056323030300A20202031372E353636382020202D332E3430313520202020302E30303030204E202020302020302020302020302020302020302020302020302020302020302020302020300A20202031382E373138372020202D342E3036363520202020302E303030302043202020302020302020302020302020302020302020302020302020302020302020302020300A20202031392E383730352020202D332E3430313520202020302E303030302043202020302020302020302020302020302020302020302020302020302020302020302020300A20202032312E303232342020202D342E3036363520202020302E303030302043202020302020302020302020302020302020302020302020302020302020302020302020300A20202032322E313734332020202D332E3430313520202020302E30303030204E202020302020302020302020302020302020302020302020302020302020302020302020300A2020322020312020312020302020302020302020300A2020332020322020312020302020302020302020300A2020342020332020312020302020302020302020300A2020352020342020312020302020302020302020300A4D2020454E44
Contributor: Kusano M, Fukushima A, Plant Science Center, RIKEN.
InstType: EI
InstName: Pegasus III TOF-MS system, Leco; GC 6890, Agilent Technologies
IoniMethod: EI
IonPolarity: pos
Date: 2010-10-09 19:48:36+02:00
Num Peaks: 82
60 23 61 10 70 11 71 8 72 27 73 999 74 90 75 26 76 1 77 3 
83 2 84 7 85 10 86 407 87 41 88 18 89 1 98 9 99 6 100 193 
101 30 102 31 103 8 104 2 112 15 113 12 114 26 115 14 116 33 117 32 
118 6 119 2 126 4 127 2 128 70 129 23 130 117 131 34 132 18 133 3 
134 1 142 3 143 2 144 12 145 4 146 40 147 6 148 3 156 3 157 1 
158 16 159 3 160 301 161 51 162 22 163 2 170 7 171 4 172 238 173 56 
174 481 175 90 176 42 177 5 184 1 185 3 186 85 187 18 188 14 189 3 
190 1 200 2 201 270 202 59 203 24 204 3 259 8 260 2 261 1 273 1 
347 2 362 1 
