Name: 3-Indolylacetonitrile
CAS: 771-51-7
MW: 156
Formula: C10H8N2
Synonym: KEGG: C02938
Synonym: CID: 5857
Synonym: MassBank: PR010109
Synonym: 3-Indolylacetonitrile
Synonym: Indole-3-acetonitrile
Synonym: 3-Indoleacetonitrile
Synonym: (Indole-3-yl)acetonitrile
Synonym: Indol-3-ylacetonitrile
Structure: 310A33310A3C4341535F49443E203737312D35312D37093C4B4547475F49443E20433032393338093C4E414D453E20332D496E646F6C65616365746F6E697472696C65093C464F524D554C413E2043313048384E32093C45584143544D4153533E203135362E303638373438323636093C415645524147454D4153533E203135362E3138343030303030303030303033093C534D494C45533E204E23434363286331296328633229632863636332296E31093C434F505952494748543E2041524D2050524F4A45435420687474703A2F2F7777772E6D657461626F6C6F6D652E6A702F0A2031322031332020302020302020302020302020302020302020302020303939392056323030300A20202020362E303236372020202D312E3433363820202020302E30303030204E202020302020302020302020312020302020302020302020302020302020302020302020300A20202020352E303332322020202D312E3534313320202020302E303030302043202020302020302020302020312020302020302020302020302020302020302020302020300A20202020342E363235342020202D302E3632373820202020302E303030302043202020302020302020302020302020302020302020302020302020302020302020302020300A20202020352E3336383620202020312E3034313320202020302E303030302043202020302020302020302020312020302020302020302020302020302020302020302020300A20202020362E3233343620202020312E3534313320202020302E303030302043202020302020302020302020312020302020302020302020302020302020302020302020300A20202020372E3130303620202020312E3034313320202020302E303030302043202020302020302020302020312020302020302020302020302020302020302020302020300A20202020372E3130303620202020302E3034313320202020302E303030302043202020302020302020302020312020302020302020302020302020302020302020302020300A20202020362E323334362020202D302E3435383720202020302E303030302043202020302020302020302020302020302020302020302020302020302020302020302020300A20202020352E3336383620202020302E3034313320202020302E303030302043202020302020302020302020302020302020302020302020302020302020302020302020300A20202020332E363437332020202D302E3431393920202020302E303030302043202020302020302020302020322020302020302020302020302020302020302020302020300A20202020322E393738312020202D312E3136333020202020302E303030302043202020302020302020302020302020302020302020302020302020302020302020302020300A20202020322E303030302020202D302E3935353120202020302E30303030204E202020302020302020302020302020302020302020302020302020302020302020302020300A2020352020342020322020302020302020302020300A2020352020362020312020302020302020302020300A2020362020372020322020302020302020302020300A2020372020382020312020302020302020302020300A2020392020342020312020302020302020302020300A2020382020392020322020302020302020302020300A2020332020322020322020302020302020302020300A2020322020312020312020302020302020302020300A2020312020382020312020302020302020302020300A2020392020332020312020302020302020302020300A2020332031302020312020302020302020302020300A2031302031312020312020302020302020302020300A2031312031322020332020302020302020302020300A4D2020454E44
Contributor: Kusano M, Fukushima A, Plant Science Center, RIKEN.
InstType: EI
InstName: Pegasus III TOF-MS system, Leco; GC 6890, Agilent Technologies
IoniMethod: EI
IonPolarity: pos
Date: 2010-10-09 19:48:36+02:00
Num Peaks: 123
60 3 61 5 62 14 63 30 64 10 65 8 66 6 67 8 68 1 69 2 
70 23 71 8 72 20 73 999 74 105 75 62 76 44 77 72 78 17 79 7 
80 2 81 1 82 2 83 2 84 147 85 14 86 8 87 7 88 8 89 15 
90 5 91 9 92 4 93 4 94 2 95 1 96 1 98 8 99 7 100 20 
101 74 102 73 103 31 104 7 105 10 106 2 107 1 113 3 114 4 115 20 
116 7 117 13 118 3 119 5 120 2 126 3 127 27 128 71 129 579 130 146 
131 20 132 6 133 2 134 2 140 3 141 3 142 8 143 14 144 12 145 9 
146 6 147 2 153 3 154 8 155 49 156 39 157 8 158 6 159 3 160 5 
161 1 167 1 168 3 169 6 170 23 171 6 172 19 173 4 174 2 181 3 
182 3 183 5 184 7 185 3 186 17 187 14 188 17 189 3 190 1 194 1 
195 2 196 1 197 2 198 1 199 3 200 9 201 3 202 21 203 6 204 1 
211 4 212 2 213 196 214 38 215 10 216 1 225 2 226 1 227 45 228 388 
229 79 230 19 231 2 
