Name: Inosine
CAS: 58-63-9
MW: 268
Formula: C10H12N4O5
Synonym: KEGG: C00294
Synonym: CID: 3588
Synonym: MassBank: PR010169
Synonym: Inosine
Structure: 310A34360A3C4341535F49443E2035382D36332D39093C4B4547475F49443E20433030323934093C4E414D453E20496E6F73696E093C464F524D554C413E204331304831324E344F35093C45584143544D4153533E203236382E303830373639353134093C415645524147454D4153533E203236382E3232363234093C534D494C45533E204F435B434040485D284F31295B434040485D284F295B434040485D284F295B434040485D316E2863332963284E3D322963286E332943283D4F294E4332093C434F505952494748543E2041524D2050524F4A45435420687474703A2F2F7777772E6D657461626F6C6F6D652E6A702F0A2031392032312020302020302020312020302020302020302020302020303939392056323030300A20202020332E3733323120202020332E3039373020202020302E30303030204E202020302020302020302020312020302020302020302020302020302020302020302020300A20202020342E3539383120202020322E3539373020202020302E303030302043202020302020302020302020312020302020302020302020302020302020302020302020300A20202020342E3539383120202020312E3539373020202020302E30303030204E202020302020302020302020302020302020302020302020302020302020302020302020300A20202020332E3733323120202020312E3039373020202020302E303030302043202020302020302020302020302020302020302020302020302020302020302020302020300A20202020322E3836363020202020312E3539373020202020302E303030302043202020302020302020302020302020302020302020302020302020302020302020302020300A20202020322E3836363020202020322E3539373020202020302E303030302043202020302020302020302020302020302020302020302020302020302020302020302020300A20202020322E3132323920202020302E3932373920202020302E30303030204E202020302020302020302020302020302020302020302020302020302020302020302020300A20202020322E3532393620202020302E3031343320202020302E303030302043202020302020302020302020312020302020302020302020302020302020302020302020300A20202020332E3532343120202020302E3131383820202020302E30303030204E202020302020302020302020302020302020302020302020302020302020302020302020300A20202020322E3030303020202020332E3039373020202020302E30303030204F202020302020302020302020302020302020302020302020302020302020302020302020300A20202020342E313933332020202D302E3632343320202020302E303030302043202020302020302020312020312020302020302020302020302020302020302020302020300A20202020332E393835342020202D312E3630323520202020302E303030302043202020302020302020312020312020302020302020302020302020302020302020302020300A20202020342E383531342020202D322E3130323520202020302E303030302043202020302020302020312020312020302020302020302020302020302020302020302020300A20202020352E353934352020202D312E3433333320202020302E303030302043202020302020302020312020312020302020302020302020302020302020302020302020300A20202020362E353732372020202D312E3634313220202020302E303030302043202020302020302020302020322020302020302020302020302020302020302020302020300A20202020332E303731382020202D322E3030393220202020302E30303030204F202020302020302020302020312020302020302020302020302020302020302020302020300A20202020342E393535392020202D332E3039373020202020302E30303030204F202020302020302020302020312020302020302020302020302020302020302020302020300A20202020352E313837382020202D302E3531393820202020302E30303030204F202020302020302020302020302020302020302020302020302020302020302020302020300A20202020372E323431382020202D302E3839383120202020302E30303030204F202020302020302020302020312020302020302020302020302020302020302020302020300A2031322031312020312020302020302020302020300A2031312031382020312020362020302020302020300A2031342031382020312020362020302020302020300A2031342031332020312020302020302020302020300A2031332031322020312020302020302020302020300A2031342031352020312020302020302020302020300A2031312020392020312020302020302020302020300A2031332031372020312020312020302020302020300A2031322031362020312020312020302020302020300A2031352031392020312020302020302020302020300A2020312020362020312020302020302020302020300A2020312020322020312020302020302020302020300A2020322020332020322020302020302020302020300A2020332020342020312020302020302020302020300A2020352020362020312020302020302020302020300A2020352020342020322020302020302020302020300A2020342020392020312020302020302020302020300A2020392020382020312020302020302020302020300A2020382020372020322020302020302020302020300A2020372020352020312020302020302020302020300A2020362031302020322020302020302020302020300A4D2020454E44
Contributor: Kusano M, Fukushima A, Plant Science Center, RIKEN.
InstType: EI
InstName: Pegasus III TOF-MS system, Leco; GC 6890, Agilent Technologies
IoniMethod: EI
IonPolarity: pos
Date: 2010-10-09 19:48:36+02:00
Num Peaks: 197
60 5 61 9 62 1 63 1 64 1 65 2 66 4 67 4 69 9 70 7 
71 6 72 22 73 999 74 91 75 71 76 6 77 13 78 2 79 9 80 1 
81 4 82 1 83 2 84 12 85 10 86 4 87 5 88 2 89 11 90 1 
91 1 92 1 93 1 94 1 95 2 96 1 97 6 98 2 99 9 100 5 
101 18 102 3 103 100 104 10 105 5 106 1 107 1 109 1 110 7 111 12 
112 3 113 9 114 2 115 16 116 10 117 22 118 3 119 5 120 1 123 2 
124 2 125 3 126 2 127 4 128 1 129 33 130 4 131 16 132 3 133 29 
134 5 135 3 136 1 137 1 138 7 139 2 140 2 141 3 142 4 143 16 
144 3 145 7 146 2 147 81 148 13 149 11 150 3 151 1 152 1 153 3 
154 1 155 2 156 2 157 6 158 2 159 1 161 1 162 1 163 3 164 1 
165 2 166 8 167 2 168 1 169 17 170 3 171 3 172 1 173 1 175 1 
176 1 177 4 178 1 179 1 180 1 181 1 189 7 190 1 191 4 192 3 
193 57 194 9 195 3 203 1 204 3 205 3 206 3 207 14 208 6 209 23 
210 4 211 1 215 4 216 1 217 116 218 25 219 13 220 2 221 3 222 1 
229 2 230 91 231 23 232 10 233 2 234 1 235 2 236 1 237 35 238 6 
239 2 243 24 244 6 245 57 246 13 247 6 248 1 249 1 257 2 258 6 
259 33 260 8 261 3 265 7 266 2 267 2 279 2 280 13 281 41 282 11 
283 4 307 9 308 2 309 3 310 1 320 1 321 1 322 1 323 6 324 1 
335 3 336 1 338 1 339 1 347 1 348 6 349 2 350 1 363 1 395 2 
396 1 453 1 466 1 540 2 541 5 542 3 543 1 
