Name: MassBank: PR010090
CAS: 5144-89-8
MW: 180
Formula: C12H8N2
Synonym: MassBank: PR010090
Synonym: 1,10-Phenanthroline
Structure: 310A33350A20204143442F4C6162733132303230363039323433440A2031342031362020302020302020302020302020302020302020302020302020312056323030300A20202031352E3537333520202D31302E3136373320202020302E303030302043202020302020302020302020302020302020302020302020302020302020302020302020300A20202031352E3537333520202D31312E3439373320202020302E303030302043202020302020302020302020302020302020302020302020302020302020302020302020300A20202031342E343231362020202D392E3530323320202020302E303030302043202020302020302020302020302020302020302020302020302020302020302020302020300A20202031342E3432313620202D31322E3136323320202020302E303030302043202020302020302020302020302020302020302020302020302020302020302020302020300A20202031332E3236393820202D31302E3136373320202020302E303030302043202020302020302020302020302020302020302020302020302020302020302020302020300A20202031332E3236393820202D31312E3439373320202020302E303030302043202020302020302020302020302020302020302020302020302020302020302020302020300A20202031322E313138312020202D392E353032342020202D302E30303030204E202020302020302020302020302020302020302020302020302020302020302020302020300A20202031302E3936363320202D31302E313637342020202D302E303030302043202020302020302020302020302020302020302020302020302020302020302020302020300A20202031322E3131383120202D31322E313632332020202D302E303030302043202020302020302020302020302020302020302020302020302020302020302020302020300A20202031302E3936363420202D31312E343937332020202D302E303030302043202020302020302020302020302020302020302020302020302020302020302020302020300A20202031362E373235342020202D382E3137323320202020302E303030302043202020302020302020302020302020302020302020302020302020302020302020302020300A20202031362E373235342020202D392E3530323320202020302E303030302043202020302020302020302020302020302020302020302020302020302020302020302020300A20202031352E353733352020202D372E3530373320202020302E303030302043202020302020302020302020302020302020302020302020302020302020302020302020300A20202031342E343231382020202D382E3137323320202020302E30303030204E202020302020302020302020302020302020302020302020302020302020302020302020300A2020322020312020312020302020302020302020300A2020332020312020322020302020302020302020300A2020342020322020322020302020302020302020300A2020352020332020312020302020302020302020300A2020362020342020312020302020302020302020300A2020372020352020312020302020302020302020300A2020362020352020322020302020302020302020300A2020382020372020322020302020302020302020300A2020392020362020312020302020302020302020300A2031302020382020312020302020302020302020300A2031302020392020322020302020302020302020300A2031322031312020322020302020302020302020300A2031332031312020312020302020302020302020300A2020312031322020312020302020302020302020300A2031342031332020322020302020302020302020300A2020332031342020312020302020302020302020300A4D2020454E44
Contributor: Kusano M, Fukushima A, Plant Science Center, RIKEN.
InstType: EI
InstName: Pegasus III TOF-MS system, Leco; GC 6890, Agilent Technologies
IoniMethod: EI
IonPolarity: pos
Date: 2010-10-09 19:48:36+02:00
Num Peaks: 104
60 6 61 52 62 93 63 235 64 29 65 8 66 3 71 1 72 3 73 19 
74 136 75 123 76 158 77 88 78 18 79 27 80 3 83 1 84 3 85 13 
86 29 87 47 88 25 89 23 90 145 91 2 96 1 97 7 98 50 99 87 
100 92 101 61 102 37 103 14 104 3 105 1 109 2 110 5 111 6 112 5 
113 9 114 9 115 1 120 1 121 1 122 6 123 9 124 16 125 117 126 103 
127 126 128 32 129 70 130 8 138 1 139 1 140 2 141 2 142 1 146 1 
150 7 151 36 152 124 153 207 154 231 155 27 156 2 164 1 165 1 166 1 
167 1 170 1 176 1 177 8 178 14 179 454 180 999 181 140 182 10 188 1 
204 1 227 1 229 1 272 1 303 1 327 1 350 1 441 1 472 1 529 1 
535 1 552 1 595 1 596 1 599 1 633 1 645 1 670 1 695 1 723 1 
740 2 753 1 768 2 796 1 
