Name: MassBank: PR010150
CAS: 54879-59-5
MW: 104
Formula: C3H8N2O2
Synonym: MassBank: PR010150
Synonym: DL-2,3-Diaminopropionic acid
Structure: 310A31380A20204143442F4C6162733132303230363135323832440A2020372020362020302020302020302020302020302020302020302020302020312056323030300A20202031312E303237342020202D362E3530393820202020302E30303030204E202020302020302020302020302020302020302020302020302020302020302020302020300A20202031322E313739322020202D372E3137343820202020302E303030302043202020302020302020302020302020302020302020302020302020302020302020302020300A20202031332E333331302020202D362E3530393820202020302E303030302043202020302020302020302020302020302020302020302020302020302020302020302020300A20202031342E343833302020202D372E3137343820202020302E30303030204F202020302020302020302020302020302020302020302020302020302020302020302020300A20202031332E333331302020202D352E3137393820202020302E30303030204F202020302020302020302020302020302020302020302020302020302020302020302020300A20202031322E313739322020202D382E3530343820202020302E303030302043202020302020302020302020302020302020302020302020302020302020302020302020300A20202031312E303237342020202D392E3136393820202020302E30303030204E202020302020302020302020302020302020302020302020302020302020302020302020300A2020322020312020312020302020302020302020300A2020332020322020312020302020302020302020300A2020342020332020312020302020302020302020300A2020332020352020322020302020302020302020300A2020322020362020312020302020302020302020300A2020362020372020312020302020302020302020300A4D2020454E44
Contributor: Kusano M, Fukushima A, Plant Science Center, RIKEN.
InstType: EI
InstName: Pegasus III TOF-MS system, Leco; GC 6890, Agilent Technologies
IoniMethod: EI
IonPolarity: pos
Date: 2010-10-09 19:48:36+02:00
Num Peaks: 100
60 17 61 11 62 1 63 1 66 2 69 1 70 12 71 7 72 29 73 999 
74 98 75 64 76 6 77 18 78 2 79 4 83 1 84 9 85 6 86 242 
87 26 88 19 89 2 98 2 99 15 100 149 101 58 102 48 103 12 104 2 
105 1 113 7 114 8 115 16 116 13 117 18 118 6 119 4 120 1 128 2 
129 14 130 49 131 21 132 28 133 18 134 4 135 1 141 1 142 1 143 1 
144 8 145 2 146 19 147 50 148 9 149 4 157 1 158 6 159 6 160 7 
161 2 162 1 171 11 172 12 173 3 174 632 175 121 176 59 177 7 178 1 
186 2 187 5 188 7 189 2 190 3 191 13 192 3 193 1 203 10 204 4 
205 1 218 4 219 1 220 1 243 1 246 1 248 4 249 1 259 6 260 2 
261 1 275 4 276 4 277 1 290 1 291 44 292 12 293 6 294 1 349 1 
