Name: Dihydrouracil
CAS: 504-07-4
MW: 114
Formula: C4H6N2O2
Synonym: KEGG: C00429
Synonym: CID: 3718
Synonym: MassBank: PR010148
Synonym: Dihydrouracil
Synonym: Hydrouracil
Synonym: 5,6-Dihydro-2,4-dihydroxypyrimidine
Synonym: Dihydrouracile
Synonym: 2,4(1H,3H)-Pyrimidinedione, dihydro-
Synonym: 5,6-Dihydrouracil
Structure: 310A32320A3C4341535F49443E203530342D30372D34093C4B4547475F49443E20433030343239093C4E414D453E20352C362D4469687964726F75726163696C093C464F524D554C413E20433448364E324F32093C45584143544D4153533E203131342E303432393237343436093C415645524147454D4153533E203131342E3130323732093C534D494C45533E204F3D43284331294E43283D4F294E4331093C434F505952494748543E2041524D2050524F4A45435420687474703A2F2F7777772E6D657461626F6C6F6D652E6A702F0A2020382020382020302020302020302020302020302020302020302020303939392056323030300A20202020332E3733323120202020312E3530303020202020302E30303030204E202020302020302020302020312020302020302020302020302020302020302020302020300A20202020322E3836363020202020312E3030303020202020302E303030302043202020302020302020302020302020302020302020302020302020302020302020302020300A20202020322E383636302020202D302E3030303020202020302E30303030204E202020302020302020302020312020302020302020302020302020302020302020302020300A20202020332E373332312020202D302E3530303020202020302E303030302043202020302020302020302020302020302020302020302020302020302020302020302020300A20202020342E3539383120202020302E3030303020202020302E303030302043202020302020302020302020322020302020302020302020302020302020302020302020300A20202020342E3539383120202020312E3030303020202020302E303030302043202020302020302020302020322020302020302020302020302020302020302020302020300A20202020322E3030303020202020312E3530303020202020302E30303030204F202020302020302020302020302020302020302020302020302020302020302020302020300A20202020332E373332312020202D312E3530303020202020302E30303030204F202020302020302020302020302020302020302020302020302020302020302020302020300A2020332020342020312020302020302020302020300A2020332020322020312020302020302020302020300A2020322020312020312020302020302020302020300A2020312020362020312020302020302020302020300A2020362020352020312020302020302020302020300A2020352020342020312020302020302020302020300A2020342020382020322020302020302020302020300A2020322020372020322020302020302020302020300A4D2020454E44
Contributor: Kusano M, Fukushima A, Plant Science Center, RIKEN.
InstType: EI
InstName: Pegasus III TOF-MS system, Leco; GC 6890, Agilent Technologies
IoniMethod: EI
IonPolarity: pos
Date: 2010-10-09 19:48:36+02:00
Num Peaks: 80
60 29 61 29 62 2 63 1 65 1 66 27 67 4 69 1 70 228 71 29 
72 273 73 999 74 116 75 132 76 13 77 16 78 2 79 15 80 1 84 4 
85 16 86 123 87 19 88 33 89 109 90 11 91 5 99 7 100 606 101 61 
102 43 103 79 104 12 105 10 106 1 113 2 114 2 115 26 116 11 117 20 
118 8 119 15 120 2 121 1 130 8 131 43 132 19 133 172 134 26 135 13 
136 1 144 3 145 1 146 54 147 441 148 74 149 36 150 3 158 2 160 29 
161 5 162 13 163 7 164 1 174 13 175 2 176 1 188 1 190 22 191 1 
192 1 205 14 206 3 207 1 220 49 221 10 222 4 235 39 236 8 237 3 
