Name: L-Norleucine
CAS: 327-57-1
MW: 131
Formula: C6H13NO2
Synonym: KEGG: C01933
Synonym: CID: 5038
Synonym: MassBank: PR010064
Synonym: L-Norleucine
Synonym: L-Aminohexanoate
Synonym: L-2-Aminohexanoate
Synonym: L-Aminohexanoic acid
Synonym: L-2-Aminohexanoic acid
Synonym: (S)-2-Aminohexanoic acid
Structure: 310A32330A3C4341535F49443E203332372D35372D31093C4B4547475F49443E20433031393333093C4E414D453E204C2D4E6F726C657563696E65093C464F524D554C413E2043364831334E4F32093C45584143544D4153533E203133312E303934363238363635093C415645524147454D4153533E203133312E3137323936093C534D494C45533E20434343435B4340485D284E2943284F293D4F093C434F505952494748543E2041524D2050524F4A45435420687474703A2F2F7777772E6D657461626F6C6F6D652E6A702F0A2020392020382020302020302020312020302020302020302020302020303939392056323030300A20202020352E343634312020202D302E3530303020202020302E303030302043202020302020302020302020302020302020302020302020302020302020302020302020300A20202020352E3436343120202020302E3530303020202020302E303030302043202020302020302020322020312020302020302020302020302020302020302020302020300A20202020342E3539383120202020312E3030303020202020302E303030302043202020302020302020302020322020302020302020302020302020302020302020302020300A20202020332E3733323120202020302E3530303020202020302E303030302043202020302020302020302020322020302020302020302020302020302020302020302020300A20202020322E3836363020202020312E3030303020202020302E303030302043202020302020302020302020322020302020302020302020302020302020302020302020300A20202020322E3030303020202020302E3530303020202020302E303030302043202020302020302020302020332020302020302020302020302020302020302020302020300A20202020362E3333303120202020312E3030303020202020302E30303030204E202020302020302020302020322020302020302020302020302020302020302020302020300A20202020342E353938312020202D312E3030303020202020302E30303030204F202020302020302020302020302020302020302020302020302020302020302020302020300A20202020362E333330312020202D312E3030303020202020302E30303030204F202020302020302020302020312020302020302020302020302020302020302020302020300A2020322020332020312020302020302020302020300A2020332020342020312020302020302020302020300A2020382020312020322020302020302020302020300A2020322020312020312020302020302020302020300A2020322020372020312020362020302020302020300A2020342020352020312020302020302020302020300A2020312020392020312020302020302020302020300A2020352020362020312020302020302020302020300A4D2020454E44
Contributor: Kusano M, Fukushima A, Plant Science Center, RIKEN.
InstType: EI
InstName: Pegasus III TOF-MS system, Leco; GC 6890, Agilent Technologies
IoniMethod: EI
IonPolarity: pos
Date: 2010-10-09 19:48:36+02:00
Num Peaks: 92
60 24 61 18 62 2 63 1 65 1 66 9 67 4 69 5 70 11 71 7 
72 20 73 999 74 100 75 84 76 8 77 14 78 1 79 4 80 2 81 3 
82 4 83 2 84 12 85 8 86 38 87 7 88 3 89 2 94 1 95 1 
96 3 97 2 98 8 99 3 100 72 101 14 102 33 103 22 104 3 105 4 
110 1 112 3 113 2 114 25 115 22 116 6 117 13 118 3 119 4 126 1 
128 20 129 7 130 14 131 15 132 14 133 29 134 5 135 2 142 7 143 3 
144 2 146 3 147 100 148 16 149 9 150 1 156 3 157 1 158 859 159 134 
160 41 161 4 163 1 170 11 171 2 172 1 174 3 175 1 186 2 188 1 
202 1 203 1 216 1 218 27 219 6 220 2 232 34 233 11 234 4 260 11 
261 2 262 1 
