Name: L-Homocystine
CAS: 626-72-2
MW: 268
Formula: C8H16N2O4S2
Synonym: MassBank: PR010175
Synonym: L-Homocystine
Structure: 3632362D37322D322E6D6F6C0A20204368656D447261773132303530363138353832440A2031362031352020302020302020312020302020302020302020302020303939392056323030300A2020202D322E353030362020202D322E3236383720202020302E30303030204F202020302020302020302020302020302020302020302020302020302020302020302020300A2020202D312E373836322020202D322E3638313320202020302E303030302043202020302020302020302020302020302020302020302020302020302020302020302020300A2020202D312E303731372020202D322E3236383720202020302E303030302043202020302020302020302020302020302020302020302020302020302020302020302020300A2020202D302E333537312020202D322E3638313320202020302E30303030204E202020302020302020302020302020302020302020302020302020302020302020302020300A2020202D312E373836322020202D332E3530363320202020302E30303030204F202020302020302020302020302020302020302020302020302020302020302020302020300A2020202D312E303731372020202D312E3434333720202020302E303030302043202020302020302020302020302020302020302020302020302020302020302020302020300A2020202D302E333537322020202D312E3033313220202020302E303030302043202020302020302020302020302020302020302020302020302020302020302020302020300A2020202D302E333537322020202D302E3230363220202020302E303030302053202020302020302020302020302020302020302020302020302020302020302020302020300A20202020302E3335373220202020302E3230363320202020302E303030302053202020302020302020302020302020302020302020302020302020302020302020302020300A20202020302E3335373220202020312E3033313320202020302E303030302043202020302020302020302020302020302020302020302020302020302020302020302020300A20202020312E3037313720202020312E3434333820202020302E303030302043202020302020302020302020302020302020302020302020302020302020302020302020300A20202020312E3037313720202020322E3236383820202020302E303030302043202020302020302020302020302020302020302020302020302020302020302020302020300A20202020312E3738363220202020322E3638313320202020302E303030302043202020302020302020302020302020302020302020302020302020302020302020302020300A20202020302E3335373220202020322E3638313320202020302E30303030204E202020302020302020302020302020302020302020302020302020302020302020302020300A20202020322E3530303620202020322E3236383820202020302E30303030204F202020302020302020302020302020302020302020302020302020302020302020302020300A20202020312E3738363220202020332E3530363320202020302E30303030204F202020302020302020302020302020302020302020302020302020302020302020302020300A2020322020312020312020302020202020200A2020332020322020312020302020202020200A2020332020342020312020362020202020200A2020322020352020322020302020202020200A2020332020362020312020302020202020200A2020362020372020312020302020202020200A2020372020382020312020302020202020200A2020382020392020312020302020202020200A2020392031302020312020302020202020200A2031302031312020312020302020202020200A2031312031322020312020302020202020200A2031322031332020312020302020202020200A2031322031342020312020362020202020200A2031332031352020312020302020202020200A2031332031362020322020302020202020200A4D2020454E44
Contributor: Kusano M, Fukushima A, Plant Science Center, RIKEN.
InstType: EI
InstName: Pegasus III TOF-MS system, Leco; GC 6890, Agilent Technologies
IoniMethod: EI
IonPolarity: pos
Date: 2010-10-09 19:48:36+02:00
Num Peaks: 137
60 21 61 19 62 2 63 2 64 1 66 4 67 1 69 1 70 8 71 5 
72 22 73 999 74 99 75 103 76 10 77 26 78 2 79 6 82 3 83 2 
84 9 85 7 86 13 87 9 88 58 89 6 90 8 91 11 92 2 93 1 
96 2 97 1 98 10 99 3 100 108 101 16 102 10 103 27 104 3 105 14 
106 1 107 1 110 1 112 9 113 2 114 37 115 19 116 6 117 10 118 11 
119 9 120 2 121 1 122 1 126 6 127 1 128 733 129 106 130 44 131 18 
132 20 133 26 134 5 135 3 141 1 142 1 143 1 144 3 145 1 146 9 
147 97 148 17 149 11 150 1 156 2 157 1 158 2 159 2 160 228 161 57 
162 44 163 7 164 2 165 1 172 7 173 1 174 5 175 1 176 1 188 12 
189 2 190 4 191 2 192 1 193 1 194 3 198 1 202 18 203 5 204 2 
205 1 206 3 207 1 216 2 218 80 219 19 220 8 221 2 222 3 223 1 
230 1 232 1 234 4 235 1 236 1 244 1 246 2 248 1 262 2 274 1 
277 6 278 166 279 45 280 24 281 5 282 1 291 5 292 1 311 1 312 14 
313 3 314 2 336 1 338 1 351 1 439 1 556 1 
