Name: L-Methionine sulfone
CAS: 7314-32-1
MW: 181
Formula: C5H11NO4S
Synonym: MassBank: PR010063
Synonym: L-Methionine sulfone
Structure: 373331342D33322D312E6D6F6C0A20204368656D447261773132303530363139303232440A2031312031302020302020302020302020302020302020302020302020303939392056323030300A2020202D312E3432383920202020302E3230363220202020302E303030302053202020302020302020302020302020302020302020302020302020302020302020302020300A2020202D302E373134352020202D302E3230363220202020302E303030302043202020302020302020302020302020302020302020302020302020302020302020302020300A2020202D302E3030303120202020302E3230363220202020302E303030302043202020302020302020302020302020302020302020302020302020302020302020302020300A20202020302E373134352020202D302E3230363220202020302E303030302043202020302020302020302020302020302020302020302020302020302020302020302020300A20202020312E3432383920202020302E3230363220202020302E303030302043202020302020302020302020302020302020302020302020302020302020302020302020300A20202020322E313433342020202D302E3230363320202020302E30303030204F202020302020302020302020302020302020302020302020302020302020302020302020300A20202020312E3432393020202020312E3033313220202020302E30303030204F202020302020302020302020302020302020302020302020302020302020302020302020300A20202020302E373134352020202D312E3033313220202020302E30303030204E202020302020302020302020302020302020302020302020302020302020302020302020300A2020202D322E3134333420202020302E3631383720202020302E303030302043202020302020302020302020302020302020302020302020302020302020302020302020300A2020202D312E3031363420202020302E3932303720202020302E30303030204F202020302020302020302020302020302020302020302020302020302020302020302020300A2020202D312E383431342020202D302E3530383220202020302E30303030204F202020302020302020302020302020302020302020302020302020302020302020302020300A2020322020312020312020302020202020200A2020332020322020312020302020202020200A2020342020332020312020302020202020200A2020352020342020312020302020202020200A2020352020362020312020302020202020200A2020352020372020322020302020202020200A2020342020382020312020312020202020200A2020312020392020312020302020202020200A2020312031302020322020302020202020200A2020312031312020322020302020202020200A4D2020454E44
Contributor: Kusano M, Fukushima A, Plant Science Center, RIKEN.
InstType: EI
InstName: Pegasus III TOF-MS system, Leco; GC 6890, Agilent Technologies
IoniMethod: EI
IonPolarity: pos
Date: 2010-10-09 19:48:36+02:00
Num Peaks: 123
60 25 61 35 62 4 63 15 64 8 65 6 66 8 67 2 69 1 70 14 
71 8 72 31 73 846 74 87 75 150 76 15 77 31 78 2 79 15 80 4 
81 2 82 5 83 12 84 10 85 11 86 16 87 7 88 3 89 3 91 2 
92 1 93 2 94 1 95 1 96 4 97 2 98 15 99 5 100 55 101 10 
102 8 103 12 104 2 105 3 106 1 107 1 108 1 110 2 111 1 112 14 
113 3 114 27 115 13 116 5 117 12 118 3 119 3 120 1 121 2 122 4 
123 1 126 7 127 3 128 999 129 133 130 75 131 20 132 13 133 28 134 5 
135 3 136 4 137 37 138 4 139 4 140 2 141 5 142 2 143 1 144 4 
145 1 146 2 147 92 148 16 149 10 150 1 151 1 152 2 153 1 156 5 
157 3 158 6 159 2 160 1 161 1 163 1 172 1 173 3 174 2 175 1 
176 1 186 1 192 4 196 5 202 118 203 24 204 11 205 1 206 1 207 1 
208 311 209 44 210 28 211 7 212 1 218 14 219 2 220 3 230 1 282 4 
283 1 310 2 325 1 
