Name: L-Methionine
CAS: 63-68-3
MW: 149
Formula: C5H11NO2S
Synonym: KEGG: C00073
Synonym: CID: 3373
Synonym: MassBank: PR010035
Synonym: L-Methionine
Synonym: L-2-Amino-4methylthiobutyric acid
Structure: 310A32330A3C4341535F49443E2036332D36382D33093C4B4547475F49443E20433030303733093C4E414D453E204C2D4D657468696F6E696E65093C464F524D554C413E2043354831314E4F3253093C45584143544D4153533E203134392E303531303439323931093C415645524147454D4153533E203134392E3231323338093C534D494C45533E204E5B434040485D28434353432943284F293D4F093C434F505952494748543E2041524D2050524F4A45435420687474703A2F2F7777772E6D657461626F6C6F6D652E6A702F0A2020392020382020302020302020312020302020302020302020302020303939392056323030300A20202020342E3539383120202020312E3235303020202020302E303030302043202020302020302020302020302020302020302020302020302020302020302020302020300A20202020332E3733323120202020302E3735303020202020302E303030302043202020302020302020322020312020302020302020302020302020302020302020302020300A20202020332E373332312020202D302E3235303020202020302E303030302043202020302020302020302020322020302020302020302020302020302020302020302020300A20202020322E383636302020202D302E3735303020202020302E303030302043202020302020302020302020322020302020302020302020302020302020302020302020300A20202020322E3836363020202020312E3235303020202020302E30303030204E202020302020302020302020322020302020302020302020302020302020302020302020300A20202020322E383636302020202D312E3735303020202020302E303030302053202020302020302020302020302020302020302020302020302020302020302020302020300A20202020322E303030302020202D322E3235303020202020302E303030302043202020302020302020302020332020302020302020302020302020302020302020302020300A20202020352E3436343120202020302E3735303020202020302E30303030204F202020302020302020302020302020302020302020302020302020302020302020302020300A20202020342E3539383120202020322E3235303020202020302E30303030204F202020302020302020302020312020302020302020302020302020302020302020302020300A2020322020352020312020362020302020302020300A2020312020382020322020302020302020302020300A2020322020332020312020302020302020302020300A2020322020312020312020302020302020302020300A2020332020342020312020302020302020302020300A2020312020392020312020302020302020302020300A2020342020362020312020302020302020302020300A2020362020372020312020302020302020302020300A4D2020454E44
Contributor: Kusano M, Fukushima A, Plant Science Center, RIKEN.
InstType: EI
InstName: Pegasus III TOF-MS system, Leco; GC 6890, Agilent Technologies
IoniMethod: EI
IonPolarity: pos
Date: 2010-10-09 19:48:36+02:00
Num Peaks: 124
60 28 61 450 62 16 63 21 65 1 66 9 67 2 69 1 70 18 71 10 
72 30 73 999 74 111 75 147 76 14 77 35 78 3 79 6 80 1 82 5 
83 7 84 11 85 11 86 22 87 12 88 8 89 5 90 2 91 8 92 2 
93 2 95 1 96 3 97 2 98 16 99 4 100 105 101 24 102 22 103 29 
104 18 105 30 106 4 107 4 110 1 112 10 113 4 114 46 115 15 116 10 
117 15 118 5 119 6 120 1 121 1 126 3 127 2 128 665 129 90 130 48 
131 28 132 21 133 30 134 6 135 2 140 2 141 2 142 3 143 1 144 9 
145 2 146 6 147 155 148 26 149 14 150 2 151 2 154 1 155 1 156 3 
157 4 158 4 159 3 160 25 161 4 162 3 163 3 164 1 172 3 173 3 
174 8 175 2 176 832 177 116 178 64 179 7 180 1 186 1 188 25 189 3 
190 2 202 36 203 17 204 5 205 2 216 1 218 32 219 65 220 14 221 7 
230 4 231 1 232 13 233 2 234 1 250 35 251 8 252 5 263 3 278 3 
293 40 294 9 295 5 296 1 
