Name: DL-threo-beta-Methylaspartic acid
CAS: 6667-60-3
MW: 147
Formula: C5H9NO4
Synonym: MassBank: PR010152
Synonym: DL-threo-beta-Methylaspartic acid
Structure: 310A32340A20204143442F4C6162733132303230363134353432440A2031302020392020302020302020302020302020302020302020302020302020312056323030300A20202031302E363237382020202D362E3436313720202020302E303030302043202020302020302020302020302020302020302020302020302020302020302020302020300A20202031312E373739372020202D372E3132363720202020302E303030302043202020302020302020302020302020302020302020302020302020302020302020302020300A20202031322E393331342020202D362E3436313720202020302E303030302043202020302020302020302020302020302020302020302020302020302020302020302020300A20202031342E303833322020202D372E3132363720202020302E303030302043202020302020302020302020302020302020302020302020302020302020302020302020300A20202031352E323335312020202D362E3436313720202020302E30303030204F202020302020302020302020302020302020302020302020302020302020302020302020300A20202031342E303833322020202D382E3435363720202020302E30303030204F202020302020302020302020302020302020302020302020302020302020302020302020300A20202031322E393331342020202D352E3133313720202020302E303030302043202020302020302020302020302020302020302020302020302020302020302020302020300A20202031312E373739372020202D382E3435363720202020302E30303030204E202020302020302020302020302020302020302020302020302020302020302020302020300A20202031302E363237382020202D352E3133313720202020302E30303030204F202020302020302020302020302020302020302020302020302020302020302020302020300A20202020392E343736302020202D372E3132363820202020302E30303030204F202020302020302020302020302020302020302020302020302020302020302020302020300A2020322020312020312020302020302020302020300A2020332020322020312020302020302020302020300A2020342020332020312020302020302020302020300A2020352020342020312020302020302020302020300A2020342020362020322020302020302020302020300A2020332020372020312020302020302020302020300A2020322020382020312020302020302020302020300A2020312020392020322020302020302020302020300A2020312031302020312020302020302020302020300A4D2020454E44
Contributor: Kusano M, Fukushima A, Plant Science Center, RIKEN.
InstType: EI
InstName: Pegasus III TOF-MS system, Leco; GC 6890, Agilent Technologies
IoniMethod: EI
IonPolarity: pos
Date: 2010-10-09 19:48:36+02:00
Num Peaks: 115
60 24 61 23 62 3 63 3 66 9 67 2 69 3 70 9 71 6 72 26 
73 999 74 106 75 139 76 14 77 47 78 4 79 7 82 3 83 3 84 28 
85 13 86 21 87 6 88 2 89 3 92 1 96 1 97 2 98 13 99 5 
100 123 101 18 102 10 103 11 104 1 105 2 110 1 112 5 113 3 114 95 
115 18 116 7 117 17 118 3 119 4 126 1 128 37 129 17 130 31 131 41 
132 15 133 40 134 6 135 4 142 8 143 3 144 2 145 1 146 4 147 109 
148 18 149 17 150 2 151 1 156 6 157 4 158 4 159 2 160 1 161 1 
163 10 164 2 165 1 172 4 173 1 174 8 175 2 176 2 177 2 185 1 
186 2 187 1 188 3 189 1 190 3 191 1 202 32 203 8 204 6 205 2 
214 2 216 5 217 1 218 69 219 15 220 6 221 3 230 6 231 1 232 1 
245 1 246 240 247 54 248 23 249 3 258 2 259 1 260 1 292 3 293 1 
320 6 321 2 322 1 348 3 349 1 
