Name: L-Tyrosine
CAS: 60-18-4
MW: 181
Formula: C9H11NO3
Synonym: KEGG: C00082
Synonym: CID: 3382
Synonym: MassBank: PR010038
Synonym: L-Tyrosine
Synonym: (S)-2-Amino-3-(p-hydroxyphenyl)propionic acid
Synonym: (S)-3-(p-Hydroxyphenyl)alanine
Structure: 310A33320A3C4341535F49443E2036302D31382D34093C4B4547475F49443E20433030303832093C4E414D453E204C2D5479726F73696E65093C464F524D554C413E2043394831314E4F33093C45584143544D4153533E203138312E303733383933323233093C415645524147454D4153533E203138312E3138383538093C534D494C45533E204F632863312963636328633129435B4340485D284E2943284F293D4F093C434F505952494748543E2041524D2050524F4A45435420687474703A2F2F7777772E6D657461626F6C6F6D652E6A702F0A2031332031332020302020302020312020302020302020302020302020303939392056323030300A20202020332E3733323120202020302E3030303020202020302E303030302043202020302020302020302020302020302020302020302020302020302020302020302020300A20202020342E353938312020202D302E3530303020202020302E303030302043202020302020302020302020312020302020302020302020302020302020302020302020300A20202020342E353938312020202D312E3530303020202020302E303030302043202020302020302020302020312020302020302020302020302020302020302020302020300A20202020332E373332312020202D322E3030303020202020302E303030302043202020302020302020302020302020302020302020302020302020302020302020302020300A20202020322E383636302020202D312E3530303020202020302E303030302043202020302020302020302020312020302020302020302020302020302020302020302020300A20202020322E383636302020202D302E3530303020202020302E303030302043202020302020302020302020312020302020302020302020302020302020302020302020300A20202020332E3733323120202020312E3030303020202020302E303030302043202020302020302020302020322020302020302020302020302020302020302020302020300A20202020322E3836363020202020312E3530303020202020302E303030302043202020302020302020312020312020302020302020302020302020302020302020302020300A20202020322E3836363020202020322E3530303020202020302E303030302043202020302020302020302020302020302020302020302020302020302020302020302020300A20202020322E3030303020202020312E3030303020202020302E30303030204E202020302020302020302020322020302020302020302020302020302020302020302020300A20202020332E3733323120202020332E3030303020202020302E30303030204F202020302020302020302020302020302020302020302020302020302020302020302020300A20202020322E3030303020202020332E3030303020202020302E30303030204F202020302020302020302020312020302020302020302020302020302020302020302020300A20202020332E373332312020202D332E3030303020202020302E30303030204F202020302020302020302020312020302020302020302020302020302020302020302020300A2031312020392020322020302020302020302020300A2020392020382020312020302020302020302020300A2020382031302020312020362020302020302020300A2020312020322020312020302020302020302020300A2020322020332020322020302020302020302020300A2020332020342020312020302020302020302020300A2020342020352020322020302020302020302020300A2020352020362020312020302020302020302020300A2020362020312020322020302020302020302020300A2020372020312020312020302020302020302020300A2020392031322020312020302020302020302020300A2020382020372020312020302020302020302020300A2020342031332020312020302020302020302020300A4D2020454E44
Contributor: Kusano M, Fukushima A, Plant Science Center, RIKEN.
InstType: EI
InstName: Pegasus III TOF-MS system, Leco; GC 6890, Agilent Technologies
IoniMethod: EI
IonPolarity: pos
Date: 2010-10-09 19:48:36+02:00
Num Peaks: 125
60 5 61 8 62 1 63 3 64 1 65 4 66 3 67 1 70 4 71 3 
72 17 73 999 74 93 75 75 76 7 77 19 78 5 79 6 82 2 83 2 
84 3 85 3 86 9 87 3 88 1 89 9 90 7 91 17 92 2 93 1 
95 2 98 1 99 1 100 202 101 26 102 11 103 12 104 3 105 9 106 1 
107 2 109 1 115 8 116 3 117 11 118 6 119 6 120 1 121 2 123 1 
128 1 129 1 130 18 131 14 132 21 133 23 134 5 135 9 136 1 137 1 
144 2 145 3 146 6 147 93 148 18 149 21 150 3 151 3 158 2 159 3 
160 5 161 3 162 2 163 16 164 6 165 8 166 1 172 1 174 5 175 3 
176 6 177 6 178 1 179 53 180 12 181 4 182 1 188 1 190 3 191 2 
192 11 193 3 194 1 202 1 203 4 204 1 205 1 206 1 207 4 208 1 
209 1 217 1 218 537 219 107 220 48 221 6 222 1 223 1 248 1 250 1 
264 1 265 6 266 2 267 1 278 1 279 3 280 49 281 13 282 5 292 1 
354 11 355 5 356 2 382 5 383 2 
