Name: D-(+)-Glucosamine
CAS: 66-84-2
MW: 179
Formula: C6H13NO5
Synonym: MassBank: PR010143
Synonym: D-(+)-Glucosamine
Structure: 310A32390A20204143442F4C6162733132303230363134303832440A2031322031322020302020302020312020302020302020302020302020302020312056323030300A20202031302E383134342020202D372E3435393220202020302E303030302043202020302020302020302020302020302020302020302020302020302020302020302020300A20202031302E383134342020202D382E3738393220202020302E30303030204F202020302020302020302020302020302020302020302020302020302020302020302020300A20202020392E363632352020202D362E3739343220202020302E303030302043202020302020302020302020302020302020302020302020302020302020302020302020300A20202020392E363632352020202D392E3435343220202020302E303030302043202020302020302020302020302020302020302020302020302020302020302020302020300A20202020382E353130372020202D372E3435393220202020302E303030302043202020302020302020302020302020302020302020302020302020302020302020302020300A20202020382E353130372020202D382E3738393220202020302E303030302043202020302020302020302020302020302020302020302020302020302020302020302020300A20202031312E393636322020202D362E3739343220202020302E30303030204F202020302020302020302020302020302020302020302020302020302020302020302020300A20202020372E333538392020202D362E3739343220202020302E30303030204F202020302020302020302020302020302020302020302020302020302020302020302020300A20202020372E333538392020202D392E3435343220202020302E30303030204F202020302020302020302020302020302020302020302020302020302020302020302020300A20202020392E363632342020202D352E3436343220202020302E30303030204E202020302020302020302020302020302020302020302020302020302020302020302020300A20202020392E3636323420202D31302E3738343220202020302E303030302043202020302020302020302020302020302020302020302020302020302020302020302020300A20202031302E3831343220202D31312E3434393320202020302E30303030204F202020302020302020302020302020302020302020302020302020302020302020302020300A2020322020312020312020302020302020302020300A2020332020312020312020302020302020302020300A2020342020322020312020302020302020302020300A2020352020332020312020302020302020302020300A2020362020342020312020302020302020302020300A2020362020352020312020302020302020302020300A2020312020372020312020362020302020302020300A2020352020382020312020362020302020302020300A2020362020392020312020312020302020302020300A2020332031302020312020312020302020302020300A2020342031312020312020362020302020302020300A2031312031322020312020302020302020302020300A4D2020454E44
Contributor: Kusano M, Fukushima A, Plant Science Center, RIKEN.
InstType: EI
InstName: Pegasus III TOF-MS system, Leco; GC 6890, Agilent Technologies
IoniMethod: EI
IonPolarity: pos
Date: 2010-10-09 19:48:36+02:00
Num Peaks: 162
60 8 61 7 66 4 67 2 69 2 70 4 71 3 72 17 73 999 74 87 
75 76 76 6 77 8 78 1 79 2 80 1 81 2 82 2 83 12 84 12 
85 4 86 11 87 7 88 5 89 61 90 5 91 2 96 1 97 1 98 2 
99 6 100 25 101 26 102 15 103 89 104 9 105 10 106 1 110 1 111 2 
112 2 113 16 114 4 115 6 116 7 117 66 118 8 119 6 125 1 126 2 
127 7 128 13 129 99 130 18 131 25 132 7 133 32 134 4 135 2 137 1 
140 1 141 7 142 7 143 11 144 12 145 3 146 3 147 188 148 30 149 18 
150 2 151 1 152 1 153 1 154 1 155 1 156 1 157 51 158 9 159 344 
160 39 161 13 162 2 163 3 165 1 168 5 169 1 170 1 171 2 172 3 
173 2 174 1 175 2 177 1 185 1 186 1 187 1 188 2 189 10 190 4 
191 4 192 1 195 1 199 1 200 2 201 11 202 3 203 9 204 19 205 120 
206 24 207 11 208 1 209 1 213 1 214 2 215 4 216 8 217 35 218 8 
219 3 221 2 227 2 228 1 229 17 230 5 231 4 232 6 233 2 234 1 
240 2 241 1 242 2 243 2 244 2 245 1 258 1 261 2 267 1 273 7 
274 1 277 2 278 1 290 1 291 4 292 1 303 2 304 4 305 3 306 1 
307 2 318 1 319 75 320 22 321 11 322 2 332 1 357 1 447 1 537 3 
538 2 539 1 
