Name: Indole-3-acetic acid
CAS: 87-51-4
MW: 175
Formula: C10H9NO2
Synonym: KEGG: C00954
Synonym: CID: 4205
Synonym: MassBank: PR010197
Synonym: Indole-3-acetic acid
Synonym: Indole-3-acetate
Synonym: Indoleacetate
Synonym: Indoleacetic acid
Structure: 310A33330A3C4341535F49443E2038372D35312D34093C4B4547475F49443E20433030393534093C4E414D453E20496E646F6C652D332D61636574617465093C464F524D554C413E2043313048394E4F32093C45584143544D4153533E203137352E303633333238353337093C415645524147454D4153533E203137352E313834093C534D494C45533E204F43283D4F294363286331296328633229632863636332296E31093C434F505952494748543E2041524D2050524F4A45435420687474703A2F2F7777772E6D657461626F6C6F6D652E6A702F0A2031332031342020302020302020302020302020302020302020302020303939392056323030300A20202020332E3935363320202020312E3736383520202020302E30303030204E202020302020302020302020312020302020302020302020302020302020302020302020300A20202020332E3336383520202020302E3935393520202020302E303030302043202020302020302020302020312020302020302020302020302020302020302020302020300A20202020332E3935363320202020302E3135303520202020302E303030302043202020302020302020302020302020302020302020302020302020302020302020302020300A20202020352E373733342020202D302E3034303520202020302E303030302043202020302020302020302020312020302020302020302020302020302020302020302020300A20202020362E3633393420202020302E3435393520202020302E303030302043202020302020302020302020312020302020302020302020302020302020302020302020300A20202020362E3633393420202020312E3435393520202020302E303030302043202020302020302020302020312020302020302020302020302020302020302020302020300A20202020352E3737333420202020312E3935393520202020302E303030302043202020302020302020302020312020302020302020302020302020302020302020302020300A20202020342E3930373420202020312E3435393520202020302E303030302043202020302020302020302020302020302020302020302020302020302020302020302020300A20202020342E3930373420202020302E3435393520202020302E303030302043202020302020302020302020302020302020302020302020302020302020302020302020300A20202020332E363437332020202D302E3830303620202020302E303030302043202020302020302020302020322020302020302020302020302020302020302020302020300A20202020322E363639312020202D312E3030383520202020302E303030302043202020302020302020302020302020302020302020302020302020302020302020302020300A20202020322E303030302020202D302E3236353320202020302E30303030204F202020302020302020302020312020302020302020302020302020302020302020302020300A20202020322E333630312020202D312E3935393520202020302E30303030204F202020302020302020302020302020302020302020302020302020302020302020302020300A2020362020372020322020302020302020302020300A2020362020352020312020302020302020302020300A2020352020342020322020302020302020302020300A2020342020392020312020302020302020302020300A2020382020372020312020302020302020302020300A2020382020392020322020302020302020302020300A2020332020322020322020302020302020302020300A2020322020312020312020302020302020302020300A2020312020382020312020302020302020302020300A2020392020332020312020302020302020302020300A2020332031302020312020302020302020302020300A2031312031322020312020302020302020302020300A2031312031332020322020302020302020302020300A2031302031312020312020302020302020302020300A4D2020454E44
Contributor: Kusano M, Fukushima A, Plant Science Center, RIKEN.
InstType: EI
InstName: Pegasus III TOF-MS system, Leco; GC 6890, Agilent Technologies
IoniMethod: EI
IonPolarity: pos
Date: 2010-10-09 19:48:36+02:00
Num Peaks: 182
60 16 61 46 62 18 63 39 64 10 65 22 66 1 70 4 71 4 72 13 
73 648 74 103 75 270 76 87 77 228 78 29 79 17 83 1 84 3 85 3 
86 3 87 7 88 4 89 13 90 3 91 5 92 1 93 1 94 2 95 1 
97 2 98 4 99 3 100 4 101 43 102 139 103 131 104 17 105 2 106 1 
107 1 111 1 112 1 113 1 114 3 115 7 116 23 117 12 118 2 119 1 
120 1 121 1 127 4 128 83 129 150 130 999 131 106 132 9 133 1 134 2 
136 1 139 1 141 2 142 2 143 4 144 11 145 6 146 3 150 1 153 1 
154 1 155 1 156 4 157 18 158 4 159 2 160 6 161 2 162 2 163 1 
165 1 167 1 169 1 170 2 171 1 172 5 173 2 174 2 175 1 176 6 
177 1 178 1 179 1 180 1 181 1 183 1 184 2 185 2 186 19 187 7 
188 44 189 8 190 4 191 1 193 1 196 1 197 1 199 1 200 1 201 1 
202 15 203 38 204 25 205 5 206 1 208 1 211 1 212 1 213 1 214 1 
216 1 217 1 218 1 220 1 231 1 232 41 233 7 234 1 235 1 243 1 
246 1 247 110 248 23 249 7 250 1 254 1 268 1 280 1 282 1 287 1 
293 1 298 1 303 1 308 1 313 1 316 1 327 1 334 1 335 1 339 1 
347 1 354 1 375 1 376 1 385 1 392 1 445 1 450 1 468 1 471 1 
505 1 522 1 538 1 545 1 550 1 556 1 559 1 561 1 571 1 574 1 
579 1 595 1 598 1 599 1 635 1 651 1 654 1 664 1 665 1 699 1 
750 1 758 1 
