Name: L-Pyroglutamic acid
CAS: 98-79-3
MW: 129
Formula: C5H7NO3
Synonym: KEGG: C01879
Synonym: CID: 4992
Synonym: MassBank: PR010068
Synonym: L-Pyroglutamic acid
Synonym: 5-Pyrrolidone-2-carboxylic acid
Synonym: Pyroglutamate
Synonym: Pyroglutamic acid
Synonym: 5-Oxoproline
Structure: 310A32330A39382D37392D332E6D6F6C0A20204368656D447261773132303530363139303332440A2020392020392020302020302020302020302020302020302020302020303939392056323030300A2020202D302E3937343020202020302E3133373220202020302E303030302043202020302020302020302020302020302020302020302020302020302020302020302020300A2020202D302E333036312020202D302E3334373120202020302E30303030204E202020302020302020302020302020302020302020302020302020302020302020302020300A2020202D302E3731393720202020302E3932323120202020302E303030302043202020302020302020302020302020302020302020302020302020302020302020302020300A20202020302E3336303920202020302E3133383420202020302E303030302043202020302020302020302020302020302020302020302020302020302020302020302020300A20202020302E3130353420202020302E3932323820202020302E303030302043202020302020302020302020302020302020302020302020302020302020302020302020300A2020202D312E373538342020202D302E3131383420202020302E30303030204F202020302020302020302020302020302020302020302020302020302020302020302020300A20202020312E313435372020202D302E3131353920202020302E303030302043202020302020302020302020302020302020302020302020302020302020302020302020300A20202020312E333137392020202D302E3932323820202020302E30303030204F202020302020302020302020302020302020302020302020302020302020302020302020300A20202020312E3735383420202020302E3433363620202020302E30303030204F202020302020302020302020302020302020302020302020302020302020302020302020300A2020322020312020312020302020202020200A2020332020312020312020302020202020200A2020342020322020312020312020202020200A2020352020332020312020302020202020200A2020352020342020312020302020202020200A2020312020362020322020302020202020200A2020342020372020312020302020202020200A2020372020382020322020302020202020200A2020372020392020312020302020202020200A4D2020454E44
Contributor: Kusano M, Fukushima A, Plant Science Center, RIKEN.
InstType: EI
InstName: Pegasus III TOF-MS system, Leco; GC 6890, Agilent Technologies
IoniMethod: EI
IonPolarity: pos
Date: 2010-10-09 19:48:36+02:00
Num Peaks: 95
60 9 61 17 62 1 63 1 65 1 66 24 67 13 69 2 70 17 71 10 
72 39 73 999 74 90 75 89 76 8 77 20 78 3 79 18 80 5 81 1 
82 4 83 5 84 23 85 15 86 18 87 6 88 1 89 1 93 1 94 3 
95 1 96 1 97 2 98 5 99 7 100 13 101 4 102 3 103 5 104 1 
105 2 108 2 110 3 111 1 112 17 113 6 114 8 115 6 116 2 117 9 
118 1 119 2 122 3 124 1 126 2 127 2 128 2 129 4 130 1 131 15 
132 4 133 28 134 4 135 2 139 1 140 20 141 6 142 4 143 1 147 159 
148 25 149 14 150 1 154 7 155 5 156 950 157 125 158 42 159 3 168 1 
170 1 172 1 174 1 186 1 190 1 214 8 215 2 228 2 230 59 231 14 
232 5 258 55 259 12 260 5 273 1 
