Name: Spermine
CAS: 71-44-3
MW: 202
Formula: C10H26N4
Synonym: KEGG: C00750
Synonym: CID: 4012
Synonym: MassBank: PR010235
Synonym: Spermine
Synonym: N,N'-Bis(3-aminopropyl)-1,4-butanediamine
Structure: 310A33330A3C4341535F49443E2037312D34342D33093C4B4547475F49443E20433030373530093C4E414D453E20537065726D696E65093C464F524D554C413E204331304832364E34093C45584143544D4153533E203230322E323135373436383532093C415645524147454D4153533E203230322E3334303430303030303030303032093C534D494C45533E204E4343434E434343434E4343434E093C434F505952494748543E2041524D2050524F4A45435420687474703A2F2F7777772E6D657461626F6C6F6D652E6A702F0A2031342031332020302020302020302020302020302020302020302020303939392056323030300A20202020352E3436343120202020312E3030303020202020302E303030302043202020302020302020302020322020302020302020302020302020302020302020302020300A20202020342E3539383120202020302E3530303020202020302E303030302043202020302020302020302020322020302020302020302020302020302020302020302020300A20202020342E353938312020202D302E3530303020202020302E303030302043202020302020302020302020322020302020302020302020302020302020302020302020300A20202020332E373332312020202D312E3030303020202020302E303030302043202020302020302020302020322020302020302020302020302020302020302020302020300A20202020352E3436343120202020322E3030303020202020302E30303030204E202020302020302020302020312020302020302020302020302020302020302020302020300A20202020362E3333303120202020322E3530303020202020302E303030302043202020302020302020302020322020302020302020302020302020302020302020302020300A20202020362E3333303120202020332E3530303020202020302E303030302043202020302020302020302020322020302020302020302020302020302020302020302020300A20202020372E3139363220202020342E3030303020202020302E303030302043202020302020302020302020322020302020302020302020302020302020302020302020300A20202020372E3139363220202020352E3030303020202020302E30303030204E202020302020302020302020322020302020302020302020302020302020302020302020300A20202020332E373332312020202D322E3030303020202020302E30303030204E202020302020302020302020312020302020302020302020302020302020302020302020300A20202020322E383636302020202D322E3530303020202020302E303030302043202020302020302020302020322020302020302020302020302020302020302020302020300A20202020322E383636302020202D332E3530303020202020302E303030302043202020302020302020302020322020302020302020302020302020302020302020302020300A20202020322E303030302020202D342E3030303020202020302E303030302043202020302020302020302020322020302020302020302020302020302020302020302020300A20202020322E303030302020202D352E3030303020202020302E30303030204E202020302020302020302020322020302020302020302020302020302020302020302020300A2031302020342020312020302020302020302020300A2020342020332020312020302020302020302020300A2020332020322020312020302020302020302020300A2020322020312020312020302020302020302020300A2020312020352020312020302020302020302020300A2020352020362020312020302020302020302020300A2020362020372020312020302020302020302020300A2020372020382020312020302020302020302020300A2020382020392020312020302020302020302020300A2031302031312020312020302020302020302020300A2031312031322020312020302020302020302020300A2031322031332020312020302020302020302020300A2031332031342020312020302020302020302020300A4D2020454E44
Contributor: Kusano M, Fukushima A, Plant Science Center, RIKEN.
InstType: EI
InstName: Pegasus III TOF-MS system, Leco; GC 6890, Agilent Technologies
IoniMethod: EI
IonPolarity: pos
Date: 2010-10-09 19:48:36+02:00
Num Peaks: 234
60 21 61 6 62 1 65 1 67 5 68 3 69 4 70 71 71 15 72 32 
73 999 74 98 75 18 76 2 81 2 82 23 83 16 84 467 85 45 86 349 
87 38 88 30 89 2 90 2 92 2 94 3 95 2 96 17 97 7 98 94 
99 17 100 180 101 30 102 76 103 11 104 4 105 1 107 2 108 3 109 3 
110 26 111 17 112 58 113 14 114 40 115 65 116 375 117 53 118 21 119 2 
120 2 122 1 123 1 124 3 125 4 126 7 127 4 128 52 129 57 130 84 
131 21 132 12 134 1 135 1 136 1 138 1 139 3 140 10 141 6 142 140 
143 42 144 424 145 61 146 54 147 3 148 3 151 2 152 2 154 9 155 6 
156 42 157 44 158 22 159 5 160 99 161 18 162 11 163 2 164 2 165 1 
167 1 168 6 169 3 170 31 171 19 172 115 173 23 174 230 175 44 176 22 
177 4 180 1 181 1 182 1 183 4 184 5 185 7 186 29 187 13 188 20 
189 5 190 3 192 1 195 2 197 3 198 1 199 3 200 4 201 42 202 13 
203 5 204 1 211 3 212 1 213 3 214 1 215 7 216 2 217 1 218 1 
219 1 220 1 222 1 225 1 227 4 228 1 229 3 230 1 231 3 232 1 
233 1 236 1 238 1 240 1 241 2 242 1 243 2 244 7 245 3 255 2 
256 1 257 17 258 4 259 2 270 1 271 7 272 2 273 3 274 1 275 1 
280 1 282 1 284 1 287 1 290 1 292 1 293 1 301 1 302 1 304 1 
307 1 313 1 328 1 329 3 330 2 331 1 333 1 334 1 336 1 339 1 
345 1 352 1 355 1 362 1 372 2 373 1 378 1 382 1 383 1 386 1 
387 1 388 1 389 1 390 1 392 1 393 1 394 1 397 1 398 1 399 1 
400 1 404 1 435 1 453 1 463 1 465 1 468 1 472 1 487 1 540 1 
543 1 546 1 547 2 548 1 549 1 574 1 575 1 605 1 636 1 639 1 
656 1 657 1 662 1 664 1 671 1 680 1 681 1 687 1 688 1 705 1 
724 1 728 1 729 1 739 1 
