Name: 3-(2-Aminoethyl)indole [Tryptamine]
CAS: 61-54-1
MW: 160
Formula: C10H12N2
Synonym: KEGG: C00398
Synonym: CID: 3688
Synonym: MassBank: PR010102
Synonym: 3-(2-Aminoethyl)indole [Tryptamine]
Synonym: Tryptamine
Synonym: 3-(2-Aminoethyl)indole
Structure: 310A33310A3C4341535F49443E2036312D35342D31093C4B4547475F49443E20433030333938093C4E414D453E205472797074616D696E65093C464F524D554C413E204331304831324E32093C45584143544D4153533E203136302E313030303438333934093C415645524147454D4153533E203136302E3231353736093C534D494C45533E204E434363286331296328633229632863636332296E31093C434F505952494748543E2041524D2050524F4A45435420687474703A2F2F7777772E6D657461626F6C6F6D652E6A702F0A2031322031332020302020302020302020302020302020302020302020303939392056323030300A20202020332E3539363220202020312E3736383520202020302E30303030204E202020302020302020302020312020302020302020302020302020302020302020302020300A20202020332E3030383420202020302E3935393520202020302E303030302043202020302020302020302020312020302020302020302020302020302020302020302020300A20202020332E3539363220202020302E3135303520202020302E303030302043202020302020302020302020302020302020302020302020302020302020302020302020300A20202020352E343133332020202D302E3034303520202020302E303030302043202020302020302020302020312020302020302020302020302020302020302020302020300A20202020362E3237393320202020302E3435393520202020302E303030302043202020302020302020302020312020302020302020302020302020302020302020302020300A20202020362E3237393320202020312E3435393520202020302E303030302043202020302020302020302020312020302020302020302020302020302020302020302020300A20202020352E3431333320202020312E3935393520202020302E303030302043202020302020302020302020312020302020302020302020302020302020302020302020300A20202020342E3534373220202020312E3435393520202020302E303030302043202020302020302020302020302020302020302020302020302020302020302020302020300A20202020342E3534373220202020302E3435393520202020302E303030302043202020302020302020302020302020302020302020302020302020302020302020302020300A20202020332E323837322020202D302E3830303620202020302E303030302043202020302020302020302020322020302020302020302020302020302020302020302020300A20202020322E333039302020202D312E3030383520202020302E303030302043202020302020302020302020322020302020302020302020302020302020302020302020300A20202020322E303030302020202D312E3935393520202020302E30303030204E202020302020302020302020322020302020302020302020302020302020302020302020300A2020352020342020322020302020302020302020300A2020352020362020312020302020302020302020300A2020362020372020322020302020302020302020300A2020372020382020312020302020302020302020300A2020392020342020312020302020302020302020300A2020382020392020322020302020302020302020300A2020332020322020322020302020302020302020300A2020322020312020312020302020302020302020300A2020312020382020312020302020302020302020300A2020392020332020312020302020302020302020300A2020332031302020312020302020302020302020300A2031302031312020312020302020302020302020300A2031312031322020312020302020302020302020300A4D2020454E44
Contributor: Kusano M, Fukushima A, Plant Science Center, RIKEN.
InstType: EI
InstName: Pegasus III TOF-MS system, Leco; GC 6890, Agilent Technologies
IoniMethod: EI
IonPolarity: pos
Date: 2010-10-09 19:48:36+02:00
Num Peaks: 108
60 22 61 10 62 3 63 10 64 2 65 6 66 1 67 1 69 1 70 12 
71 9 72 24 73 987 74 93 75 33 76 15 77 88 78 9 79 2 83 2 
84 6 85 9 86 501 87 46 88 20 89 11 90 6 91 6 92 1 93 1 
98 1 99 5 100 223 101 43 102 58 103 60 104 8 105 2 113 6 114 7 
115 34 116 27 117 47 118 8 119 4 120 2 127 4 128 23 129 17 130 215 
131 45 132 12 133 3 134 6 135 1 136 1 137 34 138 3 140 1 141 1 
142 8 143 20 144 27 145 10 146 35 147 7 148 5 149 1 154 1 155 1 
156 3 157 1 158 12 159 4 160 15 161 2 162 1 170 3 171 1 172 16 
173 5 174 999 175 188 176 90 177 10 178 1 184 4 185 1 186 6 187 2 
188 20 189 4 190 2 199 3 200 3 201 38 202 8 203 2 214 3 215 29 
216 6 217 1 287 2 289 32 290 8 291 3 304 3 305 1 
