Name: D-(+)-Mannose
CAS: 3458-28-4
MW: 180
Formula: C6H12O6
Synonym: KEGG: C00159
Synonym: CID: 3459
Synonym: MassBank: PR010046
Synonym: D-(+)-Mannose
Synonym: D-Mannose
Synonym: Seminose
Synonym: Mannose
Synonym: Carubinose
Structure: 310A33300A3C4341535F49443E20333435382D32382D34093C4B4547475F49443E20433030313539093C4E414D453E20442D4D616E6E6F7365093C464F524D554C413E2043364831324F36093C45584143544D4153533E203138302E303633333838313136093C415645524147454D4153533E203138302E3135353838093C534D494C45533E204F435B434040485D284F31295B434040485D284F295B4340485D284F295B4340485D284F2943284F2931093C434F505952494748543E2041524D2050524F4A45435420687474703A2F2F7777772E6D657461626F6C6F6D652E6A702F0A2031322031322020302020302020312020302020302020302020302020303939392056323030300A20202020332E3733323120202020312E3030303020202020302E303030302043202020302020302020332020312020302020302020302020302020302020302020302020300A20202020322E3836363020202020302E3530303020202020302E303030302043202020302020302020322020312020302020302020302020302020302020302020302020300A20202020322E383636302020202D302E3530303020202020302E303030302043202020302020302020322020312020302020302020302020302020302020302020302020300A20202020332E373332312020202D312E3030303020202020302E303030302043202020302020302020312020312020302020302020302020302020302020302020302020300A20202020342E353938312020202D302E3530303020202020302E303030302043202020302020302020312020312020302020302020302020302020302020302020302020300A20202020352E343634312020202D312E3030303020202020302E303030302043202020302020302020302020322020302020302020302020302020302020302020302020300A20202020332E3733323120202020322E3030303020202020302E30303030204F202020302020302020302020312020302020302020302020302020302020302020302020300A20202020322E3030303020202020312E3030303020202020302E30303030204F202020302020302020302020312020302020302020302020302020302020302020302020300A20202020322E303030302020202D312E3030303020202020302E30303030204F202020302020302020302020312020302020302020302020302020302020302020302020300A20202020332E373332312020202D322E3030303020202020302E30303030204F202020302020302020302020312020302020302020302020302020302020302020302020300A20202020342E3539383120202020302E3530303020202020302E30303030204F202020302020302020302020302020302020302020302020302020302020302020302020300A20202020362E333330312020202D302E3530303020202020302E30303030204F202020302020302020302020312020302020302020302020302020302020302020302020300A2031322020362020312020302020302020302020300A2020352031312020312020362020302020302020300A2031312020312020312020302020302020302020300A2020312020322020312020302020302020302020300A2020322020332020312020302020302020302020300A2020332020342020312020302020302020302020300A2020342020352020312020302020302020302020300A2020352020362020312020302020302020302020300A2020322020382020312020362020302020302020300A2020332020392020312020362020302020302020300A2020342031302020312020312020302020302020300A2020312020372020312020342020302020302020300A4D2020454E44
Contributor: Kusano M, Fukushima A, Plant Science Center, RIKEN.
InstType: EI
InstName: Pegasus III TOF-MS system, Leco; GC 6890, Agilent Technologies
IoniMethod: EI
IonPolarity: pos
Date: 2010-10-09 19:48:36+02:00
Num Peaks: 148
60 5 61 6 66 5 67 4 69 1 70 4 71 3 72 17 73 999 74 87 
75 56 76 4 77 4 81 1 82 6 83 15 84 3 85 3 86 5 87 5 
88 4 89 58 90 5 91 2 97 2 98 1 99 4 100 13 101 16 102 10 
103 118 104 12 105 27 106 2 107 1 110 1 111 1 112 2 113 4 114 11 
115 7 116 6 117 82 118 8 119 8 120 1 126 1 127 3 128 4 129 101 
130 18 131 24 132 4 133 54 134 7 135 4 141 1 142 4 143 11 144 2 
145 6 146 1 147 255 148 39 149 24 150 2 151 1 156 1 157 71 158 12 
159 5 160 118 161 21 162 6 163 7 164 1 168 1 169 1 170 1 172 2 
173 3 174 1 175 3 176 1 177 3 186 2 187 1 189 18 190 5 191 11 
192 2 193 1 200 1 201 5 202 2 203 3 204 20 205 170 206 33 207 17 
208 2 210 2 215 2 216 6 217 71 218 15 219 7 220 1 221 4 222 1 
228 1 229 21 230 6 231 8 232 3 233 5 234 3 235 1 243 1 244 2 
245 1 246 2 247 1 256 1 260 1 262 2 269 1 270 1 274 3 275 1 
277 4 278 1 291 6 292 2 293 1 300 1 305 3 306 1 307 3 308 1 
318 2 319 132 320 40 321 20 322 4 323 1 364 2 365 1 
