Name: Psoralen
CAS: 66-97-7
MW: 186
Formula: C11H6O3
Synonym: KEGG: C09305
Synonym: CID: 11496
Synonym: MassBank: PR010228
Synonym: Psoralen
Synonym: Ficusin
Structure: 310A33350A20204143442F4C6162733132303230363136343133440A2031342031362020302020302020302020302020302020302020302020302020312056323030300A20202031302E373730312020202D372E3930373920202020302E303030302043202020302020302020302020302020302020302020302020302020302020302020302020300A20202031302E373730312020202D392E3233373920202020302E303030302043202020302020302020302020302020302020302020302020302020302020302020302020300A20202031312E393232302020202D372E3234323920202020302E303030302043202020302020302020302020302020302020302020302020302020302020302020302020300A20202031312E393232302020202D392E3930323920202020302E303030302043202020302020302020302020302020302020302020302020302020302020302020302020300A20202031332E303733382020202D372E3930373920202020302E303030302043202020302020302020302020302020302020302020302020302020302020302020302020300A20202031332E303733382020202D392E3233373920202020302E303030302043202020302020302020302020302020302020302020302020302020302020302020302020300A20202031342E333338362020202D372E3439363920202020302E30303030204F202020302020302020302020302020302020302020302020302020302020302020302020300A20202031352E313230342020202D382E3537323920202020302E303030302043202020302020302020302020302020302020302020302020302020302020302020302020300A20202031342E333338382020202D392E3634383920202020302E303030302043202020302020302020302020302020302020302020302020302020302020302020302020300A20202020392E363138332020202D372E323433302020202D302E30303030204F202020302020302020302020302020302020302020302020302020302020302020302020300A20202020382E343636362020202D372E393038302020202D302E303030302043202020302020302020302020302020302020302020302020302020302020302020302020300A20202020392E363138342020202D392E393032392020202D302E303030302043202020302020302020302020302020302020302020302020302020302020302020302020300A20202020382E343636362020202D392E323337392020202D302E303030302043202020302020302020302020302020302020302020302020302020302020302020302020300A20202020372E333134372020202D372E323433312020202D302E30303030204F202020302020302020302020302020302020302020302020302020302020302020302020300A2020332020312020322020302020302020302020300A2020342020322020322020302020302020302020300A2020352020332020312020302020302020302020300A2020362020342020312020302020302020302020300A2020362020352020322020302020302020302020300A2020372020352020312020302020302020302020300A2020382020372020312020302020302020302020300A2020392020362020312020302020302020302020300A2020392020382020322020302020302020302020300A2031302020312020312020302020302020302020300A2020322020312020312020302020302020302020300A2031312031302020312020302020302020302020300A2031322020322020312020302020302020302020300A2031332031312020312020302020302020302020300A2031332031322020322020302020302020302020300A2031312031342020322020302020302020302020300A4D2020454E44
Contributor: Kusano M, Fukushima A, Plant Science Center, RIKEN.
InstType: EI
InstName: Pegasus III TOF-MS system, Leco; GC 6890, Agilent Technologies
IoniMethod: EI
IonPolarity: pos
Date: 2010-10-09 19:48:36+02:00
Num Peaks: 79
60 24 61 169 62 259 63 341 64 32 65 66 66 18 67 2 68 1 69 57 
70 4 71 1 72 6 73 60 74 355 75 324 76 460 77 74 78 21 79 176 
80 8 84 17 85 58 86 90 87 94 88 20 89 20 90 5 91 2 92 3 
93 40 94 1 97 11 98 60 99 21 100 16 101 136 102 908 103 86 104 29 
105 3 108 1 109 3 110 5 111 2 112 1 113 9 114 2 115 1 116 2 
117 4 118 1 119 1 120 1 128 2 129 158 130 408 131 43 132 8 141 2 
142 1 143 1 144 1 145 2 146 1 157 17 158 999 159 117 160 12 161 1 
171 1 174 1 175 1 176 1 185 3 186 762 187 95 188 11 189 1 
