Name: 3-(2-Aminoethyl)indole [Tryptamine]
CAS: 61-54-1
MW: 160
Formula: C10H12N2
Synonym: KEGG: C00398
Synonym: CID: 3688
Synonym: MassBank: PR010103
Synonym: 3-(2-Aminoethyl)indole [Tryptamine]
Synonym: Tryptamine
Synonym: 3-(2-Aminoethyl)indole
Structure: 310A33310A3C4341535F49443E2036312D35342D31093C4B4547475F49443E20433030333938093C4E414D453E205472797074616D696E65093C464F524D554C413E204331304831324E32093C45584143544D4153533E203136302E313030303438333934093C415645524147454D4153533E203136302E3231353736093C534D494C45533E204E434363286331296328633229632863636332296E31093C434F505952494748543E2041524D2050524F4A45435420687474703A2F2F7777772E6D657461626F6C6F6D652E6A702F0A2031322031332020302020302020302020302020302020302020302020303939392056323030300A20202020332E3539363220202020312E3736383520202020302E30303030204E202020302020302020302020312020302020302020302020302020302020302020302020300A20202020332E3030383420202020302E3935393520202020302E303030302043202020302020302020302020312020302020302020302020302020302020302020302020300A20202020332E3539363220202020302E3135303520202020302E303030302043202020302020302020302020302020302020302020302020302020302020302020302020300A20202020352E343133332020202D302E3034303520202020302E303030302043202020302020302020302020312020302020302020302020302020302020302020302020300A20202020362E3237393320202020302E3435393520202020302E303030302043202020302020302020302020312020302020302020302020302020302020302020302020300A20202020362E3237393320202020312E3435393520202020302E303030302043202020302020302020302020312020302020302020302020302020302020302020302020300A20202020352E3431333320202020312E3935393520202020302E303030302043202020302020302020302020312020302020302020302020302020302020302020302020300A20202020342E3534373220202020312E3435393520202020302E303030302043202020302020302020302020302020302020302020302020302020302020302020302020300A20202020342E3534373220202020302E3435393520202020302E303030302043202020302020302020302020302020302020302020302020302020302020302020302020300A20202020332E323837322020202D302E3830303620202020302E303030302043202020302020302020302020322020302020302020302020302020302020302020302020300A20202020322E333039302020202D312E3030383520202020302E303030302043202020302020302020302020322020302020302020302020302020302020302020302020300A20202020322E303030302020202D312E3935393520202020302E30303030204E202020302020302020302020322020302020302020302020302020302020302020302020300A2020352020342020322020302020302020302020300A2020352020362020312020302020302020302020300A2020362020372020322020302020302020302020300A2020372020382020312020302020302020302020300A2020392020342020312020302020302020302020300A2020382020392020322020302020302020302020300A2020332020322020322020302020302020302020300A2020322020312020312020302020302020302020300A2020312020382020312020302020302020302020300A2020392020332020312020302020302020302020300A2020332031302020312020302020302020302020300A2031302031312020312020302020302020302020300A2031312031322020312020302020302020302020300A4D2020454E44
Contributor: Kusano M, Fukushima A, Plant Science Center, RIKEN.
InstType: EI
InstName: Pegasus III TOF-MS system, Leco; GC 6890, Agilent Technologies
IoniMethod: EI
IonPolarity: pos
Date: 2010-10-09 19:48:36+02:00
Num Peaks: 98
60 11 61 4 63 1 65 1 67 1 70 7 71 5 72 16 73 999 74 85 
75 27 76 3 77 6 78 1 79 1 83 1 84 5 85 4 86 220 87 21 
88 8 89 2 91 1 93 1 99 2 100 102 101 18 102 17 103 5 104 1 
105 2 113 2 114 2 115 9 116 12 117 20 118 4 119 3 120 1 128 2 
129 6 130 42 131 17 132 6 133 2 134 1 142 1 143 4 144 11 145 14 
146 11 147 2 148 1 156 3 157 1 158 9 159 3 160 5 161 1 169 1 
170 5 171 1 172 14 173 13 174 886 175 164 176 78 177 9 178 1 184 4 
185 1 186 8 187 3 188 3 198 1 199 3 200 7 201 1 202 31 203 8 
204 2 213 1 214 3 215 3 216 2 244 1 246 2 258 1 273 23 274 6 
275 2 287 4 288 1 361 10 362 3 363 1 376 5 377 2 
