Name: Glycylglycine
CAS: 556-50-3
MW: 132
Formula: C4H8N2O3
Synonym: KEGG: C02037
Synonym: CID: 5129
Synonym: MassBank: PR010161
Synonym: Glycylglycine
Structure: 310A32330A3C4341535F49443E203535362D35302D33093C4B4547475F49443E20433032303337093C4E414D453E20476C7963796C676C7963696E093C464F524D554C413E20433448384E324F33093C45584143544D4153533E203133322E303533343932313332093C415645524147454D4153533E203133322E313138093C534D494C45533E204E4343283D4F294E4343284F293D4F093C434F505952494748543E2041524D2050524F4A45435420687474703A2F2F7777772E6D657461626F6C6F6D652E6A702F0A2020392020382020302020302020302020302020302020302020302020303939392056323030300A20202020342E3539383120202020312E3235303020202020302E303030302043202020302020302020302020302020302020302020302020302020302020302020302020300A20202020332E3733323120202020302E3735303020202020302E303030302043202020302020302020302020322020302020302020302020302020302020302020302020300A20202020332E373332312020202D302E3235303020202020302E30303030204E202020302020302020302020312020302020302020302020302020302020302020302020300A20202020322E383636302020202D302E3735303020202020302E303030302043202020302020302020302020302020302020302020302020302020302020302020302020300A20202020322E383636302020202D312E3735303020202020302E303030302043202020302020302020302020322020302020302020302020302020302020302020302020300A20202020322E303030302020202D322E3235303020202020302E30303030204E202020302020302020302020322020302020302020302020302020302020302020302020300A20202020352E3436343120202020302E3735303020202020302E30303030204F202020302020302020302020302020302020302020302020302020302020302020302020300A20202020342E3539383120202020322E3235303020202020302E30303030204F202020302020302020302020312020302020302020302020302020302020302020302020300A20202020322E303030302020202D302E3235303020202020302E30303030204F202020302020302020302020302020302020302020302020302020302020302020302020300A2020362020352020312020302020302020302020300A2020352020342020312020302020302020302020300A2020342020392020322020302020302020302020300A2020332020322020312020302020302020302020300A2020322020312020312020302020302020302020300A2020312020372020322020302020302020302020300A2020342020332020312020302020302020302020300A2020312020382020312020302020302020302020300A4D2020454E44
Contributor: Kusano M, Fukushima A, Plant Science Center, RIKEN.
InstType: EI
InstName: Pegasus III TOF-MS system, Leco; GC 6890, Agilent Technologies
IoniMethod: EI
IonPolarity: pos
Date: 2010-10-09 19:48:36+02:00
Num Peaks: 112
60 20 61 26 62 2 63 2 66 4 67 1 69 10 70 16 71 9 72 49 
73 999 74 99 75 139 76 13 77 26 78 4 79 22 80 1 83 2 84 7 
85 7 86 256 87 32 88 21 89 4 90 1 92 1 93 1 97 4 98 4 
99 6 100 122 101 30 102 56 103 14 104 4 105 2 113 5 114 10 115 9 
116 33 117 35 118 7 119 7 120 1 126 1 127 2 128 3 129 19 130 37 
131 21 132 10 133 28 134 4 135 3 141 12 142 5 143 5 144 10 145 3 
146 10 147 103 148 18 149 14 150 2 151 1 153 1 156 1 157 1 158 10 
159 4 160 17 161 4 162 3 169 3 171 2 172 21 173 6 174 645 175 120 
176 112 177 18 178 5 179 1 187 11 188 5 189 3 190 2 191 1 199 1 
201 4 202 2 203 1 204 2 213 1 214 4 215 14 216 5 217 2 218 1 
221 1 232 1 243 16 244 5 245 3 248 1 317 1 332 3 333 40 334 12 
335 6 336 1 
