Name: D-(-)-Ribose
CAS: 50-69-1
MW: 150
Formula: C5H10O5
Synonym: KEGG: C00121
Synonym: CID: 3421
Synonym: MassBank: PR010043
Synonym: D-(-)-Ribose
Synonym: D-Ribose
Structure: 310A32360A3C4341535F49443E2035302D36392D31093C4B4547475F49443E20433030313231093C4E414D453E20442D5269626F73093C464F524D554C413E2043354831304F35093C45584143544D4153533E203135302E3035323832333433093C415645524147454D4153533E203135302E3132393930303030303030303032093C534D494C45533E204F435B434040485D284F31295B434040485D284F295B434040485D284F2943284F2931093C434F505952494748543E2041524D2050524F4A45435420687474703A2F2F7777772E6D657461626F6C6F6D652E6A702F0A2031302031302020302020302020312020302020302020302020302020303939392056323030300A20202020332E3236303120202020302E3836343920202020302E303030302043202020302020302020332020312020302020302020302020302020302020302020302020300A20202020322E393531312020202D302E3038363120202020302E303030302043202020302020302020312020312020302020302020302020302020302020302020302020300A20202020332E373630312020202D302E3637333920202020302E303030302043202020302020302020312020312020302020302020302020302020302020302020302020300A20202020342E353639312020202D302E3038363120202020302E303030302043202020302020302020312020312020302020302020302020302020302020302020302020300A20202020352E353230312020202D302E3339353220202020302E303030302043202020302020302020302020322020302020302020302020302020302020302020302020300A20202020322E3637323320202020312E3637333920202020302E30303030204F202020302020302020302020312020302020302020302020302020302020302020302020300A20202020322E303030302020202D302E3339353220202020302E30303030204F202020302020302020302020312020302020302020302020302020302020302020302020300A20202020332E373630312020202D312E3637333920202020302E30303030204F202020302020302020302020312020302020302020302020302020302020302020302020300A20202020342E3236303120202020302E3836343920202020302E30303030204F202020302020302020302020302020302020302020302020302020302020302020302020300A20202020362E3236333320202020302E3237343020202020302E30303030204F202020302020302020302020312020302020302020302020302020302020302020302020300A2020342020392020312020362020302020302020300A2020342020332020312020302020302020302020300A2020392020312020312020302020302020302020300A2020332020322020312020302020302020302020300A2020312020322020312020302020302020302020300A2020342020352020312020302020302020302020300A2020352031302020312020302020302020302020300A2020312020362020312020342020302020302020300A2020322020372020312020312020302020302020300A2020332020382020312020312020302020302020300A4D2020454E44
Contributor: Kusano M, Fukushima A, Plant Science Center, RIKEN.
InstType: EI
InstName: Pegasus III TOF-MS system, Leco; GC 6890, Agilent Technologies
IoniMethod: EI
IonPolarity: pos
Date: 2010-10-09 19:48:36+02:00
Num Peaks: 133
60 7 61 10 66 4 67 3 69 1 70 7 71 4 72 20 73 999 74 87 
75 65 76 5 77 6 82 3 83 1 84 3 85 4 86 6 87 6 88 4 
89 61 90 5 91 3 94 1 98 2 99 4 100 23 101 20 102 11 103 563 
104 54 105 37 106 2 107 1 111 1 112 2 113 5 114 11 115 8 116 6 
117 47 118 5 119 7 126 2 127 3 128 3 129 43 130 10 131 22 132 4 
133 57 134 8 135 5 140 1 141 1 142 4 143 10 144 2 145 8 146 1 
147 177 148 27 149 17 150 2 151 1 156 1 157 3 158 5 159 2 160 42 
161 11 162 2 163 8 164 1 168 3 169 1 170 1 172 2 173 3 174 7 
175 6 176 1 177 2 186 1 189 66 190 13 191 18 192 3 193 1 198 2 
200 2 201 5 202 1 203 2 204 15 205 19 206 4 207 3 215 1 216 5 
217 223 218 47 219 20 220 3 221 4 228 1 230 1 231 3 232 2 233 17 
234 5 235 1 242 1 248 1 256 1 257 1 262 6 263 1 272 1 274 2 
277 17 278 6 279 3 288 1 291 1 306 1 307 87 308 25 309 12 310 2 
331 1 362 1 467 1 
