Name: 2-Aminoethylphosphonic acid
CAS: 2041-14-7
MW: 125
Formula: C2H8NO3P
Synonym: MassBank: PR010125
Synonym: 2-Aminoethylphosphonic acid
Structure: 310A31380A20204143442F4C6162733132303230363131353832440A2020372020362020302020302020302020302020302020302020302020302020312056323030300A20202031302E373233302020202D392E3433343220202020302E303030302050202020302020302020302020302020302020302020302020302020302020302020302020300A20202031312E383734382020202D382E3736393220202020302E303030302043202020302020302020302020302020302020302020302020302020302020302020302020300A20202031332E303236362020202D392E3433343220202020302E303030302043202020302020302020302020302020302020302020302020302020302020302020302020300A20202031342E313738352020202D382E3736393220202020302E30303030204E202020302020302020302020302020302020302020302020302020302020302020302020300A20202020392E3537313120202D31302E3039393220202020302E30303030204F202020302020302020302020302020302020302020302020302020302020302020302020300A20202031312E3338373820202D31302E3538363120202020302E30303030204F202020302020302020302020302020302020302020302020302020302020302020302020300A20202031302E303538312020202D382E3238323320202020302E30303030204F202020302020302020302020302020302020302020302020302020302020302020302020300A2020322020312020312020302020302020302020300A2020332020322020312020302020302020302020300A2020342020332020312020302020302020302020300A2020312020352020312020302020302020302020300A2020312020362020322020302020302020302020300A2020312020372020312020302020302020302020300A4D2020454E44
Contributor: Kusano M, Fukushima A, Plant Science Center, RIKEN.
InstType: EI
InstName: Pegasus III TOF-MS system, Leco; GC 6890, Agilent Technologies
IoniMethod: EI
IonPolarity: pos
Date: 2010-10-09 19:48:36+02:00
Num Peaks: 177
60 13 61 14 62 1 63 2 66 1 70 8 71 7 72 28 73 999 74 83 
75 48 76 4 77 30 78 3 79 14 83 2 84 4 85 7 86 97 87 14 
88 5 89 3 90 1 91 2 92 1 93 1 96 1 97 1 98 3 99 3 
100 64 101 11 102 8 103 9 104 2 105 6 106 1 107 4 112 1 113 8 
114 66 115 28 116 13 117 14 118 4 119 15 120 2 121 15 122 1 123 1 
128 1 129 5 130 81 131 35 132 18 133 60 134 11 135 63 136 8 137 6 
142 1 143 2 144 2 145 2 146 33 147 62 148 12 149 10 150 1 151 6 
152 1 156 2 157 1 158 4 159 1 160 4 161 1 162 1 163 3 164 1 
165 4 166 1 167 1 170 1 171 1 172 100 173 19 174 167 175 31 176 16 
177 8 178 2 179 5 180 1 181 10 182 2 183 1 187 3 188 7 189 5 
190 3 191 17 192 11 193 14 194 5 195 15 196 3 197 1 203 1 204 1 
205 3 206 3 207 35 208 13 209 38 210 8 211 10 212 1 221 2 222 1 
223 2 224 2 225 22 226 5 227 2 236 3 237 7 238 2 239 1 251 1 
252 1 254 1 266 5 267 2 268 1 269 1 281 1 282 7 283 6 284 2 
285 1 294 3 295 1 296 1 297 22 298 48 299 16 300 7 301 1 308 1 
309 1 310 28 311 8 312 19 313 8 314 3 315 1 324 2 325 3 326 2 
339 1 340 24 341 8 342 4 343 1 368 1 382 2 383 1 396 4 397 22 
398 249 399 95 400 53 401 15 402 4 403 1 412 1 
