Name: L-Homocarnosine
CAS: 3650-73-5
MW: 240
Formula: C10H16N4O3
Synonym: KEGG: C00884
Synonym: CID: 4140
Synonym: MassBank: PR010174
Synonym: L-Homocarnosine
Synonym: Homocarnosine
Synonym: gamma-Aminobutyryl histidine
Synonym: N-(4-Amino-1-oxobutyryl)histidine
Structure: 310A34300A3C4341535F49443E20333635302D37332D35093C4B4547475F49443E20433030383834093C4E414D453E20486F6D6F6361726E6F73696E65093C464F524D554C413E204331304831364E344F33093C45584143544D4153533E203234302E313232323430333938093C415645524147454D4153533E203234302E32353932093C534D494C45533E204E43434343283D4F294E5B4340485D2843284F293D4F294363286331296E636E31093C434F505952494748543E2041524D2050524F4A45435420687474703A2F2F7777772E6D657461626F6C6F6D652E6A702F0A2031372031372020302020302020312020302020302020302020302020303939392056323030300A20202020322E3330393020202020312E3639383120202020302E30303030204E202020302020302020302020312020302020302020302020302020302020302020302020300A20202020322E3030303020202020302E3734373020202020302E303030302043202020302020302020302020312020302020302020302020302020302020302020302020300A20202020322E3830393020202020302E3135393220202020302E30303030204E202020302020302020302020302020302020302020302020302020302020302020302020300A20202020332E3631383020202020302E3734373020202020302E303030302043202020302020302020302020302020302020302020302020302020302020302020302020300A20202020332E3330393020202020312E3639383120202020302E303030302043202020302020302020302020312020302020302020302020302020302020302020302020300A20202020342E3536393120202020302E3433383020202020302E303030302043202020302020302020302020322020302020302020302020302020302020302020302020300A20202020352E3331323220202020312E3130373120202020302E303030302043202020302020302020312020312020302020302020302020302020302020302020302020300A20202020352E3130343320202020322E3038353320202020302E303030302043202020302020302020302020302020302020302020302020302020302020302020302020300A20202020362E3236333320202020302E3739383120202020302E30303030204E202020302020302020302020312020302020302020302020302020302020302020302020300A20202020362E343731322020202D302E3138303120202020302E303030302043202020302020302020302020302020302020302020302020302020302020302020302020300A20202020372E343232332020202D302E3438393120202020302E303030302043202020302020302020302020322020302020302020302020302020302020302020302020300A20202020372E363330322020202D312E3436373220202020302E303030302043202020302020302020302020322020302020302020302020302020302020302020302020300A20202020382E353831322020202D312E3737363220202020302E303030302043202020302020302020302020322020302020302020302020302020302020302020302020300A20202020382E373839312020202D322E3735343420202020302E30303030204E202020302020302020302020322020302020302020302020302020302020302020302020300A20202020342E3135333320202020322E3339343320202020302E30303030204F202020302020302020302020312020302020302020302020302020302020302020302020300A20202020352E3834373520202020322E3735343420202020302E30303030204F202020302020302020302020302020302020302020302020302020302020302020302020300A20202020352E373238312020202D302E3834393220202020302E30303030204F202020302020302020302020302020302020302020302020302020302020302020302020300A2020342020362020312020302020302020302020300A2020342020352020322020302020302020302020300A2020342020332020312020302020302020302020300A2020372020362020312020302020302020302020300A2020352020312020312020302020302020302020300A2020332020322020322020302020302020302020300A2020372020392020312020312020302020302020300A2020372020382020312020302020302020302020300A2020392031302020312020302020302020302020300A2020382031352020312020302020302020302020300A2020382031362020322020302020302020302020300A2031302031312020312020302020302020302020300A2031302031372020322020302020302020302020300A2031312031322020312020302020302020302020300A2031322031332020312020302020302020302020300A2031332031342020312020302020302020302020300A2020312020322020312020302020302020302020300A4D2020454E44
Contributor: Kusano M, Fukushima A, Plant Science Center, RIKEN.
InstType: EI
InstName: Pegasus III TOF-MS system, Leco; GC 6890, Agilent Technologies
IoniMethod: EI
IonPolarity: pos
Date: 2010-10-09 19:48:36+02:00
Num Peaks: 145
60 8 61 7 62 1 63 2 65 1 66 3 67 2 69 2 70 13 71 7 
72 24 73 999 74 96 75 73 76 6 77 26 78 3 79 15 80 2 81 28 
82 38 83 15 84 23 85 12 86 10 87 3 88 1 89 1 92 1 93 1 
94 1 95 1 96 4 97 3 98 8 99 3 100 56 101 10 102 6 103 4 
105 1 107 1 109 2 110 6 111 5 112 13 113 3 114 1 115 3 116 2 
117 5 118 1 119 2 120 1 121 1 123 2 124 2 125 3 126 9 127 2 
128 3 129 1 130 7 131 9 132 16 133 11 134 2 135 2 136 1 137 1 
138 2 139 5 140 2 141 1 142 1 144 2 145 1 146 1 147 40 148 6 
149 3 150 3 151 2 152 1 153 30 154 668 155 146 156 38 157 5 158 2 
159 3 160 3 161 1 163 2 165 2 166 15 167 5 168 2 169 1 170 1 
172 1 174 2 175 1 180 1 181 1 182 5 183 3 184 1 190 1 203 3 
204 1 211 1 218 30 219 5 220 2 221 1 223 1 225 2 226 8 227 3 
228 1 238 23 239 6 240 3 241 1 252 1 253 2 254 111 255 27 256 11 
257 6 258 1 266 5 267 1 268 1 281 1 328 3 329 1 330 1 355 1 
356 8 357 2 358 1 371 3 372 1 
