Name: Glycerol
CAS: 56-81-5
MW: 92
Formula: C3H8O3
Synonym: KEGG: C00116
Synonym: CID: 3416
Synonym: MassBank: PR010013
Synonym: Glycerol
Synonym: 1,2,3-Propanetriol
Synonym: 1,2,3-Trihydroxypropane
Synonym: Glycerin
Structure: 310A31370A3C4341535F49443E2035362D38312D35093C4B4547475F49443E20433030313136093C4E414D453E20476C796365726F6C093C464F524D554C413E20433348384F33093C45584143544D4153533E2039322E303437333434313232093C415645524147454D4153533E2039322E3039333832093C534D494C45533E204F4343284F29434F093C434F505952494748543E2041524D2050524F4A45435420687474703A2F2F7777772E6D657461626F6C6F6D652E6A702F0A2020362020352020302020302020302020302020302020302020302020303939392056323030300A20202020332E3733323120202020302E3530303020202020302E303030302043202020302020302020302020322020302020302020302020302020302020302020302020300A20202020322E383636302020202D302E3030303020202020302E303030302043202020302020302020302020312020302020302020302020302020302020302020302020300A20202020322E383636302020202D312E3030303020202020302E303030302043202020302020302020302020322020302020302020302020302020302020302020302020300A20202020332E3733323120202020312E3530303020202020302E30303030204F202020302020302020302020312020302020302020302020302020302020302020302020300A20202020322E303030302020202D312E3530303020202020302E30303030204F202020302020302020302020312020302020302020302020302020302020302020302020300A20202020322E3030303020202020302E3530303020202020302E30303030204F202020302020302020302020312020302020302020302020302020302020302020302020300A2020322020312020312020302020302020302020300A2020312020342020312020302020302020302020300A2020332020352020312020302020302020302020300A2020322020332020312020302020302020302020300A2020322020362020312020302020302020302020300A4D2020454E44
Contributor: Kusano M, Fukushima A, Plant Science Center, RIKEN.
InstType: EI
InstName: Pegasus III TOF-MS system, Leco; GC 6890, Agilent Technologies
IoniMethod: EI
IonPolarity: pos
Date: 2010-10-09 19:48:36+02:00
Num Peaks: 85
60 10 61 18 62 1 66 14 67 2 70 4 71 7 72 24 73 999 74 85 
75 74 76 5 77 7 84 1 85 8 86 1 87 10 88 7 89 34 90 3 
91 1 99 4 101 57 102 8 103 287 104 27 105 16 106 1 113 6 114 1 
115 17 116 22 117 295 118 29 119 24 120 2 121 1 128 2 129 58 130 7 
131 42 132 6 133 130 134 17 135 11 136 1 143 1 145 1 146 1 147 503 
148 78 149 52 150 6 151 2 159 3 161 1 162 1 163 8 164 1 165 1 
174 2 175 17 176 4 177 22 178 3 179 2 189 5 190 1 191 23 192 5 
193 2 203 25 204 34 205 218 206 42 207 19 208 2 217 12 218 92 219 18 
220 8 221 3 263 1 293 6 294 1 
