Name: L-Ascorbic acid
CAS: 50-81-7
MW: 176
Formula: C6H8O6
Synonym: KEGG: C00072
Synonym: CID: 3372
Synonym: MassBank: PR010208
Synonym: L-Ascorbic acid
Synonym: Ascorbic acid
Synonym: Ascorbate
Synonym: L-Ascorbate
Synonym: Vitamin C
Structure: 310A33300A3C4341535F49443E2035302D38312D37093C4B4547475F49443E20433030303732093C4E414D453E204173636F7262617465093C464F524D554C413E20433648384F36093C45584143544D4153533E203137362E303332303837393838093C415645524147454D4153533E203137362E3132343132093C534D494C45533E204F435B4340485D284F295B434040485D284F312943284F293D43284F2943283D4F2931093C434F505952494748543E2041524D2050524F4A45435420687474703A2F2F7777772E6D657461626F6C6F6D652E6A702F0A2031322031322020302020302020312020302020302020302020302020303939392056323030300A20202020332E3236303120202020302E3836343920202020302E303030302043202020302020302020302020302020302020302020302020302020302020302020302020300A20202020322E393531312020202D302E3038363120202020302E303030302043202020302020302020302020302020302020302020302020302020302020302020302020300A20202020332E373630312020202D302E3637333920202020302E303030302043202020302020302020302020302020302020302020302020302020302020302020302020300A20202020342E353639312020202D302E3038363120202020302E303030302043202020302020302020312020312020302020302020302020302020302020302020302020300A20202020352E353230312020202D302E3339353220202020302E303030302043202020302020302020322020312020302020302020302020302020302020302020302020300A20202020362E3236333320202020302E3237343020202020302E303030302043202020302020302020302020322020302020302020302020302020302020302020302020300A20202020322E3637323320202020312E3637333920202020302E30303030204F202020302020302020302020302020302020302020302020302020302020302020302020300A20202020322E303030302020202D302E3339353220202020302E30303030204F202020302020302020302020312020302020302020302020302020302020302020302020300A20202020332E373630312020202D312E3637333920202020302E30303030204F202020302020302020302020312020302020302020302020302020302020302020302020300A20202020342E3236303120202020302E3836343920202020302E30303030204F202020302020302020302020302020302020302020302020302020302020302020302020300A20202020352E373238312020202D312E3337333320202020302E30303030204F202020302020302020302020312020302020302020302020302020302020302020302020300A20202020372E323134332020202D302E3033353020202020302E30303030204F202020302020302020302020312020302020302020302020302020302020302020302020300A2020342020332020312020302020302020302020300A2031302020312020312020302020302020302020300A2020332020322020322020302020302020302020300A2020312020322020312020302020302020302020300A2020312020372020322020302020302020302020300A2020342020352020312020302020302020302020300A2020352020362020312020302020302020302020300A2020332020392020312020302020302020302020300A2020322020382020312020302020302020302020300A2020352031312020312020362020302020302020300A2020342031302020312020362020302020302020300A2020362031322020312020302020302020302020300A4D2020454E44
Contributor: Kusano M, Fukushima A, Plant Science Center, RIKEN.
InstType: EI
InstName: Pegasus III TOF-MS system, Leco; GC 6890, Agilent Technologies
IoniMethod: EI
IonPolarity: pos
Date: 2010-10-09 19:48:36+02:00
Num Peaks: 136
60 8 61 8 66 5 67 1 70 7 71 3 72 17 73 999 74 90 75 51 
76 4 77 12 79 3 82 1 83 1 84 27 85 4 86 3 87 4 88 3 
89 103 90 8 91 4 92 1 98 2 99 2 100 33 101 14 102 5 103 60 
104 6 105 6 107 1 111 1 112 2 113 2 114 1 115 3 116 4 117 80 
118 8 119 7 125 4 126 4 127 1 128 8 129 7 130 6 131 14 132 3 
133 72 134 8 135 4 140 1 141 1 142 1 143 1 144 6 145 3 146 1 
147 171 148 27 149 16 150 2 151 1 153 1 154 1 155 1 157 1 158 3 
159 1 163 6 164 1 165 1 167 1 172 27 173 5 174 3 175 3 177 2 
181 1 183 1 184 1 185 14 186 2 187 1 188 1 189 3 190 5 191 6 
192 1 200 2 201 2 202 1 204 3 205 40 206 8 207 4 211 1 216 1 
217 8 218 2 219 1 221 2 227 2 243 7 244 2 245 1 246 1 255 1 
258 2 271 6 272 1 273 3 276 4 277 1 289 4 302 1 303 26 304 8 
305 3 307 1 315 1 334 4 335 1 344 1 347 1 375 1 389 1 405 1 
406 6 407 2 408 1 433 1 435 1 523 1 
