Name: D-(+)-Galacturonic acid
CAS: 91510-62-2
MW: 194
Formula: C6H10O7
Synonym: MassBank: PR010107
Synonym: D-(+)-Galacturonic acid
Structure: 310A33310A20204143442F4C6162733132303230363130303932440A2031332031332020302020302020312020302020302020302020302020302020312056323030300A20202020392E373732382020202D372E3530373320202020302E303030302043202020302020302020302020302020302020302020302020302020302020302020302020300A20202020392E373732382020202D382E3833373320202020302E303030302043202020302020302020302020302020302020302020302020302020302020302020302020300A20202020382E363230392020202D362E3834323320202020302E30303030204F202020302020302020302020302020302020302020302020302020302020302020302020300A20202020382E363230392020202D392E3530323320202020302E303030302043202020302020302020302020302020302020302020302020302020302020302020302020300A20202020372E343639312020202D372E3530373320202020302E303030302043202020302020302020302020302020302020302020302020302020302020302020302020300A20202020372E343639312020202D382E3833373320202020302E303030302043202020302020302020302020302020302020302020302020302020302020302020302020300A20202031302E393234362020202D362E3834323320202020302E303030302043202020302020302020302020302020302020302020302020302020302020302020302020300A20202031322E303736342020202D372E3530373320202020302E30303030204F202020302020302020302020302020302020302020302020302020302020302020302020300A20202031302E393234362020202D352E3531323320202020302E30303030204F202020302020302020302020302020302020302020302020302020302020302020302020300A20202020362E333137332020202D362E3834323320202020302E30303030204F202020302020302020302020302020302020302020302020302020302020302020302020300A20202020362E333137332020202D392E3530323320202020302E30303030204F202020302020302020302020302020302020302020302020302020302020302020302020300A20202020382E3632303920202D31302E3833323320202020302E30303030204F202020302020302020302020302020302020302020302020302020302020302020302020300A20202031302E393234362020202D392E3530323320202020302E30303030204F202020302020302020302020302020302020302020302020302020302020302020302020300A2020322020312020312020302020302020302020300A2020332020312020312020302020302020302020300A2020342020322020312020302020302020302020300A2020352020332020312020302020302020302020300A2020362020342020312020302020302020302020300A2020362020352020312020302020302020302020300A2020312020372020312020362020302020302020300A2020372020382020322020302020302020302020300A2020372020392020312020302020302020302020300A2020352031302020312020302020302020302020300A2020362031312020312020312020302020302020300A2020342031322020312020362020302020302020300A2020322031332020312020362020302020302020300A4D2020454E44
Contributor: Kusano M, Fukushima A, Plant Science Center, RIKEN.
InstType: EI
InstName: Pegasus III TOF-MS system, Leco; GC 6890, Agilent Technologies
IoniMethod: EI
IonPolarity: pos
Date: 2010-10-09 19:48:36+02:00
Num Peaks: 160
60 4 61 5 66 3 67 3 69 1 70 4 71 3 72 16 73 999 74 85 
75 53 76 4 77 6 82 3 83 3 84 2 85 3 86 4 87 3 88 1 
89 47 90 4 91 2 98 1 99 4 100 8 101 8 102 12 103 32 104 3 
105 23 106 2 107 1 111 1 112 1 113 2 114 8 115 6 116 4 117 9 
118 1 119 4 126 1 127 3 128 3 129 17 130 8 131 19 132 3 133 41 
134 5 135 3 140 1 141 1 142 4 143 52 144 7 145 6 146 1 147 182 
148 27 149 18 150 2 151 1 156 1 157 2 158 4 159 2 160 153 161 20 
162 7 163 7 164 1 168 1 170 1 171 18 172 4 173 4 174 2 175 2 
177 1 186 1 189 36 190 8 191 14 192 2 193 1 200 1 201 1 203 1 
204 19 205 6 206 2 207 4 208 1 214 1 215 2 216 7 217 27 218 6 
219 17 220 3 221 9 222 2 223 1 228 1 229 1 230 1 231 6 232 2 
233 2 234 2 240 1 242 1 244 1 245 3 246 2 247 1 248 1 256 2 
257 1 261 1 262 1 263 1 274 6 275 1 277 7 278 2 279 1 291 3 
292 6 293 2 294 1 305 12 306 5 307 2 314 3 315 1 318 2 319 1 
321 1 332 4 333 139 334 42 335 21 336 4 337 1 345 1 364 6 365 2 
366 1 388 1 393 2 394 1 395 1 419 1 422 1 423 11 424 4 425 2 
