Name: 2-Hydroxyisobutyric acid
CAS: 594-61-6
MW: 104
Formula: C4H8O3
Synonym: MassBank: PR010023
Synonym: 2-Hydroxyisobutyric acid
Structure: 310A31380A20204143442F4C6162733132303230363130323632440A2020372020362020302020302020302020302020302020302020302020302020312056323030300A20202031312E393731392020202D372E3738333720202020302E303030302043202020302020302020302020302020302020302020302020302020302020302020302020300A20202031332E313233382020202D372E3131383720202020302E303030302043202020302020302020302020302020302020302020302020302020302020302020302020300A20202031342E323735362020202D372E3738333720202020302E30303030204F202020302020302020302020302020302020302020302020302020302020302020302020300A20202031302E383230302020202D382E3434383720202020302E30303030204F202020302020302020302020302020302020302020302020302020302020302020302020300A20202031322E363336352020202D382E3933353720202020302E303030302043202020302020302020302020302020302020302020302020302020302020302020302020300A20202031312E333037322020202D362E3633313720202020302E303030302043202020302020302020302020302020302020302020302020302020302020302020302020300A20202031332E313233382020202D352E3738383720202020302E30303030204F202020302020302020302020302020302020302020302020302020302020302020302020300A2020322020312020312020302020302020302020300A2020332020322020312020302020302020302020300A2020312020342020312020302020302020302020300A2020312020352020312020302020302020302020300A2020312020362020312020302020302020302020300A2020322020372020322020302020302020302020300A4D2020454E44
Contributor: Kusano M, Fukushima A, Plant Science Center, RIKEN.
InstType: EI
InstName: Pegasus III TOF-MS system, Leco; GC 6890, Agilent Technologies
IoniMethod: EI
IonPolarity: pos
Date: 2010-10-09 19:48:36+02:00
Num Peaks: 69
60 9 61 39 62 3 63 2 66 56 67 6 69 16 70 11 71 7 72 25 
73 999 74 92 75 159 76 15 77 27 78 2 79 3 80 1 81 7 84 1 
85 3 86 1 87 8 88 1 89 2 94 1 95 53 96 4 99 4 100 1 
101 22 102 4 103 12 104 1 105 4 109 3 113 1 115 46 116 10 117 17 
118 2 119 4 129 2 130 6 131 703 132 86 133 70 134 8 135 3 143 17 
144 2 145 2 146 2 147 454 148 70 149 38 150 4 151 1 163 3 189 1 
190 3 205 96 206 21 207 9 208 1 217 3 233 25 234 6 235 2 
