Name: Adenosine
CAS: 58-61-7
MW: 267
Formula: C10H13N5O4
Synonym: KEGG: C00212
Synonym: CID: 3512
Synonym: MassBank: PR010098
Synonym: Adenosine
Structure: 310A34360A3C4341535F49443E2035382D36312D37093C4B4547475F49443E20433030323132093C4E414D453E204164656E6F73696E093C464F524D554C413E204331304831334E354F34093C45584143544D4153533E203236372E303936373533393239093C415645524147454D4153533E203236372E3234313532093C534D494C45533E204F435B434040485D284F31295B434040485D284F295B434040485D284F295B434040485D316E2863332963286E322963286E332963284E296E6332093C434F505952494748543E2041524D2050524F4A45435420687474703A2F2F7777772E6D657461626F6C6F6D652E6A702F0A2031392032312020302020302020312020302020302020302020302020303939392056323030300A20202020332E3733323120202020332E3039373020202020302E30303030204E202020302020302020302020302020302020302020302020302020302020302020302020300A20202020342E3539383120202020322E3539373020202020302E303030302043202020302020302020302020312020302020302020302020302020302020302020302020300A20202020342E3539383120202020312E3539373020202020302E30303030204E202020302020302020302020302020302020302020302020302020302020302020302020300A20202020332E3733323120202020312E3039373020202020302E303030302043202020302020302020302020302020302020302020302020302020302020302020302020300A20202020322E3836363020202020312E3539373020202020302E303030302043202020302020302020302020302020302020302020302020302020302020302020302020300A20202020322E3836363020202020322E3539373020202020302E303030302043202020302020302020302020302020302020302020302020302020302020302020302020300A20202020322E3132323920202020302E3932373920202020302E30303030204E202020302020302020302020302020302020302020302020302020302020302020302020300A20202020322E3532393620202020302E3031343320202020302E303030302043202020302020302020302020312020302020302020302020302020302020302020302020300A20202020332E3532343120202020302E3131383820202020302E30303030204E202020302020302020302020302020302020302020302020302020302020302020302020300A20202020322E3030303020202020332E3039373020202020302E30303030204E202020302020302020302020322020302020302020302020302020302020302020302020300A20202020342E313933332020202D302E3632343320202020302E303030302043202020302020302020312020312020302020302020302020302020302020302020302020300A20202020332E393835342020202D312E3630323520202020302E303030302043202020302020302020312020312020302020302020302020302020302020302020302020300A20202020342E383531342020202D322E3130323520202020302E303030302043202020302020302020312020312020302020302020302020302020302020302020302020300A20202020352E353934352020202D312E3433333320202020302E303030302043202020302020302020312020312020302020302020302020302020302020302020302020300A20202020362E353732372020202D312E3634313220202020302E303030302043202020302020302020302020322020302020302020302020302020302020302020302020300A20202020332E303731382020202D322E3030393220202020302E30303030204F202020302020302020302020312020302020302020302020302020302020302020302020300A20202020342E393535392020202D332E3039373020202020302E30303030204F202020302020302020302020312020302020302020302020302020302020302020302020300A20202020352E313837382020202D302E3531393820202020302E30303030204F202020302020302020302020302020302020302020302020302020302020302020302020300A20202020372E323431382020202D302E3839383120202020302E30303030204F202020302020302020302020312020302020302020302020302020302020302020302020300A2031312020392020312020302020302020302020300A2020392020342020312020302020302020302020300A2020392020382020312020302020302020302020300A2031322031312020312020302020302020302020300A2031312031382020312020362020302020302020300A2020342020352020322020302020302020302020300A2020342020332020312020302020302020302020300A2020382020372020322020302020302020302020300A2031322031332020312020302020302020302020300A2031322031362020312020312020302020302020300A2031342031382020312020362020302020302020300A2020352020362020312020302020302020302020300A2020332020322020322020302020302020302020300A2031332031372020312020312020302020302020300A2031342031352020312020302020302020302020300A2020362020312020322020302020302020302020300A2020362031302020312020302020302020302020300A2020352020372020312020302020302020302020300A2031332031342020312020302020302020302020300A2020322020312020312020302020302020302020300A2031352031392020312020302020302020302020300A4D2020454E44
Contributor: Kusano M, Fukushima A, Plant Science Center, RIKEN.
InstType: EI
InstName: Pegasus III TOF-MS system, Leco; GC 6890, Agilent Technologies
IoniMethod: EI
IonPolarity: pos
Date: 2010-10-09 19:48:36+02:00
Num Peaks: 194
60 4 61 5 65 1 66 2 67 3 69 7 70 6 71 5 72 17 73 999 
74 91 75 57 76 4 77 5 79 3 81 4 82 1 83 3 84 17 85 14 
86 4 87 4 88 2 89 9 90 1 93 1 95 2 96 1 97 5 98 3 
99 14 100 5 101 19 102 3 103 107 104 10 105 5 106 1 108 1 109 4 
110 2 111 15 112 2 113 8 114 2 115 19 116 11 117 20 118 2 119 5 
120 1 121 1 122 1 123 2 124 1 125 2 126 2 127 4 128 1 129 31 
130 5 131 15 132 4 133 27 134 4 135 5 136 2 137 3 138 5 139 1 
140 1 141 3 142 4 143 14 144 4 145 5 146 1 147 84 148 14 149 12 
150 3 151 3 152 1 153 4 154 1 155 1 156 1 157 6 158 2 159 1 
161 1 162 3 163 1 164 4 165 21 166 5 167 1 168 1 169 20 170 3 
171 3 173 1 175 1 176 5 177 3 178 1 179 2 180 4 181 2 189 8 
190 3 191 8 192 76 193 12 194 3 203 1 204 4 205 3 206 20 207 15 
208 44 209 9 210 2 215 3 216 2 217 73 218 17 219 9 220 4 221 2 
222 1 223 1 229 2 230 185 231 42 232 19 233 3 234 3 235 1 236 162 
237 28 238 8 239 1 243 30 244 7 245 72 246 16 247 7 248 2 250 1 
257 2 258 8 259 16 260 4 261 1 262 1 263 1 264 11 265 3 266 2 
278 4 279 10 280 20 281 5 282 2 291 1 292 1 306 9 307 2 308 2 
320 2 321 1 322 13 323 3 324 1 334 5 335 1 337 4 338 1 348 6 
349 2 350 1 362 1 375 1 376 1 394 1 450 1 452 1 465 1 539 2 
540 7 541 4 542 2 555 1 
