Name: Fumaric acid
CAS: 110-17-8
MW: 116
Formula: C4H4O4
Synonym: KEGG: C00122
Synonym: CID: 3422
Synonym: MassBank: PR010157
Synonym: Fumaric acid
Synonym: Fumarate
Synonym: trans-Butenedioic acid
Structure: 310A32310A3C4341535F49443E203131302D31372D38093C4B4547475F49443E20433030313232093C4E414D453E2046756D6172617465093C464F524D554C413E20433448344F34093C45584143544D4153533E203131362E303130393538363136093C415645524147454D4153533E203131362E3037323136093C534D494C45533E204F43283D4F29433D4343284F293D4F093C434F505952494748543E2041524D2050524F4A45435420687474703A2F2F7777772E6D657461626F6C6F6D652E6A702F0A2020382020372020302020302020302020302020302020302020302020303939392056323030300A20202020322E383636302020202D312E3030303020202020302E303030302043202020302020302020302020302020302020302020302020302020302020302020302020300A20202020332E373332312020202D302E3530303020202020302E303030302043202020302020302020302020312020302020302020302020302020302020302020302020300A20202020332E3733323120202020302E3530303020202020302E303030302043202020302020302020302020312020302020302020302020302020302020302020302020300A20202020342E3539383120202020312E3030303020202020302E303030302043202020302020302020302020302020302020302020302020302020302020302020302020300A20202020322E303030302020202D302E3530303020202020302E30303030204F202020302020302020302020312020302020302020302020302020302020302020302020300A20202020322E383636302020202D322E3030303020202020302E30303030204F202020302020302020302020302020302020302020302020302020302020302020302020300A20202020342E3539383120202020322E3030303020202020302E30303030204F202020302020302020302020302020302020302020302020302020302020302020302020300A20202020352E3436343120202020302E3530303020202020302E30303030204F202020302020302020302020312020302020302020302020302020302020302020302020300A2020322020312020312020302020302020302020300A2020342020332020312020302020302020302020300A2020312020352020312020302020302020302020300A2020382020342020312020302020302020302020300A2020312020362020322020302020302020302020300A2020332020322020322020302020302020302020300A2020342020372020322020302020302020302020300A4D2020454E44
Contributor: Kusano M, Fukushima A, Plant Science Center, RIKEN.
InstType: EI
InstName: Pegasus III TOF-MS system, Leco; GC 6890, Agilent Technologies
IoniMethod: EI
IonPolarity: pos
Date: 2010-10-09 19:48:36+02:00
Num Peaks: 111
60 34 61 104 62 9 63 7 64 5 65 3 66 36 67 21 68 4 69 30 
70 17 71 19 72 40 73 999 74 120 75 567 76 57 77 74 78 9 79 13 
80 1 81 9 82 24 83 266 84 96 85 43 86 7 87 10 88 2 89 12 
90 1 91 1 92 1 93 3 95 2 97 8 98 20 99 23 100 5 101 6 
102 4 103 19 104 3 105 7 106 1 107 1 108 1 111 4 112 1 113 27 
114 3 115 85 116 10 117 23 118 4 119 10 120 1 121 1 125 1 126 13 
127 43 128 19 129 10 130 1 131 21 132 8 133 120 134 17 135 12 136 1 
141 3 142 7 143 183 144 23 145 11 146 2 147 553 148 90 149 78 150 9 
151 4 155 65 156 11 157 29 158 5 159 7 160 1 161 1 170 10 171 14 
172 2 173 7 174 1 185 1 201 6 202 1 203 1 215 4 216 1 217 34 
218 9 219 4 220 1 230 1 242 2 244 4 245 655 246 138 247 62 248 9 
249 2 
