Name: H-shaped caldarchaeol alcohol tetraacetate
MW: 1355
Formula: C88H170O8
Synonym: MassBank: UO000023
Synonym: H-shaped caldarchaeol alcohol tetraacetate
Structure: 310A3139360A20204143442F4C6162733036313230393134353132440A2039362039352020302020302020302020302020302020302020302020302020312056323030300A20202020342E333437322020202D362E3238383820202020302E30303030204F202020302020302020302020302020302020302020302020302020302020302020302020300A20202020352E353035352020202D362E3839343720202020302E303030302043202020302020302020302020302020302020302020302020302020302020302020302020300A20202020362E363531302020202D362E3231383720202020302E303030302043202020302020302020302020302020302020302020302020302020302020302020302020300A20202020372E383039312020202D362E3837323620202020302E303030302043202020302020302020302020302020302020302020302020302020302020302020302020300A20202020382E393534342020202D362E3139363620202020302E303030302043202020302020302020302020302020302020302020302020302020302020302020302020300A20202031302E313132362020202D362E3835303520202020302E303030302043202020302020302020302020302020302020302020302020302020302020302020302020300A20202031312E323538302020202D362E3137343520202020302E303030302043202020302020302020302020302020302020302020302020302020302020302020302020300A20202031322E343136312020202D362E3832383520202020302E303030302043202020302020302020302020302020302020302020302020302020302020302020302020300A20202031332E353631352020202D362E3135323520202020302E303030302043202020302020302020302020302020302020302020302020302020302020302020302020300A20202031342E373139372020202D362E3830363420202020302E303030302043202020302020302020302020302020302020302020302020302020302020302020302020300A20202031352E383635302020202D362E3133303420202020302E303030302043202020302020302020302020302020302020302020302020302020302020302020302020300A20202031372E303233322020202D362E3738343420202020302E303030302043202020302020302020302020302020302020302020302020302020302020302020302020300A20202031382E313638362020202D362E3130383420202020302E303030302043202020302020302020302020302020302020302020302020302020302020302020302020300A20202031392E333236372020202D362E3736323220202020302E303030302043202020302020302020302020302020302020302020302020302020302020302020302020300A20202032302E343732312020202D362E3038363220202020302E303030302043202020302020302020302020302020302020302020302020302020302020302020302020300A20202020342E3331323420202D31302E3138323620202020302E30303030204F202020302020302020302020302020302020302020302020302020302020302020302020300A20202020352E3437303920202D31302E3738383420202020302E303030302043202020302020302020302020302020302020302020302020302020302020302020302020300A20202020362E3631363220202D31302E3131323420202020302E303030302043202020302020302020302020302020302020302020302020302020302020302020302020300A20202020372E3737343420202D31302E3736363320202020302E303030302043202020302020302020302020302020302020302020302020302020302020302020302020300A20202020382E3931393720202D31302E3039303320202020302E303030302043202020302020302020302020302020302020302020302020302020302020302020302020300A20202031302E3037373920202D31302E3734343320202020302E303030302043202020302020302020302020302020302020302020302020302020302020302020302020300A20202031312E3232333320202D31302E3036383320202020302E303030302043202020302020302020302020302020302020302020302020302020302020302020302020300A20202031322E3338313520202D31302E3732323220202020302E303030302043202020302020302020302020302020302020302020302020302020302020302020302020300A20202031332E3532363820202D31302E3034363220202020302E303030302043202020302020302020302020302020302020302020302020302020302020302020302020300A20202031342E3638353020202D31302E3730303120202020302E303030302043202020302020302020302020302020302020302020302020302020302020302020302020300A20202032312E363330322020202D362E3734303220202020302E303030302043202020302020302020302020302020302020302020302020302020302020302020302020300A20202032322E373735352020202D362E3036343220202020302E303030302043202020302020302020302020302020302020302020302020302020302020302020302020300A20202032332E393333372020202D362E3731383220202020302E303030302043202020302020302020302020302020302020302020302020302020302020302020302020300A20202032352E303739312020202D362E3034323120202020302E303030302043202020302020302020302020302020302020302020302020302020302020302020302020300A20202032362E323337322020202D362E3639363020202020302E303030302043202020302020302020302020302020302020302020302020302020302020302020302020300A20202032372E333832362020202D362E3032303020202020302E303030302043202020302020302020302020302020302020302020302020302020302020302020302020300A20202032382E353430382020202D362E3637343020202020302E303030302043202020302020302020302020302020302020302020302020302020302020302020302020300A20202032392E363836312020202D352E3939383020202020302E303030302043202020302020302020302020302020302020302020302020302020302020302020302020300A20202033302E383434332020202D362E3635313920202020302E303030302043202020302020302020302020302020302020302020302020302020302020302020302020300A20202033312E393839372020202D352E3937353920202020302E303030302043202020302020302020302020302020302020302020302020302020302020302020302020300A20202033332E313437382020202D362E3632393920202020302E303030302043202020302020302020302020302020302020302020302020302020302020302020302020300A20202033342E323933322020202D352E3935333920202020302E303030302043202020302020302020302020302020302020302020302020302020302020302020302020300A20202033352E343531342020202D362E3630373820202020302E303030302043202020302020302020302020302020302020302020302020302020302020302020302020300A20202033362E353936372020202D352E3933313920202020302E303030302043202020302020302020302020302020302020302020302020302020302020302020302020300A20202020372E383231382020202D382E3230323520202020302E303030302043202020302020302020302020302020302020302020302020302020302020302020302020300A20202031322E343238392020202D382E3135383420202020302E303030302043202020302020302020302020302020302020302020302020302020302020302020302020300A20202031372E303335392020202D382E3131343420202020302E303030302043202020302020302020302020302020302020302020302020302020302020302020302020300A20202032312E363433302020202D382E3037303220202020302E303030302043202020302020302020302020302020302020302020302020302020302020302020302020300A20202032352E303636342020202D342E3731323220202020302E303030302043202020302020302020302020302020302020302020302020302020302020302020302020300A20202032392E363733342020202D342E3636383120202020302E303030302043202020302020302020302020302020302020302020302020302020302020302020302020300A20202033342E323830352020202D342E3632343020202020302E303030302043202020302020302020302020302020302020302020302020302020302020302020302020300A20202033372E373534382020202D362E3538353920202020302E303030302043202020302020302020302020302020302020302020302020302020302020302020302020300A20202033382E393030332020202D352E3930393920202020302E303030302043202020302020302020302020302020302020302020302020302020302020302020302020300A20202034302E303538332020202D362E3536333920202020302E303030302043202020302020302020302020302020302020302020302020302020302020302020302020300A20202034312E323033382020202D352E3838383020202020302E303030302043202020302020302020302020302020302020302020302020302020302020302020302020300A20202033382E383837362020202D342E3538303020202020302E303030302043202020302020302020302020302020302020302020302020302020302020302020302020300A20202034322E333631392020202D362E3534313920202020302E30303030204F202020302020302020302020302020302020302020302020302020302020302020302020300A20202031352E3833303220202D31302E3032343120202020302E303030302043202020302020302020302020302020302020302020302020302020302020302020302020300A20202031362E3938383420202D31302E3637383020202020302E303030302043202020302020302020302020302020302020302020302020302020302020302020302020300A20202031382E3133333820202D31302E3030313920202020302E303030302043202020302020302020302020302020302020302020302020302020302020302020302020300A20202031392E3239323020202D31302E3635353820202020302E303030302043202020302020302020302020302020302020302020302020302020302020302020302020300A20202032302E343337332020202D392E3937393720202020302E303030302043202020302020302020302020302020302020302020302020302020302020302020302020300A20202032312E3539353520202D31302E3633333620202020302E303030302043202020302020302020302020302020302020302020302020302020302020302020302020300A20202032322E373430382020202D392E3935373620202020302E303030302043202020302020302020302020302020302020302020302020302020302020302020302020300A20202032332E3839393020202D31302E3631313420202020302E303030302043202020302020302020302020302020302020302020302020302020302020302020302020300A20202032352E303434342020202D392E3933353420202020302E303030302043202020302020302020302020302020302020302020302020302020302020302020302020300A20202032362E3230323620202D31302E3538393320202020302E303030302043202020302020302020302020302020302020302020302020302020302020302020302020300A20202032372E333437392020202D392E3931333320202020302E303030302043202020302020302020302020302020302020302020302020302020302020302020302020300A20202032382E3530363120202D31302E3536373220202020302E303030302043202020302020302020302020302020302020302020302020302020302020302020302020300A20202032392E363531342020202D392E3839313120202020302E303030302043202020302020302020302020302020302020302020302020302020302020302020302020300A20202033302E3830393620202D31302E3534353120202020302E303030302043202020302020302020302020302020302020302020302020302020302020302020302020300A20202033312E393535302020202D392E3836393020202020302E303030302043202020302020302020302020302020302020302020302020302020302020302020302020300A20202033332E3131333220202D31302E3532333020202020302E303030302043202020302020302020302020302020302020302020302020302020302020302020302020300A20202033342E323538352020202D392E3834373020202020302E303030302043202020302020302020302020302020302020302020302020302020302020302020302020300A20202033352E3431363620202D31302E3530303820202020302E303030302043202020302020302020302020302020302020302020302020302020302020302020302020300A20202033362E353632302020202D392E3832343820202020302E303030302043202020302020302020302020302020302020302020302020302020302020302020302020300A20202033372E3732303120202D31302E3437383820202020302E303030302043202020302020302020302020302020302020302020302020302020302020302020302020300A20202033382E383635362020202D392E3830323820202020302E303030302043202020302020302020302020302020302020302020302020302020302020302020302020300A20202034302E3032333620202D31302E3435363720202020302E303030302043202020302020302020302020302020302020302020302020302020302020302020302020300A20202034312E313639302020202D392E3738303720202020302E303030302043202020302020302020302020302020302020302020302020302020302020302020302020300A20202034322E3332373220202D31302E3433343720202020302E30303030204F202020302020302020302020302020302020302020302020302020302020302020302020300A20202020372E3738373120202D31322E3039363320202020302E303030302043202020302020302020302020302020302020302020302020302020302020302020302020300A20202031322E3339343220202D31322E3035323220202020302E303030302043202020302020302020302020302020302020302020302020302020302020302020302020300A20202031372E3030313220202D31322E3030373920202020302E303030302043202020302020302020302020302020302020302020302020302020302020302020302020300A20202032312E3630383320202D31312E3936333620202020302E303030302043202020302020302020302020302020302020302020302020302020302020302020302020300A20202032352E303331352020202D372E3333393520202020302E303030302043202020302020302020302020302020302020302020302020302020302020302020302020300A20202032392E363338362020202D382E3536313220202020302E303030302043202020302020302020302020302020302020302020302020302020302020302020302020300A20202033342E323435372020202D382E3531373020202020302E303030302043202020302020302020302020302020302020302020302020302020302020302020302020300A20202033382E383532372020202D382E3437323920202020302E303030302043202020302020302020302020302020302020302020302020302020302020302020302020300A20202034332E353230302020202D372E3139353820202020302E303030302043202020302020302020302020302020302020302020302020302020302020302020302020300A20202034342E363635352020202D362E3531393820202020302E30303030204F202020302020302020302020302020302020302020302020302020302020302020302020300A20202034332E353332382020202D382E3532353820202020302E303030302043202020302020302020302020302020302020302020302020302020302020302020302020300A20202034332E3438353320202D31312E3038383720202020302E303030302043202020302020302020302020302020302020302020302020302020302020302020302020300A20202034342E3633303820202D31302E3431323720202020302E30303030204F202020302020302020302020302020302020302020302020302020302020302020302020300A20202034332E3439383020202D31322E3431383620202020302E303030302043202020302020302020302020302020302020302020302020302020302020302020302020300A20202020332E313333382020202D392E3536363320202020302E303030302043202020302020302020302020302020302020302020302020302020302020302020302020300A20202020322E3031303720202D31302E3237383820202020302E30303030204F202020302020302020302020302020302020302020302020302020302020302020302020300A20202020332E303738332020202D382E3233373520202020302E303030302043202020302020302020302020302020302020302020302020302020302020302020302020300A20202020332E313638372020202D352E3637323320202020302E303030302043202020302020302020302020302020302020302020302020302020302020302020302020300A20202020322E303435352020202D362E3338343720202020302E30303030204F202020302020302020302020302020302020302020302020302020302020302020302020300A20202020332E313133332020202D342E3334333520202020302E303030302043202020302020302020302020302020302020302020302020302020302020302020302020300A2020322020312020312020302020302020302020300A2020332020322020312020302020302020302020300A2020342020332020312020302020302020302020300A2020352020342020312020302020302020302020300A2020362020352020312020302020302020302020300A2020372020362020312020302020302020302020300A2020382020372020312020302020302020302020300A2020392020382020312020302020302020302020300A2031302020392020312020302020302020302020300A2031312031302020312020302020302020302020300A2031322031312020312020302020302020302020300A2031332031322020312020302020302020302020300A2031342031332020312020302020302020302020300A2031352031342020312020302020302020302020300A2031372031362020312020302020302020302020300A2031382031372020312020302020302020302020300A2031392031382020312020302020302020302020300A2032302031392020312020302020302020302020300A2032312032302020312020302020302020302020300A2032322032312020312020302020302020302020300A2032332032322020312020302020302020302020300A2032342032332020312020302020302020302020300A2032352032342020312020302020302020302020300A2031352032362020312020302020302020302020300A2032362032372020312020302020302020302020300A2032372032382020312020302020302020302020300A2032382032392020312020302020302020302020300A2032392033302020312020302020302020302020300A2033302033312020312020302020302020302020300A2033312033322020312020302020302020302020300A2033322033332020312020302020302020302020300A2033332033342020312020302020302020302020300A2033342033352020312020302020302020302020300A2033352033362020312020302020302020302020300A2033362033372020312020302020302020302020300A2033372033382020312020302020302020302020300A2033382033392020312020302020302020302020300A2020342034302020312020302020302020302020300A2020382034312020312020302020302020302020300A2031322034322020312020302020302020302020300A2032362034332020312020302020302020302020300A2032392034342020312020302020302020302020300A2033332034352020312020302020302020302020300A2033372034362020312020302020302020302020300A2033392034372020312020302020302020302020300A2034372034382020312020302020302020302020300A2034382034392020312020302020302020302020300A2034392035302020312020302020302020302020300A2034382035312020312020302020302020302020300A2035302035322020312020302020302020302020300A2032352035332020312020302020302020302020300A2035332035342020312020302020302020302020300A2035342035352020312020302020302020302020300A2035352035362020312020302020302020302020300A2035362035372020312020302020302020302020300A2035372035382020312020302020302020302020300A2035382035392020312020302020302020302020300A2035392036302020312020302020302020302020300A2036302036312020312020302020302020302020300A2036312036322020312020302020302020302020300A2036322036332020312020302020302020302020300A2036332036342020312020302020302020302020300A2036342036352020312020302020302020302020300A2036352036362020312020302020302020302020300A2036362036372020312020302020302020302020300A2036372036382020312020302020302020302020300A2036382036392020312020302020302020302020300A2036392037302020312020302020302020302020300A2037302037312020312020302020302020302020300A2037312037322020312020302020302020302020300A2037322037332020312020302020302020302020300A2037332037342020312020302020302020302020300A2037342037352020312020302020302020302020300A2037352037362020312020302020302020302020300A2031392037372020312020302020302020302020300A2032332037382020312020302020302020302020300A2035342037392020312020302020302020302020300A2035382038302020312020302020302020302020300A2036312038312020312020302020302020302020300A2036352038322020312020302020302020302020300A2036392038332020312020302020302020302020300A2037332038342020312020302020302020302020300A2033302038312020312020302020302020302020300A2038362038352020322020302020302020302020300A2035322038352020312020302020302020302020300A2038372038352020312020302020302020302020300A2038392038382020322020302020302020302020300A2037362038382020312020302020302020302020300A2039302038382020312020302020302020302020300A2039322039312020322020302020302020302020300A2031362039312020312020302020302020302020300A2039332039312020312020302020302020302020300A2039352039342020322020302020302020302020300A2020312039342020312020302020302020302020300A2039362039342020312020302020302020302020300A4D2020454E44
Contributor: Hiroyuki Morii, Department of Chemistry, University of Occupational and Environmental Health
InstType: EI
InstName: JEOL AX-505HA
IoniMethod: EI
IonPolarity: pos
Date: 2010-10-09 19:48:36+02:00
Num Peaks: 130
263.0000 189 264.0000 113 265.0000 156 266.0000 70 267.0000 114 269.0000 106 277.0000 144 278.0000 897 279.0000 348 280.0000 359 
281.0000 157 283.0000 81 291.0000 111 292.0000 171 293.0000 120 294.0000 101 295.0000 86 297.0000 78 298.0000 76 305.0000 93 
307.0000 70 319.0000 122 320.0000 111 321.0000 90 325.0000 75 333.0000 96 334.0000 165 335.0000 90 336.0000 152 337.0000 78 
339.0000 269 340.0000 91 347.0000 91 348.0000 94 353.0000 72 361.0000 88 367.0000 70 368.0000 115 375.0000 77 389.0000 88 
403.0000 76 417.0000 70 543.0000 117 544.0000 83 556.0000 93 557.0000 137 558.0000 269 559.0000 133 571.0000 69 601.0000 100 
615.0000 95 616.0000 475 617.0000 231 618.0000 136 629.0000 77 630.0000 82 663.0000 337 664.0000 190 675.0000 75 676.0000 601 
677.0000 937 678.0000 546 679.0000 152 691.0000 292 692.0000 159 693.0000 69 881.0000 70 896.0000 143 897.0000 97 954.0000 102 
955.0000 108 956.0000 112 957.0000 132 958.0000 74 997.0000 77 998.0000 88 1001.0000 181 1002.0000 140 1015.0000 227 1016.0000 168 
1029.0000 130 1030.0000 98 1057.0000 197 1058.0000 183 1059.0000 85 1071.0000 324 1072.0000 253 1073.0000 106 1099.0000 136 1100.0000 119 
1113.0000 73 1141.0000 104 1142.0000 89 1169.0000 92 1170.0000 86 1174.0000 117 1175.0000 96 1211.0000 86 1212.0000 74 1232.0000 82 
1233.0000 106 1234.0000 635 1235.0000 572 1236.0000 278 1237.0000 102 1239.0000 85 1240.0000 74 1248.0000 105 1249.0000 103 1250.0000 76 
1251.0000 75 1252.0000 70 1267.0000 80 1292.0000 145 1294.0000 999 1295.0000 984 1296.0000 798 1297.0000 272 1298.0000 77 1308.0000 277 
1309.0000 264 1310.0000 155 1311.0000 132 1312.0000 90 1354.0000 438 1355.0000 440 1356.0000 236 1357.0000 89 1368.0000 112 1369.0000 108 
