Name: MassBank: UO000024
CAS: 51794-16-2
MW: 352
Formula: C25H52
Synonym: MassBank: UO000024
Synonym: 2,6,10,14,18-Pentamethylicosane
Structure: 310A35340A20204143442F4C6162733036313930393134303532440A2032352032342020302020302020302020302020302020302020302020302020312056323030300A20202020352E373730332020202D382E3233363420202020302E303030302043202020302020302020302020302020302020302020302020302020302020302020302020300A20202020362E393135372020202D372E3536303420202020302E303030302043202020302020302020302020302020302020302020302020302020302020302020302020300A20202020382E303733382020202D382E3231343420202020302E303030302043202020302020302020302020302020302020302020302020302020302020302020302020300A20202020392E323139312020202D372E3533383420202020302E303030302043202020302020302020302020302020302020302020302020302020302020302020302020300A20202031302E333737332020202D382E3139323420202020302E303030302043202020302020302020302020302020302020302020302020302020302020302020302020300A20202031312E353232372020202D372E3531363320202020302E303030302043202020302020302020302020302020302020302020302020302020302020302020302020300A20202031322E363830382020202D382E3137303220202020302E303030302043202020302020302020302020302020302020302020302020302020302020302020302020300A20202031332E383236322020202D372E3439343220202020302E303030302043202020302020302020302020302020302020302020302020302020302020302020302020300A20202031342E393834342020202D382E3134383220202020302E303030302043202020302020302020302020302020302020302020302020302020302020302020302020300A20202031362E313239372020202D372E3437323220202020302E303030302043202020302020302020302020302020302020302020302020302020302020302020302020300A20202031372E323837392020202D382E3132363120202020302E303030302043202020302020302020302020302020302020302020302020302020302020302020302020300A20202031382E343333332020202D372E3435303120202020302E303030302043202020302020302020302020302020302020302020302020302020302020302020302020300A20202031392E353931342020202D382E3130343120202020302E303030302043202020302020302020302020302020302020302020302020302020302020302020302020300A20202032302E373336382020202D372E3432383120202020302E303030302043202020302020302020302020302020302020302020302020302020302020302020302020300A20202032312E383935302020202D382E3038323020202020302E303030302043202020302020302020302020302020302020302020302020302020302020302020302020300A20202032332E303430332020202D372E3430363120202020302E303030302043202020302020302020302020302020302020302020302020302020302020302020302020300A20202031312E353130302020202D362E3138363420202020302E303030302043202020302020302020302020302020302020302020302020302020302020302020302020300A20202031362E313137302020202D362E3134323320202020302E303030302043202020302020302020302020302020302020302020302020302020302020302020302020300A20202032302E373234312020202D362E3039383220202020302E303030302043202020302020302020302020302020302020302020302020302020302020302020302020300A20202032342E313938342020202D382E3036303120202020302E303030302043202020302020302020302020302020302020302020302020302020302020302020302020300A20202032352E333433392020202D372E3338343120202020302E303030302043202020302020302020302020302020302020302020302020302020302020302020302020300A20202032362E353031392020202D382E3033383120202020302E303030302043202020302020302020302020302020302020302020302020302020302020302020302020300A20202032372E363437342020202D372E3336323220202020302E303030302043202020302020302020302020302020302020302020302020302020302020302020302020300A20202032352E333331322020202D362E3035343220202020302E303030302043202020302020302020302020302020302020302020302020302020302020302020302020300A20202020362E393033302020202D362E3233303420202020302E303030302043202020302020302020302020302020302020302020302020302020302020302020302020300A2020322020312020312020302020302020302020300A2020322020332020312020302020302020302020300A2020332020342020312020302020302020302020300A2020342020352020312020302020302020302020300A2020352020362020312020302020302020302020300A2020362020372020312020302020302020302020300A2020372020382020312020302020302020302020300A2020382020392020312020302020302020302020300A2020392031302020312020302020302020302020300A2031302031312020312020302020302020302020300A2031312031322020312020302020302020302020300A2031322031332020312020302020302020302020300A2031332031342020312020302020302020302020300A2031342031352020312020302020302020302020300A2031352031362020312020302020302020302020300A2020362031372020312020302020302020302020300A2031302031382020312020302020302020302020300A2031342031392020312020302020302020302020300A2031362032302020312020302020302020302020300A2032302032312020312020302020302020302020300A2032312032322020312020302020302020302020300A2032322032332020312020302020302020302020300A2032312032342020312020302020302020302020300A2020322032352020312020302020302020302020300A4D2020454E44
Contributor: Hiroyuki Morii, Department of Environmental Management, and Chemistry, University of Occupational and Environmental Health
InstType: EI
InstName: JEOL AX-505HA
IoniMethod: EI
IonPolarity: pos
Date: 2010-10-09 19:48:36+02:00
Num Peaks: 102
32.0 44 35.7 22 37.7 7 38.9 13 40.2 4 41.2 175 42.0 42 43.0 483 43.6 16 52.9 6 
53.8 6 55.3 242 56.3 216 57.0 999 58.0 59 67.0 19 68.0 19 69.2 198 70.4 204 72.0 949 
73.0 66 81.2 15 82.3 12 83.3 109 84.2 104 86.0 677 86.5 52 95.0 13 96.2 79 97.4 182 
98.1 69 99.8 353 100.0 29 109.1 5 110.1 13 111.3 79 112.4 208 113.8 416 114.0 40 124.1 9 
125.3 66 126.6 225 127.0 431 128.0 48 138.2 1 139.2 17 140.1 58 141.3 241 142.0 27 153.1 5 
154.3 56 155.5 201 156.2 25 167.1 22 168.3 48 169.6 176 170.2 24 181.1 8 182.4 170 183.5 317 
184.0 50 195.0 4 196.4 162 197.0 311 198.3 50 199.0 4 210.3 14 211.4 62 212.0 10 224.1 48 
225.2 81 225.8 14 238.2 46 239.3 70 240.0 13 252.5 116 253.3 185 254.5 37 255.1 3 266.5 97 
267.0 171 268.0 34 269.0 3 280.2 15 281.1 21 282.0 4 294.1 9 295.2 20 296.3 4 308.0 9 
309.3 16 310.1 2 322.5 27 323.0 62 324.4 15 336.1 9 337.2 57 337.8 14 350.4 1 352.4 140 
353.2 39 353.8 5 
