Name: MassBank: UO000003
CAS: 38607-78-2
MW: 694
Formula: C45H90O4
Synonym: MassBank: UO000003
Synonym: 2,3-di-O-phytanyl-sn-glycerol acetate
Structure: 310A3130320A20204143442F4C6162733036313230393130333332440A2034392034382020302020302020302020302020302020302020302020302020312056323030300A20202031302E323931352020202D332E3639343520202020302E303030302043202020302020302020302020302020302020302020302020302020302020302020302020300A20202031312E363033362020202D332E3638363520202020302E30303030204F202020302020302020302020302020302020302020302020302020302020302020302020300A20202031322E373634382020202D342E3333343920202020302E303030302043202020302020302020302020302020302020302020302020302020302020302020302020300A20202031332E393037302020202D332E3635333420202020302E303030302043202020302020302020302020302020302020302020302020302020302020302020302020300A20202031352E303638322020202D342E3330313720202020302E303030302043202020302020302020302020302020302020302020302020302020302020302020302020300A20202031362E323130332020202D332E3632303320202020302E303030302043202020302020302020302020302020302020302020302020302020302020302020302020300A20202031372E333731362020202D342E3236383620202020302E303030302043202020302020302020302020302020302020302020302020302020302020302020302020300A20202031382E353133372020202D332E3538373120202020302E303030302043202020302020302020302020302020302020302020302020302020302020302020302020300A20202031392E363735302020202D342E3233353520202020302E303030302043202020302020302020302020302020302020302020302020302020302020302020302020300A20202032302E383137312020202D332E3535343020202020302E303030302043202020302020302020302020302020302020302020302020302020302020302020302020300A20202032312E393738342020202D342E3230323420202020302E303030302043202020302020302020302020302020302020302020302020302020302020302020302020300A20202032332E313230352020202D332E3532303920202020302E303030302043202020302020302020302020302020302020302020302020302020302020302020302020300A20202032342E323831382020202D342E3136393320202020302E303030302043202020302020302020302020302020302020302020302020302020302020302020302020300A20202032352E343233392020202D332E3438373820202020302E303030302043202020302020302020302020302020302020302020302020302020302020302020302020300A20202032362E353835322020202D342E3133363120202020302E303030302043202020302020302020302020302020302020302020302020302020302020302020302020300A20202032372E373237332020202D332E3435343620202020302E303030302043202020302020302020302020302020302020302020302020302020302020302020302020300A20202032382E383838362020202D342E3130333020202020302E303030302043202020302020302020302020302020302020302020302020302020302020302020302020300A20202033302E303330372020202D332E3432313520202020302E303030302043202020302020302020302020302020302020302020302020302020302020302020302020300A20202031352E303837332020202D352E3633313620202020302E303030302043202020302020302020302020302020302020302020302020302020302020302020302020300A20202031392E363934312020202D352E3536353420202020302E303030302043202020302020302020302020302020302020302020302020302020302020302020302020300A20202032342E333030392020202D352E3439393120202020302E303030302043202020302020302020302020302020302020302020302020302020302020302020302020300A20202032382E393037372020202D352E3433323920202020302E303030302043202020302020302020302020302020302020302020302020302020302020302020302020300A20202031302E3236343420202D31312E3333333120202020302E303030302043202020302020302020302020302020302020302020302020302020302020302020302020300A20202031302E323735342020202D372E3538383420202020302E303030302043202020302020302020302020302020302020302020302020302020302020302020302020300A20202031312E353837352020202D372E3632383520202020302E30303030204F202020302020302020302020302020302020302020302020302020302020302020302020300A20202031322E373438382020202D382E3232383720202020302E303030302043202020302020302020302020302020302020302020302020302020302020302020302020300A20202031332E383930392020202D372E3534373220202020302E303030302043202020302020302020302020302020302020302020302020302020302020302020302020300A20202031352E303532322020202D382E3139353620202020302E303030302043202020302020302020302020302020302020302020302020302020302020302020302020300A20202031362E313934332020202D372E3531343120202020302E303030302043202020302020302020302020302020302020302020302020302020302020302020302020300A20202031372E333535362020202D382E3136323520202020302E303030302043202020302020302020302020302020302020302020302020302020302020302020302020300A20202031382E343937372020202D372E3438313020202020302E303030302043202020302020302020302020302020302020302020302020302020302020302020302020300A20202031392E363539302020202D382E3132393420202020302E303030302043202020302020302020302020302020302020302020302020302020302020302020302020300A20202032302E383031312020202D372E3434373920202020302E303030302043202020302020302020302020302020302020302020302020302020302020302020302020300A20202032312E393632342020202D382E3039363220202020302E303030302043202020302020302020302020302020302020302020302020302020302020302020302020300A20202032332E313034352020202D372E3431343720202020302E303030302043202020302020302020302020302020302020302020302020302020302020302020302020300A20202032342E323635372020202D382E3036333120202020302E303030302043202020302020302020302020302020302020302020302020302020302020302020302020300A20202032352E343037392020202D372E3338313620202020302E303030302043202020302020302020302020302020302020302020302020302020302020302020302020300A20202032362E353639312020202D382E3033303020202020302E303030302043202020302020302020302020302020302020302020302020302020302020302020302020300A20202032372E373131332020202D372E3334383520202020302E303030302043202020302020302020302020302020302020302020302020302020302020302020302020300A20202032382E383732352020202D372E3939363920202020302E303030302043202020302020302020302020302020302020302020302020302020302020302020302020300A20202033302E303134372020202D372E3331353420202020302E303030302043202020302020302020302020302020302020302020302020302020302020302020302020300A20202031352E303731332020202D392E3532353520202020302E303030302043202020302020302020302020302020302020302020302020302020302020302020302020300A20202031392E363738312020202D392E3435393220202020302E303030302043202020302020302020302020302020302020302020302020302020302020302020302020300A20202032342E323834392020202D392E3339333020202020302E303030302043202020302020302020302020302020302020302020302020302020302020302020302020300A20202032382E383931362020202D392E3332363720202020302E303030302043202020302020302020302020302020302020302020302020302020302020302020302020300A20202031312E3534363420202D31312E3333333120202020302E30303030204F202020302020302020302020302020302020302020302020302020302020302020302020300A20202031322E3231313420202D31322E3438343920202020302E303030302043202020302020302020302020302020302020302020302020302020302020302020302020300A20202031332E3534313420202D31322E3438343920202020302E30303030204F202020302020302020302020302020302020302020302020302020302020302020302020300A20202031312E3534363420202D31332E3633363720202020302E303030302043202020302020302020302020302020302020302020302020302020302020302020302020300A2020312020322020312020302020302020302020300A2020332020322020312020302020302020302020300A2020342020332020312020302020302020302020300A2020352020342020312020302020302020302020300A2020362020352020312020302020302020302020300A2020372020362020312020302020302020302020300A2020382020372020312020302020302020302020300A2020392020382020312020302020302020302020300A2031302020392020312020302020302020302020300A2031312031302020312020302020302020302020300A2031322031312020312020302020302020302020300A2031332031322020312020302020302020302020300A2031342031332020312020302020302020302020300A2031352031342020312020302020302020302020300A2031362031352020312020302020302020302020300A2031372031362020312020302020302020302020300A2031382031372020312020302020302020302020300A2020352031392020312020302020302020302020300A2020392032302020312020302020302020302020300A2031332032312020312020302020302020302020300A2031372032322020312020302020302020302020300A2032332032342020312020302020302020302020300A2032342032352020312020302020302020302020300A2032362032352020312020302020302020302020300A2032372032362020312020302020302020302020300A2032382032372020312020302020302020302020300A2032392032382020312020302020302020302020300A2033302032392020312020302020302020302020300A2033312033302020312020302020302020302020300A2033322033312020312020302020302020302020300A2033332033322020312020302020302020302020300A2033342033332020312020302020302020302020300A2033352033342020312020302020302020302020300A2033362033352020312020302020302020302020300A2033372033362020312020302020302020302020300A2033382033372020312020302020302020302020300A2033392033382020312020302020302020302020300A2034302033392020312020302020302020302020300A2034312034302020312020302020302020302020300A2032382034322020312020302020302020302020300A2033322034332020312020302020302020302020300A2033362034342020312020302020302020302020300A2034302034352020312020302020302020302020300A2020312032342020312020302020302020302020300A2032332034362020312020302020302020302020300A2034382034372020322020302020302020302020300A2034392034372020312020302020302020302020300A2034362034372020312020302020302020302020300A4D2020454E44
Contributor: Hiroyuki Morii, Department of Chemistry, University of Occupational and Environmental Health
InstType: EI
InstName: JMS DX-300/JMS-3500 data system, Japan Electron Optics Laboratory, Japan
IoniMethod: _POTENTIAL 30 eV
IonPolarity: pos
Date: 2010-10-09 19:48:36+02:00
Num Peaks: 83
41.0 26 43.0 86 44.0 29 55.0 88 57.0 225 59.0 438 60.0 77 69.0 108 70.0 47 71.0 225 
72.0 253 85.0 180 87.0 111 97.0 121 99.0 127 100.0 105 101.0 48 103.0 35 105.0 90 110.0 26 
111.0 111 112.0 39 113.0 108 114.0 39 117.0 56 123.0 68 124.0 37 125.0 83 126.0 48 127.0 98 
128.0 35 139.0 47 140.0 21 141.0 75 153.0 39 155.0 55 167.0 20 169.0 45 183.0 38 197.0 41 
211.0 21 236.0 31 256.0 21 257.0 20 278.0 48 280.0 21 281.0 59 353.0 8 354.0 7 355.0 4 
357.0 4 367.0 2 368.0 22 369.0 11 370.0 2 378.0 2 379.0 2 380.0 2 381.0 17 382.0 13 
383.0 999 384.0 274 385.0 45 386.0 7 394.0 4 395.0 13 396.0 12 397.0 79 398.0 26 399.0 6 
409.0 2 410.0 3 412.0 3 415.0 25 416.0 9 620.0 2 634.0 27 635.0 13 636.0 5 679.0 3 
680.0 2 693.0 2 694.0 3 
