Name: MassBank: UO000001
CAS: 105662-26-8
MW: 819
Formula: C46H94NO8P
Synonym: MassBank: UO000001
Synonym: 2,3-di-O-phytanyl-sn-glycerol-1-phosphoserine
Synonym: archaetidylserine
Structure: 310A3131360A20204143442F4C6162733036313830393130343032440A2035362035352020302020302020312020302020302020302020302020302020312056323030300A20202032352E363734362020202D382E3038353120202020302E303030302043202020302020302020302020302020302020302020302020302020302020302020302020300A20202032352E363734362020202D362E3039383120202020302E303030302043202020302020302020302020302020302020302020302020302020302020302020302020300A20202032342E333437352020202D382E3038383020202020302E30303030204F202020302020302020302020302020302020302020302020302020302020302020302020300A20202032362E383236342020202D362E3039303120202020302E30303030204F202020302020302020302020302020302020302020302020302020302020302020302020300A20202032382E313533332020202D362E3039323720202020302E303030302050202020302020302020302020302020302020302020302020302020302020302020302020300A20202032382E313531382020202D372E3432323720202020302E30303030204F202020302020302020302020302020302020302020302020302020302020302020302020300A20202032392E343833332020202D362E3039343320202020302E30303030204F202020302020302020302020302020302020302020302020302020302020302020302020300A20202032382E313534382020202D342E3736323720202020302E30303030204F202020302020302020302020302020302020302020302020302020302020302020302020300A20202033302E383138332020202D362E3039343120202020302E303030302043202020302020302020302020302020302020302020302020302020302020302020302020300A20202033312E393731312020202D352E3432303120202020302E303030302043202020302020302020302020302020302020302020302020302020302020302020302020300A20202033332E313232392020202D342E3735353120202020302E303030302043202020302020302020302020302020302020302020302020302020302020302020302020300A20202033312E333036312020202D342E3236383320202020302E30303030204E202020302020302020302020302020302020302020302020302020302020302020302020300A20202033332E313232392020202D332E3432353120202020302E30303030204F202020302020302020302020302020302020302020302020302020302020302020302020300A20202033342E323734382020202D352E3432303220202020302E30303030204F202020302020302020302020302020302020302020302020302020302020302020302020300A20202032352E3637343520202D31302E3734353120202020302E303030302043202020302020302020302020302020302020302020302020302020302020302020302020300A20202032342E3334373520202D31302E3734383020202020302E30303030204F202020302020302020302020302020302020302020302020302020302020302020302020300A20202032332E303130342020202D382E3038373020202020302E303030302043202020302020302020302020302020302020302020302020302020302020302020302020300A20202032332E3031373720202D31302E3735393020202020302E303030302043202020302020302020302020302020302020302020302020302020302020302020302020300A20202032312E3836373320202D31302E3039313420202020302E303030302043202020302020302020302020302020302020302020302020302020302020302020302020300A20202032302E3731343020202D31302E3735333820202020302E303030302043202020302020302020302020302020302020302020302020302020302020302020302020300A20202031392E3536333720202D31302E3038363220202020302E303030302043202020302020302020302020302020302020302020302020302020302020302020302020300A20202031382E3431303420202D31302E3734383620202020302E303030302043202020302020302020302020302020302020302020302020302020302020302020302020300A20202031372E3236303120202D31302E3038313120202020302E303030302043202020302020302020302020302020302020302020302020302020302020302020302020300A20202031362E3130363820202D31302E3734333520202020302E303030302043202020302020302020302020302020302020302020302020302020302020302020302020300A20202031342E3935363520202D31302E3037353920202020302E303030302043202020302020302020302020302020302020302020302020302020302020302020302020300A20202031332E3830333220202D31302E3733383320202020302E303030302043202020302020302020302020302020302020302020302020302020302020302020302020300A20202031322E3635323920202D31302E3037303720202020302E303030302043202020302020302020302020302020302020302020302020302020302020302020302020300A20202031312E3439393520202D31302E3733333120202020302E303030302043202020302020302020302020302020302020302020302020302020302020302020302020300A20202031302E3334393220202D31302E3036353620202020302E303030302043202020302020302020302020302020302020302020302020302020302020302020302020300A20202020392E3139353920202D31302E3732383020202020302E303030302043202020302020302020302020302020302020302020302020302020302020302020302020300A20202020382E3034353620202D31302E3036303420202020302E303030302043202020302020302020302020302020302020302020302020302020302020302020302020300A20202020362E3839323320202D31302E3732323820202020302E303030302043202020302020302020302020302020302020302020302020302020302020302020302020300A20202020352E3734323020202D31302E3035353220202020302E303030302043202020302020302020302020302020302020302020302020302020302020302020302020300A20202032312E383635312020202D372E3431303820202020302E303030302043202020302020302020302020302020302020302020302020302020302020302020302020300A20202032302E373036392020202D382E3036343620202020302E303030302043202020302020302020302020302020302020302020302020302020302020302020302020300A20202031392E353631362020202D372E3338383520202020302E303030302043202020302020302020302020302020302020302020302020302020302020302020302020300A20202031382E343033342020202D382E3034323320202020302E303030302043202020302020302020302020302020302020302020302020302020302020302020302020300A20202031372E323538312020202D372E3336363120202020302E303030302043202020302020302020302020302020302020302020302020302020302020302020302020300A20202031362E303939392020202D382E3031393920202020302E303030302043202020302020302020302020302020302020302020302020302020302020302020302020300A20202031342E393534362020202D372E3334333820202020302E303030302043202020302020302020302020302020302020302020302020302020302020302020302020300A20202031332E373936342020202D372E3939373620202020302E303030302043202020302020302020302020302020302020302020302020302020302020302020302020300A20202031322E363531312020202D372E3332313420202020302E303030302043202020302020302020302020302020302020302020302020302020302020302020302020300A20202031312E343932382020202D372E3937353220202020302E303030302043202020302020302020302020302020302020302020302020302020302020302020302020300A20202031302E333437352020202D372E3239393120202020302E303030302043202020302020302020302020302020302020302020302020302020302020302020302020300A20202020392E313839332020202D372E3935323820202020302E303030302043202020302020302020302020302020302020302020302020302020302020302020302020300A20202020382E303434302020202D372E3237363720202020302E303030302043202020302020302020302020302020302020302020302020302020302020302020302020300A20202020362E383835382020202D372E3933303520202020302E303030302043202020302020302020302020302020302020302020302020302020302020302020302020300A20202020352E373430352020202D372E3235343320202020302E303030302043202020302020302020302020302020302020302020302020302020302020302020302020300A20202032302E363934302020202D392E3339343620202020302E303030302043202020302020302020302020302020302020302020302020302020302020302020302020300A20202031362E303837302020202D392E3334393920202020302E303030302043202020302020302020302020302020302020302020302020302020302020302020302020300A20202031312E343739392020202D392E3330353120202020302E303030302043202020302020302020302020302020302020302020302020302020302020302020302020300A20202020362E383732392020202D392E3236303420202020302E303030302043202020302020302020302020302020302020302020302020302020302020302020302020300A20202032302E3731313020202D31322E3038333820202020302E303030302043202020302020302020302020302020302020302020302020302020302020302020302020300A20202031362E3130333820202D31322E3037333520202020302E303030302043202020302020302020302020302020302020302020302020302020302020302020302020300A20202031312E3439363620202D31322E3036333120202020302E303030302043202020302020302020302020302020302020302020302020302020302020302020302020300A20202020362E3838393320202D31322E3035323820202020302E303030302043202020302020302020302020302020302020302020302020302020302020302020302020300A2020312020322020312020312020302020302020300A2020312020332020312020302020302020302020300A2020322020342020312020302020302020302020300A2020362020352020312020302020302020302020300A2020372020352020312020302020302020302020300A2020342020352020312020302020302020302020300A2020352020382020322020302020302020302020300A2020372020392020312020302020302020302020300A2031312031302020312020302020302020302020300A2020392031302020312020302020302020302020300A2031302031322020312020312020302020302020300A2031332031312020322020302020302020302020300A2031342031312020312020302020302020302020300A2031352031362020312020302020302020302020300A2031352020312020312020302020302020302020300A2020332031372020312020302020302020302020300A2031362031382020312020302020302020302020300A2031392031382020312020302020302020302020300A2032302031392020312020302020302020302020300A2032312032302020312020302020302020302020300A2032322032312020312020302020302020302020300A2032332032322020312020302020302020302020300A2032342032332020312020302020302020302020300A2032352032342020312020302020302020302020300A2032362032352020312020302020302020302020300A2032372032362020312020302020302020302020300A2032382032372020312020302020302020302020300A2032392032382020312020302020302020302020300A2033302032392020312020302020302020302020300A2033312033302020312020302020302020302020300A2033322033312020312020302020302020302020300A2033332033322020312020302020302020302020300A2033342031372020312020302020302020302020300A2033352033342020312020302020302020302020300A2033362033352020312020302020302020302020300A2033372033362020312020302020302020302020300A2033382033372020312020302020302020302020300A2033392033382020312020302020302020302020300A2034302033392020312020302020302020302020300A2034312034302020312020302020302020302020300A2034322034312020312020302020302020302020300A2034332034322020312020302020302020302020300A2034342034332020312020302020302020302020300A2034352034342020312020302020302020302020300A2034362034352020312020302020302020302020300A2034372034362020312020302020302020302020300A2034382034372020312020302020302020302020300A2033352034392020312020362020302020302020300A2033392035302020312020362020302020302020300A2034332035312020312020362020302020302020300A2034372035322020312020302020302020302020300A2032302035332020312020362020302020302020300A2032342035342020312020362020302020302020300A2032382035352020312020362020302020302020300A2033322035362020312020302020302020302020300A4D2020454E44
Contributor: Hiroyuki Morii, Department of Chemistry, University of Occupational and Environmental Health
InstType: EI
InstName: JMS DX-300/JMS-3500 data system, Japan Electron Optics Laboratory, Japan
IoniMethod: _POTENTIAL 30 eV
IonPolarity: pos
Date: 2010-10-09 19:48:36+02:00
Num Peaks: 54
28.0 49 32.0 42 41.0 91 42.0 52 43.0 201 44.0 136 55.0 222 56.0 270 57.0 674 58.0 58 
68.0 68 69.0 479 70.0 462 71.0 657 72.0 42 74.0 441 81.0 104 82.0 73 83.0 413 84.0 211 
85.0 468 95.0 75 96.0 137 97.0 374 98.0 117 99.0 208 110.0 47 111.0 355 112.0 146 113.0 200 
123.0 118 124.0 108 125.0 413 126.0 372 127.0 183 139.0 59 140.0 233 141.0 108 154.0 42 155.0 68 
182.0 52 183.0 57 196.0 105 197.0 45 210.0 41 252.0 41 278.0 47 280.0 97 323.0 62 354.0 130 
355.0 41 634.0 999 635.0 479 636.0 121 
